<?xml version="1.0"?>
<VTKFile type="UnstructuredGrid" version="0.1" byte_order="LittleEndian">
<UnstructuredGrid>
<Piece NumberOfPoints="31898" NumberOfCells="11152">
<Points>
<DataArray type="Float64" NumberOfComponents="3" format="ascii">
-0.5 -0.5 0 -0.47620991077874902 -0.44978878706170539 0 -0.49999999999999473 -0.42132396840504388 0 -0.5 -0.5 0 -0.47160970827802529 -0.4793630013852106 0 -0.47620991077874902 -0.44978878706170539 0 -0.5 -0.5 0 -0.47160970827802529 -0.4793630013852106 0 -0.44860394795025399 -0.5 0 -0.47160970827802529 -0.4793630013852106 0 -0.44860394795025399 -0.5 0 -0.4490820238307246 -0.45820516232899983 0 -0.44860394795025399 -0.5 0 -0.4490820238307246 -0.45820516232899983 0 -0.42881687682924802 -0.47781464288736519 0 -0.4490820238307246 -0.45820516232899983 0 -0.45555437223955858 -0.42914059360647611 0 -0.4490820238307246 -0.45820516232899983 0 -0.45555437223955858 -0.42914059360647611 0 -0.43867285131603428 -0.4271457417558665 0 -0.4490820238307246 -0.45820516232899983 0 -0.43867285131603428 -0.4271457417558665 0 -0.4263356171060747 -0.44269880333887462 0 -0.47160970827802529 -0.4793630013852106 0 -0.4490820238307246 -0.45820516232899983 0 -0.47620991077874902 -0.44978878706170539 0 -0.4490820238307246 -0.45820516232899983 0 -0.47620991077874902 -0.44978878706170539 0 -0.45555437223955858 -0.42914059360647611 0 -0.47620991077874902 -0.44978878706170539 0 -0.48101336032419229 -0.41069999664450008 0 -0.45555437223955858 -0.42914059360647611 0 -0.47620991077874902 -0.44978878706170539 0 -0.49999999999999473 -0.42132396840504388 0 -0.48101336032419229 -0.41069999664450008 0 -0.49999999999999473 -0.42132396840504388 0 -0.48101336032419229 -0.41069999664450008 0 -0.5 -0.393886241813306 0 -0.49999999999999473 -0.42132396840504388 0 -0.48101336032419229 -0.41069999664450008 0 -0.5 -0.393886241813306 0 -0.47854472220918332 -0.38978458738689759 0 -0.48422759779560409 -0.37130120630367158 0 -0.5 -0.393886241813306 0 -0.5 -0.36644851522156802 0 -0.48422759779560409 -0.37130120630367158 0 -0.48101336032419229 -0.41069999664450008 0 -0.5 -0.393886241813306 0 -0.47854472220918332 -0.38978458738689759 0 -0.48101336032419229 -0.41069999664450008 0 -0.47854472220918332 -0.38978458738689759 0 -0.46202672064839212 -0.40007602488395211 0 -0.48101336032419229 -0.41069999664450008 0 -0.46202672064839212 -0.40007602488395211 0 -0.47854472220918332 -0.38978458738689759 0 -0.46725442735267431 -0.37660061361585562 0 -0.46202672064839212 -0.40007602488395211 0 -0.47854472220918332 -0.38978458738689759 0 -0.46725442735267431 -0.37660061361585562 0 -0.48422759779560409 -0.37130120630367158 0 -0.46725442735267431 -0.37660061361585562 0 -0.46202672064839212 -0.40007602488395211 0 -0.46725442735267431 -0.37660061361585562 0 -0.45645674801697989 -0.38644133236760531 0 -0.46202672064839212 -0.40007602488395211 0 -0.46725442735267431 -0.37660061361585562 0 -0.45645674801697989 -0.38644133236760531 0 -0.4540003998136638 -0.37455519391687309 0 -0.45645674801697989 -0.38644133236760531 0 -0.46202672064839212 -0.40007602488395211 0 -0.44257020456291563 -0.38918913383950271 0 -0.46202672064839212 -0.40007602488395211 0 -0.44257020456291563 -0.38918913383950271 0 -0.44727608925983742 -0.41095911152778891 0 -0.46202672064839212 -0.40007602488395211 0 -0.44257020456291563 -0.38918913383950271 0 -0.44257020456291563 -0.38918913383950271 0 -0.44727608925983742 -0.41095911152778891 0 -0.43479358559901082 -0.4041454901736512 0 -0.44257020456291563 -0.38918913383950271 0 -0.4540003998136638 -0.37455519391687309 0 -0.44172858264042247 -0.37082207246888088 0 -0.45645674801697989 -0.38644133236760531 0 -0.44257020456291563 -0.38918913383950271 0 -0.4540003998136638 -0.37455519391687309 0 -0.46202672064839212 -0.40007602488395211 0 -0.45555437223955858 -0.42914059360647611 0 -0.44727608925983742 -0.41095911152778891 0 -0.46202672064839212 -0.40007602488395211 0 -0.45555437223955858 -0.42914059360647611 0 -0.48101336032419229 -0.41069999664450008 0 -0.46202672064839212 -0.40007602488395211 0 -0.45555437223955858 -0.42914059360647611 0 -0.44727608925983742 -0.41095911152778891 0 -0.43867285131603428 -0.4271457417558665 0 -0.43676601469929588 -0.41441201227470881 0 -0.44727608925983742 -0.41095911152778891 0 -0.43676601469929588 -0.41441201227470881 0 -0.43479358559901082 -0.4041454901736512 0 -0.45555437223955858 -0.42914059360647611 0 -0.44727608925983742 -0.41095911152778891 0 -0.43867285131603428 -0.4271457417558665 0 -0.43867285131603428 -0.4271457417558665 0 -0.42681803064840879 -0.42717069814352421 0 -0.4263356171060747 -0.44269880333887462 0 -0.42681803064840879 -0.42717069814352421 0 -0.41531815884496182 -0.42985383783075998 0 -0.4263356171060747 -0.44269880333887462 0 -0.42681803064840879 -0.42717069814352421 0 -0.42624289495594048 -0.42089725947505818 0 -0.42083332353326591 -0.42146747131641099 0 -0.42681803064840879 -0.42717069814352421 0 -0.43096994786351572 -0.41951492446283251 0 -0.42624289495594048 -0.42089725947505818 0 -0.43867285131603428 -0.4271457417558665 0 -0.42681803064840879 -0.42717069814352421 0 -0.43096994786351572 -0.41951492446283251 0 -0.43867285131603428 -0.4271457417558665 0 -0.43676601469929588 -0.41441201227470881 0 -0.43096994786351572 -0.41951492446283251 0 -0.43676601469929588 -0.41441201227470881 0 -0.43096994786351572 -0.41951492446283251 0 -0.42907264086257813 -0.41311715872526122 0 -0.43676601469929588 -0.41441201227470881 0 -0.42907264086257813 -0.41311715872526122 0 -0.43479358559901082 -0.4041454901736512 0 -0.42907264086257813 -0.41311715872526122 0 -0.43479358559901082 -0.4041454901736512 0 -0.42460885511582858 -0.40417321677700252 0 -0.42907264086257813 -0.41311715872526122 0 -0.41997834854398469 -0.41180534796019508 0 -0.42907264086257813 -0.41311715872526122 0 -0.42635027777857132 -0.41543594397746519 0 -0.41997834854398469 -0.41180534796019508 0 -0.42907264086257813 -0.41311715872526122 0 -0.41997834854398469 -0.41180534796019508 0 -0.42460885511582858 -0.40417321677700252 0 -0.42635027777857132 -0.41543594397746519 0 -0.41997834854398469 -0.41180534796019508 0 -0.42635027777857132 -0.41543594397746519 0 -0.42083332353326591 -0.42146747131641099 0 -0.41997834854398469 -0.41180534796019508 0 -0.43096994786351572 -0.41951492446283251 0 -0.42624289495594048 -0.42089725947505818 0 -0.42635027777857132 -0.41543594397746519 0 -0.43096994786351572 -0.41951492446283251 0 -0.42907264086257813 -0.41311715872526122 0 -0.42635027777857132 -0.41543594397746519 0 -0.42624289495594048 -0.42089725947505818 0 -0.42635027777857132 -0.41543594397746519 0 -0.42083332353326591 -0.42146747131641099 0 -0.42083332353326591 -0.42146747131641099 0 -0.41997834854398469 -0.41180534796019508 0 -0.40992282953163789 -0.42011435591993562 0 -0.41997834854398469 -0.41180534796019508 0 -0.39756877647335259 -0.40857286797681719 0 -0.41997834854398469 -0.41180534796019508 0 -0.40992282953163789 -0.42011435591993562 0 -0.39756877647335259 -0.40857286797681719 0 -0.40992282953163789 -0.42011435591993562 0 -0.41531815884496182 -0.42985383783075998 0 -0.39591554026262499 -0.42887225451549271 0 -0.41531815884496182 -0.42985383783075998 0 -0.39591554026262499 -0.42887225451549271 0 -0.41160927495564159 -0.44339431233754628 0 -0.42083332353326591 -0.42146747131641099 0 -0.40992282953163789 -0.42011435591993562 0 -0.41531815884496182 -0.42985383783075998 0 -0.42681803064840879 -0.42717069814352421 0 -0.42083332353326591 -0.42146747131641099 0 -0.41531815884496182 -0.42985383783075998 0 -0.44257020456291563 -0.38918913383950271 0 -0.42311368847744002 -0.37830224279505142 0 -0.42594061475171041 -0.39368797999533162 0 -0.44257020456291563 -0.38918913383950271 0 -0.42311368847744002 -0.37830224279505142 0 -0.44172858264042247 -0.37082207246888088 0 -0.44257020456291563 -0.38918913383950271 0 -0.42311368847744002 -0.37830224279505142 0 -0.42311368847744002 -0.37830224279505142 0 -0.42594061475171041 -0.39368797999533162 0 -0.416587075656149 -0.38785930376960043 0 -0.44257020456291563 -0.38918913383950271 0 -0.42594061475171041 -0.39368797999533162 0 -0.43479358559901082 -0.4041454901736512 0 -0.42594061475171041 -0.39368797999533162 0 -0.43479358559901082 -0.4041454901736512 0 -0.42460885511582858 -0.40417321677700252 0 -0.41997834854398469 -0.41180534796019508 0 -0.41325908582185972 -0.39811010703057192 0 -0.39770572831670092 -0.39911486077581648 0 -0.41997834854398469 -0.41180534796019508 0 -0.39770572831670092 -0.39911486077581648 0 -0.42594061475171041 -0.39368797999533162 0 -0.42460885511582858 -0.40417321677700252 0 -0.41325908582185972 -0.39811010703057192 0 -0.41997834854398469 -0.41180534796019508 0 -0.42460885511582858 -0.40417321677700252 0 -0.41325908582185972 -0.39811010703057192 0 -0.42594061475171041 -0.39368797999533162 0 -0.41325908582185972 -0.39811010703057192 0 -0.416587075656149 -0.38785930376960043 0 -0.41325908582185972 -0.39811010703057192 0 -0.416587075656149 -0.38785930376960043 0 -0.40403491357358612 -0.38133688525744702 0 -0.42311368847744002 -0.37830224279505142 0 -0.40403491357358612 -0.38133688525744702 0 -0.40365717239196519 -0.36741535175059892 0 -0.42311368847744002 -0.37830224279505142 0 -0.416587075656149 -0.38785930376960043 0 -0.40403491357358612 -0.38133688525744702 0 -0.40403491357358612 -0.38133688525744702 0 -0.39190790742475001 -0.38540387676521748 0 -0.39770572831670092 -0.39911486077581648 0 -0.40403491357358612 -0.38133688525744702 0 -0.39190790742475001 -0.38540387676521748 0 -0.3904578797192948 -0.37473938743617019 0 -0.41325908582185972 -0.39811010703057192 0 -0.40403491357358612 -0.38133688525744702 0 -0.39770572831670092 -0.39911486077581648 0 -0.39770572831670092 -0.39911486077581648 0 -0.37543310808941849 -0.38642437359143528 0 -0.39770572831670092 -0.39911486077581648 0 -0.37515920440272033 -0.40534038799344108 0 -0.37543310808941849 -0.38642437359143528 0 -0.39770572831670092 -0.39911486077581648 0 -0.37515920440272033 -0.40534038799344108 0 -0.39756877647335259 -0.40857286797681719 0 -0.37515920440272033 -0.40534038799344108 0 -0.37543310808941849 -0.38642437359143528 0 -0.37543310808941849 -0.38642437359143528 0 -0.3904578797192948 -0.37473938743617019 0 -0.37568304780698558 -0.36916333065311507 0 -0.39190790742475001 -0.38540387676521748 0 -0.37543310808941849 -0.38642437359143528 0 -0.3904578797192948 -0.37473938743617019 0 -0.37543310808941849 -0.38642437359143528 0 -0.37568304780698558 -0.36916333065311507 0 -0.39190790742475001 -0.38540387676521748 0 -0.39770572831670092 -0.39911486077581648 0 -0.37543310808941849 -0.38642437359143528 0 -0.41997834854398469 -0.41180534796019508 0 -0.39770572831670092 -0.39911486077581648 0 -0.39756877647335259 -0.40857286797681719 0 -0.40992282953163789 -0.42011435591993562 0 -0.39591554026262499 -0.42887225451549271 0 -0.39756877647335259 -0.40857286797681719 0 -0.37515920440272033 -0.40534038799344108 0 -0.39591554026262499 -0.42887225451549271 0 -0.39756877647335259 -0.40857286797681719 0 -0.37515920440272033 -0.40534038799344108 0 -0.39756877647335259 -0.40857286797681719 0 -0.37515920440272033 -0.40534038799344108 0 -0.39591554026262499 -0.42887225451549271 0 -0.37472313619600889 -0.43545561783144832 0 -0.39591554026262499 -0.42887225451549271 0 -0.39301703415267508 -0.44654444244683272 0 -0.37472313619600889 -0.43545561783144832 0 -0.39301703415267508 -0.44654444244683272 0 -0.37428706798929601 -0.46557084766945539 0 -0.37472313619600889 -0.43545561783144832 0 -0.39591554026262499 -0.42887225451549271 0 -0.39301703415267508 -0.44654444244683272 0 -0.41160927495564159 -0.44339431233754628 0 -0.39301703415267508 -0.44654444244683272 0 -0.40396056051613372 -0.45751466911048011 0 -0.41160927495564159 -0.44339431233754628 0 -0.40396056051613372 -0.45751466911048011 0 -0.39245383412573559 -0.47875733455523922 0 -0.41207507163844148 -0.46917161410542801 0 -0.40396056051613372 -0.45751466911048011 0 -0.38912381425271458 -0.46154275838996711 0 -0.39245383412573559 -0.47875733455523922 0 -0.40396056051613372 -0.45751466911048011 0 -0.39245383412573559 -0.47875733455523922 0 -0.40396056051613372 -0.45751466911048011 0 -0.40649676728151513 -0.45682610390212369 0 -0.40396056051613372 -0.45751466911048011 0 -0.38912381425271458 -0.46154275838996711 0 -0.39301703415267508 -0.44654444244683272 0 -0.40396056051613372 -0.45751466911048011 0 -0.38912381425271458 -0.46154275838996711 0 -0.39301703415267508 -0.44654444244683272 0 -0.38912381425271458 -0.46154275838996711 0 -0.37428706798929601 -0.46557084766945539 0 -0.38912381425271458 -0.46154275838996711 0 -0.37428706798929601 -0.46557084766945539 0 -0.38912381425271458 -0.46154275838996711 0 -0.38378714202547332 -0.47159002408209011 0 -0.37428706798929601 -0.46557084766945539 0 -0.38378714202547332 -0.47159002408209011 0 -0.39245383412573559 -0.47875733455523922 0 -0.37411677223754131 -0.47733161267270968 0 -0.39245383412573559 -0.47875733455523922 0 -0.37240076261097882 -0.48974555046165519 0 -0.37411677223754131 -0.47733161267270968 0 -0.38378714202547332 -0.47159002408209011 0 -0.37411677223754131 -0.47733161267270968 0 -0.37428706798929601 -0.46557084766945539 0 -0.38912381425271458 -0.46154275838996711 0 -0.38378714202547332 -0.47159002408209011 0 -0.39245383412573559 -0.47875733455523922 0 -0.38094710773533791 -0.49999999999999839 0 -0.39245383412573559 -0.47875733455523922 0 -0.38094710773533791 -0.49999999999999839 0 -0.39245383412573559 -0.47875733455523922 0 -0.37240076261097882 -0.48974555046165519 0 -0.38094710773533791 -0.49999999999999839 0 -0.39245383412573559 -0.47875733455523922 0 -0.40997732063196057 -0.5 0 -0.39245383412573559 -0.47875733455523922 0 -0.41207507163844148 -0.46917161410542801 0 -0.40997732063196057 -0.5 0 -0.41207507163844148 -0.46917161410542801 0 -0.40997732063196057 -0.5 0 -0.42881687682924802 -0.47781464288736519 0 -0.44860394795025399 -0.5 0 -0.40997732063196057 -0.5 0 -0.42881687682924802 -0.47781464288736519 0 -0.41207507163844148 -0.46917161410542801 0 -0.42881687682924802 -0.47781464288736519 0 -0.42627766738448791 -0.46032764904509182 0 -0.4490820238307246 -0.45820516232899983 0 -0.42881687682924802 -0.47781464288736519 0 -0.42627766738448791 -0.46032764904509182 0 -0.4490820238307246 -0.45820516232899983 0 -0.42627766738448791 -0.46032764904509182 0 -0.4263356171060747 -0.44269880333887462 0 -0.42627766738448791 -0.46032764904509182 0 -0.4263356171060747 -0.44269880333887462 0 -0.41655419253802572 -0.45404861160063659 0 -0.4263356171060747 -0.44269880333887462 0 -0.41160927495564159 -0.44339431233754628 0 -0.41655419253802572 -0.45404861160063659 0 -0.41531815884496182 -0.42985383783075998 0 -0.4263356171060747 -0.44269880333887462 0 -0.41160927495564159 -0.44339431233754628 0 -0.40396056051613372 -0.45751466911048011 0 -0.41160927495564159 -0.44339431233754628 0 -0.40649676728151513 -0.45682610390212369 0 -0.41160927495564159 -0.44339431233754628 0 -0.40649676728151513 -0.45682610390212369 0 -0.41655419253802572 -0.45404861160063659 0 -0.40396056051613372 -0.45751466911048011 0 -0.41160927495564159 -0.44339431233754628 0 -0.41207507163844148 -0.46917161410542801 0 -0.40649676728151513 -0.45682610390212369 0 -0.41655419253802572 -0.45404861160063659 0 -0.40396056051613372 -0.45751466911048011 0 -0.41207507163844148 -0.46917161410542801 0 -0.40649676728151513 -0.45682610390212369 0 -0.41207507163844148 -0.46917161410542801 0 -0.42627766738448791 -0.46032764904509182 0 -0.41655419253802572 -0.45404861160063659 0 -0.45662330498375908 -0.25656877445722759 0 -0.43445882011373449 -0.25478651907497341 0 -0.45662330498375908 -0.25656877445722759 0 -0.43445882011373449 -0.25478651907497341 0 -0.45034617445999431 -0.24335722649563979 0 -0.44999384684511368 -0.2755750489792308 0 -0.45662330498375908 -0.25656877445722759 0 -0.43445882011373449 -0.25478651907497341 0 -0.44999384684511368 -0.2755750489792308 0 -0.43077531442077321 -0.27459050524281542 0 -0.43445882011373449 -0.25478651907497341 0 -0.44999384684511368 -0.2755750489792308 0 -0.441361257405879 -0.29303276451920029 0 -0.43077531442077321 -0.27459050524281542 0 -0.44999384684511368 -0.2755750489792308 0 -0.4670541169931961 -0.26846056693166809 0 -0.46910519348062618 -0.28320526693770848 0 -0.44999384684511368 -0.2755750489792308 0 -0.4670541169931961 -0.26846056693166809 0 -0.45662330498375908 -0.25656877445722759 0 -0.45662330498375908 -0.25656877445722759 0 -0.47878778985378329 -0.25835102983948688 0 -0.4670541169931961 -0.26846056693166809 0 -0.45662330498375908 -0.25656877445722759 0 -0.47878778985378329 -0.25835102983948688 0 -0.45662330498375908 -0.25656877445722759 0 -0.47878778985378329 -0.25835102983948688 0 -0.47142395938804471 -0.23802335247430181 0 -0.47878778985378329 -0.25835102983948688 0 -0.5 -0.25669760885461612 0 -0.48361763707807442 -0.27426406281091331 0 -0.47878778985378329 -0.25835102983948688 0 -0.5 -0.25669760885461612 0 -0.4875835208682564 -0.24248539692068891 0 -0.5 -0.25669760885461612 0 -0.48361763707807442 -0.27426406281091331 0 -0.5 -0.28413533544635422 0 -0.4670541169931961 -0.26846056693166809 0 -0.47878778985378329 -0.25835102983948688 0 -0.48361763707807442 -0.27426406281091331 0 -0.4670541169931961 -0.26846056693166809 0 -0.48361763707807442 -0.27426406281091331 0 -0.46910519348062618 -0.28320526693770848 0 -0.46910519348062618 -0.28320526693770848 0 -0.48580896399913942 -0.29193665231809679 0 -0.47164434439118558 -0.29859902487093259 0 -0.48361763707807442 -0.27426406281091331 0 -0.46910519348062618 -0.28320526693770848 0 -0.48580896399913942 -0.29193665231809679 0 -0.5 -0.28413533544635422 0 -0.48580896399913942 -0.29193665231809679 0 -0.5 -0.3115730620380921 0 -0.48361763707807442 -0.27426406281091331 0 -0.5 -0.28413533544635422 0 -0.48580896399913942 -0.29193665231809679 0 -0.48580896399913942 -0.29193665231809679 0 -0.5 -0.3115730620380921 0 -0.48293754746551898 -0.30617437981156609 0 -0.48293754746551898 -0.30617437981156609 0 -0.47164434439118558 -0.29859902487093259 0 -0.47203566342767839 -0.31514771464943409 0 -0.48580896399913942 -0.29193665231809679 0 -0.48293754746551898 -0.30617437981156609 0 -0.47164434439118558 -0.29859902487093259 0 -0.47164434439118558 -0.29859902487093259 0 -0.46096111539772322 -0.3069557537098867 0 -0.47203566342767839 -0.31514771464943409 0 -0.46096111539772322 -0.3069557537098867 0 -0.44739706002137658 -0.30395698434733032 0 -0.45229582611609759 -0.31444164243390338 0 -0.46096111539772322 -0.3069557537098867 0 -0.45682111422556548 -0.29317658806621089 0 -0.44739706002137658 -0.30395698434733032 0 -0.47164434439118558 -0.29859902487093259 0 -0.46096111539772322 -0.3069557537098867 0 -0.45682111422556548 -0.29317658806621089 0 -0.44999384684511368 -0.2755750489792308 0 -0.46910519348062618 -0.28320526693770848 0 -0.45682111422556548 -0.29317658806621089 0 -0.46910519348062618 -0.28320526693770848 0 -0.47164434439118558 -0.29859902487093259 0 -0.45682111422556548 -0.29317658806621089 0 -0.44999384684511368 -0.2755750489792308 0 -0.45682111422556548 -0.29317658806621089 0 -0.441361257405879 -0.29303276451920029 0 -0.45682111422556548 -0.29317658806621089 0 -0.441361257405879 -0.29303276451920029 0 -0.44739706002137658 -0.30395698434733032 0 -0.441361257405879 -0.29303276451920029 0 -0.44739706002137658 -0.30395698434733032 0 -0.43527018611072049 -0.30465000121327751 0 -0.44739706002137658 -0.30395698434733032 0 -0.44024276041750632 -0.31887045497680111 0 -0.43527018611072049 -0.30465000121327751 0 -0.44739706002137658 -0.30395698434733032 0 -0.45229582611609759 -0.31444164243390338 0 -0.44024276041750632 -0.31887045497680111 0 -0.44024276041750632 -0.31887045497680111 0 -0.45653421084860168 -0.32646185290925811 0 -0.44024276041750632 -0.31887045497680111 0 -0.43930980958642257 -0.33554338078202212 0 -0.45653421084860168 -0.32646185290925811 0 -0.45229582611609759 -0.31444164243390338 0 -0.44024276041750632 -0.31887045497680111 0 -0.45653421084860168 -0.32646185290925811 0 -0.43930980958642257 -0.33554338078202212 0 -0.44966367396753332 -0.33841986907325933 0 -0.46855294336124231 -0.32873531729210143 0 -0.43930980958642257 -0.33554338078202212 0 -0.4507851133594416 -0.34910720111649318 0 -0.43930980958642257 -0.33554338078202212 0 -0.44966367396753332 -0.33841986907325933 0 -0.4507851133594416 -0.34910720111649318 0 -0.44966367396753332 -0.33841986907325933 0 -0.46855294336124231 -0.32873531729210143 0 -0.46386644800117471 -0.33586508895417932 0 -0.43930980958642257 -0.33554338078202212 0 -0.46855294336124231 -0.32873531729210143 0 -0.43930980958642257 -0.33554338078202212 0 -0.46855294336124231 -0.32873531729210143 0 -0.45653421084860168 -0.32646185290925811 0 -0.44966367396753332 -0.33841986907325933 0 -0.4586808436472537 -0.3401528003513713 0 -0.45711636988675219 -0.34547487934353349 0 -0.44966367396753332 -0.33841986907325933 0 -0.4586808436472537 -0.3401528003513713 0 -0.46386644800117471 -0.33586508895417932 0 -0.4586808436472537 -0.3401528003513713 0 -0.46472493826860672 -0.34236766697450172 0 -0.45711636988675219 -0.34547487934353349 0 -0.4586808436472537 -0.3401528003513713 0 -0.46472493826860672 -0.34236766697450172 0 -0.46386644800117471 -0.33586508895417932 0 -0.46855294336124231 -0.32873531729210143 0 -0.46207595183026873 -0.31834845619891672 0 -0.47203566342767839 -0.31514771464943409 0 -0.46855294336124231 -0.32873531729210143 0 -0.45653421084860168 -0.32646185290925811 0 -0.46207595183026873 -0.31834845619891672 0 -0.46096111539772322 -0.3069557537098867 0 -0.45229582611609759 -0.31444164243390338 0 -0.46207595183026873 -0.31834845619891672 0 -0.45229582611609759 -0.31444164243390338 0 -0.45653421084860168 -0.32646185290925811 0 -0.46207595183026873 -0.31834845619891672 0 -0.46096111539772322 -0.3069557537098867 0 -0.46207595183026873 -0.31834845619891672 0 -0.47203566342767839 -0.31514771464943409 0 -0.48293754746551898 -0.30617437981156609 0 -0.47203566342767839 -0.31514771464943409 0 -0.47770984076123751 -0.32964979107966252 0 -0.48293754746551898 -0.30617437981156609 0 -0.47770984076123751 -0.32964979107966252 0 -0.48293754746551898 -0.30617437981156609 0 -0.48763303240419292 -0.31981883507337211 0 -0.47770984076123751 -0.32964979107966252 0 -0.46855294336124231 -0.32873531729210143 0 -0.47203566342767839 -0.31514771464943409 0 -0.47770984076123751 -0.32964979107966252 0 -0.5 -0.3115730620380921 0 -0.5 -0.33901078862982997 0 -0.49048543526404831 -0.32960291085151988 0 -0.5 -0.3115730620380921 0 -0.48763303240419292 -0.31981883507337211 0 -0.49048543526404831 -0.32960291085151988 0 -0.5 -0.3115730620380921 0 -0.48293754746551898 -0.30617437981156609 0 -0.48763303240419292 -0.31981883507337211 0 -0.48763303240419292 -0.31981883507337211 0 -0.49048543526404831 -0.32960291085151988 0 -0.47770984076123751 -0.32964979107966252 0 -0.49048543526404831 -0.32960291085151988 0 -0.47770984076123751 -0.32964979107966252 0 -0.48708430315481122 -0.3479620774366432 0 -0.5 -0.33901078862982997 0 -0.49048543526404831 -0.32960291085151988 0 -0.48708430315481122 -0.3479620774366432 0 -0.47770984076123751 -0.32964979107966252 0 -0.47248213405695583 -0.35312520234775913 0 -0.47770984076123751 -0.32964979107966252 0 -0.47248213405695583 -0.35312520234775913 0 -0.48708430315481122 -0.3479620774366432 0 -0.46472493826860672 -0.34236766697450172 0 -0.47770984076123751 -0.32964979107966252 0 -0.47248213405695583 -0.35312520234775913 0 -0.46855294336124231 -0.32873531729210143 0 -0.46386644800117471 -0.33586508895417932 0 -0.47770984076123751 -0.32964979107966252 0 -0.46472493826860672 -0.34236766697450172 0 -0.46386644800117471 -0.33586508895417932 0 -0.47770984076123751 -0.32964979107966252 0 -0.47248213405695583 -0.35312520234775913 0 -0.48708430315481122 -0.3479620774366432 0 -0.48422759779560409 -0.37130120630367158 0 -0.5 -0.33901078862982997 0 -0.48708430315481122 -0.3479620774366432 0 -0.5 -0.36644851522156802 0 -0.48708430315481122 -0.3479620774366432 0 -0.5 -0.36644851522156802 0 -0.48422759779560409 -0.37130120630367158 0 -0.46725442735267431 -0.37660061361585562 0 -0.47248213405695583 -0.35312520234775913 0 -0.48422759779560409 -0.37130120630367158 0 -0.46725442735267431 -0.37660061361585562 0 -0.47248213405695583 -0.35312520234775913 0 -0.46725442735267431 -0.37660061361585562 0 -0.4540003998136638 -0.37455519391687309 0 -0.46226041713245919 -0.36267102145096558 0 -0.46725442735267431 -0.37660061361585562 0 -0.47248213405695583 -0.35312520234775913 0 -0.46226041713245919 -0.36267102145096558 0 -0.4540003998136638 -0.37455519391687309 0 -0.46226041713245919 -0.36267102145096558 0 -0.45167034254705118 -0.36337553476545958 0 -0.47248213405695583 -0.35312520234775913 0 -0.46226041713245919 -0.36267102145096558 0 -0.46130034509645268 -0.35111989715704561 0 -0.46472493826860672 -0.34236766697450172 0 -0.47248213405695583 -0.35312520234775913 0 -0.46130034509645268 -0.35111989715704561 0 -0.46472493826860672 -0.34236766697450172 0 -0.46130034509645268 -0.35111989715704561 0 -0.45711636988675219 -0.34547487934353349 0 -0.46130034509645268 -0.35111989715704561 0 -0.45711636988675219 -0.34547487934353349 0 -0.4507851133594416 -0.34910720111649318 0 -0.46226041713245919 -0.36267102145096558 0 -0.4507851133594416 -0.34910720111649318 0 -0.45167034254705118 -0.36337553476545958 0 -0.46226041713245919 -0.36267102145096558 0 -0.46130034509645268 -0.35111989715704561 0 -0.4507851133594416 -0.34910720111649318 0 -0.46226041713245919 -0.36267102145096558 0 -0.4507851133594416 -0.34910720111649318 0 -0.4507851133594416 -0.34910720111649318 0 -0.44504098357239391 -0.35771747353496869 0 -0.45167034254705118 -0.36337553476545958 0 -0.44966367396753332 -0.33841986907325933 0 -0.45711636988675219 -0.34547487934353349 0 -0.4507851133594416 -0.34910720111649318 0 -0.4507851133594416 -0.34910720111649318 0 -0.44408457896710762 -0.34741130507322732 0 -0.44504098357239391 -0.35771747353496869 0 -0.43930980958642257 -0.33554338078202212 0 -0.4507851133594416 -0.34910720111649318 0 -0.44408457896710762 -0.34741130507322732 0 -0.44408457896710762 -0.34741130507322732 0 -0.43834809566141358 -0.35386966642967582 0 -0.4310745521241639 -0.35060051531725012 0 -0.44408457896710762 -0.34741130507322732 0 -0.43834809566141358 -0.35386966642967582 0 -0.44504098357239391 -0.35771747353496869 0 -0.43834809566141358 -0.35386966642967582 0 -0.44504098357239391 -0.35771747353496869 0 -0.43256408976529492 -0.36260533289695268 0 -0.44504098357239391 -0.35771747353496869 0 -0.44172858264042247 -0.37082207246888088 0 -0.43256408976529492 -0.36260533289695268 0 -0.4540003998136638 -0.37455519391687309 0 -0.44172858264042247 -0.37082207246888088 0 -0.45167034254705118 -0.36337553476545958 0 -0.44504098357239391 -0.35771747353496869 0 -0.44172858264042247 -0.37082207246888088 0 -0.45167034254705118 -0.36337553476545958 0 -0.42311368847744002 -0.37830224279505142 0 -0.44172858264042247 -0.37082207246888088 0 -0.43256408976529492 -0.36260533289695268 0 -0.42311368847744002 -0.37830224279505142 0 -0.43256408976529492 -0.36260533289695268 0 -0.41867380740831611 -0.36398836527224071 0 -0.43256408976529492 -0.36260533289695268 0 -0.42210656065146929 -0.35476551363046099 0 -0.41867380740831611 -0.36398836527224071 0 -0.44408457896710762 -0.34741130507322732 0 -0.4310745521241639 -0.35060051531725012 0 -0.42443636388738298 -0.3390060521705498 0 -0.43834809566141358 -0.35386966642967582 0 -0.43256408976529492 -0.36260533289695268 0 -0.4310745521241639 -0.35060051531725012 0 -0.4310745521241639 -0.35060051531725012 0 -0.42266042161335821 -0.34652378860874011 0 -0.42210656065146929 -0.35476551363046099 0 -0.4310745521241639 -0.35060051531725012 0 -0.42266042161335821 -0.34652378860874011 0 -0.42443636388738298 -0.3390060521705498 0 -0.43256408976529492 -0.36260533289695268 0 -0.4310745521241639 -0.35060051531725012 0 -0.42210656065146929 -0.35476551363046099 0 -0.42210656065146929 -0.35476551363046099 0 -0.41243440171204931 -0.35621682403100541 0 -0.41867380740831611 -0.36398836527224071 0 -0.41243440171204931 -0.35621682403100541 0 -0.40365717239196519 -0.36741535175059892 0 -0.40302160193259851 -0.3439916005776541 0 -0.42210656065146929 -0.35476551363046099 0 -0.41714587076776338 -0.34786779488983011 0 -0.41243440171204931 -0.35621682403100541 0 -0.42266042161335821 -0.34652378860874011 0 -0.42210656065146929 -0.35476551363046099 0 -0.41714587076776338 -0.34786779488983011 0 -0.42266042161335821 -0.34652378860874011 0 -0.41714587076776338 -0.34786779488983011 0 -0.41853876063601031 -0.34037906703560689 0 -0.41714587076776338 -0.34786779488983011 0 -0.41853876063601031 -0.34037906703560689 0 -0.41714587076776338 -0.34786779488983011 0 -0.41243440171204931 -0.35621682403100541 0 -0.40302160193259851 -0.3439916005776541 0 -0.41714587076776338 -0.34786779488983011 0 -0.40302160193259851 -0.3439916005776541 0 -0.41853876063601031 -0.34037906703560689 0 -0.42311368847744002 -0.37830224279505142 0 -0.41867380740831611 -0.36398836527224071 0 -0.40365717239196519 -0.36741535175059892 0 -0.42311368847744002 -0.37830224279505142 0 -0.40365717239196519 -0.36741535175059892 0 -0.41243440171204931 -0.35621682403100541 0 -0.41867380740831611 -0.36398836527224071 0 -0.40365717239196519 -0.36741535175059892 0 -0.40403491357358612 -0.38133688525744702 0 -0.40365717239196519 -0.36741535175059892 0 -0.40403491357358612 -0.38133688525744702 0 -0.40365717239196519 -0.36741535175059892 0 -0.3904578797192948 -0.37473938743617019 0 -0.40365717239196519 -0.36741535175059892 0 -0.38979507995825918 -0.35965881973269581 0 -0.40365717239196519 -0.36741535175059892 0 -0.3904578797192948 -0.37473938743617019 0 -0.38979507995825918 -0.35965881973269581 0 -0.3904578797192948 -0.37473938743617019 0 -0.38979507995825918 -0.35965881973269581 0 -0.37568304780698558 -0.36916333065311507 0 -0.37568304780698558 -0.36916333065311507 0 -0.37593298752455201 -0.35190228771479481 0 -0.38979507995825918 -0.35965881973269581 0 -0.37568304780698558 -0.36916333065311507 0 -0.37593298752455201 -0.35190228771479481 0 -0.38979507995825918 -0.35965881973269581 0 -0.37595629511297179 -0.35029264644438168 0 -0.40302160193259851 -0.3439916005776541 0 -0.37595629511297179 -0.35029264644438168 0 -0.40302160193259851 -0.3439916005776541 0 -0.38842354837557669 -0.33756560667471242 0 -0.37595629511297179 -0.35029264644438168 0 -0.40302160193259851 -0.3439916005776541 0 -0.37595629511297179 -0.35029264644438168 0 -0.37607676276689278 -0.3419730509543204 0 -0.37390838074359528 -0.35076941925389299 0 -0.37595629511297179 -0.35029264644438168 0 -0.37607676276689278 -0.3419730509543204 0 -0.37595629511297179 -0.35029264644438168 0 -0.37593298752455201 -0.35190228771479481 0 -0.37390838074359528 -0.35076941925389299 0 -0.37595629511297179 -0.35029264644438168 0 -0.37593298752455201 -0.35190228771479481 0 -0.38979507995825918 -0.35965881973269581 0 -0.37595629511297179 -0.35029264644438168 0 -0.37593298752455201 -0.35190228771479481 0 -0.38979507995825918 -0.35965881973269581 0 -0.37593298752455201 -0.35190228771479481 0 -0.40365717239196519 -0.36741535175059892 0 -0.40302160193259851 -0.3439916005776541 0 -0.40365717239196519 -0.36741535175059892 0 -0.38979507995825918 -0.35965881973269581 0 -0.40302160193259851 -0.3439916005776541 0 -0.40302160193259851 -0.3439916005776541 0 -0.40263324863316441 -0.32967896077653092 0 -0.40263324863316441 -0.32967896077653092 0 -0.38842354837557669 -0.33756560667471242 0 -0.38442983343225828 -0.32189177462067481 0 -0.40302160193259851 -0.3439916005776541 0 -0.40263324863316441 -0.32967896077653092 0 -0.38842354837557669 -0.33756560667471242 0 -0.37607676276689278 -0.3419730509543204 0 -0.37641717267996733 -0.3184640617331177 0 -0.38842354837557669 -0.33756560667471242 0 -0.37607676276689278 -0.3419730509543204 0 -0.38442983343225828 -0.32189177462067481 0 -0.37607676276689278 -0.3419730509543204 0 -0.38442983343225828 -0.32189177462067481 0 -0.37595629511297179 -0.35029264644438168 0 -0.38842354837557669 -0.33756560667471242 0 -0.37607676276689278 -0.3419730509543204 0 -0.37607676276689278 -0.3419730509543204 0 -0.37641717267996733 -0.3184640617331177 0 -0.38442983343225828 -0.32189177462067481 0 -0.37641717267996733 -0.3184640617331177 0 -0.38442983343225828 -0.32189177462067481 0 -0.3841914044669909 -0.30132118344037401 0 -0.37641717267996733 -0.3184640617331177 0 -0.38442983343225828 -0.32189177462067481 0 -0.40263324863316441 -0.32967896077653092 0 -0.38442983343225828 -0.32189177462067481 0 -0.40185461233875269 -0.30098256284660307 0 -0.40263324863316441 -0.32967896077653092 0 -0.38442983343225828 -0.32189177462067481 0 -0.40263324863316441 -0.32967896077653092 0 -0.40185461233875269 -0.30098256284660307 0 -0.40263324863316441 -0.32967896077653092 0 -0.41242695344044827 -0.31820451366256841 0 -0.40185461233875269 -0.30098256284660307 0 -0.41242695344044827 -0.31820451366256841 0 -0.41920998916455232 -0.33677027649670849 0 -0.42301959421646518 -0.31628833020920039 0 -0.41920998916455232 -0.33677027649670849 0 -0.42301959421646518 -0.31628833020920039 0 -0.41242695344044827 -0.31820451366256841 0 -0.42301959421646518 -0.31628833020920039 0 -0.41541732284930832 -0.30730243798379953 0 -0.40302160193259851 -0.3439916005776541 0 -0.41920998916455232 -0.33677027649670849 0 -0.41853876063601031 -0.34037906703560689 0 -0.40302160193259851 -0.3439916005776541 0 -0.40263324863316441 -0.32967896077653092 0 -0.41920998916455232 -0.33677027649670849 0 -0.40263324863316441 -0.32967896077653092 0 -0.41920998916455232 -0.33677027649670849 0 -0.40263324863316441 -0.32967896077653092 0 -0.41242695344044827 -0.31820451366256841 0 -0.41920998916455232 -0.33677027649670849 0 -0.40302160193259851 -0.3439916005776541 0 -0.41853876063601031 -0.34037906703560689 0 -0.41853876063601031 -0.34037906703560689 0 -0.42443636388738298 -0.3390060521705498 0 -0.41920998916455232 -0.33677027649670849 0 -0.42443636388738298 -0.3390060521705498 0 -0.41920998916455232 -0.33677027649670849 0 -0.41853876063601031 -0.34037906703560689 0 -0.42443636388738298 -0.3390060521705498 0 -0.41920998916455232 -0.33677027649670849 0 -0.41853876063601031 -0.34037906703560689 0 -0.43930980958642257 -0.33554338078202212 0 -0.44408457896710762 -0.34741130507322732 0 -0.42443636388738298 -0.3390060521705498 0 -0.43930980958642257 -0.33554338078202212 0 -0.42443636388738298 -0.3390060521705498 0 -0.42301959421646518 -0.31628833020920039 0 -0.41920998916455232 -0.33677027649670849 0 -0.42443636388738298 -0.3390060521705498 0 -0.42301959421646518 -0.31628833020920039 0 -0.44408457896710762 -0.34741130507322732 0 -0.42443636388738298 -0.3390060521705498 0 -0.42266042161335821 -0.34652378860874011 0 -0.41853876063601031 -0.34037906703560689 0 -0.42443636388738298 -0.3390060521705498 0 -0.43930980958642257 -0.33554338078202212 0 -0.42443636388738298 -0.3390060521705498 0 -0.43930980958642257 -0.33554338078202212 0 -0.42301959421646518 -0.31628833020920039 0 -0.44024276041750632 -0.31887045497680111 0 -0.42395130998641067 -0.31127905704434472 0 -0.44024276041750632 -0.31887045497680111 0 -0.43930980958642257 -0.33554338078202212 0 -0.42301959421646518 -0.31628833020920039 0 -0.44024276041750632 -0.31887045497680111 0 -0.42301959421646518 -0.31628833020920039 0 -0.42395130998641067 -0.31127905704434472 0 -0.42301959421646518 -0.31628833020920039 0 -0.42395130998641067 -0.31127905704434472 0 -0.42395130998641067 -0.31127905704434472 0 -0.42709180872781188 -0.29439449141065738 0 -0.44024276041750632 -0.31887045497680111 0 -0.42395130998641067 -0.31127905704434472 0 -0.43527018611072049 -0.30465000121327751 0 -0.42395130998641067 -0.31127905704434472 0 -0.42709180872781188 -0.29439449141065738 0 -0.41541732284930832 -0.30730243798379953 0 -0.42395130998641067 -0.31127905704434472 0 -0.43527018611072049 -0.30465000121327751 0 -0.42709180872781188 -0.29439449141065738 0 -0.441361257405879 -0.29303276451920029 0 -0.43527018611072049 -0.30465000121327751 0 -0.42709180872781188 -0.29439449141065738 0 -0.42709180872781188 -0.29439449141065738 0 -0.43077531442077321 -0.27459050524281542 0 -0.42709180872781188 -0.29439449141065738 0 -0.41684225135067149 -0.28376244362903152 0 -0.43077531442077321 -0.27459050524281542 0 -0.441361257405879 -0.29303276451920029 0 -0.42709180872781188 -0.29439449141065738 0 -0.441361257405879 -0.29303276451920029 0 -0.42709180872781188 -0.29439449141065738 0 -0.43077531442077321 -0.27459050524281542 0 -0.42709180872781188 -0.29439449141065738 0 -0.41684225135067149 -0.28376244362903152 0 -0.40618483967714292 -0.29638963380315841 0 -0.42709180872781188 -0.29439449141065738 0 -0.40618483967714292 -0.29638963380315841 0 -0.41684225135067149 -0.28376244362903152 0 -0.40690107601488551 -0.28490397733270861 0 -0.40618483967714292 -0.29638963380315841 0 -0.41541732284930832 -0.30730243798379953 0 -0.40185461233875269 -0.30098256284660307 0 -0.40618483967714292 -0.29638963380315841 0 -0.42709180872781188 -0.29439449141065738 0 -0.41541732284930832 -0.30730243798379953 0 -0.40618483967714292 -0.29638963380315841 0 -0.41541732284930832 -0.30730243798379953 0 -0.40618483967714292 -0.29638963380315841 0 -0.41242695344044827 -0.31820451366256841 0 -0.41541732284930832 -0.30730243798379953 0 -0.40185461233875269 -0.30098256284660307 0 -0.41541732284930832 -0.30730243798379953 0 -0.40185461233875269 -0.30098256284660307 0 -0.42301959421646518 -0.31628833020920039 0 -0.41541732284930832 -0.30730243798379953 0 -0.42395130998641067 -0.31127905704434472 0 -0.41541732284930832 -0.30730243798379953 0 -0.42301959421646518 -0.31628833020920039 0 -0.42395130998641067 -0.31127905704434472 0 -0.41541732284930832 -0.30730243798379953 0 -0.38442983343225828 -0.32189177462067481 0 -0.40185461233875269 -0.30098256284660307 0 -0.39448508010510541 -0.297525044214214 0 -0.40185461233875269 -0.30098256284660307 0 -0.40174149504185092 -0.29681366012781812 0 -0.40618483967714292 -0.29638963380315841 0 -0.40185461233875269 -0.30098256284660307 0 -0.40174149504185092 -0.29681366012781812 0 -0.40185461233875269 -0.30098256284660307 0 -0.39448508010510541 -0.297525044214214 0 -0.40174149504185092 -0.29681366012781812 0 -0.40185461233875269 -0.30098256284660307 0 -0.39448508010510541 -0.297525044214214 0 -0.39448508010510541 -0.297525044214214 0 -0.40174149504185092 -0.29681366012781812 0 -0.37641717267996733 -0.3184640617331177 0 -0.37669606201677502 -0.29920373422444158 0 -0.38442983343225828 -0.32189177462067481 0 -0.39448508010510541 -0.297525044214214 0 -0.38442983343225828 -0.32189177462067481 0 -0.39448508010510541 -0.297525044214214 0 -0.3841914044669909 -0.30132118344037401 0 -0.37641717267996733 -0.3184640617331177 0 -0.3841914044669909 -0.30132118344037401 0 -0.37669606201677502 -0.29920373422444158 0 -0.39448508010510541 -0.297525044214214 0 -0.3841914044669909 -0.30132118344037401 0 -0.37928718982873688 -0.29895646409505849 0 -0.39448508010510541 -0.297525044214214 0 -0.37928718982873688 -0.29895646409505849 0 -0.3841914044669909 -0.30132118344037401 0 -0.37928718982873688 -0.29895646409505849 0 -0.3841914044669909 -0.30132118344037401 0 -0.37928718982873688 -0.29895646409505849 0 -0.37669606201677502 -0.29920373422444158 0 -0.37928718982873688 -0.29895646409505849 0 -0.37669606201677502 -0.29920373422444158 0 -0.37671758341694961 -0.29771744858697219 0 -0.37928718982873688 -0.29895646409505849 0 -0.37671758341694961 -0.29771744858697219 0 -0.37928718982873688 -0.29895646409505849 0 -0.37669606201677502 -0.29920373422444158 0 -0.37669606201677502 -0.29920373422444158 0 -0.37671758341694961 -0.29771744858697219 0 -0.37671758341694961 -0.29771744858697219 0 -0.38607699004493318 -0.28757386461908069 0 -0.38483052758877101 -0.28123782127595193 0 -0.37671758341694961 -0.29771744858697219 0 -0.3770412393053626 -0.27536550612006683 0 -0.37671758341694961 -0.29771744858697219 0 -0.38483052758877101 -0.28123782127595193 0 -0.3770412393053626 -0.27536550612006683 0 -0.37928718982873688 -0.29895646409505849 0 -0.37671758341694961 -0.29771744858697219 0 -0.38467000758835601 -0.29297497791584359 0 -0.37671758341694961 -0.29771744858697219 0 -0.38467000758835601 -0.29297497791584359 0 -0.38607699004493318 -0.28757386461908069 0 -0.39448508010510541 -0.297525044214214 0 -0.37928718982873688 -0.29895646409505849 0 -0.38467000758835601 -0.29297497791584359 0 -0.39448508010510541 -0.297525044214214 0 -0.38467000758835601 -0.29297497791584359 0 -0.39448508010510541 -0.297525044214214 0 -0.38467000758835601 -0.29297497791584359 0 -0.39217701296355612 -0.28987936211692023 0 -0.38467000758835601 -0.29297497791584359 0 -0.38607699004493318 -0.28757386461908069 0 -0.39217701296355612 -0.28987936211692023 0 -0.38607699004493318 -0.28757386461908069 0 -0.39049541959166939 -0.28414526237041138 0 -0.39217701296355612 -0.28987936211692023 0 -0.39049541959166939 -0.28414526237041138 0 -0.39420405367365152 -0.27853706101481662 0 -0.38483052758877101 -0.28123782127595193 0 -0.38607699004493318 -0.28757386461908069 0 -0.39049541959166939 -0.28414526237041138 0 -0.38483052758877101 -0.28123782127595193 0 -0.39597078832761667 -0.28551153658085893 0 -0.40174149504185092 -0.29681366012781812 0 -0.40123596036735593 -0.27818233727432817 0 -0.39049541959166939 -0.28414526237041138 0 -0.39597078832761667 -0.28551153658085893 0 -0.39420405367365152 -0.27853706101481662 0 -0.40174149504185092 -0.29681366012781812 0 -0.40123596036735593 -0.27818233727432817 0 -0.40174149504185092 -0.29681366012781812 0 -0.40322207619149192 -0.29288764445213411 0 -0.40123596036735593 -0.27818233727432817 0 -0.39049541959166939 -0.28414526237041138 0 -0.39597078832761667 -0.28551153658085893 0 -0.39217701296355612 -0.28987936211692023 0 -0.39597078832761667 -0.28551153658085893 0 -0.39217701296355612 -0.28987936211692023 0 -0.40174149504185092 -0.29681366012781812 0 -0.39448508010510541 -0.297525044214214 0 -0.39217701296355612 -0.28987936211692023 0 -0.40174149504185092 -0.29681366012781812 0 -0.40690107601488551 -0.28490397733270861 0 -0.40322207619149192 -0.29288764445213411 0 -0.40618483967714292 -0.29638963380315841 0 -0.40174149504185092 -0.29681366012781812 0 -0.40322207619149192 -0.29288764445213411 0 -0.40618483967714292 -0.29638963380315841 0 -0.40174149504185092 -0.29681366012781812 0 -0.40618483967714292 -0.29638963380315841 0 -0.40322207619149192 -0.29288764445213411 0 -0.40618483967714292 -0.29638963380315841 0 -0.40690107601488551 -0.28490397733270861 0 -0.40322207619149192 -0.29288764445213411 0 -0.40123596036735593 -0.27818233727432817 0 -0.39420405367365152 -0.27853706101481662 0 -0.37710287173325818 -0.2711091198417086 0 -0.40073042569286338 -0.25955101442083811 0 -0.40123596036735593 -0.27818233727432817 0 -0.39420405367365152 -0.27853706101481662 0 -0.40073042569286338 -0.25955101442083811 0 -0.40123596036735593 -0.27818233727432817 0 -0.40073042569286338 -0.25955101442083811 0 -0.40123596036735593 -0.27818233727432817 0 -0.40073042569286338 -0.25955101442083811 0 -0.41341650638623911 -0.27076301679274262 0 -0.39597078832761667 -0.28551153658085893 0 -0.40123596036735593 -0.27818233727432817 0 -0.39420405367365152 -0.27853706101481662 0 -0.39420405367365152 -0.27853706101481662 0 -0.37710287173325818 -0.2711091198417086 0 -0.3770412393053626 -0.27536550612006683 0 -0.39420405367365152 -0.27853706101481662 0 -0.3770412393053626 -0.27536550612006683 0 -0.39420405367365152 -0.27853706101481662 0 -0.38483052758877101 -0.28123782127595193 0 -0.3770412393053626 -0.27536550612006683 0 -0.37710287173325818 -0.2711091198417086 0 -0.3770412393053626 -0.27536550612006683 0 -0.37710287173325818 -0.2711091198417086 0 -0.38543722149146659 -0.25821727905458303 0 -0.40073042569286338 -0.25955101442083811 0 -0.37710287173325818 -0.2711091198417086 0 -0.37747963509906429 -0.24508953120583671 0 -0.37710287173325818 -0.2711091198417086 0 -0.40073042569286338 -0.25955101442083811 0 -0.37710287173325818 -0.2711091198417086 0 -0.38543722149146659 -0.25821727905458303 0 -0.37747963509906429 -0.24508953120583671 0 -0.38543722149146659 -0.25821727905458303 0 -0.3938256931015453 -0.25037754026629511 0 -0.37747963509906429 -0.24508953120583671 0 -0.38543722149146659 -0.25821727905458303 0 -0.3938256931015453 -0.25037754026629511 0 -0.40073042569286338 -0.25955101442083811 0 -0.40073042569286338 -0.25955101442083811 0 -0.40282532782868952 -0.25224285689579767 0 -0.40022281387448849 -0.24084313907701979 0 -0.40073042569286338 -0.25955101442083811 0 -0.40022281387448849 -0.24084313907701979 0 -0.3938256931015453 -0.25037754026629511 0 -0.40073042569286338 -0.25955101442083811 0 -0.40022281387448849 -0.24084313907701979 0 -0.40073042569286338 -0.25955101442083811 0 -0.40282532782868952 -0.25224285689579767 0 -0.41385673751816382 -0.25312989710486528 0 -0.40073042569286338 -0.25955101442083811 0 -0.41385673751816382 -0.25312989710486528 0 -0.40073042569286338 -0.25955101442083811 0 -0.41385673751816382 -0.25312989710486528 0 -0.41341650638623911 -0.27076301679274262 0 -0.41385673751816382 -0.25312989710486528 0 -0.41341650638623911 -0.27076301679274262 0 -0.42312684460972783 -0.26331748455384929 0 -0.41385673751816382 -0.25312989710486528 0 -0.41679144862722167 -0.25169429778568547 0 -0.43445882011373449 -0.25478651907497341 0 -0.40282532782868952 -0.25224285689579767 0 -0.41385673751816382 -0.25312989710486528 0 -0.4086566941719203 -0.24778871483445111 0 -0.40282532782868952 -0.25224285689579767 0 -0.41385673751816382 -0.25312989710486528 0 -0.41385673751816382 -0.25312989710486528 0 -0.41679144862722167 -0.25169429778568547 0 -0.41627810448972868 -0.24641300060905449 0 -0.41385673751816382 -0.25312989710486528 0 -0.41679144862722167 -0.25169429778568547 0 -0.41684225135067149 -0.28376244362903152 0 -0.41341650638623911 -0.27076301679274262 0 -0.43077531442077321 -0.27459050524281542 0 -0.40690107601488551 -0.28490397733270861 0 -0.40123596036735593 -0.27818233727432817 0 -0.41341650638623911 -0.27076301679274262 0 -0.41684225135067149 -0.28376244362903152 0 -0.40690107601488551 -0.28490397733270861 0 -0.41341650638623911 -0.27076301679274262 0 -0.41341650638623911 -0.27076301679274262 0 -0.43077531442077321 -0.27459050524281542 0 -0.42312684460972783 -0.26331748455384929 0 -0.43077531442077321 -0.27459050524281542 0 -0.42312684460972783 -0.26331748455384929 0 -0.43445882011373449 -0.25478651907497341 0 -0.41385673751816382 -0.25312989710486528 0 -0.43445882011373449 -0.25478651907497341 0 -0.43077531442077321 -0.27459050524281542 0 -0.43445882011373449 -0.25478651907497341 0 -0.41385673751816382 -0.25312989710486528 0 -0.42312684460972783 -0.26331748455384929 0 -0.43445882011373449 -0.25478651907497341 0 -0.41679144862722167 -0.25169429778568547 0 -0.43445882011373449 -0.25478651907497341 0 -0.42335340856967768 -0.24893549408922019 0 -0.32580796388430833 -0.26195871891040218 0 -0.34139866608006603 -0.2687790352098644 0 -0.31202674084989918 -0.26335133138269068 0 -0.32580796388430833 -0.26195871891040218 0 -0.33345250408021371 -0.25331871279766999 0 -0.32023222063025569 -0.2489608815952247 0 -0.32580796388430833 -0.26195871891040218 0 -0.31664960680882542 -0.25714232151458272 0 -0.32023222063025569 -0.2489608815952247 0 -0.31664960680882542 -0.25714232151458272 0 -0.30853150187083839 -0.25429835417001312 0 -0.32023222063025569 -0.2489608815952247 0 -0.32580796388430833 -0.26195871891040218 0 -0.31664960680882542 -0.25714232151458272 0 -0.31202674084989918 -0.26335133138269068 0 -0.33223611708196649 -0.27626932861073827 0 -0.31972670239926188 -0.28454160199560091 0 -0.31187737399160442 -0.27618124236115132 0 -0.34139866608006603 -0.2687790352098644 0 -0.31202674084989918 -0.26335133138269068 0 -0.33223611708196649 -0.27626932861073827 0 -0.31202674084989918 -0.26335133138269068 0 -0.3062135479255173 -0.26372173898871692 0 -0.33223611708196649 -0.27626932861073827 0 -0.31187737399160442 -0.27618124236115132 0 -0.3062135479255173 -0.26372173898871692 0 -0.33260241140844943 -0.2743168067351805 0 -0.33223611708196649 -0.27626932861073827 0 -0.31202674084989918 -0.26335133138269068 0 -0.33223611708196649 -0.27626932861073827 0 -0.3062135479255173 -0.26372173898871692 0 -0.33260241140844943 -0.2743168067351805 0 -0.34139866608006603 -0.2687790352098644 0 -0.31202674084989918 -0.26335133138269068 0 -0.33223611708196649 -0.27626932861073827 0 -0.34139866608006603 -0.2687790352098644 0 -0.34951875912658742 -0.28460269103381453 0 -0.33223611708196649 -0.27626932861073827 0 -0.34951875912658742 -0.28460269103381453 0 -0.33260241140844943 -0.2743168067351805 0 -0.33223611708196649 -0.27626932861073827 0 -0.34139866608006603 -0.2687790352098644 0 -0.33260241140844943 -0.2743168067351805 0 -0.33223611708196649 -0.27626932861073827 0 -0.34139866608006603 -0.2687790352098644 0 -0.3363084638556994 -0.26041051377605268 0 -0.34457472137820933 -0.25758558818627408 0 -0.32580796388430833 -0.26195871891040218 0 -0.34139866608006603 -0.2687790352098644 0 -0.3363084638556994 -0.26041051377605268 0 -0.32580796388430833 -0.26195871891040218 0 -0.3363084638556994 -0.26041051377605268 0 -0.33345250408021371 -0.25331871279766999 0 -0.3363084638556994 -0.26041051377605268 0 -0.33345250408021371 -0.25331871279766999 0 -0.34457472137820933 -0.25758558818627408 0 -0.33345250408021371 -0.25331871279766999 0 -0.34457472137820933 -0.25758558818627408 0 -0.34395992200845399 -0.24382677409400949 0 -0.34139866608006603 -0.2687790352098644 0 -0.34457472137820933 -0.25758558818627408 0 -0.35733732661955131 -0.26288598862094092 0 -0.34457472137820933 -0.25758558818627408 0 -0.35872453044413888 -0.25078889886649508 0 -0.34395992200845399 -0.24382677409400949 0 -0.34457472137820933 -0.25758558818627408 0 -0.35733732661955131 -0.26288598862094092 0 -0.35872453044413888 -0.25078889886649508 0 -0.37710287173325818 -0.2711091198417086 0 -0.36828299104124951 -0.26081605551440462 0 -0.37747963509906429 -0.24508953120583671 0 -0.35872453044413888 -0.25078889886649508 0 -0.36828299104124951 -0.26081605551440462 0 -0.37747963509906429 -0.24508953120583671 0 -0.35733732661955131 -0.26288598862094092 0 -0.35872453044413888 -0.25078889886649508 0 -0.36828299104124951 -0.26081605551440462 0 -0.37077059131023282 -0.27420673903703829 0 -0.34951875912658742 -0.28460269103381453 0 -0.37710287173325818 -0.2711091198417086 0 -0.3770412393053626 -0.27536550612006683 0 -0.37077059131023282 -0.27420673903703829 0 -0.3770412393053626 -0.27536550612006683 0 -0.37077059131023282 -0.27420673903703829 0 -0.37710287173325818 -0.2711091198417086 0 -0.36828299104124951 -0.26081605551440462 0 -0.37077059131023282 -0.27420673903703829 0 -0.37710287173325818 -0.2711091198417086 0 -0.37077059131023282 -0.27420673903703829 0 -0.35733732661955131 -0.26288598862094092 0 -0.36828299104124951 -0.26081605551440462 0 -0.37077059131023282 -0.27420673903703829 0 -0.34139866608006603 -0.2687790352098644 0 -0.35733732661955131 -0.26288598862094092 0 -0.37077059131023282 -0.27420673903703829 0 -0.34139866608006603 -0.2687790352098644 0 -0.37077059131023282 -0.27420673903703829 0 -0.34951875912658742 -0.28460269103381453 0 -0.34139866608006603 -0.2687790352098644 0 -0.37077059131023282 -0.27420673903703829 0 -0.34951875912658742 -0.28460269103381453 0 -0.3581763596052473 -0.30097106086504849 0 -0.34010739644885768 -0.2892065328944351 0 -0.34951875912658742 -0.28460269103381453 0 -0.34010739644885768 -0.2892065328944351 0 -0.37671758341694961 -0.29771744858697219 0 -0.37077059131023282 -0.27420673903703829 0 -0.34951875912658742 -0.28460269103381453 0 -0.37671758341694961 -0.29771744858697219 0 -0.34951875912658742 -0.28460269103381453 0 -0.37671758341694961 -0.29771744858697219 0 -0.3770412393053626 -0.27536550612006683 0 -0.37077059131023282 -0.27420673903703829 0 -0.37671758341694961 -0.29771744858697219 0 -0.34951875912658742 -0.28460269103381453 0 -0.3581763596052473 -0.30097106086504849 0 -0.37669606201677502 -0.29920373422444158 0 -0.37671758341694961 -0.29771744858697219 0 -0.3581763596052473 -0.30097106086504849 0 -0.37641717267996733 -0.3184640617331177 0 -0.37669606201677502 -0.29920373422444158 0 -0.36799370156123501 -0.30592930732763762 0 -0.37641717267996733 -0.3184640617331177 0 -0.36799370156123501 -0.30592930732763762 0 -0.35803691493684492 -0.31060122461938489 0 -0.37669606201677502 -0.29920373422444158 0 -0.36799370156123501 -0.30592930732763762 0 -0.3581763596052473 -0.30097106086504849 0 -0.37669606201677502 -0.29920373422444158 0 -0.3581763596052473 -0.30097106086504849 0 -0.36799370156123501 -0.30592930732763762 0 -0.35803691493684492 -0.31060122461938489 0 -0.3581763596052473 -0.30097106086504849 0 -0.35803691493684492 -0.31060122461938489 0 -0.33965665719371979 -0.30273838750565862 0 -0.35803691493684492 -0.31060122461938489 0 -0.33965665719371979 -0.30273838750565862 0 -0.34514704515453298 -0.31300544250539297 0 -0.3581763596052473 -0.30097106086504849 0 -0.33965665719371979 -0.30273838750565862 0 -0.34010739644885768 -0.2892065328944351 0 -0.35803691493684492 -0.31060122461938489 0 -0.3581763596052473 -0.30097106086504849 0 -0.33965665719371979 -0.30273838750565862 0 -0.3581763596052473 -0.30097106086504849 0 -0.33965665719371979 -0.30273838750565862 0 -0.33676996251121621 -0.31158184422573892 0 -0.33965665719371979 -0.30273838750565862 0 -0.34514704515453298 -0.31300544250539297 0 -0.33676996251121621 -0.31158184422573892 0 -0.33965665719371979 -0.30273838750565862 0 -0.32704471803945162 -0.30394193902942662 0 -0.33676996251121621 -0.31158184422573892 0 -0.32594772137393307 -0.30978944971135602 0 -0.32704471803945162 -0.30394193902942662 0 -0.33965665719371979 -0.30273838750565862 0 -0.32704471803945162 -0.30394193902942662 0 -0.32819068517220462 -0.29783339261299951 0 -0.33965665719371979 -0.30273838750565862 0 -0.32704471803945162 -0.30394193902942662 0 -0.32819068517220462 -0.29783339261299951 0 -0.33965665719371979 -0.30273838750565862 0 -0.33223611708196649 -0.27626932861073827 0 -0.32819068517220462 -0.29783339261299951 0 -0.33223611708196649 -0.27626932861073827 0 -0.32819068517220462 -0.29783339261299951 0 -0.34010739644885768 -0.2892065328944351 0 -0.33223611708196649 -0.27626932861073827 0 -0.34951875912658742 -0.28460269103381453 0 -0.34010739644885768 -0.2892065328944351 0 -0.32819068517220462 -0.29783339261299951 0 -0.33965665719371979 -0.30273838750565862 0 -0.34010739644885768 -0.2892065328944351 0 -0.32819068517220462 -0.29783339261299951 0 -0.31972670239926188 -0.28454160199560091 0 -0.31332574866090718 -0.291474364566292 0 -0.32819068517220462 -0.29783339261299951 0 -0.31332574866090718 -0.291474364566292 0 -0.33223611708196649 -0.27626932861073827 0 -0.32819068517220462 -0.29783339261299951 0 -0.31972670239926188 -0.28454160199560091 0 -0.31972670239926188 -0.28454160199560091 0 -0.31332574866090718 -0.291474364566292 0 -0.30937392239009109 -0.28339120160471948 0 -0.31972670239926188 -0.28454160199560091 0 -0.30937392239009109 -0.28339120160471948 0 -0.31187737399160442 -0.27618124236115132 0 -0.31992409361072222 -0.30462145692723192 0 -0.32594772137393307 -0.30978944971135602 0 -0.31307430431717392 -0.31869978567557272 0 -0.31992409361072222 -0.30462145692723192 0 -0.32594772137393307 -0.30978944971135602 0 -0.32594772137393307 -0.30978944971135602 0 -0.32704471803945162 -0.30394193902942662 0 -0.31992409361072222 -0.30462145692723192 0 -0.32594772137393307 -0.30978944971135602 0 -0.32704471803945162 -0.30394193902942662 0 -0.32819068517220462 -0.29783339261299951 0 -0.31332574866090718 -0.291474364566292 0 -0.31992409361072222 -0.30462145692723192 0 -0.32819068517220462 -0.29783339261299951 0 -0.32704471803945162 -0.30394193902942662 0 -0.32819068517220462 -0.29783339261299951 0 -0.31992409361072222 -0.30462145692723192 0 -0.32704471803945162 -0.30394193902942662 0 -0.31992409361072222 -0.30462145692723192 0 -0.32704471803945162 -0.30394193902942662 0 -0.32594772137393307 -0.30978944971135602 0 -0.31307430431717392 -0.31869978567557272 0 -0.32184288384298337 -0.33167017375041419 0 -0.32594772137393307 -0.30978944971135602 0 -0.32184288384298337 -0.33167017375041419 0 -0.32184288384298337 -0.33167017375041419 0 -0.31773804631203251 -0.35355089778947202 0 -0.32184288384298337 -0.33167017375041419 0 -0.34475024534571441 -0.34586667392980902 0 -0.31773804631203251 -0.35355089778947202 0 -0.32184288384298337 -0.33167017375041419 0 -0.34612464597635118 -0.32710031367078812 0 -0.34475024534571441 -0.34586667392980902 0 -0.33676996251121621 -0.31158184422573892 0 -0.32594772137393307 -0.30978944971135602 0 -0.34612464597635118 -0.32710031367078812 0 -0.32594772137393307 -0.30978944971135602 0 -0.34612464597635118 -0.32710031367078812 0 -0.32594772137393307 -0.30978944971135602 0 -0.32184288384298337 -0.33167017375041419 0 -0.34612464597635118 -0.32710031367078812 0 -0.33676996251121621 -0.31158184422573892 0 -0.34514704515453298 -0.31300544250539297 0 -0.34612464597635118 -0.32710031367078812 0 -0.35803691493684492 -0.31060122461938489 0 -0.34514704515453298 -0.31300544250539297 0 -0.34612464597635118 -0.32710031367078812 0 -0.35803691493684492 -0.31060122461938489 0 -0.34612464597635118 -0.32710031367078812 0 -0.35600230731325749 -0.33324145173106873 0 -0.37641717267996733 -0.3184640617331177 0 -0.35803691493684492 -0.31060122461938489 0 -0.37641717267996733 -0.3184640617331177 0 -0.35803691493684492 -0.31060122461938489 0 -0.36719759625642318 -0.33008752154143739 0 -0.35803691493684492 -0.31060122461938489 0 -0.36719759625642318 -0.33008752154143739 0 -0.35600230731325749 -0.33324145173106873 0 -0.37607676276689278 -0.3419730509543204 0 -0.37641717267996733 -0.3184640617331177 0 -0.36719759625642318 -0.33008752154143739 0 -0.37607676276689278 -0.3419730509543204 0 -0.3688763256213185 -0.34309961767568647 0 -0.36719759625642318 -0.33008752154143739 0 -0.36719759625642318 -0.33008752154143739 0 -0.36118874601324108 -0.3436521492952741 0 -0.35600230731325749 -0.33324145173106873 0 -0.3688763256213185 -0.34309961767568647 0 -0.36719759625642318 -0.33008752154143739 0 -0.36118874601324108 -0.3436521492952741 0 -0.34612464597635118 -0.32710031367078812 0 -0.35600230731325749 -0.33324145173106873 0 -0.34475024534571441 -0.34586667392980902 0 -0.36118874601324108 -0.3436521492952741 0 -0.35600230731325749 -0.33324145173106873 0 -0.34475024534571441 -0.34586667392980902 0 -0.36118874601324108 -0.3436521492952741 0 -0.34475024534571441 -0.34586667392980902 0 -0.35925477447714671 -0.35134479444962452 0 -0.34475024534571441 -0.34586667392980902 0 -0.35480891830463612 -0.3592101017575729 0 -0.33937201587241012 -0.36587749477948078 0 -0.34475024534571441 -0.34586667392980902 0 -0.35480891830463612 -0.3592101017575729 0 -0.35925477447714671 -0.35134479444962452 0 -0.36118874601324108 -0.3436521492952741 0 -0.37225797237559449 -0.35115364910559932 0 -0.36118874601324108 -0.3436521492952741 0 -0.35925477447714671 -0.35134479444962452 0 -0.36985982957495511 -0.35171195823109852 0 -0.37568304780698558 -0.36916333065311507 0 -0.37593298752455201 -0.35190228771479481 0 -0.37225797237559449 -0.35115364910559932 0 -0.35480891830463612 -0.3592101017575729 0 -0.35925477447714671 -0.35134479444962452 0 -0.36985982957495511 -0.35171195823109852 0 -0.37607676276689278 -0.3419730509543204 0 -0.3688763256213185 -0.34309961767568647 0 -0.37225797237559449 -0.35115364910559932 0 -0.37607676276689278 -0.3419730509543204 0 -0.37225797237559449 -0.35115364910559932 0 -0.37607676276689278 -0.3419730509543204 0 -0.37390838074359528 -0.35076941925389299 0 -0.37225797237559449 -0.35115364910559932 0 -0.37593298752455201 -0.35190228771479481 0 -0.37390838074359528 -0.35076941925389299 0 -0.37225797237559449 -0.35115364910559932 0 -0.3688763256213185 -0.34309961767568647 0 -0.36118874601324108 -0.3436521492952741 0 -0.37225797237559449 -0.35115364910559932 0 -0.37593298752455201 -0.35190228771479481 0 -0.37390838074359528 -0.35076941925389299 0 -0.36118874601324108 -0.3436521492952741 0 -0.36985982957495511 -0.35171195823109852 0 -0.37225797237559449 -0.35115364910559932 0 -0.37595629511297179 -0.35029264644438168 0 -0.37390838074359528 -0.35076941925389299 0 -0.37390838074359528 -0.35076941925389299 0 -0.37225797237559449 -0.35115364910559932 0 -0.36985982957495511 -0.35171195823109852 0 -0.37225797237559449 -0.35115364910559932 0 -0.37568304780698558 -0.36916333065311507 0 -0.37225797237559449 -0.35115364910559932 0 -0.36100598543278789 -0.37820409176948921 0 -0.35480891830463612 -0.3592101017575729 0 -0.36985982957495511 -0.35171195823109852 0 -0.36100598543278789 -0.37820409176948921 0 -0.36985982957495511 -0.35171195823109852 0 -0.37225797237559449 -0.35115364910559932 0 -0.36100598543278789 -0.37820409176948921 0 -0.37225797237559449 -0.35115364910559932 0 -0.36100598543278789 -0.37820409176948921 0 -0.33937201587241012 -0.36587749477948078 0 -0.36100598543278789 -0.37820409176948921 0 -0.35480891830463612 -0.3592101017575729 0 -0.33937201587241012 -0.36587749477948078 0 -0.36100598543278789 -0.37820409176948921 0 -0.33937201587241012 -0.36587749477948078 0 -0.31773804631203251 -0.35355089778947202 0 -0.33937201587241012 -0.36587749477948078 0 -0.31773804631203251 -0.35355089778947202 0 -0.32803705280137402 -0.37447550275240871 0 -0.34475024534571441 -0.34586667392980902 0 -0.33937201587241012 -0.36587749477948078 0 -0.31773804631203251 -0.35355089778947202 0 -0.31773804631203251 -0.35355089778947202 0 -0.31381007312398762 -0.37448885129246268 0 -0.31773804631203251 -0.35355089778947202 0 -0.31381007312398762 -0.37448885129246268 0 -0.32803705280137402 -0.37447550275240871 0 -0.31381007312398762 -0.37448885129246268 0 -0.29871455833571747 -0.36148408621311728 0 -0.29196992941862432 -0.3825632544476108 0 -0.31773804631203251 -0.35355089778947202 0 -0.31381007312398762 -0.37448885129246268 0 -0.29871455833571747 -0.36148408621311728 0 -0.31773804631203251 -0.35355089778947202 0 -0.29871455833571747 -0.36148408621311728 0 -0.29282778547957722 -0.33935753649529382 0 -0.31773804631203251 -0.35355089778947202 0 -0.29282778547957722 -0.33935753649529382 0 -0.29871455833571747 -0.36148408621311728 0 -0.27675503022224163 -0.36681377825091099 0 -0.29282778547957722 -0.33935753649529382 0 -0.29871455833571747 -0.36148408621311728 0 -0.27675503022224163 -0.36681377825091099 0 -0.29196992941862432 -0.3825632544476108 0 -0.27675503022224163 -0.36681377825091099 0 -0.25757508569408222 -0.36424633604315798 0 -0.26546808025963542 -0.34847395767735678 0 -0.27675503022224163 -0.36681377825091099 0 -0.25757508569408222 -0.36424633604315798 0 -0.25812358553267323 -0.37605355791306738 0 -0.25757508569408222 -0.36424633604315798 0 -0.24839247009954951 -0.37292447016044328 0 -0.24532753696728959 -0.36501789644951049 0 -0.25757508569408222 -0.36424633604315798 0 -0.25812358553267323 -0.37605355791306738 0 -0.24839247009954951 -0.37292447016044328 0 -0.25757508569408222 -0.36424633604315798 0 -0.26546808025963542 -0.34847395767735678 0 -0.24650166737573331 -0.3569693529562265 0 -0.26546808025963542 -0.34847395767735678 0 -0.24650166737573331 -0.3569693529562265 0 -0.24881121389389799 -0.33838995723746451 0 -0.27675503022224163 -0.36681377825091099 0 -0.26546808025963542 -0.34847395767735678 0 -0.29282778547957722 -0.33935753649529382 0 -0.26791752464712137 -0.32516417520111718 0 -0.27544300416693679 -0.31995488319631832 0 -0.29282778547957722 -0.33935753649529382 0 -0.26546808025963542 -0.34847395767735678 0 -0.26791752464712137 -0.32516417520111718 0 -0.29282778547957722 -0.33935753649529382 0 -0.26791752464712137 -0.32516417520111718 0 -0.29282778547957722 -0.33935753649529382 0 -0.26791752464712137 -0.32516417520111718 0 -0.24881121389389799 -0.33838995723746451 0 -0.26546808025963542 -0.34847395767735678 0 -0.26791752464712137 -0.32516417520111718 0 -0.24881121389389799 -0.33838995723746451 0 -0.26791752464712137 -0.32516417520111718 0 -0.24881121389389799 -0.33838995723746451 0 -0.2441082332202735 -0.32380704628422963 0 -0.26791752464712137 -0.32516417520111718 0 -0.2444966906846206 -0.31181945912301329 0 -0.26791752464712137 -0.32516417520111718 0 -0.26963915832665503 -0.30942012505775762 0 -0.2444966906846206 -0.31181945912301329 0 -0.26791752464712137 -0.32516417520111718 0 -0.2441082332202735 -0.32380704628422963 0 -0.2444966906846206 -0.31181945912301329 0 -0.26791752464712137 -0.32516417520111718 0 -0.27544300416693679 -0.31995488319631832 0 -0.26963915832665503 -0.30942012505775762 0 -0.26791752464712137 -0.32516417520111718 0 -0.27544300416693679 -0.31995488319631832 0 -0.27544300416693679 -0.31995488319631832 0 -0.29403167998309421 -0.32125824908992018 0 -0.29478162596868879 -0.30702079099249591 0 -0.27544300416693679 -0.31995488319631832 0 -0.29403167998309421 -0.32125824908992018 0 -0.29282778547957722 -0.33935753649529382 0 -0.31307430431717392 -0.31869978567557272 0 -0.32184288384298337 -0.33167017375041419 0 -0.29282778547957722 -0.33935753649529382 0 -0.32184288384298337 -0.33167017375041419 0 -0.31773804631203251 -0.35355089778947202 0 -0.29282778547957722 -0.33935753649529382 0 -0.31307430431717392 -0.31869978567557272 0 -0.29403167998309421 -0.32125824908992018 0 -0.29282778547957722 -0.33935753649529382 0 -0.31307430431717392 -0.31869978567557272 0 -0.29403167998309421 -0.32125824908992018 0 -0.29478162596868879 -0.30702079099249591 0 -0.31992409361072222 -0.30462145692723192 0 -0.29478162596868879 -0.30702079099249591 0 -0.31992409361072222 -0.30462145692723192 0 -0.31307430431717392 -0.31869978567557272 0 -0.29478162596868879 -0.30702079099249591 0 -0.31992409361072222 -0.30462145692723192 0 -0.30687808727867438 -0.29770175581860719 0 -0.29478162596868879 -0.30702079099249591 0 -0.30687808727867438 -0.29770175581860719 0 -0.29813438661480679 -0.29530641477552327 0 -0.29478162596868879 -0.30702079099249591 0 -0.31992409361072222 -0.30462145692723192 0 -0.2984608121496099 -0.28511533651958437 0 -0.31992409361072222 -0.30462145692723192 0 -0.30687808727867438 -0.29770175581860719 0 -0.2984608121496099 -0.28511533651958437 0 -0.31332574866090718 -0.291474364566292 0 -0.31992409361072222 -0.30462145692723192 0 -0.2984608121496099 -0.28511533651958437 0 -0.31332574866090718 -0.291474364566292 0 -0.30937392239009109 -0.28339120160471948 0 -0.2984608121496099 -0.28511533651958437 0 -0.31332574866090718 -0.291474364566292 0 -0.2984608121496099 -0.28511533651958437 0 -0.30937392239009109 -0.28339120160471948 0 -0.2984608121496099 -0.28511533651958437 0 -0.30347897474907187 -0.279643462580969 0 -0.30687808727867438 -0.29770175581860719 0 -0.29951482580247829 -0.29240083595456018 0 -0.29813438661480679 -0.29530641477552327 0 -0.30687808727867438 -0.29770175581860719 0 -0.2984608121496099 -0.28511533651958437 0 -0.29951482580247829 -0.29240083595456018 0 -0.29951482580247829 -0.29240083595456018 0 -0.29813438661480679 -0.29530641477552327 0 -0.29499124589990039 -0.29073588210889412 0 -0.2984608121496099 -0.28511533651958437 0 -0.29951482580247829 -0.29240083595456018 0 -0.29499124589990039 -0.29073588210889412 0 -0.29499124589990039 -0.29073588210889412 0 -0.29148170063899659 -0.29460773718781319 0 -0.28586576089235322 -0.28577101837165192 0 -0.29813438661480679 -0.29530641477552327 0 -0.29499124589990039 -0.29073588210889412 0 -0.29148170063899659 -0.29460773718781319 0 -0.2984608121496099 -0.28511533651958437 0 -0.29499124589990039 -0.29073588210889412 0 -0.28586576089235322 -0.28577101837165192 0 -0.29148170063899659 -0.29460773718781319 0 -0.28586576089235322 -0.28577101837165192 0 -0.2798353156189245 -0.29508903771003908 0 -0.29148170063899659 -0.29460773718781319 0 -0.29478162596868879 -0.30702079099249591 0 -0.2798353156189245 -0.29508903771003908 0 -0.29478162596868879 -0.30702079099249591 0 -0.26963915832665503 -0.30942012505775762 0 -0.2798353156189245 -0.29508903771003908 0 -0.29478162596868879 -0.30702079099249591 0 -0.26963915832665503 -0.30942012505775762 0 -0.29813438661480679 -0.29530641477552327 0 -0.29148170063899659 -0.29460773718781319 0 -0.29478162596868879 -0.30702079099249591 0 -0.27544300416693679 -0.31995488319631832 0 -0.29478162596868879 -0.30702079099249591 0 -0.26963915832665503 -0.30942012505775762 0 -0.26963915832665503 -0.30942012505775762 0 -0.26057201890547982 -0.29344093798311832 0 -0.2798353156189245 -0.29508903771003908 0 -0.26963915832665503 -0.30942012505775762 0 -0.2444966906846206 -0.31181945912301329 0 -0.26963915832665503 -0.30942012505775762 0 -0.26057201890547982 -0.29344093798311832 0 -0.2444966906846206 -0.31181945912301329 0 -0.26057201890547982 -0.29344093798311832 0 -0.27108878797196961 -0.28331686931735522 0 -0.25298377122075039 -0.27518622721876451 0 -0.26057201890547982 -0.29344093798311832 0 -0.25298377122075039 -0.27518622721876451 0 -0.2435111179254994 -0.29490773243705071 0 -0.26057201890547982 -0.29344093798311832 0 -0.27108878797196961 -0.28331686931735522 0 -0.2798353156189245 -0.29508903771003908 0 -0.28586576089235322 -0.28577101837165192 0 -0.27108878797196961 -0.28331686931735522 0 -0.2798353156189245 -0.29508903771003908 0 -0.27108878797196961 -0.28331686931735522 0 -0.27618707322233982 -0.26709712530320262 0 -0.25298377122075039 -0.27518622721876451 0 -0.28586576089235322 -0.28577101837165192 0 -0.27108878797196961 -0.28331686931735522 0 -0.27618707322233982 -0.26709712530320262 0 -0.27618707322233982 -0.26709712530320262 0 -0.25431856302814809 -0.24833495949118861 0 -0.27618707322233982 -0.26709712530320262 0 -0.25298377122075039 -0.27518622721876451 0 -0.25431856302814809 -0.24833495949118861 0 -0.27618707322233982 -0.26709712530320262 0 -0.27309361240676189 -0.24179026653703889 0 -0.25431856302814809 -0.24833495949118861 0 -0.27618707322233982 -0.26709712530320262 0 -0.2907170577323625 -0.25177677077710309 0 -0.27309361240676189 -0.24179026653703889 0 -0.27618707322233982 -0.26709712530320262 0 -0.2907170577323625 -0.25177677077710309 0 -0.29477899871119112 -0.26293378760569941 0 -0.2984608121496099 -0.28511533651958437 0 -0.28586576089235322 -0.28577101837165192 0 -0.27618707322233982 -0.26709712530320262 0 -0.2984608121496099 -0.28511533651958437 0 -0.27618707322233982 -0.26709712530320262 0 -0.27618707322233982 -0.26709712530320262 0 -0.29477899871119112 -0.26293378760569941 0 -0.29948479845841441 -0.27338487519771032 0 -0.2984608121496099 -0.28511533651958437 0 -0.27618707322233982 -0.26709712530320262 0 -0.29948479845841441 -0.27338487519771032 0 -0.29477899871119112 -0.26293378760569941 0 -0.29948479845841441 -0.27338487519771032 0 -0.30156079933714469 -0.26765617134954151 0 -0.30156079933714469 -0.26765617134954151 0 -0.30403476516136241 -0.27459464834518948 0 -0.30588444940973558 -0.27063474712059482 0 -0.29948479845841441 -0.27338487519771032 0 -0.30156079933714469 -0.26765617134954151 0 -0.30403476516136241 -0.27459464834518948 0 -0.30156079933714469 -0.26765617134954151 0 -0.30588444940973558 -0.27063474712059482 0 -0.3062135479255173 -0.26372173898871692 0 -0.2984608121496099 -0.28511533651958437 0 -0.29948479845841441 -0.27338487519771032 0 -0.30347897474907187 -0.279643462580969 0 -0.29948479845841441 -0.27338487519771032 0 -0.30403476516136241 -0.27459464834518948 0 -0.30347897474907187 -0.279643462580969 0 -0.30937392239009109 -0.28339120160471948 0 -0.30347897474907187 -0.279643462580969 0 -0.31187737399160442 -0.27618124236115132 0 -0.30403476516136241 -0.27459464834518948 0 -0.30347897474907187 -0.279643462580969 0 -0.31187737399160442 -0.27618124236115132 0 -0.30403476516136241 -0.27459464834518948 0 -0.31187737399160442 -0.27618124236115132 0 -0.30588444940973558 -0.27063474712059482 0 -0.31187737399160442 -0.27618124236115132 0 -0.30588444940973558 -0.27063474712059482 0 -0.3062135479255173 -0.26372173898871692 0 -0.31664960680882542 -0.25714232151458272 0 -0.31202674084989918 -0.26335133138269068 0 -0.30853150187083839 -0.25429835417001312 0 -0.2907170577323625 -0.25177677077710309 0 -0.29477899871119112 -0.26293378760569941 0 -0.30853150187083839 -0.25429835417001312 0 -0.31202674084989918 -0.26335133138269068 0 -0.3062135479255173 -0.26372173898871692 0 -0.30853150187083839 -0.25429835417001312 0 -0.29477899871119112 -0.26293378760569941 0 -0.30156079933714469 -0.26765617134954151 0 -0.3062135479255173 -0.26372173898871692 0 -0.29477899871119112 -0.26293378760569941 0 -0.3062135479255173 -0.26372173898871692 0 -0.30853150187083839 -0.25429835417001312 0 -0.33709504481289931 -0.46474263175187808 0 -0.33075086723682939 -0.45093918684289991 0 -0.35302422329502631 -0.44785824460859458 0 -0.33709504481289931 -0.46474263175187808 0 -0.33075086723682939 -0.45093918684289991 0 -0.32054712240525829 -0.47546959342145068 0 -0.33075086723682939 -0.45093918684289991 0 -0.34095461206840061 -0.42640878026434909 0 -0.33075086723682939 -0.45093918684289991 0 -0.35302422329502631 -0.44785824460859458 0 -0.34095461206840061 -0.42640878026434909 0 -0.33075086723682939 -0.45093918684289991 0 -0.32054706720266329 -0.44859283512714471 0 -0.3206124180200437 -0.43193612962395289 0 -0.33075086723682939 -0.45093918684289991 0 -0.32054706720266329 -0.44859283512714471 0 -0.31571728338184601 -0.45752087103574601 0 -0.32054706720266329 -0.44859283512714471 0 -0.31571728338184601 -0.45752087103574601 0 -0.30706080135445341 -0.45057148265483188 0 -0.33075086723682939 -0.45093918684289991 0 -0.32054712240525829 -0.47546959342145068 0 -0.33075086723682939 -0.45093918684289991 0 -0.31571728338184601 -0.45752087103574601 0 -0.32054712240525829 -0.47546959342145068 0 -0.32054712240525829 -0.47546959342145068 0 -0.32750579650535672 -0.48798687004089669 0 -0.32933965142182292 -0.47777380670114528 0 -0.32054712240525829 -0.47546959342145068 0 -0.31034337757368669 -0.50000000000000133 0 -0.32750579650535672 -0.48798687004089669 0 -0.33387795429423722 -0.5 0 -0.31034337757368669 -0.50000000000000133 0 -0.32054712240525829 -0.47546959342145068 0 -0.32750579650535672 -0.48798687004089669 0 -0.31034337757368669 -0.50000000000000133 0 -0.32750579650535672 -0.48798687004089669 0 -0.34342087683177741 -0.48669095008188618 0 -0.33387795429423722 -0.5 0 -0.33709504481289931 -0.46474263175187808 0 -0.32933965142182292 -0.47777380670114528 0 -0.35181335970555933 -0.47167232718529989 0 -0.34342087683177741 -0.48669095008188618 0 -0.32933965142182292 -0.47777380670114528 0 -0.35181335970555933 -0.47167232718529989 0 -0.32750579650535672 -0.48798687004089669 0 -0.34342087683177741 -0.48669095008188618 0 -0.32933965142182292 -0.47777380670114528 0 -0.33709504481289931 -0.46474263175187808 0 -0.32054712240525829 -0.47546959342145068 0 -0.32933965142182292 -0.47777380670114528 0 -0.32933965142182292 -0.47777380670114528 0 -0.35181335970555933 -0.47167232718529989 0 -0.34342087683177741 -0.48669095008188618 0 -0.35181335970555933 -0.47167232718529989 0 -0.35979455825166368 -0.48519290092039941 0 -0.34342087683177741 -0.48669095008188618 0 -0.35741253101478748 -0.5 0 -0.35979455825166368 -0.48519290092039941 0 -0.34342087683177741 -0.48669095008188618 0 -0.33387795429423722 -0.5 0 -0.35741253101478748 -0.5 0 -0.38094710773533791 -0.49999999999999839 0 -0.35741253101478748 -0.5 0 -0.37240076261097882 -0.48974555046165519 0 -0.35741253101478748 -0.5 0 -0.35979455825166368 -0.48519290092039941 0 -0.37240076261097882 -0.48974555046165519 0 -0.35181335970555933 -0.47167232718529989 0 -0.35979455825166368 -0.48519290092039941 0 -0.37411677223754131 -0.47733161267270968 0 -0.35181335970555933 -0.47167232718529989 0 -0.37411677223754131 -0.47733161267270968 0 -0.37428706798929601 -0.46557084766945539 0 -0.35979455825166368 -0.48519290092039941 0 -0.37240076261097882 -0.48974555046165519 0 -0.37411677223754131 -0.47733161267270968 0 -0.37411677223754131 -0.47733161267270968 0 -0.37428706798929601 -0.46557084766945539 0 -0.35181335970555933 -0.47167232718529989 0 -0.37428706798929601 -0.46557084766945539 0 -0.35302422329502631 -0.44785824460859458 0 -0.35181335970555933 -0.47167232718529989 0 -0.37428706798929601 -0.46557084766945539 0 -0.33709504481289931 -0.46474263175187808 0 -0.35181335970555933 -0.47167232718529989 0 -0.35302422329502631 -0.44785824460859458 0 -0.37428706798929601 -0.46557084766945539 0 -0.35302422329502631 -0.44785824460859458 0 -0.37472313619600889 -0.43545561783144832 0 -0.37428706798929601 -0.46557084766945539 0 -0.37472313619600889 -0.43545561783144832 0 -0.35302422329502631 -0.44785824460859458 0 -0.37472313619600889 -0.43545561783144832 0 -0.36076670325611282 -0.42019275678090617 0 -0.37515920440272033 -0.40534038799344108 0 -0.37472313619600889 -0.43545561783144832 0 -0.36076670325611282 -0.42019275678090617 0 -0.37515920440272033 -0.40534038799344108 0 -0.36076670325611282 -0.42019275678090617 0 -0.35115835689997099 -0.40187837368579798 0 -0.37515920440272033 -0.40534038799344108 0 -0.37472313619600889 -0.43545561783144832 0 -0.36076670325611282 -0.42019275678090617 0 -0.35115835689997099 -0.40187837368579798 0 -0.34095461206840061 -0.42640878026434909 0 -0.34815033243380111 -0.40144447968524521 0 -0.35115835689997099 -0.40187837368579798 0 -0.34095461206840061 -0.42640878026434909 0 -0.35115835689997099 -0.40187837368579798 0 -0.34095461206840061 -0.42640878026434909 0 -0.35302422329502631 -0.44785824460859458 0 -0.36076670325611282 -0.42019275678090617 0 -0.34095461206840061 -0.42640878026434909 0 -0.37543310808941849 -0.38642437359143528 0 -0.36100598543278789 -0.37820409176948921 0 -0.35115835689997099 -0.40187837368579798 0 -0.37543310808941849 -0.38642437359143528 0 -0.37568304780698558 -0.36916333065311507 0 -0.36100598543278789 -0.37820409176948921 0 -0.37543310808941849 -0.38642437359143528 0 -0.36100598543278789 -0.37820409176948921 0 -0.37515920440272033 -0.40534038799344108 0 -0.37543310808941849 -0.38642437359143528 0 -0.35115835689997099 -0.40187837368579798 0 -0.37515920440272033 -0.40534038799344108 0 -0.35115835689997099 -0.40187837368579798 0 -0.35115835689997099 -0.40187837368579798 0 -0.34646966066369161 -0.38533898881774881 0 -0.34316085436749 -0.39382471367395527 0 -0.34815033243380111 -0.40144447968524521 0 -0.35115835689997099 -0.40187837368579798 0 -0.34316085436749 -0.39382471367395527 0 -0.34815033243380111 -0.40144447968524521 0 -0.35115835689997099 -0.40187837368579798 0 -0.33937201587241012 -0.36587749477948078 0 -0.36100598543278789 -0.37820409176948921 0 -0.34646966066369161 -0.38533898881774881 0 -0.36100598543278789 -0.37820409176948921 0 -0.35115835689997099 -0.40187837368579798 0 -0.36100598543278789 -0.37820409176948921 0 -0.35115835689997099 -0.40187837368579798 0 -0.34646966066369161 -0.38533898881774881 0 -0.33937201587241012 -0.36587749477948078 0 -0.32803705280137402 -0.37447550275240871 0 -0.34646966066369161 -0.38533898881774881 0 -0.32803705280137402 -0.37447550275240871 0 -0.34646966066369161 -0.38533898881774881 0 -0.32931529664348408 -0.38869437358142001 0 -0.34646966066369161 -0.38533898881774881 0 -0.32931529664348408 -0.38869437358142001 0 -0.34316085436749 -0.39382471367395527 0 -0.34815033243380111 -0.40144447968524521 0 -0.33486919938690762 -0.39884665705885908 0 -0.32944617452305069 -0.41182817437998842 0 -0.32931529664348408 -0.38869437358142001 0 -0.34316085436749 -0.39382471367395527 0 -0.33486919938690762 -0.39884665705885908 0 -0.32931529664348408 -0.38869437358142001 0 -0.33486919938690762 -0.39884665705885908 0 -0.32365381597648563 -0.39942827076698811 0 -0.34815033243380111 -0.40144447968524521 0 -0.34316085436749 -0.39382471367395527 0 -0.33486919938690762 -0.39884665705885908 0 -0.33486919938690762 -0.39884665705885908 0 -0.32365381597648563 -0.39942827076698811 0 -0.32944617452305069 -0.41182817437998842 0 -0.32931529664348408 -0.38869437358142001 0 -0.32365381597648563 -0.39942827076698811 0 -0.30988209993594379 -0.39542680479545339 0 -0.32365381597648563 -0.39942827076698811 0 -0.30595412674790001 -0.41636475829844438 0 -0.30988209993594379 -0.39542680479545339 0 -0.31381007312398762 -0.37448885129246268 0 -0.32931529664348408 -0.38869437358142001 0 -0.30988209993594379 -0.39542680479545339 0 -0.31381007312398762 -0.37448885129246268 0 -0.32803705280137402 -0.37447550275240871 0 -0.32931529664348408 -0.38869437358142001 0 -0.34095461206840061 -0.42640878026434909 0 -0.32944617452305069 -0.41182817437998842 0 -0.3206124180200437 -0.43193612962395289 0 -0.33075086723682939 -0.45093918684289991 0 -0.34095461206840061 -0.42640878026434909 0 -0.3206124180200437 -0.43193612962395289 0 -0.34815033243380111 -0.40144447968524521 0 -0.34095461206840061 -0.42640878026434909 0 -0.32944617452305069 -0.41182817437998842 0 -0.32944617452305069 -0.41182817437998842 0 -0.3206124180200437 -0.43193612962395289 0 -0.30595412674790001 -0.41636475829844438 0 -0.32365381597648563 -0.39942827076698811 0 -0.32944617452305069 -0.41182817437998842 0 -0.30595412674790001 -0.41636475829844438 0 -0.3206124180200437 -0.43193612962395289 0 -0.30595412674790001 -0.41636475829844438 0 -0.29602166034141808 -0.43748304283089118 0 -0.30595412674790001 -0.41636475829844438 0 -0.28680587137917263 -0.41476105187328532 0 -0.29502227998321778 -0.40112933436643161 0 -0.30595412674790001 -0.41636475829844438 0 -0.28680587137917263 -0.41476105187328532 0 -0.29602166034141808 -0.43748304283089118 0 -0.28680587137917263 -0.41476105187328532 0 -0.29602166034141808 -0.43748304283089118 0 -0.27149625348017281 -0.42637325053463759 0 -0.29602166034141808 -0.43748304283089118 0 -0.27149625348017281 -0.42637325053463759 0 -0.29602166034141808 -0.43748304283089118 0 -0.27149625348017281 -0.42637325053463759 0 -0.27906578537949278 -0.44687665772048962 0 -0.31381007312398762 -0.37448885129246268 0 -0.30988209993594379 -0.39542680479545339 0 -0.31381007312398762 -0.37448885129246268 0 -0.30988209993594379 -0.39542680479545339 0 -0.29196992941862432 -0.3825632544476108 0 -0.30595412674790001 -0.41636475829844438 0 -0.30988209993594379 -0.39542680479545339 0 -0.30595412674790001 -0.41636475829844438 0 -0.30988209993594379 -0.39542680479545339 0 -0.29502227998321778 -0.40112933436643161 0 -0.30988209993594379 -0.39542680479545339 0 -0.29502227998321778 -0.40112933436643161 0 -0.29196992941862432 -0.3825632544476108 0 -0.28680587137917263 -0.41476105187328532 0 -0.29502227998321778 -0.40112933436643161 0 -0.2806661672136338 -0.39648987600255969 0 -0.29502227998321778 -0.40112933436643161 0 -0.29196992941862432 -0.3825632544476108 0 -0.2806661672136338 -0.39648987600255969 0 -0.27675503022224163 -0.36681377825091099 0 -0.29196992941862432 -0.3825632544476108 0 -0.26924588117792803 -0.38334910629271668 0 -0.29196992941862432 -0.3825632544476108 0 -0.26924588117792803 -0.38334910629271668 0 -0.2806661672136338 -0.39648987600255969 0 -0.27675503022224163 -0.36681377825091099 0 -0.26924588117792803 -0.38334910629271668 0 -0.25812358553267323 -0.37605355791306738 0 -0.28680587137917263 -0.41476105187328532 0 -0.2806661672136338 -0.39648987600255969 0 -0.26326431180229581 -0.40282557300305732 0 -0.26924588117792803 -0.38334910629271668 0 -0.2806661672136338 -0.39648987600255969 0 -0.26326431180229581 -0.40282557300305732 0 -0.26326431180229581 -0.40282557300305732 0 -0.2504897110532438 -0.38524934403489181 0 -0.24394706363899241 -0.39877073912243299 0 -0.26326431180229581 -0.40282557300305732 0 -0.24697084661892749 -0.41526345823838401 0 -0.24394706363899241 -0.39877073912243299 0 -0.26924588117792803 -0.38334910629271668 0 -0.26326431180229581 -0.40282557300305732 0 -0.2504897110532438 -0.38524934403489181 0 -0.26924588117792803 -0.38334910629271668 0 -0.2504897110532438 -0.38524934403489181 0 -0.25812358553267323 -0.37605355791306738 0 -0.2504897110532438 -0.38524934403489181 0 -0.25812358553267323 -0.37605355791306738 0 -0.24839247009954951 -0.37292447016044328 0 -0.28680587137917263 -0.41476105187328532 0 -0.26326431180229581 -0.40282557300305732 0 -0.27149625348017281 -0.42637325053463759 0 -0.27149625348017281 -0.42637325053463759 0 -0.24697084661892749 -0.41526345823838401 0 -0.26326431180229581 -0.40282557300305732 0 -0.27149625348017281 -0.42637325053463759 0 -0.24697084661892749 -0.41526345823838401 0 -0.27149625348017281 -0.42637325053463759 0 -0.25687425522332558 -0.44642006451091643 0 -0.24697084661892749 -0.41526345823838401 0 -0.25687425522332558 -0.44642006451091643 0 -0.27607931301277078 -0.46657199895299017 0 -0.25409384940020791 -0.47271975939701871 0 -0.25687425522332558 -0.44642006451091643 0 -0.27607931301277078 -0.46657199895299017 0 -0.27906578537949278 -0.44687665772048962 0 -0.27149625348017281 -0.42637325053463759 0 -0.25687425522332558 -0.44642006451091643 0 -0.27906578537949278 -0.44687665772048962 0 -0.29602166034141808 -0.43748304283089118 0 -0.27906578537949278 -0.44687665772048962 0 -0.29968055871002541 -0.46203125713240301 0 -0.27607931301277078 -0.46657199895299017 0 -0.27906578537949278 -0.44687665772048962 0 -0.29968055871002541 -0.46203125713240301 0 -0.31571728338184601 -0.45752087103574601 0 -0.29968055871002541 -0.46203125713240301 0 -0.30706080135445341 -0.45057148265483188 0 -0.31571728338184601 -0.45752087103574601 0 -0.32054712240525829 -0.47546959342145068 0 -0.29968055871002541 -0.46203125713240301 0 -0.32054706720266329 -0.44859283512714471 0 -0.29602166034141808 -0.43748304283089118 0 -0.32054706720266329 -0.44859283512714471 0 -0.3206124180200437 -0.43193612962395289 0 -0.29602166034141808 -0.43748304283089118 0 -0.32054706720266329 -0.44859283512714471 0 -0.29602166034141808 -0.43748304283089118 0 -0.30706080135445341 -0.45057148265483188 0 -0.29602166034141808 -0.43748304283089118 0 -0.29968055871002541 -0.46203125713240301 0 -0.30706080135445341 -0.45057148265483188 0 -0.32054712240525829 -0.47546959342145068 0 -0.31034337757368669 -0.50000000000000133 0 -0.2941570887960146 -0.48201569375099518 0 -0.32054712240525829 -0.47546959342145068 0 -0.29968055871002541 -0.46203125713240301 0 -0.2941570887960146 -0.48201569375099518 0 -0.27607931301277078 -0.46657199895299017 0 -0.29968055871002541 -0.46203125713240301 0 -0.2941570887960146 -0.48201569375099518 0 -0.2941570887960146 -0.48201569375099518 0 -0.28248249767631262 -0.5 0 -0.27039562620846602 -0.48462576079096858 0 -0.31034337757368669 -0.50000000000000133 0 -0.2941570887960146 -0.48201569375099518 0 -0.28248249767631262 -0.5 0 -0.28248249767631262 -0.5 0 -0.27039562620846602 -0.48462576079096858 0 -0.25462161777893849 -0.5 0 -0.27607931301277078 -0.46657199895299017 0 -0.2941570887960146 -0.48201569375099518 0 -0.27039562620846602 -0.48462576079096858 0 -0.27607931301277078 -0.46657199895299017 0 -0.27039562620846602 -0.48462576079096858 0 -0.25409384940020791 -0.47271975939701871 0 -0.27039562620846602 -0.48462576079096858 0 -0.25409384940020791 -0.47271975939701871 0 -0.25462161777893849 -0.5 0 -0.25462161777893849 -0.5 0 -0.23155232774708009 -0.47932355884050398 0 -0.22676073788156451 -0.5 0 -0.25409384940020791 -0.47271975939701871 0 -0.25462161777893849 -0.5 0 -0.23155232774708009 -0.47932355884050398 0 -0.25409384940020791 -0.47271975939701871 0 -0.23155232774708009 -0.47932355884050398 0 -0.2350399564306665 -0.45937717328673289 0 -0.23155232774708009 -0.47932355884050398 0 -0.2350399564306665 -0.45937717328673289 0 -0.2080224731694312 -0.47403962225972662 0 -0.23155232774708009 -0.47932355884050398 0 -0.22676073788156451 -0.5 0 -0.2080224731694312 -0.47403962225972662 0 -0.25687425522332558 -0.44642006451091643 0 -0.2350399564306665 -0.45937717328673289 0 -0.23180750449586429 -0.4343742486430574 0 -0.25687425522332558 -0.44642006451091643 0 -0.25409384940020791 -0.47271975939701871 0 -0.2350399564306665 -0.45937717328673289 0 -0.2350399564306665 -0.45937717328673289 0 -0.21590660946663959 -0.44883644739355771 0 -0.2080224731694312 -0.47403962225972662 0 -0.2350399564306665 -0.45937717328673289 0 -0.21590660946663959 -0.44883644739355771 0 -0.23180750449586429 -0.4343742486430574 0 -0.21590660946663959 -0.44883644739355771 0 -0.1943898331460783 -0.4473597119794826 0 -0.20910912931781811 -0.42543372189632289 0 -0.21590660946663959 -0.44883644739355771 0 -0.1943898331460783 -0.4473597119794826 0 -0.2080224731694312 -0.47403962225972662 0 -0.1943898331460783 -0.4473597119794826 0 -0.2080224731694312 -0.47403962225972662 0 -0.17967053697433849 -0.46928570206264231 0 -0.22676073788156451 -0.5 0 -0.2080224731694312 -0.47403962225972662 0 -0.19889985798419041 -0.5 0 -0.2080224731694312 -0.47403962225972662 0 -0.1821948971586228 -0.48648437486529872 0 -0.17967053697433849 -0.46928570206264231 0 -0.2080224731694312 -0.47403962225972662 0 -0.19889985798419041 -0.5 0 -0.1821948971586228 -0.48648437486529872 0 -0.19889985798419041 -0.5 0 -0.1821948971586228 -0.48648437486529872 0 -0.17103897808681609 -0.49999999999999778 0 -0.1821948971586228 -0.48648437486529872 0 -0.17103897808681609 -0.49999999999999778 0 -0.16495124080259491 -0.49121169214579941 0 -0.17103897808681609 -0.49999999999999778 0 -0.16495124080259491 -0.49121169214579941 0 -0.17103897808681609 -0.49999999999999778 0 -0.16495124080259491 -0.49121169214579941 0 -0.15905149781887321 -0.49999999999999961 0 -0.16495124080259491 -0.49121169214579941 0 -0.15905149781887321 -0.49999999999999961 0 -0.1545750311736096 -0.49062041690426861 0 -0.16495124080259491 -0.49121169214579941 0 -0.15905149781887321 -0.49999999999999961 0 -0.16495124080259491 -0.49121169214579941 0 -0.16530166315622061 -0.47155300009798301 0 -0.17967053697433849 -0.46928570206264231 0 -0.16495124080259491 -0.49121169214579941 0 -0.16530166315622061 -0.47155300009798301 0 -0.15083103946930049 -0.47082765280793248 0 -0.16495124080259491 -0.49121169214579941 0 -0.1545750311736096 -0.49062041690426861 0 -0.15083103946930049 -0.47082765280793248 0 -0.16495124080259491 -0.49121169214579941 0 -0.15083103946930049 -0.47082765280793248 0 -0.16495124080259491 -0.49121169214579941 0 -0.17967053697433849 -0.46928570206264231 0 -0.1821948971586228 -0.48648437486529872 0 -0.16495124080259491 -0.49121169214579941 0 -0.17967053697433849 -0.46928570206264231 0 -0.1943898331460783 -0.4473597119794826 0 -0.17967053697433849 -0.46928570206264231 0 -0.1943898331460783 -0.4473597119794826 0 -0.17967053697433849 -0.46928570206264231 0 -0.1657538353786501 -0.45488695337555668 0 -0.1943898331460783 -0.4473597119794826 0 -0.1657538353786501 -0.45488695337555668 0 -0.1755027511393909 -0.43471579892562301 0 -0.1657538353786501 -0.45488695337555668 0 -0.15761868306950341 -0.43586407366366631 0 -0.1755027511393909 -0.43471579892562301 0 -0.16530166315622061 -0.47155300009798301 0 -0.1657538353786501 -0.45488695337555668 0 -0.15083103946930049 -0.47082765280793248 0 -0.16530166315622061 -0.47155300009798301 0 -0.17967053697433849 -0.46928570206264231 0 -0.1657538353786501 -0.45488695337555668 0 -0.13671083813600751 -0.45044361347006462 0 -0.15083103946930049 -0.47082765280793248 0 -0.13671083813600751 -0.45044361347006462 0 -0.13441782301728619 -0.47175980973682791 0 -0.15083103946930049 -0.47082765280793248 0 -0.1657538353786501 -0.45488695337555668 0 -0.13671083813600751 -0.45044361347006462 0 -0.15083103946930049 -0.47082765280793248 0 -0.13671083813600751 -0.45044361347006462 0 -0.13816776916695811 -0.432543871779144 0 -0.15761868306950341 -0.43586407366366631 0 -0.1657538353786501 -0.45488695337555668 0 -0.13671083813600751 -0.45044361347006462 0 -0.15761868306950341 -0.43586407366366631 0 -0.13671083813600751 -0.45044361347006462 0 -0.13816776916695811 -0.432543871779144 0 -0.1225906368027144 -0.43005957413219659 0 -0.13671083813600751 -0.45044361347006462 0 -0.1225906368027144 -0.43005957413219659 0 -0.13671083813600751 -0.45044361347006462 0 -0.13441782301728619 -0.47175980973682791 0 -0.1201929706126502 -0.46127799294672761 0 -0.13441782301728619 -0.47175980973682791 0 -0.12605423818426559 -0.48707922202292669 0 -0.14429533434837091 -0.48908967660720287 0 -0.13441782301728619 -0.47175980973682791 0 -0.12605423818426559 -0.48707922202292669 0 -0.1201929706126502 -0.46127799294672761 0 -0.1295391708778694 -0.5 0 -0.12605423818426559 -0.48707922202292669 0 -0.14429533434837091 -0.48908967660720287 0 -0.15905149781887321 -0.49999999999999961 0 -0.1295391708778694 -0.5 0 -0.14429533434837091 -0.48908967660720287 0 -0.15905149781887321 -0.49999999999999961 0 -0.14429533434837091 -0.48908967660720287 0 -0.1545750311736096 -0.49062041690426861 0 -0.14429533434837091 -0.48908967660720287 0 -0.1545750311736096 -0.49062041690426861 0 -0.15083103946930049 -0.47082765280793248 0 -0.13441782301728619 -0.47175980973682791 0 -0.14429533434837091 -0.48908967660720287 0 -0.15083103946930049 -0.47082765280793248 0 -0.15345949684661231 -0.4053237642064671 0 -0.15136585988972451 -0.39002590355483568 0 -0.13982663417143551 -0.39933000433158738 0 -0.15136585988972451 -0.39002590355483568 0 -0.1368738238800834 -0.3880397179408614 0 -0.13982663417143551 -0.39933000433158738 0 -0.15345949684661231 -0.4053237642064671 0 -0.13982663417143551 -0.39933000433158738 0 -0.1398029654186671 -0.41064466143528439 0 -0.15136585988972451 -0.39002590355483568 0 -0.1368738238800834 -0.3880397179408614 0 -0.13959568407155781 -0.37291875636350952 0 -0.15136585988972451 -0.39002590355483568 0 -0.15951650330528561 -0.37856285477961621 0 -0.13959568407155781 -0.37291875636350952 0 -0.1368738238800834 -0.3880397179408614 0 -0.12625141541498519 -0.38197991289387551 0 -0.13959568407155781 -0.37291875636350952 0 -0.1368738238800834 -0.3880397179408614 0 -0.12625141541498519 -0.38197991289387551 0 -0.1273295258527142 -0.39594401256049883 0 -0.1368738238800834 -0.3880397179408614 0 -0.1273295258527142 -0.39594401256049883 0 -0.13982663417143551 -0.39933000433158738 0 -0.13982663417143551 -0.39933000433158738 0 -0.1295768038857959 -0.40463739140698729 0 -0.1398029654186671 -0.41064466143528439 0 -0.1273295258527142 -0.39594401256049883 0 -0.13982663417143551 -0.39933000433158738 0 -0.1295768038857959 -0.40463739140698729 0 -0.1273295258527142 -0.39594401256049883 0 -0.1295768038857959 -0.40463739140698729 0 -0.1219584454402414 -0.40406961642135292 0 -0.1295768038857959 -0.40463739140698729 0 -0.1296119374269841 -0.41417592727859581 0 -0.1225700411049412 -0.40994677461386392 0 -0.1296119374269841 -0.41417592727859581 0 -0.12315425937001 -0.41747458531602638 0 -0.1225700411049412 -0.40994677461386392 0 -0.1296119374269841 -0.41417592727859581 0 -0.13713184062407599 -0.42036644340313623 0 -0.12908399078123631 -0.42243277819987513 0 -0.1296119374269841 -0.41417592727859581 0 -0.12908399078123631 -0.42243277819987513 0 -0.12315425937001 -0.41747458531602638 0 -0.1296119374269841 -0.41417592727859581 0 -0.13713184062407599 -0.42036644340313623 0 -0.1398029654186671 -0.41064466143528439 0 -0.1295768038857959 -0.40463739140698729 0 -0.1296119374269841 -0.41417592727859581 0 -0.1398029654186671 -0.41064466143528439 0 -0.12908399078123631 -0.42243277819987513 0 -0.13816776916695811 -0.432543871779144 0 -0.1225906368027144 -0.43005957413219659 0 -0.13713184062407599 -0.42036644340313623 0 -0.12908399078123631 -0.42243277819987513 0 -0.13816776916695811 -0.432543871779144 0 -0.13816776916695811 -0.432543871779144 0 -0.14921107955709881 -0.42003443798493328 0 -0.15761868306950341 -0.43586407366366631 0 -0.13713184062407599 -0.42036644340313623 0 -0.13816776916695811 -0.432543871779144 0 -0.14921107955709881 -0.42003443798493328 0 -0.15345949684661231 -0.4053237642064671 0 -0.1398029654186671 -0.41064466143528439 0 -0.14921107955709881 -0.42003443798493328 0 -0.13713184062407599 -0.42036644340313623 0 -0.1398029654186671 -0.41064466143528439 0 -0.14921107955709881 -0.42003443798493328 0 -0.15345949684661231 -0.4053237642064671 0 -0.14921107955709881 -0.42003443798493328 0 -0.17009787391258249 -0.41611158199907422 0 -0.14921107955709881 -0.42003443798493328 0 -0.17009787391258249 -0.41611158199907422 0 -0.15761868306950341 -0.43586407366366631 0 -0.17009787391258249 -0.41611158199907422 0 -0.15761868306950341 -0.43586407366366631 0 -0.1755027511393909 -0.43471579892562301 0 -0.1943898331460783 -0.4473597119794826 0 -0.1755027511393909 -0.43471579892562301 0 -0.18951413900105801 -0.42212105940109063 0 -0.17009787391258249 -0.41611158199907422 0 -0.1755027511393909 -0.43471579892562301 0 -0.18951413900105801 -0.42212105940109063 0 -0.17009787391258249 -0.41611158199907422 0 -0.18562609472684241 -0.40161550393767448 0 -0.18951413900105801 -0.42212105940109063 0 -0.18562609472684241 -0.40161550393767448 0 -0.16863204450281991 -0.39380366607865908 0 -0.18254917963999329 -0.38971973427100182 0 -0.17009787391258249 -0.41611158199907422 0 -0.18562609472684241 -0.40161550393767448 0 -0.16863204450281991 -0.39380366607865908 0 -0.18562609472684241 -0.40161550393767448 0 -0.18254917963999329 -0.38971973427100182 0 -0.19364364155811911 -0.391297223908462 0 -0.15345949684661231 -0.4053237642064671 0 -0.17009787391258249 -0.41611158199907422 0 -0.16863204450281991 -0.39380366607865908 0 -0.15345949684661231 -0.4053237642064671 0 -0.15136585988972451 -0.39002590355483568 0 -0.16863204450281991 -0.39380366607865908 0 -0.15951650330528561 -0.37856285477961621 0 -0.17625218554490921 -0.38180729220612769 0 -0.1663610822414904 -0.3702523776444529 0 -0.16863204450281991 -0.39380366607865908 0 -0.15951650330528561 -0.37856285477961621 0 -0.17625218554490921 -0.38180729220612769 0 -0.15136585988972451 -0.39002590355483568 0 -0.16863204450281991 -0.39380366607865908 0 -0.15951650330528561 -0.37856285477961621 0 -0.17625218554490921 -0.38180729220612769 0 -0.1663610822414904 -0.3702523776444529 0 -0.18579747934449059 -0.37379744869579251 0 -0.16863204450281991 -0.39380366607865908 0 -0.17625218554490921 -0.38180729220612769 0 -0.18254917963999329 -0.38971973427100182 0 -0.17625218554490921 -0.38180729220612769 0 -0.18254917963999329 -0.38971973427100182 0 -0.18859193186727599 -0.38007498522408562 0 -0.17625218554490921 -0.38180729220612769 0 -0.18859193186727599 -0.38007498522408562 0 -0.18579747934449059 -0.37379744869579251 0 -0.18859193186727599 -0.38007498522408562 0 -0.2014200033848125 -0.37119512976538899 0 -0.18859193186727599 -0.38007498522408562 0 -0.2014200033848125 -0.37119512976538899 0 -0.18579747934449059 -0.37379744869579251 0 -0.18859193186727599 -0.38007498522408562 0 -0.1989719328316337 -0.38216032023399737 0 -0.2014200033848125 -0.37119512976538899 0 -0.1989719328316337 -0.38216032023399737 0 -0.20694960464083431 -0.38128159833907621 0 -0.2014200033848125 -0.37119512976538899 0 -0.1989719328316337 -0.38216032023399737 0 -0.19364364155811911 -0.391297223908462 0 -0.20620014074293039 -0.39180645285032889 0 -0.18859193186727599 -0.38007498522408562 0 -0.1989719328316337 -0.38216032023399737 0 -0.19364364155811911 -0.391297223908462 0 -0.18254917963999329 -0.38971973427100182 0 -0.18859193186727599 -0.38007498522408562 0 -0.19364364155811911 -0.391297223908462 0 -0.18562609472684241 -0.40161550393767448 0 -0.19364364155811911 -0.391297223908462 0 -0.20208872018367391 -0.4070926974887904 0 -0.19364364155811911 -0.391297223908462 0 -0.20620014074293039 -0.39180645285032889 0 -0.20208872018367391 -0.4070926974887904 0 -0.20620014074293039 -0.39180645285032889 0 -0.21479853281951461 -0.38638530273916921 0 -0.22382842548955789 -0.4035077318131633 0 -0.20620014074293039 -0.39180645285032889 0 -0.20208872018367391 -0.4070926974887904 0 -0.22382842548955789 -0.4035077318131633 0 -0.21479853281951461 -0.38638530273916921 0 -0.20694960464083431 -0.38128159833907621 0 -0.21335741342528061 -0.3748607861064962 0 -0.21479853281951461 -0.38638530273916921 0 -0.22412886374227589 -0.38235217247817599 0 -0.21335741342528061 -0.3748607861064962 0 -0.20694960464083431 -0.38128159833907621 0 -0.2014200033848125 -0.37119512976538899 0 -0.21335741342528061 -0.3748607861064962 0 -0.20620014074293039 -0.39180645285032889 0 -0.21479853281951461 -0.38638530273916921 0 -0.20694960464083431 -0.38128159833907621 0 -0.1989719328316337 -0.38216032023399737 0 -0.20620014074293039 -0.39180645285032889 0 -0.20694960464083431 -0.38128159833907621 0 -0.1943898331460783 -0.4473597119794826 0 -0.20910912931781811 -0.42543372189632289 0 -0.1943898331460783 -0.4473597119794826 0 -0.18951413900105801 -0.42212105940109063 0 -0.20910912931781811 -0.42543372189632289 0 -0.18951413900105801 -0.42212105940109063 0 -0.20208872018367391 -0.4070926974887904 0 -0.20910912931781811 -0.42543372189632289 0 -0.18562609472684241 -0.40161550393767448 0 -0.18951413900105801 -0.42212105940109063 0 -0.20208872018367391 -0.4070926974887904 0 -0.20208872018367391 -0.4070926974887904 0 -0.20910912931781811 -0.42543372189632289 0 -0.22382842548955789 -0.4035077318131633 0 -0.20910912931781811 -0.42543372189632289 0 -0.22382842548955789 -0.4035077318131633 0 -0.21590660946663959 -0.44883644739355771 0 -0.20910912931781811 -0.42543372189632289 0 -0.23180750449586429 -0.4343742486430574 0 -0.20910912931781811 -0.42543372189632289 0 -0.23180750449586429 -0.4343742486430574 0 -0.22382842548955789 -0.4035077318131633 0 -0.23180750449586429 -0.4343742486430574 0 -0.24697084661892749 -0.41526345823838401 0 -0.22382842548955789 -0.4035077318131633 0 -0.25687425522332558 -0.44642006451091643 0 -0.23180750449586429 -0.4343742486430574 0 -0.24697084661892749 -0.41526345823838401 0 -0.22412886374227589 -0.38235217247817599 0 -0.2351820232309369 -0.38700758852266848 0 -0.22952037500089251 -0.37311519752493849 0 -0.22412886374227589 -0.38235217247817599 0 -0.22186900287429051 -0.37074082218821958 0 -0.21335741342528061 -0.3748607861064962 0 -0.22412886374227589 -0.38235217247817599 0 -0.22952037500089251 -0.37311519752493849 0 -0.22186900287429051 -0.37074082218821958 0 -0.22382842548955789 -0.4035077318131633 0 -0.24394706363899241 -0.39877073912243299 0 -0.2351820232309369 -0.38700758852266848 0 -0.21479853281951461 -0.38638530273916921 0 -0.22412886374227589 -0.38235217247817599 0 -0.22382842548955789 -0.4035077318131633 0 -0.22412886374227589 -0.38235217247817599 0 -0.22382842548955789 -0.4035077318131633 0 -0.2351820232309369 -0.38700758852266848 0 -0.24697084661892749 -0.41526345823838401 0 -0.22382842548955789 -0.4035077318131633 0 -0.24394706363899241 -0.39877073912243299 0 -0.2504897110532438 -0.38524934403489181 0 -0.24394706363899241 -0.39877073912243299 0 -0.2351820232309369 -0.38700758852266848 0 -0.2504897110532438 -0.38524934403489181 0 -0.2351820232309369 -0.38700758852266848 0 -0.24036284435674521 -0.37772398595485779 0 -0.2351820232309369 -0.38700758852266848 0 -0.24036284435674521 -0.37772398595485779 0 -0.22952037500089251 -0.37311519752493849 0 -0.2504897110532438 -0.38524934403489181 0 -0.24036284435674521 -0.37772398595485779 0 -0.24839247009954951 -0.37292447016044328 0 -0.24839247009954951 -0.37292447016044328 0 -0.24532753696728959 -0.36501789644951049 0 -0.23861636880082099 -0.36955921174380651 0 -0.24036284435674521 -0.37772398595485779 0 -0.24839247009954951 -0.37292447016044328 0 -0.23861636880082099 -0.36955921174380651 0 -0.25757508569408222 -0.36424633604315798 0 -0.24532753696728959 -0.36501789644951049 0 -0.24650166737573331 -0.3569693529562265 0 -0.24532753696728959 -0.36501789644951049 0 -0.24234943749700691 -0.36154613291017651 0 -0.24650166737573331 -0.3569693529562265 0 -0.24532753696728959 -0.36501789644951049 0 -0.24234943749700691 -0.36154613291017651 0 -0.23928568589256061 -0.36455139619594779 0 -0.24234943749700691 -0.36154613291017651 0 -0.23928568589256061 -0.36455139619594779 0 -0.23696933381926599 -0.3585493042599866 0 -0.24532753696728959 -0.36501789644951049 0 -0.23928568589256061 -0.36455139619594779 0 -0.23861636880082099 -0.36955921174380651 0 -0.23928568589256061 -0.36455139619594779 0 -0.23861636880082099 -0.36955921174380651 0 -0.23345080570298909 -0.36409891217005902 0 -0.23928568589256061 -0.36455139619594779 0 -0.23345080570298909 -0.36409891217005902 0 -0.23696933381926599 -0.3585493042599866 0 -0.24036284435674521 -0.37772398595485779 0 -0.23861636880082099 -0.36955921174380651 0 -0.22952037500089251 -0.37311519752493849 0 -0.23345080570298909 -0.36409891217005902 0 -0.22186900287429051 -0.37074082218821958 0 -0.21424807490234879 -0.36231527430669241 0 -0.22952037500089251 -0.37311519752493849 0 -0.23345080570298909 -0.36409891217005902 0 -0.22186900287429051 -0.37074082218821958 0 -0.23696933381926599 -0.3585493042599866 0 -0.21424807490234879 -0.36231527430669241 0 -0.23861636880082099 -0.36955921174380651 0 -0.22952037500089251 -0.37311519752493849 0 -0.23345080570298909 -0.36409891217005902 0 -0.23345080570298909 -0.36409891217005902 0 -0.23696933381926599 -0.3585493042599866 0 -0.21424807490234879 -0.36231527430669241 0 -0.22913587473404851 -0.35200963246311751 0 -0.2097464541822805 -0.33582260124732738 0 -0.22913587473404851 -0.35200963246311751 0 -0.23696933381926599 -0.3585493042599866 0 -0.21424807490234879 -0.36231527430669241 0 -0.22913587473404851 -0.35200963246311751 0 -0.21998707993494029 -0.33959044394559312 0 -0.22913587473404851 -0.35200963246311751 0 -0.21424807490234879 -0.36231527430669241 0 -0.22913587473404851 -0.35200963246311751 0 -0.23696933381926599 -0.3585493042599866 0 -0.22913587473404851 -0.35200963246311751 0 -0.24881121389389799 -0.33838995723746451 0 -0.22913587473404851 -0.35200963246311751 0 -0.23696933381926599 -0.3585493042599866 0 -0.24650166737573331 -0.3569693529562265 0 -0.22913587473404851 -0.35200963246311751 0 -0.24650166737573331 -0.3569693529562265 0 -0.24881121389389799 -0.33838995723746451 0 -0.23696933381926599 -0.3585493042599866 0 -0.24650166737573331 -0.3569693529562265 0 -0.24234943749700691 -0.36154613291017651 0 -0.23696933381926599 -0.3585493042599866 0 -0.24650166737573331 -0.3569693529562265 0 -0.22913587473404851 -0.35200963246311751 0 -0.24881121389389799 -0.33838995723746451 0 -0.2325545649384867 -0.33453283978227571 0 -0.24881121389389799 -0.33838995723746451 0 -0.2441082332202735 -0.32380704628422963 0 -0.2325545649384867 -0.33453283978227571 0 -0.23613058105125781 -0.31890710479075163 0 -0.2279063026952847 -0.3135077128279592 0 -0.2444966906846206 -0.31181945912301329 0 -0.2441082332202735 -0.32380704628422963 0 -0.23498207165859719 -0.32537142019391418 0 -0.23613058105125781 -0.31890710479075163 0 -0.2441082332202735 -0.32380704628422963 0 -0.23498207165859719 -0.32537142019391418 0 -0.2325545649384867 -0.33453283978227571 0 -0.2441082332202735 -0.32380704628422963 0 -0.23613058105125781 -0.31890710479075163 0 -0.2444966906846206 -0.31181945912301329 0 -0.2279063026952847 -0.3135077128279592 0 -0.2193464910840433 -0.31976030368968739 0 -0.21134622408423179 -0.310554889255794 0 -0.23613058105125781 -0.31890710479075163 0 -0.2279063026952847 -0.3135077128279592 0 -0.22829430606921119 -0.32293804105388452 0 -0.23498207165859719 -0.32537142019391418 0 -0.22829430606921119 -0.32293804105388452 0 -0.2325545649384867 -0.33453283978227571 0 -0.23498207165859719 -0.32537142019391418 0 -0.23613058105125781 -0.31890710479075163 0 -0.22829430606921119 -0.32293804105388452 0 -0.22829430606921119 -0.32293804105388452 0 -0.2193464910840433 -0.31976030368968739 0 -0.22209033975117781 -0.32887735541776358 0 -0.2279063026952847 -0.3135077128279592 0 -0.22829430606921119 -0.32293804105388452 0 -0.2193464910840433 -0.31976030368968739 0 -0.22913587473404851 -0.35200963246311751 0 -0.2325545649384867 -0.33453283978227571 0 -0.21998707993494029 -0.33959044394559312 0 -0.22913587473404851 -0.35200963246311751 0 -0.21998707993494029 -0.33959044394559312 0 -0.2097464541822805 -0.33582260124732738 0 -0.22829430606921119 -0.32293804105388452 0 -0.2325545649384867 -0.33453283978227571 0 -0.22209033975117781 -0.32887735541776358 0 -0.2325545649384867 -0.33453283978227571 0 -0.22209033975117781 -0.32887735541776358 0 -0.21998707993494029 -0.33959044394559312 0 -0.21998707993494029 -0.33959044394559312 0 -0.21026925672920721 -0.32756514861737779 0 -0.22209033975117781 -0.32887735541776358 0 -0.21998707993494029 -0.33959044394559312 0 -0.21026925672920721 -0.32756514861737779 0 -0.21998707993494029 -0.33959044394559312 0 -0.2097464541822805 -0.33582260124732738 0 -0.21026925672920721 -0.32756514861737779 0 -0.2097464541822805 -0.33582260124732738 0 -0.21026925672920721 -0.32756514861737779 0 -0.21026925672920721 -0.32756514861737779 0 -0.21134622408423179 -0.310554889255794 0 -0.19267178705524021 -0.30578920503631912 0 -0.21026925672920721 -0.32756514861737779 0 -0.21134622408423179 -0.310554889255794 0 -0.2097464541822805 -0.33582260124732738 0 -0.21026925672920721 -0.32756514861737779 0 -0.19254159852174429 -0.31996122112867409 0 -0.2193464910840433 -0.31976030368968739 0 -0.21026925672920721 -0.32756514861737779 0 -0.21134622408423179 -0.310554889255794 0 -0.2193464910840433 -0.31976030368968739 0 -0.22209033975117781 -0.32887735541776358 0 -0.21026925672920721 -0.32756514861737779 0 -0.2097464541822805 -0.33582260124732738 0 -0.1943588054861482 -0.32297640251143073 0 -0.19254159852174429 -0.31996122112867409 0 -0.21026925672920721 -0.32756514861737779 0 -0.19267178705524021 -0.30578920503631912 0 -0.21026925672920721 -0.32756514861737779 0 -0.19254159852174429 -0.31996122112867409 0 -0.19267178705524021 -0.30578920503631912 0 -0.2097464541822805 -0.33582260124732738 0 -0.19254159852174429 -0.31996122112867409 0 -0.1943588054861482 -0.32297640251143073 0 -0.18737083868624629 -0.33075534874643497 0 -0.18479650728396149 -0.32227615663527998 0 -0.1943588054861482 -0.32297640251143073 0 -0.19254159852174429 -0.31996122112867409 0 -0.1789711567900161 -0.3101302037755338 0 -0.2097464541822805 -0.33582260124732738 0 -0.19466829689393059 -0.33824472710720138 0 -0.19565175395430129 -0.3512554891803924 0 -0.2097464541822805 -0.33582260124732738 0 -0.1943588054861482 -0.32297640251143073 0 -0.19466829689393059 -0.33824472710720138 0 -0.2097464541822805 -0.33582260124732738 0 -0.1943588054861482 -0.32297640251143073 0 -0.1943588054861482 -0.32297640251143073 0 -0.19466829689393059 -0.33824472710720138 0 -0.18737083868624629 -0.33075534874643497 0 -0.19466829689393059 -0.33824472710720138 0 -0.18164424501215659 -0.34621916084723381 0 -0.18737083868624629 -0.33075534874643497 0 -0.19466829689393059 -0.33824472710720138 0 -0.19565175395430129 -0.3512554891803924 0 -0.18164424501215659 -0.34621916084723381 0 -0.20800359978069241 -0.36335027445133922 0 -0.18480326185087809 -0.36719565018674682 0 -0.19565175395430129 -0.3512554891803924 0 -0.20800359978069241 -0.36335027445133922 0 -0.18480326185087809 -0.36719565018674682 0 -0.2014200033848125 -0.37119512976538899 0 -0.18480326185087809 -0.36719565018674682 0 -0.18579747934449059 -0.37379744869579251 0 -0.2014200033848125 -0.37119512976538899 0 -0.20800359978069241 -0.36335027445133922 0 -0.18480326185087809 -0.36719565018674682 0 -0.2014200033848125 -0.37119512976538899 0 -0.20800359978069241 -0.36335027445133922 0 -0.20803809997708481 -0.36661394692190907 0 -0.20800359978069241 -0.36335027445133922 0 -0.20803809997708481 -0.36661394692190907 0 -0.21424807490234879 -0.36231527430669241 0 -0.20800359978069241 -0.36335027445133922 0 -0.20803809997708481 -0.36661394692190907 0 -0.2014200033848125 -0.37119512976538899 0 -0.20803809997708481 -0.36661394692190907 0 -0.21335741342528061 -0.3748607861064962 0 -0.2014200033848125 -0.37119512976538899 0 -0.20803809997708481 -0.36661394692190907 0 -0.20803809997708481 -0.36661394692190907 0 -0.21335741342528061 -0.3748607861064962 0 -0.21424807490234879 -0.36231527430669241 0 -0.22186900287429051 -0.37074082218821958 0 -0.21335741342528061 -0.3748607861064962 0 -0.21424807490234879 -0.36231527430669241 0 -0.20800359978069241 -0.36335027445133922 0 -0.21424807490234879 -0.36231527430669241 0 -0.20803809997708481 -0.36661394692190907 0 -0.21424807490234879 -0.36231527430669241 0 -0.2097464541822805 -0.33582260124732738 0 -0.19565175395430129 -0.3512554891803924 0 -0.20800359978069241 -0.36335027445133922 0 -0.2097464541822805 -0.33582260124732738 0 -0.20800359978069241 -0.36335027445133922 0 -0.2097464541822805 -0.33582260124732738 0 -0.20800359978069241 -0.36335027445133922 0 -0.21424807490234879 -0.36231527430669241 0 -0.22913587473404851 -0.35200963246311751 0 -0.2097464541822805 -0.33582260124732738 0 -0.21424807490234879 -0.36231527430669241 0 -0.2335542019388327 -0.26090262277066528 0 -0.21472073189145299 -0.25725591714607071 0 -0.22837296648480071 -0.23789375384220129 0 -0.2335542019388327 -0.26090262277066528 0 -0.21357196166535461 -0.27540027352014051 0 -0.21472073189145299 -0.25725591714607071 0 -0.25298377122075039 -0.27518622721876451 0 -0.2335542019388327 -0.26090262277066528 0 -0.25431856302814809 -0.24833495949118861 0 -0.25298377122075039 -0.27518622721876451 0 -0.2335542019388327 -0.26090262277066528 0 -0.23093648268818689 -0.28342115129973 0 -0.2335542019388327 -0.26090262277066528 0 -0.23093648268818689 -0.28342115129973 0 -0.21357196166535461 -0.27540027352014051 0 -0.23093648268818689 -0.28342115129973 0 -0.21242319143925911 -0.29354462989421048 0 -0.21357196166535461 -0.27540027352014051 0 -0.23093648268818689 -0.28342115129973 0 -0.2435111179254994 -0.29490773243705071 0 -0.2284599410619414 -0.30268204450860919 0 -0.23093648268818689 -0.28342115129973 0 -0.2284599410619414 -0.30268204450860919 0 -0.21242319143925911 -0.29354462989421048 0 -0.25298377122075039 -0.27518622721876451 0 -0.23093648268818689 -0.28342115129973 0 -0.2435111179254994 -0.29490773243705071 0 -0.2444966906846206 -0.31181945912301329 0 -0.2284599410619414 -0.30268204450860919 0 -0.2435111179254994 -0.29490773243705071 0 -0.2444966906846206 -0.31181945912301329 0 -0.2284599410619414 -0.30268204450860919 0 -0.26057201890547982 -0.29344093798311832 0 -0.2435111179254994 -0.29490773243705071 0 -0.2444966906846206 -0.31181945912301329 0 -0.2279063026952847 -0.3135077128279592 0 -0.2444966906846206 -0.31181945912301329 0 -0.2284599410619414 -0.30268204450860919 0 -0.2284599410619414 -0.30268204450860919 0 -0.21242319143925911 -0.29354462989421048 0 -0.2279063026952847 -0.3135077128279592 0 -0.2284599410619414 -0.30268204450860919 0 -0.21134622408423179 -0.310554889255794 0 -0.2284599410619414 -0.30268204450860919 0 -0.21134622408423179 -0.310554889255794 0 -0.21242319143925911 -0.29354462989421048 0 -0.21134622408423179 -0.310554889255794 0 -0.19267178705524021 -0.30578920503631912 0 -0.21242319143925911 -0.29354462989421048 0 -0.21134622408423179 -0.310554889255794 0 -0.21242319143925911 -0.29354462989421048 0 -0.19267178705524021 -0.30578920503631912 0 -0.19410774352861071 -0.2831088592208712 0 -0.21242319143925911 -0.29354462989421048 0 -0.19410774352861071 -0.2831088592208712 0 -0.21242319143925911 -0.29354462989421048 0 -0.21357196166535461 -0.27540027352014051 0 -0.19410774352861071 -0.2831088592208712 0 -0.21242319143925911 -0.29354462989421048 0 -0.21242319143925911 -0.29354462989421048 0 -0.21357196166535461 -0.27540027352014051 0 -0.21357196166535461 -0.27540027352014051 0 -0.21472073189145299 -0.25725591714607071 0 -0.19410774352861071 -0.2831088592208712 0 -0.21357196166535461 -0.27540027352014051 0 -0.1965391795889786 -0.26204425282134669 0 -0.19410774352861071 -0.2831088592208712 0 -0.1965391795889786 -0.26204425282134669 0 -0.17579229561796161 -0.27267308854753308 0 -0.1965391795889786 -0.26204425282134669 0 -0.20565562739327201 -0.24334207984173631 0 -0.18863044441395099 -0.24733650333174401 0 -0.1965391795889786 -0.26204425282134669 0 -0.18340152769721799 -0.25642831405215172 0 -0.18863044441395099 -0.24733650333174401 0 -0.1965391795889786 -0.26204425282134669 0 -0.21472073189145299 -0.25725591714607071 0 -0.20565562739327201 -0.24334207984173631 0 -0.21357196166535461 -0.27540027352014051 0 -0.1965391795889786 -0.26204425282134669 0 -0.21472073189145299 -0.25725591714607071 0 -0.15747684770731041 -0.26223731787419863 0 -0.16344648285301799 -0.25937253054906129 0 -0.17579229561796161 -0.27267308854753308 0 -0.1593809120407062 -0.25278805690175971 0 -0.16344648285301799 -0.25937253054906129 0 -0.1534429259631987 -0.25724555178864622 0 -0.1593809120407062 -0.25278805690175971 0 -0.16344648285301799 -0.25937253054906129 0 -0.16709258238786229 -0.25188408856254202 0 -0.1593809120407062 -0.25278805690175971 0 -0.16709258238786229 -0.25188408856254202 0 -0.1601832428566283 -0.24550858739866141 0 -0.15747684770731041 -0.26223731787419863 0 -0.16344648285301799 -0.25937253054906129 0 -0.1534429259631987 -0.25724555178864622 0 -0.16344648285301799 -0.25937253054906129 0 -0.1534429259631987 -0.25724555178864622 0 -0.16344648285301799 -0.25937253054906129 0 -0.17379217291466831 -0.25992581321180469 0 -0.17579229561796161 -0.27267308854753308 0 -0.16344648285301799 -0.25937253054906129 0 -0.16709258238786229 -0.25188408856254202 0 -0.17379217291466831 -0.25992581321180469 0 -0.16709258238786229 -0.25188408856254202 0 -0.17679077873490559 -0.25046109420941731 0 -0.17379217291466831 -0.25992581321180469 0 -0.1965391795889786 -0.26204425282134669 0 -0.18340152769721799 -0.25642831405215172 0 -0.17579229561796161 -0.27267308854753308 0 -0.17679077873490559 -0.25046109420941731 0 -0.18340152769721799 -0.25642831405215172 0 -0.17379217291466831 -0.25992581321180469 0 -0.18340152769721799 -0.25642831405215172 0 -0.17379217291466831 -0.25992581321180469 0 -0.17579229561796161 -0.27267308854753308 0 -0.17679077873490559 -0.25046109420941731 0 -0.18340152769721799 -0.25642831405215172 0 -0.18863044441395099 -0.24733650333174401 0 -0.19410774352861071 -0.2831088592208712 0 -0.17579229561796161 -0.27267308854753308 0 -0.17507431738127369 -0.28401326145526029 0 -0.19410774352861071 -0.2831088592208712 0 -0.17579229561796161 -0.27267308854753308 0 -0.15747684770731041 -0.26223731787419863 0 -0.17507431738127369 -0.28401326145526029 0 -0.15747684770731041 -0.26223731787419863 0 -0.17579229561796161 -0.27267308854753308 0 -0.15747684770731041 -0.26223731787419863 0 -0.17579229561796161 -0.27267308854753308 0 -0.17507431738127369 -0.28401326145526029 0 -0.15747684770731041 -0.26223731787419863 0 -0.1596399504195592 -0.27820623095404468 0 -0.17507431738127369 -0.28401326145526029 0 -0.1596399504195592 -0.27820623095404468 0 -0.1624028041075358 -0.29248408411088062 0 -0.1494793968803598 -0.28070198605355251 0 -0.1624028041075358 -0.29248408411088062 0 -0.15973767967650701 -0.30493196891575292 0 -0.15108397830665751 -0.29236825921418419 0 -0.1624028041075358 -0.29248408411088062 0 -0.17507431738127369 -0.28401326145526029 0 -0.17391538329452061 -0.29489800819007239 0 -0.1596399504195592 -0.27820623095404468 0 -0.1624028041075358 -0.29248408411088062 0 -0.17507431738127369 -0.28401326145526029 0 -0.19267178705524021 -0.30578920503631912 0 -0.19410774352861071 -0.2831088592208712 0 -0.17507431738127369 -0.28401326145526029 0 -0.19267178705524021 -0.30578920503631912 0 -0.17507431738127369 -0.28401326145526029 0 -0.17391538329452061 -0.29489800819007239 0 -0.19267178705524021 -0.30578920503631912 0 -0.17507431738127369 -0.28401326145526029 0 -0.17391538329452061 -0.29489800819007239 0 -0.17532621133471249 -0.30426618216820789 0 -0.19254159852174429 -0.31996122112867409 0 -0.19267178705524021 -0.30578920503631912 0 -0.17532621133471249 -0.30426618216820789 0 -0.19267178705524021 -0.30578920503631912 0 -0.17391538329452061 -0.29489800819007239 0 -0.17532621133471249 -0.30426618216820789 0 -0.19254159852174429 -0.31996122112867409 0 -0.17532621133471249 -0.30426618216820789 0 -0.1789711567900161 -0.3101302037755338 0 -0.19254159852174429 -0.31996122112867409 0 -0.17532621133471249 -0.30426618216820789 0 -0.17532621133471249 -0.30426618216820789 0 -0.15973767967650701 -0.30493196891575292 0 -0.16582550601247259 -0.31644195918285489 0 -0.1624028041075358 -0.29248408411088062 0 -0.17532621133471249 -0.30426618216820789 0 -0.15973767967650701 -0.30493196891575292 0 -0.1624028041075358 -0.29248408411088062 0 -0.17532621133471249 -0.30426618216820789 0 -0.1624028041075358 -0.29248408411088062 0 -0.17391538329452061 -0.29489800819007239 0 -0.17532621133471249 -0.30426618216820789 0 -0.144593184228827 -0.30237793828586917 0 -0.15261731536399281 -0.31699983390472031 0 -0.1327552185807534 -0.31482398186879779 0 -0.15973767967650701 -0.30493196891575292 0 -0.144593184228827 -0.30237793828586917 0 -0.15261731536399281 -0.31699983390472031 0 -0.15973767967650701 -0.30493196891575292 0 -0.144593184228827 -0.30237793828586917 0 -0.15108397830665751 -0.29236825921418419 0 -0.144593184228827 -0.30237793828586917 0 -0.1304175251842298 -0.30012492429455973 0 -0.1327552185807534 -0.31482398186879779 0 -0.1304175251842298 -0.30012492429455973 0 -0.1327552185807534 -0.31482398186879779 0 -0.11567190875339491 -0.3081878681979589 0 -0.1304175251842298 -0.30012492429455973 0 -0.13697378053928061 -0.28594316463020741 0 -0.11725087491461519 -0.29108504565108578 0 -0.144593184228827 -0.30237793828586917 0 -0.1304175251842298 -0.30012492429455973 0 -0.13697378053928061 -0.28594316463020741 0 -0.13697378053928061 -0.28594316463020741 0 -0.15108397830665751 -0.29236825921418419 0 -0.1494793968803598 -0.28070198605355251 0 -0.144593184228827 -0.30237793828586917 0 -0.13697378053928061 -0.28594316463020741 0 -0.15108397830665751 -0.29236825921418419 0 -0.1624028041075358 -0.29248408411088062 0 -0.15108397830665751 -0.29236825921418419 0 -0.1494793968803598 -0.28070198605355251 0 -0.1624028041075358 -0.29248408411088062 0 -0.1494793968803598 -0.28070198605355251 0 -0.15747684770731041 -0.26223731787419863 0 -0.1596399504195592 -0.27820623095404468 0 -0.1503927610565664 -0.27179087804580171 0 -0.1596399504195592 -0.27820623095404468 0 -0.1494793968803598 -0.28070198605355251 0 -0.1503927610565664 -0.27179087804580171 0 -0.15747684770731041 -0.26223731787419863 0 -0.1503927610565664 -0.27179087804580171 0 -0.1469785187108 -0.2635474229235048 0 -0.1503927610565664 -0.27179087804580171 0 -0.13966748117377659 -0.26847157538705668 0 -0.1469785187108 -0.2635474229235048 0 -0.1503927610565664 -0.27179087804580171 0 -0.14153524490660671 -0.2763029116229278 0 -0.13966748117377659 -0.26847157538705668 0 -0.1494793968803598 -0.28070198605355251 0 -0.1503927610565664 -0.27179087804580171 0 -0.14153524490660671 -0.2763029116229278 0 -0.13697378053928061 -0.28594316463020741 0 -0.1494793968803598 -0.28070198605355251 0 -0.14153524490660671 -0.2763029116229278 0 -0.13697378053928061 -0.28594316463020741 0 -0.14153524490660671 -0.2763029116229278 0 -0.13219795163187159 -0.27110871778552531 0 -0.13697378053928061 -0.28594316463020741 0 -0.1173011125765811 -0.2721428964285707 0 -0.13697378053928061 -0.28594316463020741 0 -0.13219795163187159 -0.27110871778552531 0 -0.1173011125765811 -0.2721428964285707 0 -0.13219795163187159 -0.27110871778552531 0 -0.1333337708168415 -0.26377523499205202 0 -0.12600056203783161 -0.26301541000095829 0 -0.13219795163187159 -0.27110871778552531 0 -0.12600056203783161 -0.26301541000095829 0 -0.1173011125765811 -0.2721428964285707 0 -0.13219795163187159 -0.27110871778552531 0 -0.13966748117377659 -0.26847157538705668 0 -0.1333337708168415 -0.26377523499205202 0 -0.14153524490660671 -0.2763029116229278 0 -0.13219795163187159 -0.27110871778552531 0 -0.13966748117377659 -0.26847157538705668 0 -0.13966748117377659 -0.26847157538705668 0 -0.13807993829988649 -0.25979154560904222 0 -0.1333337708168415 -0.26377523499205202 0 -0.13807993829988649 -0.25979154560904222 0 -0.1333337708168415 -0.26377523499205202 0 -0.13072292094084129 -0.25648892617767749 0 -0.12600056203783161 -0.26301541000095829 0 -0.13072292094084129 -0.25648892617767749 0 -0.1187556211832122 -0.25814451816493872 0 -0.1333337708168415 -0.26377523499205202 0 -0.12600056203783161 -0.26301541000095829 0 -0.13072292094084129 -0.25648892617767749 0 -0.13072292094084129 -0.25648892617767749 0 -0.13218950310710981 -0.25272660122947088 0 -0.1187556211832122 -0.25814451816493872 0 -0.13072292094084129 -0.25648892617767749 0 -0.13218950310710981 -0.25272660122947088 0 -0.13218950310710981 -0.25272660122947088 0 -0.1459019403517107 -0.25564217047089421 0 -0.13375162957080131 -0.24871916986845621 0 -0.13218950310710981 -0.25272660122947088 0 -0.1459019403517107 -0.25564217047089421 0 -0.13218950310710981 -0.25272660122947088 0 -0.13375162957080131 -0.24871916986845621 0 -0.1459019403517107 -0.25564217047089421 0 -0.13375162957080131 -0.24871916986845621 0 -0.13807993829988649 -0.25979154560904222 0 -0.13218950310710981 -0.25272660122947088 0 -0.1459019403517107 -0.25564217047089421 0 -0.13807993829988649 -0.25979154560904222 0 -0.13072292094084129 -0.25648892617767749 0 -0.13218950310710981 -0.25272660122947088 0 -0.1459019403517107 -0.25564217047089421 0 -0.1534429259631987 -0.25724555178864622 0 -0.1378886282313006 -0.2381062402767252 0 -0.13966748117377659 -0.26847157538705668 0 -0.13807993829988649 -0.25979154560904222 0 -0.1469785187108 -0.2635474229235048 0 -0.13807993829988649 -0.25979154560904222 0 -0.1459019403517107 -0.25564217047089421 0 -0.1469785187108 -0.2635474229235048 0 -0.15747684770731041 -0.26223731787419863 0 -0.1459019403517107 -0.25564217047089421 0 -0.1534429259631987 -0.25724555178864622 0 -0.15747684770731041 -0.26223731787419863 0 -0.1459019403517107 -0.25564217047089421 0 -0.1469785187108 -0.2635474229235048 0 -0.15747684770731041 -0.26223731787419863 0 -0.1459019403517107 -0.25564217047089421 0 -0.15747684770731041 -0.26223731787419863 0 -0.1534429259631987 -0.25724555178864622 0 -0.1593809120407062 -0.25278805690175971 0 -0.1534429259631987 -0.25724555178864622 0 -0.15289321433053751 -0.246830478479277 0 -0.1459019403517107 -0.25564217047089421 0 -0.1534429259631987 -0.25724555178864622 0 -0.17143624801538501 -0.35840063883308271 0 -0.1580141783998408 -0.34710035810185619 0 -0.15489216358121211 -0.36256913283011211 0 -0.17143624801538501 -0.35840063883308271 0 -0.1580141783998408 -0.34710035810185619 0 -0.18164424501215659 -0.34621916084723381 0 -0.17143624801538501 -0.35840063883308271 0 -0.1663610822414904 -0.3702523776444529 0 -0.15489216358121211 -0.36256913283011211 0 -0.15951650330528561 -0.37856285477961621 0 -0.1663610822414904 -0.3702523776444529 0 -0.15489216358121211 -0.36256913283011211 0 -0.17143624801538501 -0.35840063883308271 0 -0.1663610822414904 -0.3702523776444529 0 -0.18480326185087809 -0.36719565018674682 0 -0.1663610822414904 -0.3702523776444529 0 -0.18480326185087809 -0.36719565018674682 0 -0.1663610822414904 -0.3702523776444529 0 -0.18480326185087809 -0.36719565018674682 0 -0.18579747934449059 -0.37379744869579251 0 -0.18480326185087809 -0.36719565018674682 0 -0.18579747934449059 -0.37379744869579251 0 -0.18480326185087809 -0.36719565018674682 0 -0.18164424501215659 -0.34621916084723381 0 -0.19565175395430129 -0.3512554891803924 0 -0.18480326185087809 -0.36719565018674682 0 -0.18164424501215659 -0.34621916084723381 0 -0.17143624801538501 -0.35840063883308271 0 -0.18480326185087809 -0.36719565018674682 0 -0.18164424501215659 -0.34621916084723381 0 -0.18164424501215659 -0.34621916084723381 0 -0.17848522817343529 -0.32524267150772068 0 -0.1629610955137164 -0.33076913941787212 0 -0.18164424501215659 -0.34621916084723381 0 -0.17848522817343529 -0.32524267150772068 0 -0.18164424501215659 -0.34621916084723381 0 -0.18737083868624629 -0.33075534874643497 0 -0.17848522817343529 -0.32524267150772068 0 -0.17532621133471249 -0.30426618216820789 0 -0.17848522817343529 -0.32524267150772068 0 -0.17532621133471249 -0.30426618216820789 0 -0.1789711567900161 -0.3101302037755338 0 -0.17848522817343529 -0.32524267150772068 0 -0.17532621133471249 -0.30426618216820789 0 -0.17848522817343529 -0.32524267150772068 0 -0.16582550601247259 -0.31644195918285489 0 -0.1943588054861482 -0.32297640251143073 0 -0.1789711567900161 -0.3101302037755338 0 -0.18479650728396149 -0.32227615663527998 0 -0.1789711567900161 -0.3101302037755338 0 -0.18479650728396149 -0.32227615663527998 0 -0.17848522817343529 -0.32524267150772068 0 -0.1943588054861482 -0.32297640251143073 0 -0.1789711567900161 -0.3101302037755338 0 -0.18737083868624629 -0.33075534874643497 0 -0.18479650728396149 -0.32227615663527998 0 -0.17848522817343529 -0.32524267150772068 0 -0.17848522817343529 -0.32524267150772068 0 -0.16582550601247259 -0.31644195918285489 0 -0.1629610955137164 -0.33076913941787212 0 -0.16582550601247259 -0.31644195918285489 0 -0.1629610955137164 -0.33076913941787212 0 -0.15261731536399281 -0.31699983390472031 0 -0.15973767967650701 -0.30493196891575292 0 -0.16582550601247259 -0.31644195918285489 0 -0.15261731536399281 -0.31699983390472031 0 -0.1580141783998408 -0.34710035810185619 0 -0.18164424501215659 -0.34621916084723381 0 -0.1629610955137164 -0.33076913941787212 0 -0.1580141783998408 -0.34710035810185619 0 -0.1629610955137164 -0.33076913941787212 0 -0.14559484309128301 -0.3331209990743299 0 -0.14559484309128301 -0.3331209990743299 0 -0.15261731536399281 -0.31699983390472031 0 -0.1327552185807534 -0.31482398186879779 0 -0.1629610955137164 -0.33076913941787212 0 -0.14559484309128301 -0.3331209990743299 0 -0.15261731536399281 -0.31699983390472031 0 -0.14559484309128301 -0.3331209990743299 0 -0.1327552185807534 -0.31482398186879779 0 -0.12678352480283511 -0.3369129194106073 0 -0.14559484309128301 -0.3331209990743299 0 -0.12678352480283511 -0.3369129194106073 0 -0.14043772588655989 -0.35211976174212622 0 -0.12678352480283511 -0.3369129194106073 0 -0.14043772588655989 -0.35211976174212622 0 -0.1203130985899742 -0.35955571918490481 0 -0.1580141783998408 -0.34710035810185619 0 -0.14043772588655989 -0.35211976174212622 0 -0.15489216358121211 -0.36256913283011211 0 -0.1580141783998408 -0.34710035810185619 0 -0.14559484309128301 -0.3331209990743299 0 -0.14043772588655989 -0.35211976174212622 0 -0.14043772588655989 -0.35211976174212622 0 -0.15489216358121211 -0.36256913283011211 0 -0.13959568407155781 -0.37291875636350952 0 -0.15951650330528561 -0.37856285477961621 0 -0.15489216358121211 -0.36256913283011211 0 -0.13959568407155781 -0.37291875636350952 0 -0.12625141541498519 -0.38197991289387551 0 -0.13959568407155781 -0.37291875636350952 0 -0.1203130985899742 -0.35955571918490481 0 -0.14043772588655989 -0.35211976174212622 0 -0.13959568407155781 -0.37291875636350952 0 -0.1203130985899742 -0.35955571918490481 0 -0.1203130985899742 -0.35955571918490481 0 -0.11384267237711319 -0.38219851895920232 0 -0.1203130985899742 -0.35955571918490481 0 -0.10849363524981311 -0.36442991456039969 0 -0.11384267237711319 -0.38219851895920232 0 -0.12625141541498519 -0.38197991289387551 0 -0.1203130985899742 -0.35955571918490481 0 -0.11384267237711319 -0.38219851895920232 0 -0.10849363524981311 -0.36442991456039969 0 -0.096157591159299352 -0.35547454281719221 0 -0.10176491866177829 -0.38015793077534599 0 -0.096157591159299352 -0.35547454281719221 0 -0.10176491866177829 -0.38015793077534599 0 -0.096157591159299352 -0.35547454281719221 0 -0.10176491866177829 -0.38015793077534599 0 -0.085276019388031976 -0.37619188405436782 0 -0.096157591159299352 -0.35547454281719221 0 -0.10964553082547281 -0.34513317088572909 0 -0.090550263656820479 -0.33079115485903843 0 -0.10849363524981311 -0.36442991456039969 0 -0.096157591159299352 -0.35547454281719221 0 -0.10964553082547281 -0.34513317088572909 0 -0.1203130985899742 -0.35955571918490481 0 -0.10849363524981311 -0.36442991456039969 0 -0.10964553082547281 -0.34513317088572909 0 -0.12678352480283511 -0.3369129194106073 0 -0.1203130985899742 -0.35955571918490481 0 -0.10964553082547281 -0.34513317088572909 0 -0.12678352480283511 -0.3369129194106073 0 -0.1203130985899742 -0.35955571918490481 0 -0.12678352480283511 -0.3369129194106073 0 -0.10964553082547281 -0.34513317088572909 0 -0.1112875311940303 -0.32576775904759792 0 -0.1327552185807534 -0.31482398186879779 0 -0.12678352480283511 -0.3369129194106073 0 -0.1112875311940303 -0.32576775904759792 0 -0.1327552185807534 -0.31482398186879779 0 -0.1112875311940303 -0.32576775904759792 0 -0.11567190875339491 -0.3081878681979589 0 -0.1112875311940303 -0.32576775904759792 0 -0.1011365257202933 -0.31403431577096802 0 -0.11567190875339491 -0.3081878681979589 0 -0.1112875311940303 -0.32576775904759792 0 -0.1011365257202933 -0.31403431577096802 0 -0.090550263656820479 -0.33079115485903843 0 -0.10964553082547281 -0.34513317088572909 0 -0.1112875311940303 -0.32576775904759792 0 -0.090550263656820479 -0.33079115485903843 0 -0.096157591159299352 -0.35547454281719221 0 -0.090550263656820479 -0.33079115485903843 0 -0.096157591159299352 -0.35547454281719221 0 -0.090550263656820479 -0.33079115485903843 0 -0.073144777225565616 -0.33606175945158517 0 -0.090550263656820479 -0.33079115485903843 0 -0.084942936154341619 -0.30610776690088481 0 -0.090550263656820479 -0.33079115485903843 0 -0.073144777225565616 -0.33606175945158517 0 -0.084942936154341619 -0.30610776690088481 0 -0.1011365257202933 -0.31403431577096802 0 -0.090550263656820479 -0.33079115485903843 0 -0.084942936154341619 -0.30610776690088481 0 -0.073144777225565616 -0.33606175945158517 0 -0.084942936154341619 -0.30610776690088481 0 -0.060613113796085999 -0.32288269869712272 0 -0.073144777225565616 -0.33606175945158517 0 -0.076755031766953086 -0.35884624094615858 0 -0.063306301319701316 -0.35299520754669739 0 -0.076755031766953086 -0.35884624094615858 0 -0.063306301319701316 -0.35299520754669739 0 -0.065890469742167113 -0.37350781086095058 0 -0.076755031766953086 -0.35884624094615858 0 -0.065890469742167113 -0.37350781086095058 0 -0.085276019388031976 -0.37619188405436782 0 -0.096157591159299352 -0.35547454281719221 0 -0.076755031766953086 -0.35884624094615858 0 -0.085276019388031976 -0.37619188405436782 0 -0.096157591159299352 -0.35547454281719221 0 -0.073144777225565616 -0.33606175945158517 0 -0.076755031766953086 -0.35884624094615858 0 -0.097628444613881649 -0.25834262822693399 0 -0.1173011125765811 -0.2721428964285707 0 -0.097628444613881649 -0.25834262822693399 0 -0.1187556211832122 -0.25814451816493872 0 -0.1098930818979398 -0.24798588601512411 0 -0.13218950310710981 -0.25272660122947088 0 -0.1187556211832122 -0.25814451816493872 0 -0.1098930818979398 -0.24798588601512411 0 -0.097628444613881649 -0.25834262822693399 0 -0.1187556211832122 -0.25814451816493872 0 -0.1173011125765811 -0.2721428964285707 0 -0.13218950310710981 -0.25272660122947088 0 -0.1098930818979398 -0.24798588601512411 0 -0.12600056203783161 -0.26301541000095829 0 -0.1187556211832122 -0.25814451816493872 0 -0.1173011125765811 -0.2721428964285707 0 -0.097628444613881649 -0.25834262822693399 0 -0.1173011125765811 -0.2721428964285707 0 -0.090762408808148426 -0.27102181932101072 0 -0.1173011125765811 -0.2721428964285707 0 -0.096655829275762523 -0.28444542957314378 0 -0.090762408808148426 -0.27102181932101072 0 -0.096655829275762523 -0.28444542957314378 0 -0.10322998884287909 -0.29931702984935987 0 -0.084942936154341619 -0.30610776690088481 0 -0.096655829275762523 -0.28444542957314378 0 -0.11725087491461519 -0.29108504565108578 0 -0.10322998884287909 -0.29931702984935987 0 -0.13697378053928061 -0.28594316463020741 0 -0.1173011125765811 -0.2721428964285707 0 -0.11725087491461519 -0.29108504565108578 0 -0.1173011125765811 -0.2721428964285707 0 -0.096655829275762523 -0.28444542957314378 0 -0.11725087491461519 -0.29108504565108578 0 -0.11725087491461519 -0.29108504565108578 0 -0.11567190875339491 -0.3081878681979589 0 -0.10322998884287909 -0.29931702984935987 0 -0.1304175251842298 -0.30012492429455973 0 -0.11725087491461519 -0.29108504565108578 0 -0.11567190875339491 -0.3081878681979589 0 -0.1011365257202933 -0.31403431577096802 0 -0.10322998884287909 -0.29931702984935987 0 -0.084942936154341619 -0.30610776690088481 0 -0.1011365257202933 -0.31403431577096802 0 -0.11567190875339491 -0.3081878681979589 0 -0.10322998884287909 -0.29931702984935987 0 -0.084942936154341619 -0.30610776690088481 0 -0.066237696895848033 -0.30175990202967712 0 -0.078368201618682937 -0.28822753231137022 0 -0.084942936154341619 -0.30610776690088481 0 -0.066237696895848033 -0.30175990202967712 0 -0.060613113796085999 -0.32288269869712272 0 -0.066237696895848033 -0.30175990202967712 0 -0.078368201618682937 -0.28822753231137022 0 -0.057136779716869042 -0.28712205926022771 0 -0.078368201618682937 -0.28822753231137022 0 -0.072744725061100565 -0.27289296274949931 0 -0.057136779716869042 -0.28712205926022771 0 -0.096655829275762523 -0.28444542957314378 0 -0.084942936154341619 -0.30610776690088481 0 -0.078368201618682937 -0.28822753231137022 0 -0.096655829275762523 -0.28444542957314378 0 -0.078368201618682937 -0.28822753231137022 0 -0.090762408808148426 -0.27102181932101072 0 -0.078368201618682937 -0.28822753231137022 0 -0.090762408808148426 -0.27102181932101072 0 -0.072744725061100565 -0.27289296274949931 0 -0.090762408808148426 -0.27102181932101072 0 -0.072744725061100565 -0.27289296274949931 0 -0.081281336266817772 -0.26097832242812891 0 -0.072744725061100565 -0.27289296274949931 0 -0.067161912638977472 -0.25903173736147111 0 -0.055745381016590281 -0.2682223094504298 0 -0.072744725061100565 -0.27289296274949931 0 -0.067161912638977472 -0.25903173736147111 0 -0.081281336266817772 -0.26097832242812891 0 -0.067161912638977472 -0.25903173736147111 0 -0.081281336266817772 -0.26097832242812891 0 -0.077955776651182085 -0.24454236002529731 0 -0.067161912638977472 -0.25903173736147111 0 -0.056939497423126581 -0.24878681181634871 0 -0.077955776651182085 -0.24454236002529731 0 -0.097628444613881649 -0.25834262822693399 0 -0.081281336266817772 -0.26097832242812891 0 -0.077955776651182085 -0.24454236002529731 0 -0.097628444613881649 -0.25834262822693399 0 -0.090762408808148426 -0.27102181932101072 0 -0.081281336266817772 -0.26097832242812891 0 -0.097628444613881649 -0.25834262822693399 0 -0.077955776651182085 -0.24454236002529731 0 -0.025857267464119819 -0.25506418495113531 0 -0.050191684441297867 -0.2485850187836515 0 -0.034199021844566052 -0.25740496373097072 0 -0.056939497423126581 -0.24878681181634871 0 -0.034199021844566052 -0.25740496373097072 0 -0.041398382443623198 -0.25192549838374201 0 -0.056939497423126581 -0.24878681181634871 0 -0.041398382443623198 -0.25192549838374201 0 -0.025857267464119819 -0.25506418495113531 0 -0.050191684441297867 -0.2485850187836515 0 -0.034199021844566052 -0.25740496373097072 0 -0.048255079716108998 -0.25800015923011232 0 -0.056939497423126581 -0.24878681181634871 0 -0.034199021844566052 -0.25740496373097072 0 -0.041398382443623198 -0.25192549838374201 0 -0.025857267464119819 -0.25506418495113531 0 -0.041398382443623198 -0.25192549838374201 0 -0.025857267464119819 -0.25506418495113531 0 -0.034199021844566052 -0.25740496373097072 0 -0.037307574571523318 -0.26201401924185519 0 -0.024854767991187229 -0.26705994663832661 0 -0.037307574571523318 -0.26201401924185519 0 -0.048255079716108998 -0.25800015923011232 0 -0.046606779304586107 -0.26584835010199509 0 -0.034199021844566052 -0.25740496373097072 0 -0.037307574571523318 -0.26201401924185519 0 -0.048255079716108998 -0.25800015923011232 0 -0.05702546769870083 -0.25851025446459042 0 -0.048255079716108998 -0.25800015923011232 0 -0.056939497423126581 -0.24878681181634871 0 -0.041398382443623198 -0.25192549838374201 0 -0.056939497423126581 -0.24878681181634871 0 -0.067161912638977472 -0.25903173736147111 0 -0.05702546769870083 -0.25851025446459042 0 -0.056939497423126581 -0.24878681181634871 0 -0.067161912638977472 -0.25903173736147111 0 -0.05702546769870083 -0.25851025446459042 0 -0.055745381016590281 -0.2682223094504298 0 -0.05702546769870083 -0.25851025446459042 0 -0.048255079716108998 -0.25800015923011232 0 -0.055745381016590281 -0.2682223094504298 0 -0.048255079716108998 -0.25800015923011232 0 -0.055745381016590281 -0.2682223094504298 0 -0.046606779304586107 -0.26584835010199509 0 -0.055745381016590281 -0.2682223094504298 0 -0.045119081914121867 -0.27515691248558288 0 -0.046606779304586107 -0.26584835010199509 0 -0.055745381016590281 -0.2682223094504298 0 -0.045119081914121867 -0.27515691248558288 0 -0.057136779716869042 -0.28712205926022771 0 -0.072744725061100565 -0.27289296274949931 0 -0.055745381016590281 -0.2682223094504298 0 -0.057136779716869042 -0.28712205926022771 0 -0.037307574571523318 -0.26201401924185519 0 -0.034478529498429812 -0.28951379058442123 0 -0.037307574571523318 -0.26201401924185519 0 -0.034478529498429812 -0.28951379058442123 0 -0.024854767991187229 -0.26705994663832661 0 -0.037307574571523318 -0.26201401924185519 0 -0.045119081914121867 -0.27515691248558288 0 -0.034478529498429812 -0.28951379058442123 0 -0.037307574571523318 -0.26201401924185519 0 -0.045119081914121867 -0.27515691248558288 0 -0.046606779304586107 -0.26584835010199509 0 -0.045119081914121867 -0.27515691248558288 0 -0.034478529498429812 -0.28951379058442123 0 -0.057136779716869042 -0.28712205926022771 0 -0.034478529498429812 -0.28951379058442123 0 -0.057136779716869042 -0.28712205926022771 0 -0.05012745319326059 -0.30445945297878008 0 -0.066237696895848033 -0.30175990202967712 0 -0.05012745319326059 -0.30445945297878008 0 -0.060613113796085999 -0.32288269869712272 0 -0.066237696895848033 -0.30175990202967712 0 -0.057136779716869042 -0.28712205926022771 0 -0.05012745319326059 -0.30445945297878008 0 -0.034478529498429812 -0.28951379058442123 0 -0.05012745319326059 -0.30445945297878008 0 -0.031649484425336299 -0.31701356192698721 0 -0.034478529498429812 -0.28951379058442123 0 -0.031649484425336299 -0.31701356192698721 0 -0.034478529498429812 -0.28951379058442123 0 -0.020284114256294641 -0.29759304008048471 0 -0.031649484425336299 -0.31701356192698721 0 -0.020284114256294641 -0.29759304008048471 0 -0.01007927323019326 -0.3103345258507364 0 -0.031649484425336299 -0.31701356192698721 0 -0.020284114256294641 -0.29759304008048471 0 -0.01007927323019326 -0.3103345258507364 0 -0.0080748459131490501 -0.2914060437848453 0 -0.01007927323019326 -0.3103345258507364 0 -0.0080748459131490501 -0.2914060437848453 0 0.0017563221397047381 -0.2997067901486577 0 -0.020284114256294641 -0.29759304008048471 0 -0.0080748459131490501 -0.2914060437848453 0 -0.017138438214364771 -0.27969727825543328 0 -0.0080748459131490501 -0.2914060437848453 0 -0.002848760243290064 -0.27761611820401882 0 0.0066437179820165657 -0.2861171845936395 0 -0.0080748459131490501 -0.2914060437848453 0 -0.017138438214364771 -0.27969727825543328 0 -0.002848760243290064 -0.27761611820401882 0 -0.034478529498429812 -0.28951379058442123 0 -0.020284114256294641 -0.29759304008048471 0 -0.017138438214364771 -0.27969727825543328 0 -0.034478529498429812 -0.28951379058442123 0 -0.024854767991187229 -0.26705994663832661 0 -0.017138438214364771 -0.27969727825543328 0 -0.024854767991187229 -0.26705994663832661 0 -0.01588915841142927 -0.27169793716392882 0 -0.01145854626600548 -0.26602311564559261 0 -0.024854767991187229 -0.26705994663832661 0 -0.01588915841142927 -0.27169793716392882 0 -0.017138438214364771 -0.27969727825543328 0 -0.017138438214364771 -0.27969727825543328 0 -0.011833725783772399 -0.27375861231724341 0 -0.002848760243290064 -0.27761611820401882 0 -0.01145854626600548 -0.26602311564559261 0 0.01128192931255503 -0.27464126756021451 0 -0.002848760243290064 -0.27761611820401882 0 -0.01145854626600548 -0.26602311564559261 0 0.01128192931255503 -0.27464126756021451 0 -0.01588915841142927 -0.27169793716392882 0 -0.017138438214364771 -0.27969727825543328 0 -0.011833725783772399 -0.27375861231724341 0 -0.011833725783772399 -0.27375861231724341 0 -0.002848760243290064 -0.27761611820401882 0 -0.01145854626600548 -0.26602311564559261 0 -0.01588915841142927 -0.27169793716392882 0 -0.011833725783772399 -0.27375861231724341 0 -0.01145854626600548 -0.26602311564559261 0 -0.01269776775011346 -0.25850600500130039 0 -0.0051360078472848583 -0.25701396995817721 0 0.0057158633005241696 -0.26337829885565528 0 -0.01145854626600548 -0.26602311564559261 0 -0.01269776775011346 -0.25850600500130039 0 0.0057158633005241696 -0.26337829885565528 0 -0.01269776775011346 -0.25850600500130039 0 0.0057158633005241696 -0.26337829885565528 0 -0.0009620894167222515 -0.25496392916579452 0 -0.0051360078472848583 -0.25701396995817721 0 0.0057158633005241696 -0.26337829885565528 0 -0.0071971320314794382 -0.2528457057960789 0 -0.01082738352359053 -0.24876902592697839 0 -0.0029313858115674811 -0.24854412401401971 0 -0.0009620894167222515 -0.25496392916579452 0 -0.0071971320314794382 -0.2528457057960789 0 -0.0029313858115674811 -0.24854412401401971 0 -0.0009620894167222515 -0.25496392916579452 0 -0.0051360078472848583 -0.25701396995817721 0 -0.0071971320314794382 -0.2528457057960789 0 -0.0051360078472848583 -0.25701396995817721 0 -0.0071971320314794382 -0.2528457057960789 0 -0.0094143843739788544 -0.25459574361389747 0 -0.0071971320314794382 -0.2528457057960789 0 -0.0094143843739788544 -0.25459574361389747 0 -0.01082738352359053 -0.24876902592697839 0 -0.01269776775011346 -0.25850600500130039 0 -0.0094143843739788544 -0.25459574361389747 0 -0.01082738352359053 -0.24876902592697839 0 -0.01269776775011346 -0.25850600500130039 0 -0.0051360078472848583 -0.25701396995817721 0 -0.0094143843739788544 -0.25459574361389747 0 -0.01269776775011346 -0.25850600500130039 0 -0.025857267464119819 -0.25506418495113531 0 -0.034199021844566052 -0.25740496373097072 0 -0.01145854626600548 -0.26602311564559261 0 -0.025857267464119819 -0.25506418495113531 0 -0.01269776775011346 -0.25850600500130039 0 -0.025857267464119819 -0.25506418495113531 0 -0.02368513365757598 -0.23851275990414511 0 -0.034199021844566052 -0.25740496373097072 0 -0.024854767991187229 -0.26705994663832661 0 -0.01145854626600548 -0.26602311564559261 0 -0.034199021844566052 -0.25740496373097072 0 -0.01145854626600548 -0.26602311564559261 0 -0.01145854626600548 -0.26602311564559261 0 -0.01269776775011346 -0.25850600500130039 0 -0.025857267464119819 -0.25506418495113531 0 -0.046940286889098168 -0.35955036210978841 0 -0.050269733973634309 -0.3392354021108881 0 -0.02882043935224279 -0.34451333326955308 0 -0.046940286889098168 -0.35955036210978841 0 -0.02882043935224279 -0.34451333326955308 0 -0.026419717968229769 -0.36867473508972981 0 -0.046940286889098168 -0.35955036210978841 0 -0.026419717968229769 -0.36867473508972981 0 -0.046935058978613817 -0.3783756837809118 0 -0.065890469742167113 -0.37350781086095058 0 -0.046940286889098168 -0.35955036210978841 0 -0.046935058978613817 -0.3783756837809118 0 -0.063306301319701316 -0.35299520754669739 0 -0.065890469742167113 -0.37350781086095058 0 -0.046940286889098168 -0.35955036210978841 0 -0.063306301319701316 -0.35299520754669739 0 -0.046940286889098168 -0.35955036210978841 0 -0.050269733973634309 -0.3392354021108881 0 -0.073144777225565616 -0.33606175945158517 0 -0.063306301319701316 -0.35299520754669739 0 -0.050269733973634309 -0.3392354021108881 0 -0.073144777225565616 -0.33606175945158517 0 -0.050269733973634309 -0.3392354021108881 0 -0.060613113796085999 -0.32288269869712272 0 -0.050269733973634309 -0.3392354021108881 0 -0.060613113796085999 -0.32288269869712272 0 -0.031649484425336299 -0.31701356192698721 0 -0.05012745319326059 -0.30445945297878008 0 -0.060613113796085999 -0.32288269869712272 0 -0.031649484425336299 -0.31701356192698721 0 -0.050269733973634309 -0.3392354021108881 0 -0.031649484425336299 -0.31701356192698721 0 -0.02882043935224279 -0.34451333326955308 0 -0.031649484425336299 -0.31701356192698721 0 -0.02882043935224279 -0.34451333326955308 0 -0.031649484425336299 -0.31701356192698721 0 -0.0038616663111063101 -0.33241552487502413 0 -0.02882043935224279 -0.34451333326955308 0 -0.01007927323019326 -0.3103345258507364 0 -0.031649484425336299 -0.31701356192698721 0 -0.0038616663111063101 -0.33241552487502413 0 -0.01007927323019326 -0.3103345258507364 0 -0.0038616663111063101 -0.33241552487502413 0 0.0094652366165251054 -0.31053241408104548 0 -0.0038616663111063101 -0.33241552487502413 0 -0.0043130761299947744 -0.35643483176966217 0 -0.02882043935224279 -0.34451333326955308 0 -0.0043130761299947744 -0.35643483176966217 0 -0.02882043935224279 -0.34451333326955308 0 -0.026419717968229769 -0.36867473508972981 0 -0.0043130761299947744 -0.35643483176966217 0 -0.026419717968229769 -0.36867473508972981 0 -0.0064694903547723136 -0.38059021958606692 0 -0.0064694903547723136 -0.38059021958606692 0 -0.0080625817845775948 -0.40608726553411861 0 -0.026496984295852101 -0.39226102623928111 0 -0.0064694903547723136 -0.38059021958606692 0 -0.0080625817845775948 -0.40608726553411861 0 0.009690974369139977 -0.39295199195252922 0 -0.0080625817845775948 -0.40608726553411861 0 -0.026496984295852101 -0.39226102623928111 0 -0.029852467816379728 -0.41236872525256307 0 -0.026419717968229769 -0.36867473508972981 0 -0.0064694903547723136 -0.38059021958606692 0 -0.026496984295852101 -0.39226102623928111 0 -0.026496984295852101 -0.39226102623928111 0 -0.048213792324517578 -0.39768762776665978 0 -0.046935058978613817 -0.3783756837809118 0 -0.026419717968229769 -0.36867473508972981 0 -0.026496984295852101 -0.39226102623928111 0 -0.046935058978613817 -0.3783756837809118 0 -0.026496984295852101 -0.39226102623928111 0 -0.048213792324517578 -0.39768762776665978 0 -0.029852467816379728 -0.41236872525256307 0 -0.048213792324517578 -0.39768762776665978 0 -0.065379196062645584 -0.39052657147488062 0 -0.06528413140028641 -0.40548789039177052 0 -0.048213792324517578 -0.39768762776665978 0 -0.046935058978613817 -0.3783756837809118 0 -0.065379196062645584 -0.39052657147488062 0 -0.065890469742167113 -0.37350781086095058 0 -0.046935058978613817 -0.3783756837809118 0 -0.065379196062645584 -0.39052657147488062 0 -0.052630130657334448 -0.42871109396582502 0 -0.036803499053157718 -0.43392585985635063 0 -0.055908543568221357 -0.44353945242809251 0 -0.052630130657334448 -0.42871109396582502 0 -0.048282499091199083 -0.41684649723306111 0 -0.065713266975248902 -0.42040157794015642 0 -0.052630130657334448 -0.42871109396582502 0 -0.055908543568221357 -0.44353945242809251 0 -0.077753046024815156 -0.43509142098737241 0 -0.048282499091199083 -0.41684649723306111 0 -0.06528413140028641 -0.40548789039177052 0 -0.065713266975248902 -0.42040157794015642 0 -0.048213792324517578 -0.39768762776665978 0 -0.048282499091199083 -0.41684649723306111 0 -0.06528413140028641 -0.40548789039177052 0 -0.048213792324517578 -0.39768762776665978 0 -0.048282499091199083 -0.41684649723306111 0 -0.029852467816379728 -0.41236872525256307 0 -0.048282499091199083 -0.41684649723306111 0 -0.036803499053157718 -0.43392585985635063 0 -0.029852467816379728 -0.41236872525256307 0 -0.052630130657334448 -0.42871109396582502 0 -0.048282499091199083 -0.41684649723306111 0 -0.036803499053157718 -0.43392585985635063 0 -0.036803499053157718 -0.43392585985635063 0 -0.01686747062211669 -0.42668809062348251 0 -0.022482277956740859 -0.44034230556013138 0 -0.036803499053157718 -0.43392585985635063 0 -0.01686747062211669 -0.42668809062348251 0 -0.029852467816379728 -0.41236872525256307 0 -0.0080625817845775948 -0.40608726553411861 0 -0.01686747062211669 -0.42668809062348251 0 -0.029852467816379728 -0.41236872525256307 0 -0.0080625817845775948 -0.40608726553411861 0 -0.01686747062211669 -0.42668809062348251 0 0.01224976062295041 -0.42183763890738629 0 -0.01686747062211669 -0.42668809062348251 0 -0.008216644178786571 -0.4466179140804285 0 0.01224976062295041 -0.42183763890738629 0 -0.008216644178786571 -0.4466179140804285 0 -0.0021957942935651631 -0.46571035637089769 0 -0.016151777162071251 -0.46269316979172348 0 -0.0021957942935651631 -0.46571035637089769 0 -0.016151777162071251 -0.46269316979172348 0 -0.01292321871024151 -0.47600360382280887 0 -0.008216644178786571 -0.4466179140804285 0 -0.016151777162071251 -0.46269316979172348 0 -0.028753682251359231 -0.45370767630375852 0 -0.016151777162071251 -0.46269316979172348 0 -0.030722049445265721 -0.46513815794063051 0 -0.025757536927686689 -0.47561542944709773 0 -0.016151777162071251 -0.46269316979172348 0 -0.030722049445265721 -0.46513815794063051 0 -0.028753682251359231 -0.45370767630375852 0 -0.036803499053157718 -0.43392585985635063 0 -0.028753682251359231 -0.45370767630375852 0 -0.022482277956740859 -0.44034230556013138 0 -0.01686747062211669 -0.42668809062348251 0 -0.008216644178786571 -0.4466179140804285 0 -0.022482277956740859 -0.44034230556013138 0 -0.008216644178786571 -0.4466179140804285 0 -0.028753682251359231 -0.45370767630375852 0 -0.022482277956740859 -0.44034230556013138 0 -0.011489863113854141 -0.5 0 -0.010144146689038991 -0.48941639725935437 0 0.012735562036971701 -0.48508522326900949 0 -0.010144146689038991 -0.48941639725935437 0 -0.00065605929082254884 -0.47874224407546379 0 -0.01292321871024151 -0.47600360382280887 0 -0.010144146689038991 -0.48941639725935437 0 -0.01292321871024151 -0.47600360382280887 0 -0.022633997898264431 -0.48384402599231691 0 -0.0021957942935651631 -0.46571035637089769 0 -0.00065605929082254884 -0.47874224407546379 0 -0.01292321871024151 -0.47600360382280887 0 -0.016151777162071251 -0.46269316979172348 0 -0.01292321871024151 -0.47600360382280887 0 -0.025757536927686689 -0.47561542944709773 0 -0.025757536927686689 -0.47561542944709773 0 -0.022633997898264431 -0.48384402599231691 0 -0.032724513000240443 -0.48384135401243772 0 -0.01292321871024151 -0.47600360382280887 0 -0.025757536927686689 -0.47561542944709773 0 -0.022633997898264431 -0.48384402599231691 0 -0.011489863113854141 -0.5 0 -0.010144146689038991 -0.48941639725935437 0 -0.033023855415049652 -0.49374757124969931 0 -0.010144146689038991 -0.48941639725935437 0 -0.022633997898264431 -0.48384402599231691 0 -0.033023855415049652 -0.49374757124969931 0 -0.011489863113854141 -0.5 0 -0.041002190054857779 -0.5 0 -0.033023855415049652 -0.49374757124969931 0 -0.010144146689038991 -0.48941639725935437 0 -0.033023855415049652 -0.49374757124969931 0 -0.022633997898264431 -0.48384402599231691 0 -0.033023855415049652 -0.49374757124969931 0 -0.032724513000240443 -0.48384135401243772 0 -0.041002190054857779 -0.5 0 -0.040644419244316249 -0.48874723383863622 0 -0.055758353525359711 -0.48944453406372251 0 -0.041002190054857779 -0.5 0 -0.033023855415049652 -0.49374757124969931 0 -0.040644419244316249 -0.48874723383863622 0 -0.033023855415049652 -0.49374757124969931 0 -0.040644419244316249 -0.48874723383863622 0 -0.032724513000240443 -0.48384135401243772 0 -0.040644419244316249 -0.48874723383863622 0 -0.040713184226073652 -0.47670270986732172 0 -0.055758353525359711 -0.48944453406372251 0 -0.040644419244316249 -0.48874723383863622 0 -0.040713184226073652 -0.47670270986732172 0 -0.032724513000240443 -0.48384135401243772 0 -0.025757536927686689 -0.47561542944709773 0 -0.040713184226073652 -0.47670270986732172 0 -0.032724513000240443 -0.48384135401243772 0 -0.030722049445265721 -0.46513815794063051 0 -0.025757536927686689 -0.47561542944709773 0 -0.040713184226073652 -0.47670270986732172 0 -0.040713184226073652 -0.47670270986732172 0 -0.05604151524233808 -0.47085547185542692 0 -0.042137987481662489 -0.46199998676314519 0 -0.040713184226073652 -0.47670270986732172 0 -0.05604151524233808 -0.47085547185542692 0 -0.055758353525359711 -0.48944453406372251 0 -0.05604151524233808 -0.47085547185542692 0 -0.055758353525359711 -0.48944453406372251 0 -0.068357021366280857 -0.47830767763467641 0 -0.041002190054857779 -0.5 0 -0.055758353525359711 -0.48944453406372251 0 -0.070514516995861642 -0.5 0 -0.036803499053157718 -0.43392585985635063 0 -0.028753682251359231 -0.45370767630375852 0 -0.042591220718736618 -0.44931976272637059 0 -0.036803499053157718 -0.43392585985635063 0 -0.042591220718736618 -0.44931976272637059 0 -0.055908543568221357 -0.44353945242809251 0 -0.028753682251359231 -0.45370767630375852 0 -0.042591220718736618 -0.44931976272637059 0 -0.042137987481662489 -0.46199998676314519 0 -0.030722049445265721 -0.46513815794063051 0 -0.028753682251359231 -0.45370767630375852 0 -0.042137987481662489 -0.46199998676314519 0 -0.030722049445265721 -0.46513815794063051 0 -0.040713184226073652 -0.47670270986732172 0 -0.042137987481662489 -0.46199998676314519 0 -0.042591220718736618 -0.44931976272637059 0 -0.042137987481662489 -0.46199998676314519 0 -0.054601469153056192 -0.45704509188174619 0 -0.05604151524233808 -0.47085547185542692 0 -0.054601469153056192 -0.45704509188174619 0 -0.071896784036839162 -0.45711427830285839 0 -0.05604151524233808 -0.47085547185542692 0 -0.042137987481662489 -0.46199998676314519 0 -0.054601469153056192 -0.45704509188174619 0 -0.054601469153056192 -0.45704509188174619 0 -0.055908543568221357 -0.44353945242809251 0 -0.071896784036839162 -0.45711427830285839 0 -0.042591220718736618 -0.44931976272637059 0 -0.054601469153056192 -0.45704509188174619 0 -0.055908543568221357 -0.44353945242809251 0 -0.055908543568221357 -0.44353945242809251 0 -0.071896784036839162 -0.45711427830285839 0 -0.077753046024815156 -0.43509142098737241 0 -0.071896784036839162 -0.45711427830285839 0 -0.087573937031005744 -0.47412410395137422 0 -0.093954286744555499 -0.45179652052777369 0 -0.087573937031005744 -0.47412410395137422 0 -0.093954286744555499 -0.45179652052777369 0 -0.071896784036839162 -0.45711427830285839 0 -0.093954286744555499 -0.45179652052777369 0 -0.077753046024815156 -0.43509142098737241 0 -0.093954286744555499 -0.45179652052777369 0 -0.10033463645810529 -0.42946893710417328 0 -0.077753046024815156 -0.43509142098737241 0 -0.055758353525359711 -0.48944453406372251 0 -0.070514516995861642 -0.5 0 -0.068357021366280857 -0.47830767763467641 0 -0.05604151524233808 -0.47085547185542692 0 -0.071896784036839162 -0.45711427830285839 0 -0.068357021366280857 -0.47830767763467641 0 -0.071896784036839162 -0.45711427830285839 0 -0.068357021366280857 -0.47830767763467641 0 -0.087573937031005744 -0.47412410395137422 0 -0.070514516995861642 -0.5 0 -0.068357021366280857 -0.47830767763467641 0 -0.087573937031005744 -0.47412410395137422 0 -0.070514516995861642 -0.5 0 -0.087573937031005744 -0.47412410395137422 0 -0.10002684393686551 -0.5 0 -0.087573937031005744 -0.47412410395137422 0 -0.10002684393686551 -0.5 0 -0.10780494223314389 -0.47765854937150709 0 -0.087573937031005744 -0.47412410395137422 0 -0.10780494223314389 -0.47765854937150709 0 -0.1029954147344513 -0.46359439800738522 0 -0.12605423818426559 -0.48707922202292669 0 -0.10780494223314389 -0.47765854937150709 0 -0.1201929706126502 -0.46127799294672761 0 -0.12605423818426559 -0.48707922202292669 0 -0.1201929706126502 -0.46127799294672761 0 -0.12605423818426559 -0.48707922202292669 0 -0.10002684393686551 -0.5 0 -0.10780494223314389 -0.47765854937150709 0 -0.1295391708778694 -0.5 0 -0.12605423818426559 -0.48707922202292669 0 -0.10002684393686551 -0.5 0 -0.093954286744555499 -0.45179652052777369 0 -0.10033463645810529 -0.42946893710417328 0 -0.10636180231815941 -0.44832292249131772 0 -0.11433170304103479 -0.43547676387052858 0 -0.10033463645810529 -0.42946893710417328 0 -0.10636180231815941 -0.44832292249131772 0 -0.093954286744555499 -0.45179652052777369 0 -0.10033463645810529 -0.42946893710417328 0 -0.087573937031005744 -0.47412410395137422 0 -0.093954286744555499 -0.45179652052777369 0 -0.1029954147344513 -0.46359439800738522 0 -0.10636180231815941 -0.44832292249131772 0 -0.093954286744555499 -0.45179652052777369 0 -0.1029954147344513 -0.46359439800738522 0 -0.10780494223314389 -0.47765854937150709 0 -0.1029954147344513 -0.46359439800738522 0 -0.1201929706126502 -0.46127799294672761 0 -0.10636180231815941 -0.44832292249131772 0 -0.1029954147344513 -0.46359439800738522 0 -0.1201929706126502 -0.46127799294672761 0 -0.13671083813600751 -0.45044361347006462 0 -0.1201929706126502 -0.46127799294672761 0 -0.11433170304103479 -0.43547676387052858 0 -0.10636180231815941 -0.44832292249131772 0 -0.1201929706126502 -0.46127799294672761 0 -0.11433170304103479 -0.43547676387052858 0 -0.13671083813600751 -0.45044361347006462 0 -0.1225906368027144 -0.43005957413219659 0 -0.11433170304103479 -0.43547676387052858 0 -0.1201929706126502 -0.46127799294672761 0 -0.11433170304103479 -0.43547676387052858 0 -0.1225906368027144 -0.43005957413219659 0 -0.11433170304103479 -0.43547676387052858 0 -0.10847043546942051 -0.40967553479432928 0 -0.11433170304103479 -0.43547676387052858 0 -0.10847043546942051 -0.40967553479432928 0 -0.12908399078123631 -0.42243277819987513 0 -0.1225906368027144 -0.43005957413219659 0 -0.12315425937001 -0.41747458531602638 0 -0.11433170304103479 -0.43547676387052858 0 -0.10033463645810529 -0.42946893710417328 0 -0.10847043546942051 -0.40967553479432928 0 -0.10033463645810529 -0.42946893710417328 0 -0.094107383989168333 -0.41562629379671062 0 -0.1067149861716557 -0.40714135368057303 0 -0.10033463645810529 -0.42946893710417328 0 -0.1067149861716557 -0.40714135368057303 0 -0.10847043546942051 -0.40967553479432928 0 -0.10033463645810529 -0.42946893710417328 0 -0.1067149861716557 -0.40714135368057303 0 -0.094107383989168333 -0.41562629379671062 0 -0.1067149861716557 -0.40714135368057303 0 -0.093615658715422545 -0.40476526464288082 0 -0.10847043546942051 -0.40967553479432928 0 -0.1105756132387118 -0.40676785322215941 0 -0.1073722461642546 -0.40484131873350049 0 -0.10847043546942051 -0.40967553479432928 0 -0.1073722461642546 -0.40484131873350049 0 -0.1067149861716557 -0.40714135368057303 0 -0.10847043546942051 -0.40967553479432928 0 -0.1073722461642546 -0.40484131873350049 0 -0.1067149861716557 -0.40714135368057303 0 -0.10847043546942051 -0.40967553479432928 0 -0.1225906368027144 -0.43005957413219659 0 -0.1163272184937543 -0.41351727508190028 0 -0.12315425937001 -0.41747458531602638 0 -0.10847043546942051 -0.40967553479432928 0 -0.1125412123036873 -0.40894162881917728 0 -0.1163272184937543 -0.41351727508190028 0 -0.1125412123036873 -0.40894162881917728 0 -0.1105756132387118 -0.40676785322215941 0 -0.1147915820128618 -0.40580585217832088 0 -0.1225906368027144 -0.43005957413219659 0 -0.10847043546942051 -0.40967553479432928 0 -0.1163272184937543 -0.41351727508190028 0 -0.10847043546942051 -0.40967553479432928 0 -0.1125412123036873 -0.40894162881917728 0 -0.1105756132387118 -0.40676785322215941 0 -0.1225906368027144 -0.43005957413219659 0 -0.10847043546942051 -0.40967553479432928 0 -0.1125412123036873 -0.40894162881917728 0 -0.1163272184937543 -0.41351727508190028 0 -0.1147915820128618 -0.40580585217832088 0 -0.1225700411049412 -0.40994677461386392 0 -0.1219584454402414 -0.40406961642135292 0 -0.1147915820128618 -0.40580585217832088 0 -0.1163272184937543 -0.41351727508190028 0 -0.1225700411049412 -0.40994677461386392 0 -0.1147915820128618 -0.40580585217832088 0 -0.1163272184937543 -0.41351727508190028 0 -0.12315425937001 -0.41747458531602638 0 -0.1225700411049412 -0.40994677461386392 0 -0.1273295258527142 -0.39594401256049883 0 -0.1219584454402414 -0.40406961642135292 0 -0.1190781430676657 -0.39944145851713192 0 -0.11305295545189779 -0.39895005080087959 0 -0.11384267237711319 -0.38219851895920232 0 -0.1073722461642546 -0.40484131873350049 0 -0.1295768038857959 -0.40463739140698729 0 -0.1225700411049412 -0.40994677461386392 0 -0.1219584454402414 -0.40406961642135292 0 -0.1182582065806136 -0.392437760624607 0 -0.11305295545189779 -0.39895005080087959 0 -0.11384267237711319 -0.38219851895920232 0 -0.11384267237711319 -0.38219851895920232 0 -0.1073722461642546 -0.40484131873350049 0 -0.1219584454402414 -0.40406961642135292 0 -0.1190781430676657 -0.39944145851713192 0 -0.1147915820128618 -0.40580585217832088 0 -0.1273295258527142 -0.39594401256049883 0 -0.1190781430676657 -0.39944145851713192 0 -0.1182582065806136 -0.392437760624607 0 -0.1190781430676657 -0.39944145851713192 0 -0.1182582065806136 -0.392437760624607 0 -0.11305295545189779 -0.39895005080087959 0 -0.1105756132387118 -0.40676785322215941 0 -0.1114480992169309 -0.40409126873371493 0 -0.1073722461642546 -0.40484131873350049 0 -0.1105756132387118 -0.40676785322215941 0 -0.1114480992169309 -0.40409126873371493 0 -0.1147915820128618 -0.40580585217832088 0 -0.11305295545189779 -0.39895005080087959 0 -0.1114480992169309 -0.40409126873371493 0 -0.1147915820128618 -0.40580585217832088 0 -0.11305295545189779 -0.39895005080087959 0 -0.1114480992169309 -0.40409126873371493 0 -0.1073722461642546 -0.40484131873350049 0 -0.1190781430676657 -0.39944145851713192 0 -0.11305295545189779 -0.39895005080087959 0 -0.1147915820128618 -0.40580585217832088 0 -0.12625141541498519 -0.38197991289387551 0 -0.1182582065806136 -0.392437760624607 0 -0.11384267237711319 -0.38219851895920232 0 -0.12625141541498519 -0.38197991289387551 0 -0.1273295258527142 -0.39594401256049883 0 -0.1182582065806136 -0.392437760624607 0 -0.11384267237711319 -0.38219851895920232 0 -0.10176491866177829 -0.38015793077534599 0 -0.1073722461642546 -0.40484131873350049 0 -0.10176491866177829 -0.38015793077534599 0 -0.095995502779844255 -0.39166661886747001 0 -0.085276019388031976 -0.37619188405436782 0 -0.10849363524981311 -0.36442991456039969 0 -0.11384267237711319 -0.38219851895920232 0 -0.10176491866177829 -0.38015793077534599 0 -0.10176491866177829 -0.38015793077534599 0 -0.1073722461642546 -0.40484131873350049 0 -0.095995502779844255 -0.39166661886747001 0 -0.10176491866177829 -0.38015793077534599 0 -0.1073722461642546 -0.40484131873350049 0 -0.1067149861716557 -0.40714135368057303 0 -0.1073722461642546 -0.40484131873350049 0 -0.095995502779844255 -0.39166661886747001 0 -0.1067149861716557 -0.40714135368057303 0 -0.1073722461642546 -0.40484131873350049 0 -0.1067149861716557 -0.40714135368057303 0 -0.095995502779844255 -0.39166661886747001 0 -0.1067149861716557 -0.40714135368057303 0 -0.095995502779844255 -0.39166661886747001 0 -0.093615658715422545 -0.40476526464288082 0 -0.093615658715422545 -0.40476526464288082 0 -0.081664681120336771 -0.39582842074610342 0 -0.082451352827770552 -0.41163664718976212 0 -0.095995502779844255 -0.39166661886747001 0 -0.093615658715422545 -0.40476526464288082 0 -0.081664681120336771 -0.39582842074610342 0 -0.095995502779844255 -0.39166661886747001 0 -0.081664681120336771 -0.39582842074610342 0 -0.085276019388031976 -0.37619188405436782 0 -0.081664681120336771 -0.39582842074610342 0 -0.085276019388031976 -0.37619188405436782 0 -0.074552591578295357 -0.38401367178407558 0 -0.095995502779844255 -0.39166661886747001 0 -0.085276019388031976 -0.37619188405436782 0 -0.081664681120336771 -0.39582842074610342 0 -0.065379196062645584 -0.39052657147488062 0 -0.074552591578295357 -0.38401367178407558 0 -0.065890469742167113 -0.37350781086095058 0 -0.085276019388031976 -0.37619188405436782 0 -0.074552591578295357 -0.38401367178407558 0 -0.065890469742167113 -0.37350781086095058 0 -0.065379196062645584 -0.39052657147488062 0 -0.074552591578295357 -0.38401367178407558 0 -0.081664681120336771 -0.39582842074610342 0 -0.06528413140028641 -0.40548789039177052 0 -0.082451352827770552 -0.41163664718976212 0 -0.081664681120336771 -0.39582842074610342 0 -0.065379196062645584 -0.39052657147488062 0 -0.06528413140028641 -0.40548789039177052 0 -0.065713266975248902 -0.42040157794015642 0 -0.085028608260126398 -0.42320905853578622 0 -0.082451352827770552 -0.41163664718976212 0 -0.06528413140028641 -0.40548789039177052 0 -0.065713266975248902 -0.42040157794015642 0 -0.082451352827770552 -0.41163664718976212 0 -0.065713266975248902 -0.42040157794015642 0 -0.077753046024815156 -0.43509142098737241 0 -0.085028608260126398 -0.42320905853578622 0 -0.052630130657334448 -0.42871109396582502 0 -0.065713266975248902 -0.42040157794015642 0 -0.077753046024815156 -0.43509142098737241 0 -0.10033463645810529 -0.42946893710417328 0 -0.077753046024815156 -0.43509142098737241 0 -0.085028608260126398 -0.42320905853578622 0 -0.10033463645810529 -0.42946893710417328 0 -0.094107383989168333 -0.41562629379671062 0 -0.085028608260126398 -0.42320905853578622 0 -0.094107383989168333 -0.41562629379671062 0 -0.085028608260126398 -0.42320905853578622 0 -0.082451352827770552 -0.41163664718976212 0 -0.094107383989168333 -0.41562629379671062 0 -0.093615658715422545 -0.40476526464288082 0 -0.082451352827770552 -0.41163664718976212 0 -0.080832567710134945 -0.085265223789800185 0 -0.09573268077664969 -0.090624673380050064 0 -0.094924188455715333 -0.074372309221374736 0 -0.080832567710134945 -0.085265223789800185 0 -0.0944050220014645 -0.1050702242089397 0 -0.09573268077664969 -0.090624673380050064 0 -0.094924188455715333 -0.074372309221374736 0 -0.077079431972146645 -0.050953682142663811 0 -0.080832567710134945 -0.085265223789800185 0 -0.077460787511610923 -0.070469280456870842 0 -0.094924188455715333 -0.074372309221374736 0 -0.077460787511610923 -0.070469280456870842 0 -0.094924188455715333 -0.074372309221374736 0 -0.078535685693175539 -0.061573663464548622 0 -0.080832567710134945 -0.085265223789800185 0 -0.072736864716213656 -0.076885636419884412 0 -0.077460787511610923 -0.070469280456870842 0 -0.072736864716213656 -0.076885636419884412 0 -0.077460787511610923 -0.070469280456870842 0 -0.067174029152377468 -0.071022972744677337 0 -0.077460787511610923 -0.070469280456870842 0 -0.067174029152377468 -0.071022972744677337 0 -0.070308423821052124 -0.061023041189074957 0 -0.077460787511610923 -0.070469280456870842 0 -0.078535685693175539 -0.061573663464548622 0 -0.070308423821052124 -0.061023041189074957 0 -0.067174029152377468 -0.071022972744677337 0 -0.070308423821052124 -0.061023041189074957 0 -0.060830035872249492 -0.064558057335980773 0 -0.072736864716213656 -0.076885636419884412 0 -0.067174029152377468 -0.071022972744677337 0 -0.063732237529271596 -0.080733089011810297 0 -0.067174029152377468 -0.071022972744677337 0 -0.063732237529271596 -0.080733089011810297 0 -0.058000192015007383 -0.073011667883306972 0 -0.080832567710134945 -0.085265223789800185 0 -0.063732237529271596 -0.080733089011810297 0 -0.066023591375222151 -0.09957098179305135 0 -0.080832567710134945 -0.085265223789800185 0 -0.072736864716213656 -0.076885636419884412 0 -0.063732237529271596 -0.080733089011810297 0 -0.066023591375222151 -0.09957098179305135 0 -0.069466171350113709 -0.1135628440840601 0 -0.0944050220014645 -0.1050702242089397 0 -0.066023591375222151 -0.09957098179305135 0 -0.069466171350113709 -0.1135628440840601 0 -0.054384952187449757 -0.110609208962567 0 -0.077516787342341589 -0.1242022911324857 0 -0.069466171350113709 -0.1135628440840601 0 -0.059238207921678762 -0.13024384051707169 0 -0.077516787342341589 -0.1242022911324857 0 -0.093262550211769629 -0.1231040070079162 0 -0.0944050220014645 -0.1050702242089397 0 -0.077516787342341589 -0.1242022911324857 0 -0.069466171350113709 -0.1135628440840601 0 -0.0944050220014645 -0.1050702242089397 0 -0.066023591375222151 -0.09957098179305135 0 -0.0944050220014645 -0.1050702242089397 0 -0.080832567710134945 -0.085265223789800185 0 -0.066023591375222151 -0.09957098179305135 0 -0.0944050220014645 -0.1050702242089397 0 -0.0944050220014645 -0.1050702242089397 0 -0.1071147179002416 -0.1244919901550422 0 -0.11276894493928399 -0.097790936300085646 0 -0.0944050220014645 -0.1050702242089397 0 -0.11276894493928399 -0.097790936300085646 0 -0.09573268077664969 -0.090624673380050064 0 -0.093262550211769629 -0.1231040070079162 0 -0.0944050220014645 -0.1050702242089397 0 -0.1071147179002416 -0.1244919901550422 0 -0.1071147179002416 -0.1244919901550422 0 -0.11276894493928399 -0.097790936300085646 0 -0.1306137014228527 -0.1212095633787966 0 -0.11276894493928399 -0.097790936300085646 0 -0.1306137014228527 -0.1212095633787966 0 -0.112702195828283 -0.076339248342475546 0 -0.13438499311011279 -0.096174695905308166 0 -0.11276894493928399 -0.097790936300085646 0 -0.112702195828283 -0.076339248342475546 0 -0.13438499311011279 -0.096174695905308166 0 -0.11276894493928399 -0.097790936300085646 0 -0.094924188455715333 -0.074372309221374736 0 -0.112702195828283 -0.076339248342475546 0 -0.11276894493928399 -0.097790936300085646 0 -0.094924188455715333 -0.074372309221374736 0 -0.11276894493928399 -0.097790936300085646 0 -0.09573268077664969 -0.090624673380050064 0 -0.094924188455715333 -0.074372309221374736 0 -0.094924188455715333 -0.074372309221374736 0 -0.1026030192468113 -0.064894788769428779 0 -0.112702195828283 -0.076339248342475546 0 -0.094924188455715333 -0.074372309221374736 0 -0.1026030192468113 -0.064894788769428779 0 -0.090333769324138391 -0.059362086744932152 0 -0.1026030192468113 -0.064894788769428779 0 -0.112702195828283 -0.076339248342475546 0 -0.1158705629695205 -0.060236298698018297 0 -0.112702195828283 -0.076339248342475546 0 -0.1158705629695205 -0.060236298698018297 0 -0.13497135686491851 -0.078315161523928284 0 -0.1158705629695205 -0.060236298698018297 0 -0.1150956899200111 -0.045830426672337207 0 -0.1070798181065768 -0.041876824406217303 0 -0.1158705629695205 -0.060236298698018297 0 -0.1150956899200111 -0.045830426672337207 0 -0.12809376798702951 -0.047905065599393698 0 -0.1163329610324388 -0.034474533447810513 0 -0.12530131535501859 -0.034952786400489197 0 -0.12809376798702951 -0.047905065599393698 0 -0.11023593420079281 -0.033339602888773932 0 -0.1150956899200111 -0.045830426672337207 0 -0.12809376798702951 -0.047905065599393698 0 -0.11023593420079281 -0.033339602888773932 0 -0.1163329610324388 -0.034474533447810513 0 -0.12809376798702951 -0.047905065599393698 0 -0.11023593420079281 -0.033339602888773932 0 -0.12809376798702951 -0.047905065599393698 0 -0.1163329610324388 -0.034474533447810513 0 -0.1221370268088495 -0.025998648103035 0 -0.12530131535501859 -0.034952786400489197 0 -0.11023593420079281 -0.033339602888773932 0 -0.1150956899200111 -0.045830426672337207 0 -0.1070798181065768 -0.041876824406217303 0 -0.11023593420079281 -0.033339602888773932 0 -0.1163329610324388 -0.034474533447810513 0 -0.097427134368436918 -0.027820357899848831 0 -0.11023593420079281 -0.033339602888773932 0 -0.1070798181065768 -0.041876824406217303 0 -0.097427134368436918 -0.027820357899848831 0 -0.1070798181065768 -0.041876824406217303 0 -0.096769769074122519 -0.04215743587210824 0 -0.097427134368436918 -0.027820357899848831 0 -0.1158705629695205 -0.060236298698018297 0 -0.1070798181065768 -0.041876824406217303 0 -0.096769769074122519 -0.04215743587210824 0 -0.1026030192468113 -0.064894788769428779 0 -0.1158705629695205 -0.060236298698018297 0 -0.099264754381345577 -0.055060356505970513 0 -0.1158705629695205 -0.060236298698018297 0 -0.096769769074122519 -0.04215743587210824 0 -0.099264754381345577 -0.055060356505970513 0 -0.096769769074122519 -0.04215743587210824 0 -0.099264754381345577 -0.055060356505970513 0 -0.090746651292135133 -0.048651172445365112 0 -0.1158705629695205 -0.060236298698018297 0 -0.096769769074122519 -0.04215743587210824 0 -0.1026030192468113 -0.064894788769428779 0 -0.099264754381345577 -0.055060356505970513 0 -0.090333769324138391 -0.059362086744932152 0 -0.1029392013539359 -0.0085751277431150782 0 -0.12735709500343681 0.004015926865657337 0 -0.1236693299605585 -0.0137973575501921 0 -0.1110604598185659 -0.0207882196779367 0 -0.1029392013539359 -0.0085751277431150782 0 -0.1236693299605585 -0.0137973575501921 0 -0.1029392013539359 -0.0085751277431150782 0 -0.12735709500343681 0.004015926865657337 0 -0.1236693299605585 -0.0137973575501921 0 -0.1110604598185659 -0.0207882196779367 0 -0.1221370268088495 -0.025998648103035 0 -0.1163329610324388 -0.034474533447810513 0 -0.1221370268088495 -0.025998648103035 0 -0.11173939550707281 -0.027270439782157759 0 -0.1110604598185659 -0.0207882196779367 0 -0.1221370268088495 -0.025998648103035 0 -0.11173939550707281 -0.027270439782157759 0 -0.1163329610324388 -0.034474533447810513 0 -0.097427134368436918 -0.027820357899848831 0 -0.1110604598185659 -0.0207882196779367 0 -0.097427134368436918 -0.027820357899848831 0 -0.1029392013539359 -0.0085751277431150782 0 -0.1163329610324388 -0.034474533447810513 0 -0.11173939550707281 -0.027270439782157759 0 -0.097427134368436918 -0.027820357899848831 0 -0.1110604598185659 -0.0207882196779367 0 -0.11173939550707281 -0.027270439782157759 0 -0.097427134368436918 -0.027820357899848831 0 -0.1029392013539359 -0.0085751277431150782 0 -0.086097875964997059 -0.0058870606910941042 0 -0.078521307704434995 -0.021166182351887271 0 -0.1029392013539359 -0.0085751277431150782 0 -0.078521307704434995 -0.021166182351887271 0 -0.1029392013539359 -0.0085751277431150782 0 -0.086097875964997059 -0.0058870606910941042 0 -0.091682611010439896 0.0063963380850077774 0 -0.086097875964997059 -0.0058870606910941042 0 -0.073830544796709738 -0.0078542708917730738 0 -0.078933949510919491 0.00072378658541613432 0 -0.086097875964997059 -0.0058870606910941042 0 -0.078521307704434995 -0.021166182351887271 0 -0.073830544796709738 -0.0078542708917730738 0 -0.097427134368436918 -0.027820357899848831 0 -0.078521307704434995 -0.021166182351887271 0 -0.097427134368436918 -0.027820357899848831 0 -0.078521307704434995 -0.021166182351887271 0 -0.077668975178724509 -0.024078573046198169 0 -0.097427134368436918 -0.027820357899848831 0 -0.1029392013539359 -0.0085751277431150782 0 -0.078521307704434995 -0.021166182351887271 0 -0.078521307704434995 -0.021166182351887271 0 -0.055132092173872667 -0.033226800447327051 0 -0.05822397002114936 -0.01402224463886402 0 -0.078521307704434995 -0.021166182351887271 0 -0.055132092173872667 -0.033226800447327051 0 -0.077668975178724509 -0.024078573046198169 0 -0.075465350998538308 -0.032772608828030472 0 -0.055132092173872667 -0.033226800447327051 0 -0.078521307704434995 -0.021166182351887271 0 -0.077668975178724509 -0.024078573046198169 0 -0.055132092173872667 -0.033226800447327051 0 -0.078521307704434995 -0.021166182351887271 0 -0.05822397002114936 -0.01402224463886402 0 -0.078521307704434995 -0.021166182351887271 0 -0.073830544796709738 -0.0078542708917730738 0 -0.05822397002114936 -0.01402224463886402 0 -0.073830544796709738 -0.0078542708917730738 0 -0.05822397002114936 -0.01402224463886402 0 -0.068462160169621672 0.0025537029525893409 0 -0.073830544796709738 -0.0078542708917730738 0 -0.078933949510919491 0.00072378658541613432 0 -0.068462160169621672 0.0025537029525893409 0 -0.094924188455715333 -0.074372309221374736 0 -0.090333769324138391 -0.059362086744932152 0 -0.077079431972146645 -0.050953682142663811 0 -0.094924188455715333 -0.074372309221374736 0 -0.078535685693175539 -0.061573663464548622 0 -0.077079431972146645 -0.050953682142663811 0 -0.084868245962835154 -0.053326759561897898 0 -0.090333769324138391 -0.059362086744932152 0 -0.077079431972146645 -0.050953682142663811 0 -0.084868245962835154 -0.053326759561897898 0 -0.080876314157704687 -0.04955372347343575 0 -0.082849096915408454 -0.045583035938281863 0 -0.080876314157704687 -0.04955372347343575 0 -0.078708481780428496 -0.048351416250899462 0 -0.082849096915408454 -0.045583035938281863 0 -0.080876314157704687 -0.04955372347343575 0 -0.078708481780428496 -0.048351416250899462 0 -0.077079431972146645 -0.050953682142663811 0 -0.084868245962835154 -0.053326759561897898 0 -0.080876314157704687 -0.04955372347343575 0 -0.077079431972146645 -0.050953682142663811 0 -0.084868245962835154 -0.053326759561897898 0 -0.090746651292135133 -0.048651172445365112 0 -0.082849096915408454 -0.045583035938281863 0 -0.084868245962835154 -0.053326759561897898 0 -0.090333769324138391 -0.059362086744932152 0 -0.090746651292135133 -0.048651172445365112 0 -0.099264754381345577 -0.055060356505970513 0 -0.090333769324138391 -0.059362086744932152 0 -0.090746651292135133 -0.048651172445365112 0 -0.096769769074122519 -0.04215743587210824 0 -0.088481073739883592 -0.043344290748051233 0 -0.083558777677868248 -0.036985518736449702 0 -0.096769769074122519 -0.04215743587210824 0 -0.097427134368436918 -0.027820357899848831 0 -0.077668975178724509 -0.024078573046198169 0 -0.096769769074122519 -0.04215743587210824 0 -0.077668975178724509 -0.024078573046198169 0 -0.083558777677868248 -0.036985518736449702 0 -0.096769769074122519 -0.04215743587210824 0 -0.077668975178724509 -0.024078573046198169 0 -0.090746651292135133 -0.048651172445365112 0 -0.088481073739883592 -0.043344290748051233 0 -0.082849096915408454 -0.045583035938281863 0 -0.096769769074122519 -0.04215743587210824 0 -0.090746651292135133 -0.048651172445365112 0 -0.088481073739883592 -0.043344290748051233 0 -0.077668975178724509 -0.024078573046198169 0 -0.083558777677868248 -0.036985518736449702 0 -0.075465350998538308 -0.032772608828030472 0 -0.083558777677868248 -0.036985518736449702 0 -0.082849096915408454 -0.045583035938281863 0 -0.075062618692292638 -0.040325846155841297 0 -0.088481073739883592 -0.043344290748051233 0 -0.083558777677868248 -0.036985518736449702 0 -0.082849096915408454 -0.045583035938281863 0 -0.082849096915408454 -0.045583035938281863 0 -0.078067002861142085 -0.04575568247049161 0 -0.075062618692292638 -0.040325846155841297 0 -0.078708481780428496 -0.048351416250899462 0 -0.082849096915408454 -0.045583035938281863 0 -0.078067002861142085 -0.04575568247049161 0 -0.075647814056438792 -0.048762431536943832 0 -0.055132092173872667 -0.033226800447327051 0 -0.078067002861142085 -0.04575568247049161 0 -0.075062618692292638 -0.040325846155841297 0 -0.075647814056438792 -0.048762431536943832 0 -0.075062618692292638 -0.040325846155841297 0 -0.075465350998538308 -0.032772608828030472 0 -0.055132092173872667 -0.033226800447327051 0 -0.075647814056438792 -0.048762431536943832 0 -0.061428605263776047 -0.046553119166432878 0 -0.055132092173872667 -0.033226800447327051 0 -0.075062618692292638 -0.040325846155841297 0 -0.075647814056438792 -0.048762431536943832 0 -0.055132092173872667 -0.033226800447327051 0 -0.083558777677868248 -0.036985518736449702 0 -0.075062618692292638 -0.040325846155841297 0 -0.075465350998538308 -0.032772608828030472 0 -0.065722760200719738 -0.052253177456942877 0 -0.075647814056438792 -0.048762431536943832 0 -0.061428605263776047 -0.046553119166432878 0 -0.065722760200719738 -0.052253177456942877 0 -0.07269306068786438 -0.052406879740114577 0 -0.069833853901725543 -0.055329661047837618 0 -0.065722760200719738 -0.052253177456942877 0 -0.07269306068786438 -0.052406879740114577 0 -0.075647814056438792 -0.048762431536943832 0 -0.07269306068786438 -0.052406879740114577 0 -0.073703714626092445 -0.056102563442451223 0 -0.069833853901725543 -0.055329661047837618 0 -0.07269306068786438 -0.052406879740114577 0 -0.077079431972146645 -0.050953682142663811 0 -0.073703714626092445 -0.056102563442451223 0 -0.078708481780428496 -0.048351416250899462 0 -0.077079431972146645 -0.050953682142663811 0 -0.075647814056438792 -0.048762431536943832 0 -0.07269306068786438 -0.052406879740114577 0 -0.077079431972146645 -0.050953682142663811 0 -0.075647814056438792 -0.048762431536943832 0 -0.078708481780428496 -0.048351416250899462 0 -0.078067002861142085 -0.04575568247049161 0 -0.075647814056438792 -0.048762431536943832 0 -0.078535685693175539 -0.061573663464548622 0 -0.073703714626092445 -0.056102563442451223 0 -0.070308423821052124 -0.061023041189074957 0 -0.078535685693175539 -0.061573663464548622 0 -0.077079431972146645 -0.050953682142663811 0 -0.073703714626092445 -0.056102563442451223 0 -0.073703714626092445 -0.056102563442451223 0 -0.070308423821052124 -0.061023041189074957 0 -0.069833853901725543 -0.055329661047837618 0 -0.070308423821052124 -0.061023041189074957 0 -0.064391701294429504 -0.057679717025484439 0 -0.060830035872249492 -0.064558057335980773 0 -0.070308423821052124 -0.061023041189074957 0 -0.069833853901725543 -0.055329661047837618 0 -0.064391701294429504 -0.057679717025484439 0 -0.065722760200719738 -0.052253177456942877 0 -0.069833853901725543 -0.055329661047837618 0 -0.064391701294429504 -0.057679717025484439 0 -0.064391701294429504 -0.057679717025484439 0 -0.055978059279945473 -0.056388284161067823 0 -0.060830035872249492 -0.064558057335980773 0 -0.065722760200719738 -0.052253177456942877 0 -0.064391701294429504 -0.057679717025484439 0 -0.055978059279945473 -0.056388284161067823 0 -0.055978059279945473 -0.056388284161067823 0 -0.041230103293456458 -0.058058117591144771 0 -0.049479852383656611 -0.067543566470139038 0 -0.055978059279945473 -0.056388284161067823 0 -0.049741921456861897 -0.048697412542500033 0 -0.041230103293456458 -0.058058117591144771 0 -0.055978059279945473 -0.056388284161067823 0 -0.049741921456861897 -0.048697412542500033 0 -0.061428605263776047 -0.046553119166432878 0 -0.065722760200719738 -0.052253177456942877 0 -0.055978059279945473 -0.056388284161067823 0 -0.061428605263776047 -0.046553119166432878 0 -0.049741921456861897 -0.048697412542500033 0 -0.061428605263776047 -0.046553119166432878 0 -0.055132092173872667 -0.033226800447327051 0 -0.049741921456861897 -0.048697412542500033 0 -0.055132092173872667 -0.033226800447327051 0 -0.032367863380537598 -0.044965144957206583 0 -0.055132092173872667 -0.033226800447327051 0 -0.032367863380537598 -0.044965144957206583 0 -0.055132092173872667 -0.033226800447327051 0 -0.032367863380537598 -0.044965144957206583 0 -0.031233838643279398 -0.031193199633022049 0 -0.049741921456861897 -0.048697412542500033 0 -0.032367863380537598 -0.044965144957206583 0 -0.041230103293456458 -0.058058117591144771 0 -0.032367863380537598 -0.044965144957206583 0 -0.041230103293456458 -0.058058117591144771 0 -0.026902341230915561 -0.060374551747501753 0 -0.05822397002114936 -0.01402224463886402 0 -0.057836245250817257 0.0062936453779614283 0 -0.044352522143416888 0.0050416822031405977 0 -0.05822397002114936 -0.01402224463886402 0 -0.037926632337863607 -0.0068783069258408786 0 -0.05822397002114936 -0.01402224463886402 0 -0.068462160169621672 0.0025537029525893409 0 -0.057836245250817257 0.0062936453779614283 0 -0.055132092173872667 -0.033226800447327051 0 -0.05822397002114936 -0.01402224463886402 0 -0.036243114184870161 -0.018923029155399909 0 -0.055132092173872667 -0.033226800447327051 0 -0.036243114184870161 -0.018923029155399909 0 -0.031233838643279398 -0.031193199633022049 0 -0.055132092173872667 -0.033226800447327051 0 -0.036243114184870161 -0.018923029155399909 0 -0.05822397002114936 -0.01402224463886402 0 -0.036243114184870161 -0.018923029155399909 0 -0.037926632337863607 -0.0068783069258408786 0 -0.05822397002114936 -0.01402224463886402 0 -0.037926632337863607 -0.0068783069258408786 0 -0.044352522143416888 0.0050416822031405977 0 -0.036243114184870161 -0.018923029155399909 0 -0.037926632337863607 -0.0068783069258408786 0 -0.029121832422534862 -0.0067169982391169078 0 -0.037926632337863607 -0.0068783069258408786 0 -0.029539197120254941 -0.00051038393964639519 0 -0.029121832422534862 -0.0067169982391169078 0 -0.037926632337863607 -0.0068783069258408786 0 -0.029539197120254941 -0.00051038393964639519 0 -0.03614709390981162 0.0015378833132510439 0 -0.037926632337863607 -0.0068783069258408786 0 -0.03614709390981162 0.0015378833132510439 0 -0.044352522143416888 0.0050416822031405977 0 -0.036243114184870161 -0.018923029155399909 0 -0.017354136195868258 -0.0046192578634720229 0 -0.01819617019275287 -0.0061732580868559192 0 -0.036243114184870161 -0.018923029155399909 0 -0.017354136195868258 -0.0046192578634720229 0 -0.029121832422534862 -0.0067169982391169078 0 -0.036243114184870161 -0.018923029155399909 0 -0.01819617019275287 -0.0061732580868559192 0 -0.019637671972121611 -0.02148729346067638 0 -0.036243114184870161 -0.018923029155399909 0 -0.017354136195868258 -0.0046192578634720229 0 -0.017354136195868258 -0.0046192578634720229 0 -0.01819617019275287 -0.0061732580868559192 0 -0.013500839782477779 -0.0058155532537883976 0 -0.017354136195868258 -0.0046192578634720229 0 -0.01819617019275287 -0.0061732580868559192 0 -0.017354136195868258 -0.0046192578634720229 0 -0.024546082273817361 -0.00265401331122534 0 -0.02112675760807068 0.0030512678310729521 0 -0.024546082273817361 -0.00265401331122534 0 -0.029539197120254941 -0.00051038393964639519 0 -0.02112675760807068 0.0030512678310729521 0 -0.017354136195868258 -0.0046192578634720229 0 -0.024546082273817361 -0.00265401331122534 0 -0.029121832422534862 -0.0067169982391169078 0 -0.024546082273817361 -0.00265401331122534 0 -0.029539197120254941 -0.00051038393964639519 0 -0.029121832422534862 -0.0067169982391169078 0 -0.01819617019275287 -0.0061732580868559192 0 -0.019637671972121611 -0.02148729346067638 0 -0.011008321991883009 -0.01057962122923565 0 -0.036243114184870161 -0.018923029155399909 0 -0.019637671972121611 -0.02148729346067638 0 -0.031233838643279398 -0.031193199633022049 0 -0.019637671972121611 -0.02148729346067638 0 -0.031233838643279398 -0.031193199633022049 0 -0.016064986363794779 -0.036441041599790329 0 -0.0077215053668332834 -0.022860670268973711 0 -0.00118246574067416 -0.01324232368796026 0 0.0015263381015913891 -0.033415212413580753 0 -0.0077215053668332834 -0.022860670268973711 0 -0.016064986363794779 -0.036441041599790329 0 0.0015263381015913891 -0.033415212413580753 0 -0.019637671972121611 -0.02148729346067638 0 -0.0077215053668332834 -0.022860670268973711 0 -0.016064986363794779 -0.036441041599790329 0 -0.019637671972121611 -0.02148729346067638 0 -0.0077215053668332834 -0.022860670268973711 0 -0.011008321991883009 -0.01057962122923565 0 -0.011008321991883009 -0.01057962122923565 0 -0.00118246574067416 -0.01324232368796026 0 -0.0072764121498596901 -0.0036325873431357339 0 -0.0077215053668332834 -0.022860670268973711 0 -0.011008321991883009 -0.01057962122923565 0 -0.00118246574067416 -0.01324232368796026 0 -0.00118246574067416 -0.01324232368796026 0 -0.0072764121498596901 -0.0036325873431357339 0 0.0012074066645448821 -0.00065723147797176382 0 -0.0072764121498596901 -0.0036325873431357339 0 -0.013500839782477779 -0.0058155532537883976 0 -0.013607688627124061 -0.00178224205395049 0 -0.011008321991883009 -0.01057962122923565 0 -0.0072764121498596901 -0.0036325873431357339 0 -0.013500839782477779 -0.0058155532537883976 0 -0.01819617019275287 -0.0061732580868559192 0 -0.011008321991883009 -0.01057962122923565 0 -0.013500839782477779 -0.0058155532537883976 0 -0.017354136195868258 -0.0046192578634720229 0 -0.013500839782477779 -0.0058155532537883976 0 -0.013607688627124061 -0.00178224205395049 0 -0.017354136195868258 -0.0046192578634720229 0 -0.013607688627124061 -0.00178224205395049 0 -0.032367863380537598 -0.044965144957206583 0 -0.0096036345872028556 -0.056703489467087059 0 -0.032367863380537598 -0.044965144957206583 0 -0.026902341230915561 -0.060374551747501753 0 -0.0096036345872028556 -0.056703489467087059 0 -0.032367863380537598 -0.044965144957206583 0 -0.031233838643279398 -0.031193199633022049 0 -0.016064986363794779 -0.036441041599790329 0 -0.032367863380537598 -0.044965144957206583 0 -0.016064986363794779 -0.036441041599790329 0 -0.0096036345872028556 -0.056703489467087059 0 -0.0096036345872028556 -0.056703489467087059 0 0.0015263381015913891 -0.033415212413580753 0 -0.016064986363794779 -0.036441041599790329 0 -0.0096036345872028556 -0.056703489467087059 0 0.0015263381015913891 -0.033415212413580753 0 -0.0096036345872028556 -0.056703489467087059 0 0.0015263381015913891 -0.033415212413580753 0 0.007298405735321048 -0.051477207310420908 0 -0.0096036345872028556 -0.056703489467087059 0 0.0052181775422467033 -0.064346337314722044 0 -0.0096036345872028556 -0.056703489467087059 0 -0.0043762627118289626 -0.071729097412358583 0 0.0052181775422467033 -0.064346337314722044 0 -0.0043762627118289626 -0.071729097412358583 0 -0.0092607301227374331 -0.088572496961274561 0 -0.01646375475339092 -0.071057556949349329 0 -0.0096036345872028556 -0.056703489467087059 0 -0.01646375475339092 -0.071057556949349329 0 -0.0096036345872028556 -0.056703489467087059 0 -0.0043762627118289626 -0.071729097412358583 0 -0.01646375475339092 -0.071057556949349329 0 -0.0092607301227374331 -0.088572496961274561 0 -0.00044729776891663488 -0.1011528385718463 0 0.0042106568376920582 -0.081118225430045127 0 -0.0043762627118289626 -0.071729097412358583 0 -0.0092607301227374331 -0.088572496961274561 0 0.0042106568376920582 -0.081118225430045127 0 -0.0092607301227374331 -0.088572496961274561 0 -0.037642160748979789 -0.094071739377162955 0 -0.0092607301227374331 -0.088572496961274561 0 -0.023323874919582349 -0.085411624431610003 0 -0.01646375475339092 -0.071057556949349329 0 -0.0092607301227374331 -0.088572496961274561 0 -0.023323874919582349 -0.085411624431610003 0 -0.037642160748979789 -0.094071739377162955 0 -0.023323874919582349 -0.085411624431610003 0 -0.01646375475339092 -0.071057556949349329 0 -0.023323874919582349 -0.085411624431610003 0 -0.01646375475339092 -0.071057556949349329 0 -0.034846350139989962 -0.07108844977272101 0 -0.026902341230915561 -0.060374551747501753 0 -0.01646375475339092 -0.071057556949349329 0 -0.034846350139989962 -0.07108844977272101 0 -0.026902341230915561 -0.060374551747501753 0 -0.0096036345872028556 -0.056703489467087059 0 -0.01646375475339092 -0.071057556949349329 0 -0.041230103293456458 -0.058058117591144771 0 -0.026902341230915561 -0.060374551747501753 0 -0.034846350139989962 -0.07108844977272101 0 -0.041230103293456458 -0.058058117591144771 0 -0.034846350139989962 -0.07108844977272101 0 -0.049479852383656611 -0.067543566470139038 0 -0.034846350139989962 -0.07108844977272101 0 -0.048784805137481749 -0.081200653853927454 0 -0.049479852383656611 -0.067543566470139038 0 -0.023323874919582349 -0.085411624431610003 0 -0.034846350139989962 -0.07108844977272101 0 -0.036149297736508462 -0.082943116858855345 0 -0.023323874919582349 -0.085411624431610003 0 -0.036149297736508462 -0.082943116858855345 0 -0.037642160748979789 -0.094071739377162955 0 -0.036149297736508462 -0.082943116858855345 0 -0.048784805137481749 -0.081200653853927454 0 -0.037642160748979789 -0.094071739377162955 0 -0.034846350139989962 -0.07108844977272101 0 -0.036149297736508462 -0.082943116858855345 0 -0.048784805137481749 -0.081200653853927454 0 -0.063732237529271596 -0.080733089011810297 0 -0.066023591375222151 -0.09957098179305135 0 -0.048784805137481749 -0.081200653853927454 0 -0.066023591375222151 -0.09957098179305135 0 -0.048784805137481749 -0.081200653853927454 0 -0.037642160748979789 -0.094071739377162955 0 -0.063732237529271596 -0.080733089011810297 0 -0.048784805137481749 -0.081200653853927454 0 -0.058000192015007383 -0.073011667883306972 0 -0.055978059279945473 -0.056388284161067823 0 -0.060830035872249492 -0.064558057335980773 0 -0.049479852383656611 -0.067543566470139038 0 -0.058000192015007383 -0.073011667883306972 0 -0.060830035872249492 -0.064558057335980773 0 -0.049479852383656611 -0.067543566470139038 0 -0.067174029152377468 -0.071022972744677337 0 -0.058000192015007383 -0.073011667883306972 0 -0.060830035872249492 -0.064558057335980773 0 -0.048784805137481749 -0.081200653853927454 0 -0.058000192015007383 -0.073011667883306972 0 -0.049479852383656611 -0.067543566470139038 0 -0.069466171350113709 -0.1135628440840601 0 -0.054384952187449757 -0.110609208962567 0 -0.059238207921678762 -0.13024384051707169 0 -0.054384952187449757 -0.110609208962567 0 -0.059238207921678762 -0.13024384051707169 0 -0.032945469352336033 -0.1293562392835419 0 -0.066023591375222151 -0.09957098179305135 0 -0.054384952187449757 -0.110609208962567 0 -0.037642160748979789 -0.094071739377162955 0 -0.066023591375222151 -0.09957098179305135 0 -0.037642160748979789 -0.094071739377162955 0 -0.054384952187449757 -0.110609208962567 0 -0.037642160748979789 -0.094071739377162955 0 -0.035661083064217503 -0.11124856921529409 0 -0.054384952187449757 -0.110609208962567 0 -0.032945469352336033 -0.1293562392835419 0 -0.054384952187449757 -0.110609208962567 0 -0.035661083064217503 -0.11124856921529409 0 -0.032945469352336033 -0.1293562392835419 0 -0.01767174996810443 -0.1109570892379047 0 -0.012892303975098539 -0.12786221844410239 0 -0.032945469352336033 -0.1293562392835419 0 -0.035661083064217503 -0.11124856921529409 0 -0.01767174996810443 -0.1109570892379047 0 -0.032945469352336033 -0.1293562392835419 0 -0.0092607301227374331 -0.088572496961274561 0 -0.037642160748979789 -0.094071739377162955 0 -0.01767174996810443 -0.1109570892379047 0 -0.037642160748979789 -0.094071739377162955 0 -0.035661083064217503 -0.11124856921529409 0 -0.01767174996810443 -0.1109570892379047 0 -0.01767174996810443 -0.1109570892379047 0 -0.00044729776891663488 -0.1011528385718463 0 0.005085065621477718 -0.1151057880332567 0 -0.0092607301227374331 -0.088572496961274561 0 -0.01767174996810443 -0.1109570892379047 0 -0.00044729776891663488 -0.1011528385718463 0 -0.01767174996810443 -0.1109570892379047 0 -0.012892303975098539 -0.12786221844410239 0 0.005085065621477718 -0.1151057880332567 0 -0.012892303975098539 -0.12786221844410239 0 0.0027021066240326768 -0.1317064378292063 0 0.005085065621477718 -0.1151057880332567 0 -0.011505986517222349 -0.14810326960451681 0 -0.033736789854580403 -0.16402697950055581 0 -0.032945469352336033 -0.1293562392835419 0 -0.012892303975098539 -0.12786221844410239 0 -0.011505986517222349 -0.14810326960451681 0 0.0027021066240326768 -0.1317064378292063 0 -0.011505986517222349 -0.14810326960451681 0 -0.032945469352336033 -0.1293562392835419 0 -0.012892303975098539 -0.12786221844410239 0 -0.011505986517222349 -0.14810326960451681 0 -0.032945469352336033 -0.1293562392835419 0 -0.011505986517222349 -0.14810326960451681 0 0.009933496317892726 -0.16685029992549011 0 -0.011505986517222349 -0.14810326960451681 0 -0.0085976242789068957 -0.177408956520272 0 0.009933496317892726 -0.16685029992549011 0 -0.0085976242789068957 -0.177408956520272 0 -0.003739977245034012 -0.19168309442994089 0 -0.02712874487570623 -0.18796761311505439 0 -0.0085976242789068957 -0.177408956520272 0 -0.003739977245034012 -0.19168309442994089 0 0.0034571977838801569 -0.17702496179755631 0 -0.0085976242789068957 -0.177408956520272 0 -0.02712874487570623 -0.18796761311505439 0 -0.0085976242789068957 -0.177408956520272 0 -0.033736789854580403 -0.16402697950055581 0 -0.02712874487570623 -0.18796761311505439 0 -0.011505986517222349 -0.14810326960451681 0 -0.0085976242789068957 -0.177408956520272 0 -0.033736789854580403 -0.16402697950055581 0 -0.033736789854580403 -0.16402697950055581 0 -0.041678182321736049 -0.18065303021324261 0 -0.02712874487570623 -0.18796761311505439 0 -0.033736789854580403 -0.16402697950055581 0 -0.041678182321736049 -0.18065303021324261 0 -0.060187329084152079 -0.17209125852752319 0 -0.041678182321736049 -0.18065303021324261 0 -0.060187329084152079 -0.17209125852752319 0 -0.045659865472505487 -0.198526269709837 0 -0.060187329084152079 -0.17209125852752319 0 -0.045659865472505487 -0.198526269709837 0 -0.033736789854580403 -0.16402697950055581 0 -0.060187329084152079 -0.17209125852752319 0 -0.051699405537506939 -0.14899167338562519 0 -0.060187329084152079 -0.17209125852752319 0 -0.051699405537506939 -0.14899167338562519 0 -0.072389231474787458 -0.1492400490994332 0 -0.051699405537506939 -0.14899167338562519 0 -0.059238207921678762 -0.13024384051707169 0 -0.072389231474787458 -0.1492400490994332 0 -0.033736789854580403 -0.16402697950055581 0 -0.051699405537506939 -0.14899167338562519 0 -0.032945469352336033 -0.1293562392835419 0 -0.051699405537506939 -0.14899167338562519 0 -0.059238207921678762 -0.13024384051707169 0 -0.032945469352336033 -0.1293562392835419 0 -0.025857267464119819 -0.25506418495113531 0 -0.02368513365757598 -0.23851275990414511 0 -0.036167443228362108 -0.24337299090061551 0 -0.01269776775011346 -0.25850600500130039 0 -0.02368513365757598 -0.23851275990414511 0 -0.01269776775011346 -0.25850600500130039 0 -0.02368513365757598 -0.23851275990414511 0 -0.01082738352359053 -0.24876902592697839 0 -0.02368513365757598 -0.23851275990414511 0 -0.0067432183097289999 -0.239968376336817 0 -0.0090267388034834407 -0.23007068799598671 0 -0.02368513365757598 -0.23851275990414511 0 -0.01082738352359053 -0.24876902592697839 0 -0.0067432183097289999 -0.239968376336817 0 -0.01082738352359053 -0.24876902592697839 0 -0.0029313858115674811 -0.24854412401401971 0 -0.0067432183097289999 -0.239968376336817 0 -0.0029313858115674811 -0.24854412401401971 0 -0.0067432183097289999 -0.239968376336817 0 0.0026199421412959989 -0.2430643023623929 0 -0.0067432183097289999 -0.239968376336817 0 0.0026199421412959989 -0.2430643023623929 0 0.0017465435191736189 -0.23378549097037141 0 -0.0067432183097289999 -0.239968376336817 0 -0.0090267388034834407 -0.23007068799598671 0 0.0017465435191736189 -0.23378549097037141 0 -0.0090267388034834407 -0.23007068799598671 0 -0.00080535468136348092 -0.21995366459000901 0 -0.01839049427805331 -0.2195873775130934 0 -0.0090267388034834407 -0.23007068799598671 0 -0.00080535468136348092 -0.21995366459000901 0 0.0017465435191736189 -0.23378549097037141 0 -0.02368513365757598 -0.23851275990414511 0 -0.0090267388034834407 -0.23007068799598671 0 -0.01839049427805331 -0.2195873775130934 0 -0.02368513365757598 -0.23851275990414511 0 -0.01839049427805331 -0.2195873775130934 0 -0.034672499565036527 -0.2185195148069887 0 -0.02368513365757598 -0.23851275990414511 0 -0.034672499565036527 -0.2185195148069887 0 -0.01839049427805331 -0.2195873775130934 0 -0.027127261386640289 -0.20489204062456881 0 -0.034672499565036527 -0.2185195148069887 0 -0.01839049427805331 -0.2195873775130934 0 -0.027127261386640289 -0.20489204062456881 0 -0.01084996336714465 -0.20584666152463099 0 -0.00080535468136348092 -0.21995366459000901 0 -0.01839049427805331 -0.2195873775130934 0 -0.01084996336714465 -0.20584666152463099 0 -0.00080535468136348092 -0.21995366459000901 0 -0.01084996336714465 -0.20584666152463099 0 0.01016515501406726 -0.20926501301563591 0 -0.01084996336714465 -0.20584666152463099 0 -0.003739977245034012 -0.19168309442994089 0 0.01016515501406726 -0.20926501301563591 0 -0.01084996336714465 -0.20584666152463099 0 -0.003739977245034012 -0.19168309442994089 0 -0.02712874487570623 -0.18796761311505439 0 -0.027127261386640289 -0.20489204062456881 0 -0.01084996336714465 -0.20584666152463099 0 -0.02712874487570623 -0.18796761311505439 0 -0.041678182321736049 -0.18065303021324261 0 -0.02712874487570623 -0.18796761311505439 0 -0.045659865472505487 -0.198526269709837 0 -0.02712874487570623 -0.18796761311505439 0 -0.045659865472505487 -0.198526269709837 0 -0.027127261386640289 -0.20489204062456881 0 -0.02712874487570623 -0.18796761311505439 0 -0.045659865472505487 -0.198526269709837 0 -0.045659865472505487 -0.198526269709837 0 -0.067682806497079445 -0.21107449474949169 0 -0.062708331551170268 -0.19442045911658551 0 -0.060187329084152079 -0.17209125852752319 0 -0.045659865472505487 -0.198526269709837 0 -0.062708331551170268 -0.19442045911658551 0 -0.045659865472505487 -0.198526269709837 0 -0.067682806497079445 -0.21107449474949169 0 -0.045659865472505487 -0.198526269709837 0 -0.054546183461555722 -0.22015285450131489 0 -0.067682806497079445 -0.21107449474949169 0 -0.045659865472505487 -0.198526269709837 0 -0.034672499565036527 -0.2185195148069887 0 -0.054546183461555722 -0.22015285450131489 0 -0.045659865472505487 -0.198526269709837 0 -0.034672499565036527 -0.2185195148069887 0 -0.027127261386640289 -0.20489204062456881 0 -0.045659865472505487 -0.198526269709837 0 -0.034672499565036527 -0.2185195148069887 0 -0.034672499565036527 -0.2185195148069887 0 -0.044145410485190079 -0.23242073182379891 0 -0.054546183461555722 -0.22015285450131489 0 -0.02368513365757598 -0.23851275990414511 0 -0.034672499565036527 -0.2185195148069887 0 -0.044145410485190079 -0.23242073182379891 0 -0.044145410485190079 -0.23242073182379891 0 -0.054546183461555722 -0.22015285450131489 0 -0.061280333386656921 -0.23284462843810469 0 -0.061280333386656921 -0.23284462843810469 0 -0.050191684441297867 -0.2485850187836515 0 -0.071591358857016049 -0.2429226102204386 0 -0.050191684441297867 -0.2485850187836515 0 -0.071591358857016049 -0.2429226102204386 0 -0.056939497423126581 -0.24878681181634871 0 -0.050191684441297867 -0.2485850187836515 0 -0.071591358857016049 -0.2429226102204386 0 -0.044145410485190079 -0.23242073182379891 0 -0.061280333386656921 -0.23284462843810469 0 -0.050191684441297867 -0.2485850187836515 0 -0.041398382443623198 -0.25192549838374201 0 -0.056939497423126581 -0.24878681181634871 0 -0.050191684441297867 -0.2485850187836515 0 -0.044145410485190079 -0.23242073182379891 0 -0.050191684441297867 -0.2485850187836515 0 -0.036167443228362108 -0.24337299090061551 0 -0.02368513365757598 -0.23851275990414511 0 -0.044145410485190079 -0.23242073182379891 0 -0.036167443228362108 -0.24337299090061551 0 -0.025857267464119819 -0.25506418495113531 0 -0.050191684441297867 -0.2485850187836515 0 -0.036167443228362108 -0.24337299090061551 0 -0.097628444613881649 -0.25834262822693399 0 -0.087470553331264578 -0.24262075389877999 0 -0.077955776651182085 -0.24454236002529731 0 -0.087470553331264578 -0.24262075389877999 0 -0.087928467376508473 -0.23859976953689591 0 -0.1005617376665941 -0.23997685579502359 0 -0.087928467376508473 -0.23859976953689591 0 -0.07453604668454375 -0.2421434382925548 0 -0.07383618536286593 -0.22753148747966839 0 -0.087928467376508473 -0.23859976953689591 0 -0.07453604668454375 -0.2421434382925548 0 -0.087928467376508473 -0.23859976953689591 0 -0.077955776651182085 -0.24454236002529731 0 -0.07453604668454375 -0.2421434382925548 0 -0.087470553331264578 -0.24262075389877999 0 -0.087928467376508473 -0.23859976953689591 0 -0.077955776651182085 -0.24454236002529731 0 -0.087470553331264578 -0.24262075389877999 0 -0.077955776651182085 -0.24454236002529731 0 -0.056939497423126581 -0.24878681181634871 0 -0.077955776651182085 -0.24454236002529731 0 -0.071591358857016049 -0.2429226102204386 0 -0.056939497423126581 -0.24878681181634871 0 -0.077955776651182085 -0.24454236002529731 0 -0.077955776651182085 -0.24454236002529731 0 -0.071591358857016049 -0.2429226102204386 0 -0.07453604668454375 -0.2421434382925548 0 -0.077955776651182085 -0.24454236002529731 0 -0.07453604668454375 -0.2421434382925548 0 -0.071591358857016049 -0.2429226102204386 0 -0.07453604668454375 -0.2421434382925548 0 -0.056939497423126581 -0.24878681181634871 0 -0.071591358857016049 -0.2429226102204386 0 -0.061280333386656921 -0.23284462843810469 0 -0.071591358857016049 -0.2429226102204386 0 -0.07453604668454375 -0.2421434382925548 0 -0.061280333386656921 -0.23284462843810469 0 -0.07453604668454375 -0.2421434382925548 0 -0.07383618536286593 -0.22753148747966839 0 -0.089705747521653334 -0.22362271978914661 0 -0.067682806497079445 -0.21107449474949169 0 -0.054546183461555722 -0.22015285450131489 0 -0.061280333386656921 -0.23284462843810469 0 -0.07383618536286593 -0.22753148747966839 0 -0.054546183461555722 -0.22015285450131489 0 -0.07383618536286593 -0.22753148747966839 0 -0.067682806497079445 -0.21107449474949169 0 -0.061280333386656921 -0.23284462843810469 0 -0.07453604668454375 -0.2421434382925548 0 -0.07383618536286593 -0.22753148747966839 0 -0.087928467376508473 -0.23859976953689591 0 -0.07383618536286593 -0.22753148747966839 0 -0.089705747521653334 -0.22362271978914661 0 -0.087928467376508473 -0.23859976953689591 0 -0.089705747521653334 -0.22362271978914661 0 -0.1005617376665941 -0.23997685579502359 0 -0.089705747521653334 -0.22362271978914661 0 -0.067682806497079445 -0.21107449474949169 0 -0.089705747521653334 -0.22362271978914661 0 -0.084027466008495671 -0.20735524824550181 0 -0.09921486728828334 -0.20109800384388701 0 -0.089705747521653334 -0.22362271978914661 0 -0.084027466008495671 -0.20735524824550181 0 -0.067682806497079445 -0.21107449474949169 0 -0.084027466008495671 -0.20735524824550181 0 -0.067682806497079445 -0.21107449474949169 0 -0.079506442726966622 -0.19362577459948219 0 -0.067682806497079445 -0.21107449474949169 0 -0.062708331551170268 -0.19442045911658551 0 -0.079506442726966622 -0.19362577459948219 0 -0.079506442726966622 -0.19362577459948219 0 -0.09921486728828334 -0.20109800384388701 0 -0.089369030920126963 -0.1732707743578942 0 -0.084027466008495671 -0.20735524824550181 0 -0.079506442726966622 -0.19362577459948219 0 -0.09921486728828334 -0.20109800384388701 0 -0.09921486728828334 -0.20109800384388701 0 -0.1156293974943295 -0.1822747327150937 0 -0.1210853022939376 -0.205467400633562 0 -0.1156293974943295 -0.1822747327150937 0 -0.13505851963374399 -0.18906788910329131 0 -0.09921486728828334 -0.20109800384388701 0 -0.1210853022939376 -0.205467400633562 0 -0.1156293974943295 -0.1822747327150937 0 -0.1210853022939376 -0.205467400633562 0 -0.10755849924533691 -0.2178899443088799 0 -0.11989889803527461 -0.22145143588075511 0 -0.1210853022939376 -0.205467400633562 0 -0.11989889803527461 -0.22145143588075511 0 -0.13086176299679239 -0.21746526838305219 0 -0.089705747521653334 -0.22362271978914661 0 -0.09921486728828334 -0.20109800384388701 0 -0.10755849924533691 -0.2178899443088799 0 -0.09921486728828334 -0.20109800384388701 0 -0.1210853022939376 -0.205467400633562 0 -0.10755849924533691 -0.2178899443088799 0 -0.089705747521653334 -0.22362271978914661 0 -0.11172868854622731 -0.23617094482880149 0 -0.1005617376665941 -0.23997685579502359 0 -0.089705747521653334 -0.22362271978914661 0 -0.11172868854622731 -0.23617094482880149 0 -0.089705747521653334 -0.22362271978914661 0 -0.10755849924533691 -0.2178899443088799 0 -0.11172868854622731 -0.23617094482880149 0 -0.11989889803527461 -0.22145143588075511 0 -0.11172868854622731 -0.23617094482880149 0 -0.127825895831608 -0.22987551408160201 0 -0.10755849924533691 -0.2178899443088799 0 -0.11989889803527461 -0.22145143588075511 0 -0.11172868854622731 -0.23617094482880149 0 -0.13218950310710981 -0.25272660122947088 0 -0.1218823470606431 -0.24640061544388489 0 -0.1098930818979398 -0.24798588601512411 0 -0.11172868854622731 -0.23617094482880149 0 -0.13375162957080131 -0.24871916986845621 0 -0.11172868854622731 -0.23617094482880149 0 -0.1218823470606431 -0.24640061544388489 0 -0.13375162957080131 -0.24871916986845621 0 -0.11172868854622731 -0.23617094482880149 0 -0.13375162957080131 -0.24871916986845621 0 -0.127825895831608 -0.22987551408160201 0 -0.11172868854622731 -0.23617094482880149 0 -0.1218823470606431 -0.24640061544388489 0 -0.1098930818979398 -0.24798588601512411 0 -0.097628444613881649 -0.25834262822693399 0 -0.087470553331264578 -0.24262075389877999 0 -0.1098930818979398 -0.24798588601512411 0 -0.087470553331264578 -0.24262075389877999 0 -0.1098930818979398 -0.24798588601512411 0 -0.1005617376665941 -0.23997685579502359 0 -0.087470553331264578 -0.24262075389877999 0 -0.1098930818979398 -0.24798588601512411 0 -0.11172868854622731 -0.23617094482880149 0 -0.1098930818979398 -0.24798588601512411 0 -0.1005617376665941 -0.23997685579502359 0 -0.087470553331264578 -0.24262075389877999 0 -0.1005617376665941 -0.23997685579502359 0 -0.072389231474787458 -0.1492400490994332 0 -0.089369030920126963 -0.1732707743578942 0 -0.096011965921864201 -0.14265464397282879 0 -0.077516787342341589 -0.1242022911324857 0 -0.093262550211769629 -0.1231040070079162 0 -0.096011965921864201 -0.14265464397282879 0 -0.077516787342341589 -0.1242022911324857 0 -0.072389231474787458 -0.1492400490994332 0 -0.096011965921864201 -0.14265464397282879 0 -0.077516787342341589 -0.1242022911324857 0 -0.059238207921678762 -0.13024384051707169 0 -0.072389231474787458 -0.1492400490994332 0 -0.060187329084152079 -0.17209125852752319 0 -0.072389231474787458 -0.1492400490994332 0 -0.089369030920126963 -0.1732707743578942 0 -0.060187329084152079 -0.17209125852752319 0 -0.079506442726966622 -0.19362577459948219 0 -0.089369030920126963 -0.1732707743578942 0 -0.060187329084152079 -0.17209125852752319 0 -0.062708331551170268 -0.19442045911658551 0 -0.079506442726966622 -0.19362577459948219 0 -0.089369030920126963 -0.1732707743578942 0 -0.1107512355661594 -0.16096683979900789 0 -0.096011965921864201 -0.14265464397282879 0 -0.09921486728828334 -0.20109800384388701 0 -0.089369030920126963 -0.1732707743578942 0 -0.1156293974943295 -0.1822747327150937 0 -0.089369030920126963 -0.1732707743578942 0 -0.1156293974943295 -0.1822747327150937 0 -0.1107512355661594 -0.16096683979900789 0 -0.1156293974943295 -0.1822747327150937 0 -0.13204392770037571 -0.1634514615863005 0 -0.1156293974943295 -0.1822747327150937 0 -0.1107512355661594 -0.16096683979900789 0 -0.13204392770037571 -0.1634514615863005 0 -0.1107512355661594 -0.16096683979900789 0 -0.12070185579410091 -0.1431825863629223 0 -0.13204392770037571 -0.1634514615863005 0 -0.1107512355661594 -0.16096683979900789 0 -0.12070185579410091 -0.1431825863629223 0 -0.096011965921864201 -0.14265464397282879 0 -0.1071147179002416 -0.1244919901550422 0 -0.12070185579410091 -0.1431825863629223 0 -0.096011965921864201 -0.14265464397282879 0 -0.093262550211769629 -0.1231040070079162 0 -0.1071147179002416 -0.1244919901550422 0 -0.096011965921864201 -0.14265464397282879 0 -0.1071147179002416 -0.1244919901550422 0 -0.12070185579410091 -0.1431825863629223 0 -0.1306137014228527 -0.1212095633787966 0 -0.12070185579410091 -0.1431825863629223 0 -0.14845845790642179 -0.14462819045750719 0 -0.1306137014228527 -0.1212095633787966 0 -0.14845845790642179 -0.14462819045750719 0 -0.1306137014228527 -0.1212095633787966 0 -0.15036797716661271 -0.14243845987679379 0 -0.14845845790642179 -0.14462819045750719 0 -0.1306137014228527 -0.1212095633787966 0 -0.15406265534163929 -0.1294064941378926 0 -0.15036797716661271 -0.14243845987679379 0 -0.1306137014228527 -0.1212095633787966 0 -0.15406265534163929 -0.1294064941378926 0 -0.15036797716661271 -0.14243845987679379 0 -0.1564494690737798 -0.13971242061594299 0 -0.1543278084257422 -0.1453912472931165 0 -0.14845845790642179 -0.14462819045750719 0 -0.15894149653025619 -0.15184230729274609 0 -0.15519343748037609 -0.14309809199123349 0 -0.15036797716661271 -0.14243845987679379 0 -0.1564494690737798 -0.13971242061594299 0 -0.1543278084257422 -0.1453912472931165 0 -0.15519343748037609 -0.14309809199123349 0 -0.15036797716661271 -0.14243845987679379 0 -0.1543278084257422 -0.1453912472931165 0 -0.15036797716661271 -0.14243845987679379 0 -0.14845845790642179 -0.14462819045750719 0 -0.15036797716661271 -0.14243845987679379 0 -0.14845845790642179 -0.14462819045750719 0 -0.12070185579410091 -0.1431825863629223 0 -0.14845845790642179 -0.14462819045750719 0 -0.13204392770037571 -0.1634514615863005 0 -0.14845845790642179 -0.14462819045750719 0 -0.13204392770037571 -0.1634514615863005 0 -0.13204392770037571 -0.1634514615863005 0 -0.1475860696211248 -0.17640031700015249 0 -0.13505851963374399 -0.18906788910329131 0 -0.1156293974943295 -0.1822747327150937 0 -0.13204392770037571 -0.1634514615863005 0 -0.13505851963374399 -0.18906788910329131 0 -0.1475860696211248 -0.17640031700015249 0 -0.1655722477793394 -0.1670875310098065 0 -0.15496537504316019 -0.19429807729602311 0 -0.1475860696211248 -0.17640031700015249 0 -0.13505851963374399 -0.18906788910329131 0 -0.15496537504316019 -0.19429807729602311 0 -0.1475860696211248 -0.17640031700015249 0 -0.14862352044039201 -0.16347018067920821 0 -0.1655722477793394 -0.1670875310098065 0 -0.14845845790642179 -0.14462819045750719 0 -0.13204392770037571 -0.1634514615863005 0 -0.14862352044039201 -0.16347018067920821 0 -0.14845845790642179 -0.14462819045750719 0 -0.14862352044039201 -0.16347018067920821 0 -0.1655722477793394 -0.1670875310098065 0 -0.13204392770037571 -0.1634514615863005 0 -0.1475860696211248 -0.17640031700015249 0 -0.14862352044039201 -0.16347018067920821 0 -0.1655722477793394 -0.1670875310098065 0 -0.1716614177265566 -0.15146656102038991 0 -0.1655722477793394 -0.1670875310098065 0 -0.15894149653025619 -0.15184230729274609 0 -0.1716614177265566 -0.15146656102038991 0 -0.1655722477793394 -0.1670875310098065 0 -0.17557921295501691 -0.18022020591375351 0 -0.1689483943248192 -0.19264195369377959 0 -0.1655722477793394 -0.1670875310098065 0 -0.15496537504316019 -0.19429807729602311 0 -0.1689483943248192 -0.19264195369377959 0 -0.1655722477793394 -0.1670875310098065 0 -0.15496537504316019 -0.19429807729602311 0 -0.1655722477793394 -0.1670875310098065 0 -0.17557921295501691 -0.18022020591375351 0 -0.17557921295501691 -0.18022020591375351 0 -0.18239484980351819 -0.16464781923938721 0 -0.1907059301477185 -0.18468107337543721 0 -0.1655722477793394 -0.1670875310098065 0 -0.17557921295501691 -0.18022020591375351 0 -0.18239484980351819 -0.16464781923938721 0 -0.1655722477793394 -0.1670875310098065 0 -0.18239484980351819 -0.16464781923938721 0 -0.1716614177265566 -0.15146656102038991 0 -0.18239484980351819 -0.16464781923938721 0 -0.1716614177265566 -0.15146656102038991 0 -0.1894311146879058 -0.1465309504005988 0 -0.17775058767377289 -0.13584559103097291 0 -0.1716614177265566 -0.15146656102038991 0 -0.1894311146879058 -0.1465309504005988 0 -0.17775058767377289 -0.13584559103097291 0 -0.1716614177265566 -0.15146656102038991 0 -0.17775058767377289 -0.13584559103097291 0 -0.1894311146879058 -0.1465309504005988 0 -0.17775058767377289 -0.13584559103097291 0 -0.19823449762692411 -0.13229999761030051 0 -0.18534812722118199 -0.1163550958908785 0 -0.17775058767377289 -0.13584559103097291 0 -0.18534812722118199 -0.1163550958908785 0 -0.15406265534163929 -0.1294064941378926 0 -0.16394560233522651 -0.1386698702264933 0 -0.15606779039194271 -0.1160101434681408 0 -0.17775058767377289 -0.13584559103097291 0 -0.16394560233522651 -0.1386698702264933 0 -0.15606779039194271 -0.1160101434681408 0 -0.17775058767377289 -0.13584559103097291 0 -0.15606779039194271 -0.1160101434681408 0 -0.15406265534163929 -0.1294064941378926 0 -0.16394560233522651 -0.1386698702264933 0 -0.1564494690737798 -0.13971242061594299 0 -0.16394560233522651 -0.1386698702264933 0 -0.1564494690737798 -0.13971242061594299 0 -0.15962849525536979 -0.1448502401790808 0 -0.14845845790642179 -0.14462819045750719 0 -0.1655722477793394 -0.1670875310098065 0 -0.14845845790642179 -0.14462819045750719 0 -0.1655722477793394 -0.1670875310098065 0 -0.15894149653025619 -0.15184230729274609 0 -0.15519343748037609 -0.14309809199123349 0 -0.1564494690737798 -0.13971242061594299 0 -0.15962849525536979 -0.1448502401790808 0 -0.1543278084257422 -0.1453912472931165 0 -0.15519343748037609 -0.14309809199123349 0 -0.15962849525536979 -0.1448502401790808 0 -0.1543278084257422 -0.1453912472931165 0 -0.15962849525536979 -0.1448502401790808 0 -0.15894149653025619 -0.15184230729274609 0 -0.15962849525536979 -0.1448502401790808 0 -0.15894149653025619 -0.15184230729274609 0 -0.1716614177265566 -0.15146656102038991 0 -0.17775058767377289 -0.13584559103097291 0 -0.16394560233522651 -0.1386698702264933 0 -0.1716614177265566 -0.15146656102038991 0 -0.16394560233522651 -0.1386698702264933 0 -0.15962849525536979 -0.1448502401790808 0 -0.1716614177265566 -0.15146656102038991 0 -0.1534429259631987 -0.25724555178864622 0 -0.15289321433053751 -0.246830478479277 0 -0.1378886282313006 -0.2381062402767252 0 -0.1534429259631987 -0.25724555178864622 0 -0.1378886282313006 -0.2381062402767252 0 -0.15348527020851541 -0.23913552791147211 0 -0.1378886282313006 -0.2381062402767252 0 -0.15430752157141919 -0.22794821467022949 0 -0.15289321433053751 -0.246830478479277 0 -0.15348527020851541 -0.23913552791147211 0 -0.1601832428566283 -0.24550858739866141 0 -0.15289321433053751 -0.246830478479277 0 -0.15348527020851541 -0.23913552791147211 0 -0.1378886282313006 -0.2381062402767252 0 -0.1459019403517107 -0.25564217047089421 0 -0.13375162957080131 -0.24871916986845621 0 -0.1378886282313006 -0.2381062402767252 0 -0.13375162957080131 -0.24871916986845621 0 -0.1378886282313006 -0.2381062402767252 0 -0.127825895831608 -0.22987551408160201 0 -0.13375162957080131 -0.24871916986845621 0 -0.1378886282313006 -0.2381062402767252 0 -0.13218950310710981 -0.25272660122947088 0 -0.1218823470606431 -0.24640061544388489 0 -0.13375162957080131 -0.24871916986845621 0 -0.127825895831608 -0.22987551408160201 0 -0.14435850230698141 -0.22150862358223991 0 -0.13086176299679239 -0.21746526838305219 0 -0.1378886282313006 -0.2381062402767252 0 -0.127825895831608 -0.22987551408160201 0 -0.14435850230698141 -0.22150862358223991 0 -0.11989889803527461 -0.22145143588075511 0 -0.127825895831608 -0.22987551408160201 0 -0.13086176299679239 -0.21746526838305219 0 -0.1378886282313006 -0.2381062402767252 0 -0.14435850230698141 -0.22150862358223991 0 -0.14435850230698141 -0.22150862358223991 0 -0.15430752157141919 -0.22794821467022949 0 -0.16410544360365359 -0.21493654602220469 0 -0.1378886282313006 -0.2381062402767252 0 -0.14435850230698141 -0.22150862358223991 0 -0.15430752157141919 -0.22794821467022949 0 -0.14435850230698141 -0.22150862358223991 0 -0.15496537504316019 -0.19429807729602311 0 -0.14435850230698141 -0.22150862358223991 0 -0.1373527607074172 -0.20563907323320921 0 -0.15496537504316019 -0.19429807729602311 0 -0.14435850230698141 -0.22150862358223991 0 -0.15496537504316019 -0.19429807729602311 0 -0.16410544360365359 -0.21493654602220469 0 -0.14435850230698141 -0.22150862358223991 0 -0.1373527607074172 -0.20563907323320921 0 -0.13086176299679239 -0.21746526838305219 0 -0.1210853022939376 -0.205467400633562 0 -0.1373527607074172 -0.20563907323320921 0 -0.13086176299679239 -0.21746526838305219 0 -0.1210853022939376 -0.205467400633562 0 -0.1373527607074172 -0.20563907323320921 0 -0.13505851963374399 -0.18906788910329131 0 -0.1373527607074172 -0.20563907323320921 0 -0.13505851963374399 -0.18906788910329131 0 -0.15496537504316019 -0.19429807729602311 0 -0.1689483943248192 -0.19264195369377959 0 -0.17994482166635981 -0.2014366202218163 0 -0.16410544360365359 -0.21493654602220469 0 -0.15496537504316019 -0.19429807729602311 0 -0.1689483943248192 -0.19264195369377959 0 -0.16410544360365359 -0.21493654602220469 0 -0.17557921295501691 -0.18022020591375351 0 -0.1689483943248192 -0.19264195369377959 0 -0.17994482166635981 -0.2014366202218163 0 -0.17557921295501691 -0.18022020591375351 0 -0.17994482166635981 -0.2014366202218163 0 -0.1907059301477185 -0.18468107337543721 0 -0.17994482166635981 -0.2014366202218163 0 -0.1784102433228649 -0.21681777692650089 0 -0.16410544360365359 -0.21493654602220469 0 -0.17994482166635981 -0.2014366202218163 0 -0.18904495760185211 -0.20873870471059999 0 -0.19252771524915421 -0.19930647688205899 0 -0.17994482166635981 -0.2014366202218163 0 -0.1784102433228649 -0.21681777692650089 0 -0.18904495760185211 -0.20873870471059999 0 -0.1784102433228649 -0.21681777692650089 0 -0.19175951728552271 -0.21959172261586679 0 -0.18904495760185211 -0.20873870471059999 0 -0.15430752157141919 -0.22794821467022949 0 -0.16410544360365359 -0.21493654602220469 0 -0.16877954452522659 -0.2255120540677526 0 -0.15430752157141919 -0.22794821467022949 0 -0.16877954452522659 -0.2255120540677526 0 -0.16324537569009509 -0.2357306359809743 0 -0.15348527020851541 -0.23913552791147211 0 -0.15430752157141919 -0.22794821467022949 0 -0.16324537569009509 -0.2357306359809743 0 -0.16877954452522659 -0.2255120540677526 0 -0.17781387366555559 -0.23090770197000129 0 -0.16324537569009509 -0.2357306359809743 0 -0.1784102433228649 -0.21681777692650089 0 -0.16410544360365359 -0.21493654602220469 0 -0.16877954452522659 -0.2255120540677526 0 -0.1784102433228649 -0.21681777692650089 0 -0.16877954452522659 -0.2255120540677526 0 -0.17781387366555559 -0.23090770197000129 0 -0.1784102433228649 -0.21681777692650089 0 -0.17781387366555559 -0.23090770197000129 0 -0.19175951728552271 -0.21959172261586679 0 -0.17781387366555559 -0.23090770197000129 0 -0.1805311654956796 -0.2411950136452527 0 -0.19410287643929239 -0.23312434657521411 0 -0.17781387366555559 -0.23090770197000129 0 -0.1805311654956796 -0.2411950136452527 0 -0.16955513552828311 -0.24305067226283769 0 -0.17679077873490559 -0.25046109420941731 0 -0.1805311654956796 -0.2411950136452527 0 -0.18863044441395099 -0.24733650333174401 0 -0.17679077873490559 -0.25046109420941731 0 -0.1805311654956796 -0.2411950136452527 0 -0.16955513552828311 -0.24305067226283769 0 -0.16709258238786229 -0.25188408856254202 0 -0.17679077873490559 -0.25046109420941731 0 -0.16955513552828311 -0.24305067226283769 0 -0.16709258238786229 -0.25188408856254202 0 -0.16955513552828311 -0.24305067226283769 0 -0.1601832428566283 -0.24550858739866141 0 -0.17781387366555559 -0.23090770197000129 0 -0.16955513552828311 -0.24305067226283769 0 -0.16324537569009509 -0.2357306359809743 0 -0.16955513552828311 -0.24305067226283769 0 -0.16324537569009509 -0.2357306359809743 0 -0.1601832428566283 -0.24550858739866141 0 -0.15348527020851541 -0.23913552791147211 0 -0.16324537569009509 -0.2357306359809743 0 -0.1601832428566283 -0.24550858739866141 0 -0.1593809120407062 -0.25278805690175971 0 -0.15289321433053751 -0.246830478479277 0 -0.1601832428566283 -0.24550858739866141 0 -0.20565562739327201 -0.24334207984173631 0 -0.19410287643929239 -0.23312434657521411 0 -0.21201774175915139 -0.2290986139018284 0 -0.21472073189145299 -0.25725591714607071 0 -0.20565562739327201 -0.24334207984173631 0 -0.22837296648480071 -0.23789375384220129 0 -0.20565562739327201 -0.24334207984173631 0 -0.21201774175915139 -0.2290986139018284 0 -0.22837296648480071 -0.23789375384220129 0 -0.20565562739327201 -0.24334207984173631 0 -0.18863044441395099 -0.24733650333174401 0 -0.19410287643929239 -0.23312434657521411 0 -0.1805311654956796 -0.2411950136452527 0 -0.18863044441395099 -0.24733650333174401 0 -0.19410287643929239 -0.23312434657521411 0 -0.17781387366555559 -0.23090770197000129 0 -0.19410287643929239 -0.23312434657521411 0 -0.19175951728552271 -0.21959172261586679 0 -0.19410287643929239 -0.23312434657521411 0 -0.19175951728552271 -0.21959172261586679 0 -0.20443040571370949 -0.21985141578154491 0 -0.21201774175915139 -0.2290986139018284 0 -0.20443040571370949 -0.21985141578154491 0 -0.22630383013383959 -0.21240708539258099 0 -0.19410287643929239 -0.23312434657521411 0 -0.21201774175915139 -0.2290986139018284 0 -0.20443040571370949 -0.21985141578154491 0 -0.20157622681128409 -0.2075672839719423 0 -0.21557055542943429 -0.1904257004922347 0 -0.22630383013383959 -0.21240708539258099 0 -0.20157622681128409 -0.2075672839719423 0 -0.22630383013383959 -0.21240708539258099 0 -0.20443040571370949 -0.21985141578154491 0 -0.20157622681128409 -0.2075672839719423 0 -0.22630383013383959 -0.21240708539258099 0 -0.19175951728552271 -0.21959172261586679 0 -0.20443040571370949 -0.21985141578154491 0 -0.20157622681128409 -0.2075672839719423 0 -0.19175951728552271 -0.21959172261586679 0 -0.20157622681128409 -0.2075672839719423 0 -0.19175951728552271 -0.21959172261586679 0 -0.18904495760185211 -0.20873870471059999 0 -0.20157622681128409 -0.2075672839719423 0 -0.18904495760185211 -0.20873870471059999 0 -0.20157622681128409 -0.2075672839719423 0 -0.19252771524915421 -0.19930647688205899 0 -0.17994482166635981 -0.2014366202218163 0 -0.19252771524915421 -0.19930647688205899 0 -0.1907059301477185 -0.18468107337543721 0 -0.20157622681128409 -0.2075672839719423 0 -0.19252771524915421 -0.19930647688205899 0 -0.20187756758401409 -0.19506767240709361 0 -0.19252771524915421 -0.19930647688205899 0 -0.20187756758401409 -0.19506767240709361 0 -0.1907059301477185 -0.18468107337543721 0 -0.20157622681128409 -0.2075672839719423 0 -0.21557055542943429 -0.1904257004922347 0 -0.20187756758401409 -0.19506767240709361 0 -0.21557055542943429 -0.1904257004922347 0 -0.2038146335316797 -0.1820121315948606 0 -0.20157622681128409 -0.2075672839719423 0 -0.20187756758401409 -0.19506767240709361 0 -0.21557055542943429 -0.1904257004922347 0 -0.21557055542943429 -0.1904257004922347 0 -0.23533053747689989 -0.1962925907305976 0 -0.22630383013383959 -0.21240708539258099 0 -0.23533053747689989 -0.1962925907305976 0 -0.25103143345639523 -0.21724688681321891 0 -0.25418198431724581 -0.18809916394242601 0 -0.22630383013383959 -0.21240708539258099 0 -0.25103143345639523 -0.21724688681321891 0 -0.23533053747689989 -0.1962925907305976 0 -0.22630383013383959 -0.21240708539258099 0 -0.25103143345639523 -0.21724688681321891 0 -0.21201774175915139 -0.2290986139018284 0 -0.22630383013383959 -0.21240708539258099 0 -0.22837296648480071 -0.23789375384220129 0 -0.22630383013383959 -0.21240708539258099 0 -0.22837296648480071 -0.23789375384220129 0 -0.25103143345639523 -0.21724688681321891 0 -0.22837296648480071 -0.23789375384220129 0 -0.25431856302814809 -0.24833495949118861 0 -0.25103143345639523 -0.21724688681321891 0 -0.2335542019388327 -0.26090262277066528 0 -0.22837296648480071 -0.23789375384220129 0 -0.25431856302814809 -0.24833495949118861 0 -0.20708483324238849 -0.15128624944667929 0 -0.22647357207813959 -0.15205360930679629 0 -0.2195633859389316 -0.1340578990397249 0 -0.20708483324238849 -0.15128624944667929 0 -0.19823449762692411 -0.13229999761030051 0 -0.2195633859389316 -0.1340578990397249 0 -0.19823449762692411 -0.13229999761030051 0 -0.2195633859389316 -0.1340578990397249 0 -0.21022893699736381 -0.1097241998529486 0 -0.17775058767377289 -0.13584559103097291 0 -0.19823449762692411 -0.13229999761030051 0 -0.1894311146879058 -0.1465309504005988 0 -0.20708483324238849 -0.15128624944667929 0 -0.1894311146879058 -0.1465309504005988 0 -0.19351686899232889 -0.15854259719770419 0 -0.20708483324238849 -0.15128624944667929 0 -0.19823449762692411 -0.13229999761030051 0 -0.1894311146879058 -0.1465309504005988 0 -0.20708483324238849 -0.15128624944667929 0 -0.19351686899232889 -0.15854259719770419 0 -0.19880271024428661 -0.17007658736909009 0 -0.18239484980351819 -0.16464781923938721 0 -0.1894311146879058 -0.1465309504005988 0 -0.19351686899232889 -0.15854259719770419 0 -0.18239484980351819 -0.16464781923938721 0 -0.19351686899232889 -0.15854259719770419 0 -0.19880271024428661 -0.17007658736909009 0 -0.18239484980351819 -0.16464781923938721 0 -0.19880271024428661 -0.17007658736909009 0 -0.1907059301477185 -0.18468107337543721 0 -0.19880271024428661 -0.17007658736909009 0 -0.1907059301477185 -0.18468107337543721 0 -0.2038146335316797 -0.1820121315948606 0 -0.20187756758401409 -0.19506767240709361 0 -0.1907059301477185 -0.18468107337543721 0 -0.2038146335316797 -0.1820121315948606 0 -0.21557055542943429 -0.1904257004922347 0 -0.2038146335316797 -0.1820121315948606 0 -0.21355186476225221 -0.16985639920369799 0 -0.19880271024428661 -0.17007658736909009 0 -0.2038146335316797 -0.1820121315948606 0 -0.21355186476225221 -0.16985639920369799 0 -0.20708483324238849 -0.15128624944667929 0 -0.21355186476225221 -0.16985639920369799 0 -0.22647357207813959 -0.15205360930679629 0 -0.20708483324238849 -0.15128624944667929 0 -0.19880271024428661 -0.17007658736909009 0 -0.21355186476225221 -0.16985639920369799 0 -0.22956488404758479 -0.1732841170125273 0 -0.2435592126657353 -0.1561425335328199 0 -0.22647357207813959 -0.15205360930679629 0 -0.21355186476225221 -0.16985639920369799 0 -0.22956488404758479 -0.1732841170125273 0 -0.22647357207813959 -0.15205360930679629 0 -0.21557055542943429 -0.1904257004922347 0 -0.21355186476225221 -0.16985639920369799 0 -0.22956488404758479 -0.1732841170125273 0 -0.21557055542943429 -0.1904257004922347 0 -0.22956488404758479 -0.1732841170125273 0 -0.21557055542943429 -0.1904257004922347 0 -0.23533053747689989 -0.1962925907305976 0 -0.22956488404758479 -0.1732841170125273 0 -0.23533053747689989 -0.1962925907305976 0 -0.22956488404758479 -0.1732841170125273 0 -0.25418198431724581 -0.18809916394242601 0 -0.22956488404758479 -0.1732841170125273 0 -0.25418198431724581 -0.18809916394242601 0 -0.2565438833259911 -0.1687602707777138 0 -0.22956488404758479 -0.1732841170125273 0 -0.2435592126657353 -0.1561425335328199 0 -0.22956488404758479 -0.1732841170125273 0 -0.2435592126657353 -0.1561425335328199 0 -0.2565438833259911 -0.1687602707777138 0 -0.2435592126657353 -0.1561425335328199 0 -0.22647357207813959 -0.15205360930679629 0 -0.2432602079730701 -0.13485583854350039 0 -0.22647357207813959 -0.15205360930679629 0 -0.2195633859389316 -0.1340578990397249 0 -0.2432602079730701 -0.13485583854350039 0 -0.2195633859389316 -0.1340578990397249 0 -0.2432602079730701 -0.13485583854350039 0 -0.23065476516460279 -0.11957242830579699 0 -0.2432602079730701 -0.13485583854350039 0 -0.2499653418643101 -0.1102460646797562 0 -0.23065476516460279 -0.11957242830579699 0 -0.2499653418643101 -0.1102460646797562 0 -0.2308399038819596 -0.1034577205422559 0 -0.23065476516460279 -0.11957242830579699 0 -0.2308399038819596 -0.1034577205422559 0 -0.25308440776240432 -0.086371671251396109 0 -0.2499653418643101 -0.1102460646797562 0 -0.2308399038819596 -0.1034577205422559 0 -0.25308440776240432 -0.086371671251396109 0 -0.2308399038819596 -0.1034577205422559 0 -0.21022893699736381 -0.1097241998529486 0 -0.21520721362926831 -0.098298511723915558 0 -0.2308399038819596 -0.1034577205422559 0 -0.22013457808717909 -0.089221868029860679 0 -0.21520721362926831 -0.098298511723915558 0 -0.2308399038819596 -0.1034577205422559 0 -0.23065476516460279 -0.11957242830579699 0 -0.21022893699736381 -0.1097241998529486 0 -0.2195633859389316 -0.1340578990397249 0 -0.23065476516460279 -0.11957242830579699 0 -0.21022893699736381 -0.1097241998529486 0 -0.2335598957907816 -0.079883889973887123 0 -0.24475965461883589 -0.059498385283178377 0 -0.2582325144520296 -0.070050845257802419 0 -0.2335598957907816 -0.079883889973887123 0 -0.2582325144520296 -0.070050845257802419 0 -0.25308440776240432 -0.086371671251396109 0 -0.2308399038819596 -0.1034577205422559 0 -0.2335598957907816 -0.079883889973887123 0 -0.25308440776240432 -0.086371671251396109 0 -0.2308399038819596 -0.1034577205422559 0 -0.22013457808717909 -0.089221868029860679 0 -0.2335598957907816 -0.079883889973887123 0 -0.22013457808717909 -0.089221868029860679 0 -0.2335598957907816 -0.079883889973887123 0 -0.21963876375789801 -0.077814354495200549 0 -0.2335598957907816 -0.079883889973887123 0 -0.21595644614104051 -0.065738508165203102 0 -0.24475965461883589 -0.059498385283178377 0 -0.21595644614104051 -0.065738508165203102 0 -0.24475965461883589 -0.059498385283178377 0 -0.2335598957907816 -0.079883889973887123 0 -0.21963876375789801 -0.077814354495200549 0 -0.21595644614104051 -0.065738508165203102 0 -0.20438945881064449 -0.068244458930106389 0 -0.21100771399754009 -0.086966924160961745 0 -0.21595644614104051 -0.065738508165203102 0 -0.21100771399754009 -0.086966924160961745 0 -0.20438945881064449 -0.068244458930106389 0 -0.21595644614104051 -0.065738508165203102 0 -0.21100771399754009 -0.086966924160961745 0 -0.21963876375789801 -0.077814354495200549 0 -0.21595644614104051 -0.065738508165203102 0 -0.21100771399754009 -0.086966924160961745 0 -0.20438945881064449 -0.068244458930106389 0 -0.21595644614104051 -0.065738508165203102 0 -0.20438945881064449 -0.068244458930106389 0 -0.21595644614104051 -0.065738508165203102 0 -0.20711132549122371 -0.057203435059411119 0 -0.20438945881064449 -0.068244458930106389 0 -0.21100771399754009 -0.086966924160961745 0 -0.19851231957361129 -0.085310821531315487 0 -0.22013457808717909 -0.089221868029860679 0 -0.21963876375789801 -0.077814354495200549 0 -0.21100771399754009 -0.086966924160961745 0 -0.22013457808717909 -0.089221868029860679 0 -0.21100771399754009 -0.086966924160961745 0 -0.21520721362926831 -0.098298511723915558 0 -0.21100771399754009 -0.086966924160961745 0 -0.19851231957361129 -0.085310821531315487 0 -0.20550431009004061 -0.095676697317907802 0 -0.21100771399754009 -0.086966924160961745 0 -0.21520721362926831 -0.098298511723915558 0 -0.20550431009004061 -0.095676697317907802 0 -0.19851231957361129 -0.085310821531315487 0 -0.18118326058104209 -0.08825419183970401 0 -0.18409944718507371 -0.07264022497537044 0 -0.19851231957361129 -0.085310821531315487 0 -0.19294566676858971 -0.096864600750783431 0 -0.18118326058104209 -0.08825419183970401 0 -0.19851231957361129 -0.085310821531315487 0 -0.20550431009004061 -0.095676697317907802 0 -0.19294566676858971 -0.096864600750783431 0 -0.20438945881064449 -0.068244458930106389 0 -0.19851231957361129 -0.085310821531315487 0 -0.18409944718507371 -0.07264022497537044 0 -0.20438945881064449 -0.068244458930106389 0 -0.18409944718507371 -0.07264022497537044 0 -0.18769526278089041 -0.057829612445021099 0 -0.20438945881064449 -0.068244458930106389 0 -0.18409944718507371 -0.07264022497537044 0 -0.21022893699736381 -0.1097241998529486 0 -0.21520721362926831 -0.098298511723915558 0 -0.20550431009004061 -0.095676697317907802 0 -0.21022893699736381 -0.1097241998529486 0 -0.20550431009004061 -0.095676697317907802 0 -0.19294566676858971 -0.096864600750783431 0 -0.19294566676858971 -0.096864600750783431 0 -0.18534812722118199 -0.1163550958908785 0 -0.21022893699736381 -0.1097241998529486 0 -0.19294566676858971 -0.096864600750783431 0 -0.18534812722118199 -0.1163550958908785 0 -0.19823449762692411 -0.13229999761030051 0 -0.21022893699736381 -0.1097241998529486 0 -0.18534812722118199 -0.1163550958908785 0 -0.18534812722118199 -0.1163550958908785 0 -0.17423934197139679 -0.1017815859784342 0 -0.15606779039194271 -0.1160101434681408 0 -0.17775058767377289 -0.13584559103097291 0 -0.18534812722118199 -0.1163550958908785 0 -0.15606779039194271 -0.1160101434681408 0 -0.16057304666404501 -0.10079887419961479 0 -0.17423934197139679 -0.1017815859784342 0 -0.15606779039194271 -0.1160101434681408 0 -0.16057304666404501 -0.10079887419961479 0 -0.16746185343044401 -0.091445336260546128 0 -0.1570966781871318 -0.090327755750333361 0 -0.16057304666404501 -0.10079887419961479 0 -0.17423934197139679 -0.1017815859784342 0 -0.16746185343044401 -0.091445336260546128 0 -0.17423934197139679 -0.1017815859784342 0 -0.18118326058104209 -0.08825419183970401 0 -0.16746185343044401 -0.091445336260546128 0 -0.19294566676858971 -0.096864600750783431 0 -0.18534812722118199 -0.1163550958908785 0 -0.17423934197139679 -0.1017815859784342 0 -0.19294566676858971 -0.096864600750783431 0 -0.17423934197139679 -0.1017815859784342 0 -0.18118326058104209 -0.08825419183970401 0 -0.18118326058104209 -0.08825419183970401 0 -0.18409944718507371 -0.07264022497537044 0 -0.16915717098214109 -0.081397787743409861 0 -0.18118326058104209 -0.08825419183970401 0 -0.16746185343044401 -0.091445336260546128 0 -0.16915717098214109 -0.081397787743409861 0 -0.18409944718507371 -0.07264022497537044 0 -0.1702117591297739 -0.06777753321031553 0 -0.16380943555950259 -0.077035991020633382 0 -0.18409944718507371 -0.07264022497537044 0 -0.16380943555950259 -0.077035991020633382 0 -0.16915717098214109 -0.081397787743409861 0 -0.18409944718507371 -0.07264022497537044 0 -0.17187825396406881 -0.057945450019426657 0 -0.18769526278089041 -0.057829612445021099 0 -0.18409944718507371 -0.07264022497537044 0 -0.16380943555950259 -0.077035991020633382 0 -0.18409944718507371 -0.07264022497537044 0 -0.1702117591297739 -0.06777753321031553 0 -0.17187825396406881 -0.057945450019426657 0 -0.16380943555950259 -0.077035991020633382 0 -0.16105989981045041 -0.063488466825831633 0 -0.14595160177326619 -0.062470528310013429 0 -0.1702117591297739 -0.06777753321031553 0 -0.16105989981045041 -0.063488466825831633 0 -0.17187825396406881 -0.057945450019426657 0 -0.1702117591297739 -0.06777753321031553 0 -0.16380943555950259 -0.077035991020633382 0 -0.16105989981045041 -0.063488466825831633 0 -0.16380943555950259 -0.077035991020633382 0 -0.16109871639751261 -0.084134952385501949 0 -0.14796844382834351 -0.080467891152587012 0 -0.16746185343044401 -0.091445336260546128 0 -0.16915717098214109 -0.081397787743409861 0 -0.16109871639751261 -0.084134952385501949 0 -0.16380943555950259 -0.077035991020633382 0 -0.16915717098214109 -0.081397787743409861 0 -0.16109871639751261 -0.084134952385501949 0 -0.16380943555950259 -0.077035991020633382 0 -0.16915717098214109 -0.081397787743409861 0 -0.16746185343044401 -0.091445336260546128 0 -0.16109871639751261 -0.084134952385501949 0 -0.1570966781871318 -0.090327755750333361 0 -0.16380943555950259 -0.077035991020633382 0 -0.14796844382834351 -0.080467891152587012 0 -0.14796844382834351 -0.080467891152587012 0 -0.13497135686491851 -0.078315161523928284 0 -0.1484932433812913 -0.094043062253026791 0 -0.1570966781871318 -0.090327755750333361 0 -0.14796844382834351 -0.080467891152587012 0 -0.1484932433812913 -0.094043062253026791 0 -0.16109871639751261 -0.084134952385501949 0 -0.1570966781871318 -0.090327755750333361 0 -0.14796844382834351 -0.080467891152587012 0 -0.16380943555950259 -0.077035991020633382 0 -0.14796844382834351 -0.080467891152587012 0 -0.14595160177326619 -0.062470528310013429 0 -0.16380943555950259 -0.077035991020633382 0 -0.14595160177326619 -0.062470528310013429 0 -0.14796844382834351 -0.080467891152587012 0 -0.13497135686491851 -0.078315161523928284 0 -0.14595160177326619 -0.062470528310013429 0 -0.1158705629695205 -0.060236298698018297 0 -0.13497135686491851 -0.078315161523928284 0 -0.1158705629695205 -0.060236298698018297 0 -0.13497135686491851 -0.078315161523928284 0 -0.13122182239868371 -0.062231763532838429 0 -0.13497135686491851 -0.078315161523928284 0 -0.13122182239868371 -0.062231763532838429 0 -0.14595160177326619 -0.062470528310013429 0 -0.112702195828283 -0.076339248342475546 0 -0.13497135686491851 -0.078315161523928284 0 -0.13438499311011279 -0.096174695905308166 0 -0.13497135686491851 -0.078315161523928284 0 -0.13438499311011279 -0.096174695905308166 0 -0.1484932433812913 -0.094043062253026791 0 -0.11276894493928399 -0.097790936300085646 0 -0.13438499311011279 -0.096174695905308166 0 -0.1306137014228527 -0.1212095633787966 0 -0.13438499311011279 -0.096174695905308166 0 -0.1306137014228527 -0.1212095633787966 0 -0.15606779039194271 -0.1160101434681408 0 -0.15406265534163929 -0.1294064941378926 0 -0.1306137014228527 -0.1212095633787966 0 -0.15606779039194271 -0.1160101434681408 0 -0.13438499311011279 -0.096174695905308166 0 -0.15606779039194271 -0.1160101434681408 0 -0.1484932433812913 -0.094043062253026791 0 -0.16057304666404501 -0.10079887419961479 0 -0.15606779039194271 -0.1160101434681408 0 -0.1484932433812913 -0.094043062253026791 0 -0.13438499311011279 -0.096174695905308166 0 -0.15606779039194271 -0.1160101434681408 0 -0.16057304666404501 -0.10079887419961479 0 -0.1570966781871318 -0.090327755750333361 0 -0.1484932433812913 -0.094043062253026791 0 -0.14513665439653431 -0.02122229521611602 0 -0.15148395360685291 -0.031475856168514699 0 -0.16129500549156001 -0.024264335985147129 0 -0.14513665439653431 -0.02122229521611602 0 -0.1346415055917565 -0.031432898451717602 0 -0.15148395360685291 -0.031475856168514699 0 -0.14513665439653431 -0.02122229521611602 0 -0.15327979458335059 -0.01391829646419882 0 -0.16129500549156001 -0.024264335985147129 0 -0.1412848112475209 -0.008091449167619497 0 -0.15773416148281841 -0.0035868741371463562 0 -0.14801408494475049 0.0031182785745780331 0 -0.15327979458335059 -0.01391829646419882 0 -0.1412848112475209 -0.008091449167619497 0 -0.15773416148281841 -0.0035868741371463562 0 -0.14513665439653431 -0.02122229521611602 0 -0.15327979458335059 -0.01391829646419882 0 -0.1412848112475209 -0.008091449167619497 0 -0.1236693299605585 -0.0137973575501921 0 -0.1412848112475209 -0.008091449167619497 0 -0.12735709500343681 0.004015926865657337 0 -0.1412848112475209 -0.008091449167619497 0 -0.12735709500343681 0.004015926865657337 0 -0.14801408494475049 0.0031182785745780331 0 -0.1236693299605585 -0.0137973575501921 0 -0.1412848112475209 -0.008091449167619497 0 -0.13426109495296229 -0.02049569832685658 0 -0.1236693299605585 -0.0137973575501921 0 -0.1221370268088495 -0.025998648103035 0 -0.13426109495296229 -0.02049569832685658 0 -0.14513665439653431 -0.02122229521611602 0 -0.1412848112475209 -0.008091449167619497 0 -0.13426109495296229 -0.02049569832685658 0 -0.14513665439653431 -0.02122229521611602 0 -0.13426109495296229 -0.02049569832685658 0 -0.1346415055917565 -0.031432898451717602 0 -0.1221370268088495 -0.025998648103035 0 -0.12530131535501859 -0.034952786400489197 0 -0.1346415055917565 -0.031432898451717602 0 -0.1221370268088495 -0.025998648103035 0 -0.13426109495296229 -0.02049569832685658 0 -0.1346415055917565 -0.031432898451717602 0 -0.12530131535501859 -0.034952786400489197 0 -0.1346415055917565 -0.031432898451717602 0 -0.12809376798702951 -0.047905065599393698 0 -0.1346415055917565 -0.031432898451717602 0 -0.12809376798702951 -0.047905065599393698 0 -0.14629371500633531 -0.042796653234188263 0 -0.12809376798702951 -0.047905065599393698 0 -0.14595160177326619 -0.062470528310013429 0 -0.12809376798702951 -0.047905065599393698 0 -0.14595160177326619 -0.062470528310013429 0 -0.14629371500633531 -0.042796653234188263 0 -0.13122182239868371 -0.062231763532838429 0 -0.12809376798702951 -0.047905065599393698 0 -0.14595160177326619 -0.062470528310013429 0 -0.1158705629695205 -0.060236298698018297 0 -0.13122182239868371 -0.062231763532838429 0 -0.12809376798702951 -0.047905065599393698 0 -0.14595160177326619 -0.062470528310013429 0 -0.14629371500633531 -0.042796653234188263 0 -0.15696853651444401 -0.052603520026387289 0 -0.16105989981045041 -0.063488466825831633 0 -0.14595160177326619 -0.062470528310013429 0 -0.15696853651444401 -0.052603520026387289 0 -0.15148395360685291 -0.031475856168514699 0 -0.14629371500633531 -0.042796653234188263 0 -0.16402488563849801 -0.041062174760887443 0 -0.1346415055917565 -0.031432898451717602 0 -0.15148395360685291 -0.031475856168514699 0 -0.14629371500633531 -0.042796653234188263 0 -0.14629371500633531 -0.042796653234188263 0 -0.16402488563849801 -0.041062174760887443 0 -0.15696853651444401 -0.052603520026387289 0 -0.15148395360685291 -0.031475856168514699 0 -0.16402488563849801 -0.041062174760887443 0 -0.16129500549156001 -0.024264335985147129 0 -0.16402488563849801 -0.041062174760887443 0 -0.17409393016306191 -0.030370879776367592 0 -0.16129500549156001 -0.024264335985147129 0 -0.16402488563849801 -0.041062174760887443 0 -0.15696853651444401 -0.052603520026387289 0 -0.17187825396406881 -0.057945450019426657 0 -0.16105989981045041 -0.063488466825831633 0 -0.15696853651444401 -0.052603520026387289 0 -0.17187825396406881 -0.057945450019426657 0 -0.16402488563849801 -0.041062174760887443 0 -0.17187825396406881 -0.057945450019426657 0 -0.18133558272394029 -0.043618149437272283 0 -0.17187825396406881 -0.057945450019426657 0 -0.18133558272394029 -0.043618149437272283 0 -0.18769526278089041 -0.057829612445021099 0 -0.18133558272394029 -0.043618149437272283 0 -0.17409393016306191 -0.030370879776367592 0 -0.18915768363079971 -0.025155098795753519 0 -0.16402488563849801 -0.041062174760887443 0 -0.18133558272394029 -0.043618149437272283 0 -0.17409393016306191 -0.030370879776367592 0 -0.17409393016306191 -0.030370879776367592 0 -0.17549551533112251 -0.014893414490097231 0 -0.18915768363079971 -0.025155098795753519 0 -0.16129500549156001 -0.024264335985147129 0 -0.16350931143073591 -0.01273440345064396 0 -0.17549551533112251 -0.014893414490097231 0 -0.17409393016306191 -0.030370879776367592 0 -0.16129500549156001 -0.024264335985147129 0 -0.17549551533112251 -0.014893414490097231 0 -0.15327979458335059 -0.01391829646419882 0 -0.16129500549156001 -0.024264335985147129 0 -0.16350931143073591 -0.01273440345064396 0 -0.15773416148281841 -0.0035868741371463562 0 -0.16716832075785379 -0.0032078365625175 0 -0.1619193683370386 0.0066468078375689294 0 -0.15773416148281841 -0.0035868741371463562 0 -0.16350931143073591 -0.01273440345064396 0 -0.16716832075785379 -0.0032078365625175 0 -0.15327979458335059 -0.01391829646419882 0 -0.15773416148281841 -0.0035868741371463562 0 -0.16350931143073591 -0.01273440345064396 0 -0.16350931143073591 -0.01273440345064396 0 -0.16716832075785379 -0.0032078365625175 0 -0.17549551533112251 -0.014893414490097231 0 -0.17549551533112251 -0.014893414490097231 0 -0.18154179604087481 -0.0036104187285780349 0 -0.18915768363079971 -0.025155098795753519 0 -0.18154179604087481 -0.0036104187285780349 0 -0.18915768363079971 -0.025155098795753519 0 -0.17549551533112251 -0.014893414490097231 0 -0.17584419881677341 0.0071523107965592754 0 -0.17549551533112251 -0.014893414490097231 0 -0.18154179604087481 -0.0036104187285780349 0 -0.17584419881677341 0.0071523107965592754 0 -0.16716832075785379 -0.0032078365625175 0 -0.17549551533112251 -0.014893414490097231 0 -0.17584419881677341 0.0071523107965592754 0 -0.18154179604087481 -0.0036104187285780349 0 -0.19066530249761049 -0.0041303576494283751 0 -0.18915768363079971 -0.025155098795753519 0 -0.18154179604087481 -0.0036104187285780349 0 -0.19066530249761049 -0.0041303576494283751 0 -0.18717715497560061 0.0062623078557712403 0 -0.19066530249761049 -0.0041303576494283751 0 -0.1989264366345522 -0.0080023544535597537 0 -0.18915768363079971 -0.025155098795753519 0 -0.19066530249761049 -0.0041303576494283751 0 -0.1989264366345522 -0.0080023544535597537 0 -0.1965234412062255 0.0098537758749781944 0 -0.1989264366345522 -0.0080023544535597537 0 -0.2007918169376324 -0.0191738513677071 0 -0.20680177871376751 -0.0119671669755851 0 -0.18915768363079971 -0.025155098795753519 0 -0.2007918169376324 -0.0191738513677071 0 -0.21013076049929519 -0.028334228638799381 0 -0.1989264366345522 -0.0080023544535597537 0 -0.18915768363079971 -0.025155098795753519 0 -0.2007918169376324 -0.0191738513677071 0 -0.2007918169376324 -0.0191738513677071 0 -0.21013076049929519 -0.028334228638799381 0 -0.20680177871376751 -0.0119671669755851 0 -0.21013076049929519 -0.028334228638799381 0 -0.21702438745170211 -0.0043907958627755336 0 -0.21921501925093501 -0.017985606360015789 0 -0.21013076049929519 -0.028334228638799381 0 -0.21702438745170211 -0.0043907958627755336 0 -0.21013076049929519 -0.028334228638799381 0 -0.22271521407306469 -0.037269361340154371 0 -0.21921501925093501 -0.017985606360015789 0 -0.21013076049929519 -0.028334228638799381 0 -0.21702438745170211 -0.0043907958627755336 0 -0.20680177871376751 -0.0119671669755851 0 -0.1989264366345522 -0.0080023544535597537 0 -0.20680177871376751 -0.0119671669755851 0 -0.20713549204565579 6.5395444916274768e-05 0 -0.21702438745170211 -0.0043907958627755336 0 -0.20680177871376751 -0.0119671669755851 0 -0.20713549204565579 6.5395444916274768e-05 0 -0.20438945881064449 -0.068244458930106389 0 -0.1967735712207245 -0.046699778862929052 0 -0.20438945881064449 -0.068244458930106389 0 -0.18769526278089041 -0.057829612445021099 0 -0.1967735712207245 -0.046699778862929052 0 -0.20438945881064449 -0.068244458930106389 0 -0.1967735712207245 -0.046699778862929052 0 -0.20711132549122371 -0.057203435059411119 0 -0.18133558272394029 -0.043618149437272283 0 -0.18769526278089041 -0.057829612445021099 0 -0.1967735712207245 -0.046699778862929052 0 -0.18133558272394029 -0.043618149437272283 0 -0.18915768363079971 -0.025155098795753519 0 -0.1967735712207245 -0.046699778862929052 0 -0.18915768363079971 -0.025155098795753519 0 -0.1967735712207245 -0.046699778862929052 0 -0.18915768363079971 -0.025155098795753519 0 -0.21013076049929519 -0.028334228638799381 0 -0.1967735712207245 -0.046699778862929052 0 -0.21013076049929519 -0.028334228638799381 0 -0.21132582579248671 -0.048130994279405613 0 -0.22271521407306469 -0.037269361340154371 0 -0.21013076049929519 -0.028334228638799381 0 -0.1967735712207245 -0.046699778862929052 0 -0.21132582579248671 -0.048130994279405613 0 -0.21595644614104051 -0.065738508165203102 0 -0.21132582579248671 -0.048130994279405613 0 -0.22271521407306469 -0.037269361340154371 0 -0.21595644614104051 -0.065738508165203102 0 -0.21132582579248671 -0.048130994279405613 0 -0.20711132549122371 -0.057203435059411119 0 -0.1967735712207245 -0.046699778862929052 0 -0.21132582579248671 -0.048130994279405613 0 -0.20711132549122371 -0.057203435059411119 0 -0.21595644614104051 -0.065738508165203102 0 -0.2284172135094342 -0.053659916570315727 0 -0.24475965461883589 -0.059498385283178377 0 -0.21595644614104051 -0.065738508165203102 0 -0.2284172135094342 -0.053659916570315727 0 -0.22271521407306469 -0.037269361340154371 0 -0.21595644614104051 -0.065738508165203102 0 -0.22271521407306469 -0.037269361340154371 0 -0.2284172135094342 -0.053659916570315727 0 -0.22271521407306469 -0.037269361340154371 0 -0.23903543051913109 -0.043198085603962481 0 -0.22271521407306469 -0.037269361340154371 0 -0.23903543051913109 -0.043198085603962481 0 -0.24161885061771041 -0.026720350447010301 0 -0.23903543051913109 -0.043198085603962481 0 -0.24161885061771041 -0.026720350447010301 0 -0.25766621977661042 -0.038842414379153638 0 -0.23903543051913109 -0.043198085603962481 0 -0.24475965461883589 -0.059498385283178377 0 -0.25766621977661042 -0.038842414379153638 0 -0.2284172135094342 -0.053659916570315727 0 -0.23903543051913109 -0.043198085603962481 0 -0.24475965461883589 -0.059498385283178377 0 -0.22947398200509031 -0.0088002145151058891 0 -0.22867745033346079 0.0038692188645070222 0 -0.2401015516947359 0.00075261550232862703 0 -0.21702438745170211 -0.0043907958627755336 0 -0.22947398200509031 -0.0088002145151058891 0 -0.22867745033346079 0.0038692188645070222 0 -0.21702438745170211 -0.0043907958627755336 0 -0.22947398200509031 -0.0088002145151058891 0 -0.21921501925093501 -0.017985606360015789 0 -0.22271521407306469 -0.037269361340154371 0 -0.22947398200509031 -0.0088002145151058891 0 -0.21921501925093501 -0.017985606360015789 0 -0.22271521407306469 -0.037269361340154371 0 -0.22947398200509031 -0.0088002145151058891 0 -0.22271521407306469 -0.037269361340154371 0 -0.22947398200509031 -0.0088002145151058891 0 -0.24161885061771041 -0.026720350447010301 0 -0.22947398200509031 -0.0088002145151058891 0 -0.24161885061771041 -0.026720350447010301 0 -0.2437457614006571 -0.011962382738850049 0 -0.24161885061771041 -0.026720350447010301 0 -0.2437457614006571 -0.011962382738850049 0 -0.2598032925822476 -0.0188915667982569 0 -0.22947398200509031 -0.0088002145151058891 0 -0.2437457614006571 -0.011962382738850049 0 -0.2401015516947359 0.00075261550232862703 0 -0.2437457614006571 -0.011962382738850049 0 -0.25267499080189931 -0.0034516002120552492 0 -0.2401015516947359 0.00075261550232862703 0 -0.25267499080189931 -0.0034516002120552492 0 -0.2598032925822476 -0.0188915667982569 0 -0.26909988492935111 -0.0018655285383734981 0 -0.2437457614006571 -0.011962382738850049 0 -0.25267499080189931 -0.0034516002120552492 0 -0.2598032925822476 -0.0188915667982569 0 -0.2598032925822476 -0.0188915667982569 0 -0.27267419604841259 -0.026924212746328481 0 -0.25766621977661042 -0.038842414379153638 0 -0.24161885061771041 -0.026720350447010301 0 -0.2598032925822476 -0.0188915667982569 0 -0.25766621977661042 -0.038842414379153638 0 -0.2598032925822476 -0.0188915667982569 0 -0.27267419604841259 -0.026924212746328481 0 -0.27804425228895369 -0.016131696666228459 0 -0.27267419604841259 -0.026924212746328481 0 -0.27804425228895369 -0.016131696666228459 0 -0.28378415359151371 -0.031280105512012511 0 -0.27804425228895369 -0.016131696666228459 0 -0.26909988492935111 -0.0018655285383734981 0 -0.2917254884257266 -0.0017566381736345419 0 -0.2598032925822476 -0.0188915667982569 0 -0.27804425228895369 -0.016131696666228459 0 -0.26909988492935111 -0.0018655285383734981 0 -0.27804425228895369 -0.016131696666228459 0 -0.2917254884257266 -0.0017566381736345419 0 -0.2928870998243559 -0.020527937726781 0 -0.27804425228895369 -0.016131696666228459 0 -0.2928870998243559 -0.020527937726781 0 -0.28378415359151371 -0.031280105512012511 0 -0.2928870998243559 -0.020527937726781 0 -0.29943422057661201 -0.032203920876667472 0 -0.28378415359151371 -0.031280105512012511 0 -0.2928870998243559 -0.020527937726781 0 -0.31144738423897378 -0.02126732740536201 0 -0.29943422057661201 -0.032203920876667472 0 -0.31144738423897378 -0.02126732740536201 0 -0.31110423911055801 -0.035316851109560482 0 -0.29943422057661201 -0.032203920876667472 0 -0.2917254884257266 -0.0017566381736345419 0 -0.31144738423897378 -0.02126732740536201 0 -0.31177688145040278 0.0050359958776742568 0 -0.2917254884257266 -0.0017566381736345419 0 -0.2928870998243559 -0.020527937726781 0 -0.31144738423897378 -0.02126732740536201 0 -0.2917254884257266 -0.0017566381736345419 0 -0.31144738423897378 -0.02126732740536201 0 -0.30323190850646392 -0.052883144282766713 0 -0.3023660715744253 -0.047018139519123002 0 -0.29757341552329353 -0.05219957266967655 0 -0.29931176789370939 -0.061629941742321552 0 -0.30659897303184058 -0.057135789817405573 0 -0.30728911182784302 -0.064893595009923935 0 -0.30323190850646392 -0.052883144282766713 0 -0.29931176789370939 -0.061629941742321552 0 -0.30659897303184058 -0.057135789817405573 0 -0.30323190850646392 -0.052883144282766713 0 -0.29757341552329353 -0.05219957266967655 0 -0.29931176789370939 -0.061629941742321552 0 -0.30659897303184058 -0.057135789817405573 0 -0.30728911182784302 -0.064893595009923935 0 -0.31405483352543062 -0.056831087900065053 0 -0.30323190850646392 -0.052883144282766713 0 -0.3023660715744253 -0.047018139519123002 0 -0.31025625293594222 -0.050033124508212908 0 -0.30659897303184058 -0.057135789817405573 0 -0.31025625293594222 -0.050033124508212908 0 -0.31405483352543062 -0.056831087900065053 0 -0.30323190850646392 -0.052883144282766713 0 -0.30659897303184058 -0.057135789817405573 0 -0.31025625293594222 -0.050033124508212908 0 -0.3023660715744253 -0.047018139519123002 0 -0.31110423911055801 -0.035316851109560482 0 -0.29943422057661201 -0.032203920876667472 0 -0.3023660715744253 -0.047018139519123002 0 -0.29943422057661201 -0.032203920876667472 0 -0.29166722635019171 -0.038853801873014321 0 -0.29943422057661201 -0.032203920876667472 0 -0.29166722635019171 -0.038853801873014321 0 -0.28378415359151371 -0.031280105512012511 0 -0.3023660715744253 -0.047018139519123002 0 -0.29166722635019171 -0.038853801873014321 0 -0.28390051605192418 -0.042754285685484159 0 -0.29166722635019171 -0.038853801873014321 0 -0.28378415359151371 -0.031280105512012511 0 -0.28390051605192418 -0.042754285685484159 0 -0.3023660715744253 -0.047018139519123002 0 -0.28390051605192418 -0.042754285685484159 0 -0.27356286309663053 -0.053258262401150697 0 -0.3023660715744253 -0.047018139519123002 0 -0.27356286309663053 -0.053258262401150697 0 -0.29757341552329353 -0.05219957266967655 0 -0.27356286309663053 -0.053258262401150697 0 -0.27532891164284878 -0.069285621960536392 0 -0.29757341552329353 -0.05219957266967655 0 -0.27532891164284878 -0.069285621960536392 0 -0.3023660715744253 -0.047018139519123002 0 -0.29757341552329353 -0.05219957266967655 0 -0.27356286309663053 -0.053258262401150697 0 -0.29757341552329353 -0.05219957266967655 0 -0.29931176789370939 -0.061629941742321552 0 -0.27532891164284878 -0.069285621960536392 0 -0.27267419604841259 -0.026924212746328481 0 -0.27375437843427658 -0.039043607324579933 0 -0.25766621977661042 -0.038842414379153638 0 -0.27356286309663053 -0.053258262401150697 0 -0.27375437843427658 -0.039043607324579933 0 -0.25766621977661042 -0.038842414379153638 0 -0.28378415359151371 -0.031280105512012511 0 -0.28390051605192418 -0.042754285685484159 0 -0.27375437843427658 -0.039043607324579933 0 -0.27267419604841259 -0.026924212746328481 0 -0.28378415359151371 -0.031280105512012511 0 -0.27375437843427658 -0.039043607324579933 0 -0.28390051605192418 -0.042754285685484159 0 -0.27356286309663053 -0.053258262401150697 0 -0.27375437843427658 -0.039043607324579933 0 -0.24475965461883589 -0.059498385283178377 0 -0.27356286309663053 -0.053258262401150697 0 -0.2582325144520296 -0.070050845257802419 0 -0.24475965461883589 -0.059498385283178377 0 -0.27356286309663053 -0.053258262401150697 0 -0.24475965461883589 -0.059498385283178377 0 -0.27356286309663053 -0.053258262401150697 0 -0.25766621977661042 -0.038842414379153638 0 -0.2582325144520296 -0.070050845257802419 0 -0.25308440776240432 -0.086371671251396109 0 -0.27532891164284878 -0.069285621960536392 0 -0.25308440776240432 -0.086371671251396109 0 -0.27532891164284878 -0.069285621960536392 0 -0.25308440776240432 -0.086371671251396109 0 -0.27361062541114611 -0.085405998149086934 0 -0.26907394573302829 -0.10103393024372311 0 -0.27361062541114611 -0.085405998149086934 0 -0.26907394573302829 -0.10103393024372311 0 -0.28494676303449051 -0.09097811142482605 0 -0.25308440776240432 -0.086371671251396109 0 -0.27361062541114611 -0.085405998149086934 0 -0.27532891164284878 -0.069285621960536392 0 -0.27356286309663053 -0.053258262401150697 0 -0.2582325144520296 -0.070050845257802419 0 -0.27532891164284878 -0.069285621960536392 0 -0.27361062541114611 -0.085405998149086934 0 -0.27532891164284878 -0.069285621960536392 0 -0.28561909888295839 -0.079360655864953042 0 -0.2432602079730701 -0.13485583854350039 0 -0.2499653418643101 -0.1102460646797562 0 -0.26490928006600228 -0.12397715003998409 0 -0.2499653418643101 -0.1102460646797562 0 -0.26490928006600228 -0.12397715003998409 0 -0.26907394573302829 -0.10103393024372311 0 -0.2499653418643101 -0.1102460646797562 0 -0.25308440776240432 -0.086371671251396109 0 -0.26907394573302829 -0.10103393024372311 0 -0.26907394573302829 -0.10103393024372311 0 -0.28789548083438649 -0.11161882002010511 0 -0.28494676303449051 -0.09097811142482605 0 -0.26490928006600228 -0.12397715003998409 0 -0.28789548083438649 -0.11161882002010511 0 -0.28428672055728371 -0.13281235115180859 0 -0.26490928006600228 -0.12397715003998409 0 -0.26907394573302829 -0.10103393024372311 0 -0.28789548083438649 -0.11161882002010511 0 -0.28789548083438649 -0.11161882002010511 0 -0.28428672055728371 -0.13281235115180859 0 -0.30877835781368662 -0.12931532841693749 0 -0.28789548083438649 -0.11161882002010511 0 -0.29765529442092259 -0.094840601490837839 0 -0.28494676303449051 -0.09097811142482605 0 -0.30761934067920371 -0.1042503242997595 0 -0.29765529442092259 -0.094840601490837839 0 -0.30832877355579341 -0.086934752854072747 0 -0.30761934067920371 -0.1042503242997595 0 -0.30832877355579341 -0.086934752854072747 0 -0.31968159473222052 -0.091584555267719248 0 -0.28789548083438649 -0.11161882002010511 0 -0.30761934067920371 -0.1042503242997595 0 -0.29765529442092259 -0.094840601490837839 0 -0.28789548083438649 -0.11161882002010511 0 -0.30761934067920371 -0.1042503242997595 0 -0.30877835781368662 -0.12931532841693749 0 -0.29931176789370939 -0.061629941742321552 0 -0.27532891164284878 -0.069285621960536392 0 -0.29568251685582603 -0.071589435967753134 0 -0.27532891164284878 -0.069285621960536392 0 -0.29568251685582603 -0.071589435967753134 0 -0.28561909888295839 -0.079360655864953042 0 -0.29568251685582603 -0.071589435967753134 0 -0.28561909888295839 -0.079360655864953042 0 -0.29849490204505058 -0.081938345925378783 0 -0.27361062541114611 -0.085405998149086934 0 -0.28561909888295839 -0.079360655864953042 0 -0.28494676303449051 -0.09097811142482605 0 -0.29765529442092259 -0.094840601490837839 0 -0.28494676303449051 -0.09097811142482605 0 -0.29849490204505058 -0.081938345925378783 0 -0.28561909888295839 -0.079360655864953042 0 -0.28494676303449051 -0.09097811142482605 0 -0.29849490204505058 -0.081938345925378783 0 -0.29849490204505058 -0.081938345925378783 0 -0.30832877355579341 -0.086934752854072747 0 -0.3066986514807607 -0.074546990101646726 0 -0.29765529442092259 -0.094840601490837839 0 -0.29849490204505058 -0.081938345925378783 0 -0.30832877355579341 -0.086934752854072747 0 -0.30832877355579341 -0.086934752854072747 0 -0.3066986514807607 -0.074546990101646726 0 -0.31636087034116728 -0.076704125898778439 0 -0.3066986514807607 -0.074546990101646726 0 -0.31411021802290889 -0.069356746280106005 0 -0.31636087034116728 -0.076704125898778439 0 -0.29568251685582603 -0.071589435967753134 0 -0.29849490204505058 -0.081938345925378783 0 -0.3066986514807607 -0.074546990101646726 0 -0.29568251685582603 -0.071589435967753134 0 -0.3066986514807607 -0.074546990101646726 0 -0.30728911182784302 -0.064893595009923935 0 -0.29931176789370939 -0.061629941742321552 0 -0.29568251685582603 -0.071589435967753134 0 -0.30728911182784302 -0.064893595009923935 0 -0.3066986514807607 -0.074546990101646726 0 -0.30728911182784302 -0.064893595009923935 0 -0.31411021802290889 -0.069356746280106005 0 -0.30728911182784302 -0.064893595009923935 0 -0.31630436981946819 -0.062936971351065629 0 -0.31411021802290889 -0.069356746280106005 0 -0.31630436981946819 -0.062936971351065629 0 -0.31411021802290889 -0.069356746280106005 0 -0.32389808664530562 -0.067702049039115322 0 -0.31630436981946819 -0.062936971351065629 0 -0.32389808664530562 -0.067702049039115322 0 -0.32481687078849097 -0.058022226865728103 0 -0.32389808664530562 -0.067702049039115322 0 -0.3259684841043719 -0.075020057435826168 0 -0.31636087034116728 -0.076704125898778439 0 -0.31411021802290889 -0.069356746280106005 0 -0.32389808664530562 -0.067702049039115322 0 -0.31636087034116728 -0.076704125898778439 0 -0.30832877355579341 -0.086934752854072747 0 -0.32608803180755441 -0.084321365842938284 0 -0.30832877355579341 -0.086934752854072747 0 -0.31968159473222052 -0.091584555267719248 0 -0.32608803180755441 -0.084321365842938284 0 -0.30832877355579341 -0.086934752854072747 0 -0.31636087034116728 -0.076704125898778439 0 -0.32608803180755441 -0.084321365842938284 0 -0.31968159473222052 -0.091584555267719248 0 -0.32608803180755441 -0.084321365842938284 0 -0.3259684841043719 -0.075020057435826168 0 -0.31636087034116728 -0.076704125898778439 0 -0.32608803180755441 -0.084321365842938284 0 -0.31968159473222052 -0.091584555267719248 0 -0.32608803180755441 -0.084321365842938284 0 -0.34030971713070318 -0.087052614945596102 0 -0.32608803180755441 -0.084321365842938284 0 -0.34030971713070318 -0.087052614945596102 0 -0.34745734249292459 -0.081176736816750444 0 -0.32608803180755441 -0.084321365842938284 0 -0.33752694762346008 -0.07135268896247253 0 -0.34745734249292459 -0.081176736816750444 0 -0.32608803180755441 -0.084321365842938284 0 -0.34745734249292459 -0.081176736816750444 0 -0.33752694762346008 -0.07135268896247253 0 -0.3489658634393657 -0.058384012082006782 0 -0.33645864726091979 -0.05858208772264157 0 -0.33752694762346008 -0.07135268896247253 0 -0.3489658634393657 -0.058384012082006782 0 -0.32389808664530562 -0.067702049039115322 0 -0.33752694762346008 -0.07135268896247253 0 -0.33645864726091979 -0.05858208772264157 0 -0.3259684841043719 -0.075020057435826168 0 -0.32608803180755441 -0.084321365842938284 0 -0.33752694762346008 -0.07135268896247253 0 -0.32608803180755441 -0.084321365842938284 0 -0.33752694762346008 -0.07135268896247253 0 -0.32389808664530562 -0.067702049039115322 0 -0.3259684841043719 -0.075020057435826168 0 -0.33752694762346008 -0.07135268896247253 0 -0.32454403747219479 -0.1081839716812668 0 -0.30877835781368662 -0.12931532841693749 0 -0.30761934067920371 -0.1042503242997595 0 -0.32454403747219479 -0.1081839716812668 0 -0.30877835781368662 -0.12931532841693749 0 -0.32454403747219479 -0.1081839716812668 0 -0.33570809008837621 -0.11845594114356341 0 -0.30877835781368662 -0.12931532841693749 0 -0.30761934067920371 -0.1042503242997595 0 -0.31968159473222052 -0.091584555267719248 0 -0.32454403747219479 -0.1081839716812668 0 -0.34030971713070318 -0.087052614945596102 0 -0.32454403747219479 -0.1081839716812668 0 -0.34278855512837281 -0.1049294584887832 0 -0.31968159473222052 -0.091584555267719248 0 -0.34030971713070318 -0.087052614945596102 0 -0.32454403747219479 -0.1081839716812668 0 -0.34030971713070318 -0.087052614945596102 0 -0.32454403747219479 -0.1081839716812668 0 -0.32454403747219479 -0.1081839716812668 0 -0.34278855512837281 -0.1049294584887832 0 -0.33570809008837621 -0.11845594114356341 0 -0.33570809008837621 -0.11845594114356341 0 -0.35404294059136687 -0.1217835462641018 0 -0.33688620478323589 -0.13358080389391511 0 -0.34278855512837281 -0.1049294584887832 0 -0.35404294059136687 -0.1217835462641018 0 -0.35932798989652742 -0.1047455147758234 0 -0.34278855512837281 -0.1049294584887832 0 -0.33570809008837621 -0.11845594114356341 0 -0.35404294059136687 -0.1217835462641018 0 -0.34278855512837281 -0.1049294584887832 0 -0.35932798989652742 -0.1047455147758234 0 -0.35079718399447979 -0.093651592615473511 0 -0.34030971713070318 -0.087052614945596102 0 -0.34278855512837281 -0.1049294584887832 0 -0.35079718399447979 -0.093651592615473511 0 -0.35932798989652742 -0.1047455147758234 0 -0.35079718399447979 -0.093651592615473511 0 -0.36132419909701757 -0.091459041133748031 0 -0.35932798989652742 -0.1047455147758234 0 -0.37367929427193591 -0.1014825750548952 0 -0.37212838853434238 -0.11808059788504249 0 -0.35932798989652742 -0.1047455147758234 0 -0.37367929427193591 -0.1014825750548952 0 -0.36132419909701757 -0.091459041133748031 0 -0.35404294059136687 -0.1217835462641018 0 -0.37212838853434238 -0.11808059788504249 0 -0.37028068739271691 -0.13083580994494901 0 -0.35404294059136687 -0.1217835462641018 0 -0.35932798989652742 -0.1047455147758234 0 -0.37212838853434238 -0.11808059788504249 0 -0.35069420168351129 -0.07223638641294812 0 -0.34745734249292459 -0.081176736816750444 0 -0.36882665317829499 -0.078032107790563188 0 -0.36882665317829499 -0.078032107790563188 0 -0.3489658634393657 -0.058384012082006782 0 -0.35069420168351129 -0.07223638641294812 0 -0.36882665317829499 -0.078032107790563188 0 -0.3489658634393657 -0.058384012082006782 0 -0.33752694762346008 -0.07135268896247253 0 -0.35069420168351129 -0.07223638641294812 0 -0.3489658634393657 -0.058384012082006782 0 -0.33752694762346008 -0.07135268896247253 0 -0.35069420168351129 -0.07223638641294812 0 -0.34745734249292459 -0.081176736816750444 0 -0.34745734249292459 -0.081176736816750444 0 -0.36882665317829499 -0.078032107790563188 0 -0.34745734249292459 -0.081176736816750444 0 -0.36132419909701757 -0.091459041133748031 0 -0.36882665317829499 -0.078032107790563188 0 -0.34030971713070318 -0.087052614945596102 0 -0.34745734249292459 -0.081176736816750444 0 -0.35079718399447979 -0.093651592615473511 0 -0.34745734249292459 -0.081176736816750444 0 -0.35079718399447979 -0.093651592615473511 0 -0.36132419909701757 -0.091459041133748031 0 -0.37367929427193591 -0.1014825750548952 0 -0.36132419909701757 -0.091459041133748031 0 -0.36882665317829499 -0.078032107790563188 0 -0.36882665317829499 -0.078032107790563188 0 -0.36862349457690058 -0.057461967220355487 0 -0.3489658634393657 -0.058384012082006782 0 -0.36882665317829499 -0.078032107790563188 0 -0.36862349457690058 -0.057461967220355487 0 -0.37947166312044489 -0.067272628224985004 0 -0.36862349457690058 -0.057461967220355487 0 -0.3489658634393657 -0.058384012082006782 0 -0.36066681755822472 -0.045118253717945672 0 -0.36862349457690058 -0.057461967220355487 0 -0.37355784227175309 -0.045246792894939887 0 -0.3815482533063424 -0.052412606119804542 0 -0.36862349457690058 -0.057461967220355487 0 -0.36066681755822472 -0.045118253717945672 0 -0.37355784227175309 -0.045246792894939887 0 -0.3489658634393657 -0.058384012082006782 0 -0.36066681755822472 -0.045118253717945672 0 -0.3489658634393657 -0.058384012082006782 0 -0.34511111307690212 -0.046137334811030092 0 -0.36066681755822472 -0.045118253717945672 0 -0.35304062521722218 -0.036039659744318157 0 -0.3553139768507978 -0.023567241021099371 0 -0.33371347875736079 -0.040226824134751989 0 -0.34511111307690212 -0.046137334811030092 0 -0.35304062521722218 -0.036039659744318157 0 -0.33371347875736079 -0.040226824134751989 0 -0.34511111307690212 -0.046137334811030092 0 -0.35304062521722218 -0.036039659744318157 0 -0.36066681755822472 -0.045118253717945672 0 -0.36066681755822472 -0.045118253717945672 0 -0.37236777167708351 -0.031852495353884333 0 -0.35304062521722218 -0.036039659744318157 0 -0.37236777167708351 -0.031852495353884333 0 -0.35304062521722218 -0.036039659744318157 0 -0.36066681755822472 -0.045118253717945672 0 -0.37236777167708351 -0.031852495353884333 0 -0.36066681755822472 -0.045118253717945672 0 -0.37355784227175309 -0.045246792894939887 0 -0.37236777167708351 -0.031852495353884333 0 -0.37236777167708351 -0.031852495353884333 0 -0.3739022591900184 -0.02415390189740213 0 -0.36770044175442279 -0.02036669541201027 0 -0.37236777167708351 -0.031852495353884333 0 -0.36770044175442279 -0.02036669541201027 0 -0.3553139768507978 -0.023567241021099371 0 -0.36770044175442279 -0.02036669541201027 0 -0.35847393927256738 -0.010652033510738681 0 -0.38297625517291389 -0.017448943304264108 0 -0.35304062521722218 -0.036039659744318157 0 -0.37236777167708351 -0.031852495353884333 0 -0.3553139768507978 -0.023567241021099371 0 -0.3739022591900184 -0.02415390189740213 0 -0.36770044175442279 -0.02036669541201027 0 -0.38297625517291389 -0.017448943304264108 0 -0.36770044175442279 -0.02036669541201027 0 -0.35847393927256738 -0.010652033510738681 0 -0.3553139768507978 -0.023567241021099371 0 -0.35847393927256738 -0.010652033510738681 0 -0.38297625517291389 -0.017448943304264108 0 -0.37278444596104371 -0.0079457960458173115 0 -0.35847393927256738 -0.010652033510738681 0 -0.38297625517291389 -0.017448943304264108 0 -0.37474494217865062 -0.0022388935110706832 0 -0.37278444596104371 -0.0079457960458173115 0 -0.36307869926690151 -0.00068504054922277494 0 -0.37278444596104371 -0.0079457960458173115 0 -0.36307869926690151 -0.00068504054922277494 0 -0.35847393927256738 -0.010652033510738681 0 -0.36307869926690151 -0.00068504054922277494 0 -0.34718119132474479 -0.01384164818341615 0 -0.36064890389212972 0.0125435277679194 0 -0.36307869926690151 -0.00068504054922277494 0 -0.35847393927256738 -0.010652033510738681 0 -0.34718119132474479 -0.01384164818341615 0 -0.34718119132474479 -0.01384164818341615 0 -0.36064890389212972 0.0125435277679194 0 -0.34718119132474479 -0.01384164818341615 0 -0.3553139768507978 -0.023567241021099371 0 -0.33371347875736079 -0.040226824134751989 0 -0.35847393927256738 -0.010652033510738681 0 -0.34718119132474479 -0.01384164818341615 0 -0.3553139768507978 -0.023567241021099371 0 -0.34718119132474479 -0.01384164818341615 0 -0.33035884889608558 -0.02420969997450095 0 -0.33371347875736079 -0.040226824134751989 0 -0.34718119132474479 -0.01384164818341615 0 -0.33371347875736079 -0.040226824134751989 0 -0.34718119132474479 -0.01384164818341615 0 -0.32828291010712762 -0.0049346835118845543 0 -0.34055428987364128 0.0059527955302196532 0 -0.34718119132474479 -0.01384164818341615 0 -0.33035884889608558 -0.02420969997450095 0 -0.32828291010712762 -0.0049346835118845543 0 -0.31144738423897378 -0.02126732740536201 0 -0.32828291010712762 -0.0049346835118845543 0 -0.31177688145040278 0.0050359958776742568 0 -0.31144738423897378 -0.02126732740536201 0 -0.33116928005221918 -0.040778016637091109 0 -0.31144738423897378 -0.02126732740536201 0 -0.33035884889608558 -0.02420969997450095 0 -0.32828291010712762 -0.0049346835118845543 0 -0.31144738423897378 -0.02126732740536201 0 -0.33035884889608558 -0.02420969997450095 0 -0.33116928005221918 -0.040778016637091109 0 -0.3023660715744253 -0.047018139519123002 0 -0.31110423911055801 -0.035316851109560482 0 -0.33116928005221918 -0.040778016637091109 0 -0.3023660715744253 -0.047018139519123002 0 -0.31025625293594222 -0.050033124508212908 0 -0.33116928005221918 -0.040778016637091109 0 -0.3023660715744253 -0.047018139519123002 0 -0.33116928005221918 -0.040778016637091109 0 -0.31144738423897378 -0.02126732740536201 0 -0.31110423911055801 -0.035316851109560482 0 -0.33116928005221918 -0.040778016637091109 0 -0.31025625293594222 -0.050033124508212908 0 -0.31770057673851387 -0.05020147555903863 0 -0.33116928005221918 -0.040778016637091109 0 -0.31025625293594222 -0.050033124508212908 0 -0.31770057673851387 -0.05020147555903863 0 -0.31405483352543062 -0.056831087900065053 0 -0.31770057673851387 -0.05020147555903863 0 -0.31405483352543062 -0.056831087900065053 0 -0.31936567051967829 -0.054711673150449433 0 -0.31630436981946819 -0.062936971351065629 0 -0.31936567051967829 -0.054711673150449433 0 -0.32481687078849097 -0.058022226865728103 0 -0.30728911182784302 -0.064893595009923935 0 -0.31630436981946819 -0.062936971351065629 0 -0.31405483352543062 -0.056831087900065053 0 -0.31630436981946819 -0.062936971351065629 0 -0.31405483352543062 -0.056831087900065053 0 -0.31936567051967829 -0.054711673150449433 0 -0.31770057673851387 -0.05020147555903863 0 -0.32448711316898249 -0.050622394842538963 0 -0.33116928005221918 -0.040778016637091109 0 -0.31936567051967829 -0.054711673150449433 0 -0.32481687078849097 -0.058022226865728103 0 -0.32448711316898249 -0.050622394842538963 0 -0.31770057673851387 -0.05020147555903863 0 -0.31936567051967829 -0.054711673150449433 0 -0.32448711316898249 -0.050622394842538963 0 -0.32481687078849097 -0.058022226865728103 0 -0.32770904195502032 -0.053173566283506987 0 -0.32448711316898249 -0.050622394842538963 0 -0.32770904195502032 -0.053173566283506987 0 -0.32448711316898249 -0.050622394842538963 0 -0.32972533979495861 -0.048040159006195682 0 -0.3489658634393657 -0.058384012082006782 0 -0.34511111307690212 -0.046137334811030092 0 -0.3326728772282519 -0.042265511425067279 0 -0.32972533979495861 -0.048040159006195682 0 -0.33645864726091979 -0.05858208772264157 0 -0.3326728772282519 -0.042265511425067279 0 -0.3489658634393657 -0.058384012082006782 0 -0.3326728772282519 -0.042265511425067279 0 -0.32770904195502032 -0.053173566283506987 0 -0.32972533979495861 -0.048040159006195682 0 -0.33645864726091979 -0.05858208772264157 0 -0.3489658634393657 -0.058384012082006782 0 -0.33645864726091979 -0.05858208772264157 0 -0.3326728772282519 -0.042265511425067279 0 -0.32389808664530562 -0.067702049039115322 0 -0.32481687078849097 -0.058022226865728103 0 -0.33645864726091979 -0.05858208772264157 0 -0.32481687078849097 -0.058022226865728103 0 -0.32770904195502032 -0.053173566283506987 0 -0.33645864726091979 -0.05858208772264157 0 -0.34511111307690212 -0.046137334811030092 0 -0.33371347875736079 -0.040226824134751989 0 -0.3326728772282519 -0.042265511425067279 0 -0.33035884889608558 -0.02420969997450095 0 -0.33116928005221918 -0.040778016637091109 0 -0.33371347875736079 -0.040226824134751989 0 -0.35304062521722218 -0.036039659744318157 0 -0.33371347875736079 -0.040226824134751989 0 -0.32448711316898249 -0.050622394842538963 0 -0.32972533979495861 -0.048040159006195682 0 -0.33116928005221918 -0.040778016637091109 0 -0.33116928005221918 -0.040778016637091109 0 -0.3326728772282519 -0.042265511425067279 0 -0.32972533979495861 -0.048040159006195682 0 -0.3326728772282519 -0.042265511425067279 0 -0.32972533979495861 -0.048040159006195682 0 -0.33116928005221918 -0.040778016637091109 0 -0.3326728772282519 -0.042265511425067279 0 -0.33116928005221918 -0.040778016637091109 0 -0.33371347875736079 -0.040226824134751989 0 -0.33116928005221918 -0.040778016637091109 0 -0.33371347875736079 -0.040226824134751989 0 -0.3326728772282519 -0.042265511425067279 0 -0.33371347875736079 -0.040226824134751989 0 -0.3326728772282519 -0.042265511425067279 0 -0.2907170577323625 -0.25177677077710309 0 -0.30853150187083839 -0.25429835417001312 0 -0.30748271917561598 -0.2431056607245809 0 -0.30748271917561598 -0.2431056607245809 0 -0.3004866401015065 -0.2269264896544945 0 -0.32066485276457768 -0.2334308190911655 0 -0.2907170577323625 -0.25177677077710309 0 -0.30748271917561598 -0.2431056607245809 0 -0.3004866401015065 -0.2269264896544945 0 -0.30853150187083839 -0.25429835417001312 0 -0.30748271917561598 -0.2431056607245809 0 -0.32023222063025569 -0.2489608815952247 0 -0.3004866401015065 -0.2269264896544945 0 -0.27575903677895092 -0.22208668823385669 0 -0.3004866401015065 -0.2269264896544945 0 -0.27309361240676189 -0.24179026653703889 0 -0.27575903677895092 -0.22208668823385669 0 -0.3004866401015065 -0.2269264896544945 0 -0.27575903677895092 -0.22208668823385669 0 -0.29482007196541532 -0.2089319155152673 0 -0.2907170577323625 -0.25177677077710309 0 -0.3004866401015065 -0.2269264896544945 0 -0.27309361240676189 -0.24179026653703889 0 -0.27309361240676189 -0.24179026653703889 0 -0.25431856302814809 -0.24833495949118861 0 -0.25103143345639523 -0.21724688681321891 0 -0.27575903677895092 -0.22208668823385669 0 -0.25103143345639523 -0.21724688681321891 0 -0.27309361240676189 -0.24179026653703889 0 -0.27575903677895092 -0.22208668823385669 0 -0.25103143345639523 -0.21724688681321891 0 -0.27575903677895092 -0.22208668823385669 0 -0.25103143345639523 -0.21724688681321891 0 -0.27708552823660842 -0.19790031786117671 0 -0.25103143345639523 -0.21724688681321891 0 -0.25418198431724581 -0.18809916394242601 0 -0.27708552823660842 -0.19790031786117671 0 -0.27708552823660842 -0.19790031786117671 0 -0.29482007196541532 -0.2089319155152673 0 -0.30195969341908391 -0.19078830755985379 0 -0.29482007196541532 -0.2089319155152673 0 -0.30195969341908391 -0.19078830755985379 0 -0.32674672588845421 -0.2120308859258328 0 -0.3004866401015065 -0.2269264896544945 0 -0.29482007196541532 -0.2089319155152673 0 -0.32674672588845421 -0.2120308859258328 0 -0.27575903677895092 -0.22208668823385669 0 -0.27708552823660842 -0.19790031786117671 0 -0.29482007196541532 -0.2089319155152673 0 -0.30195969341908391 -0.19078830755985379 0 -0.30674796742087651 -0.1684647150882764 0 -0.32123008678095788 -0.18729232698745699 0 -0.30674796742087651 -0.1684647150882764 0 -0.2930126781551784 -0.15044668515260809 0 -0.3206808779707625 -0.15110047818677941 0 -0.27724699849667023 -0.17157804188827869 0 -0.2930126781551784 -0.15044668515260809 0 -0.30674796742087651 -0.1684647150882764 0 -0.27724699849667023 -0.17157804188827869 0 -0.2930126781551784 -0.15044668515260809 0 -0.27708552823660842 -0.19790031786117671 0 -0.30195969341908391 -0.19078830755985379 0 -0.27724699849667023 -0.17157804188827869 0 -0.30195969341908391 -0.19078830755985379 0 -0.30674796742087651 -0.1684647150882764 0 -0.27724699849667023 -0.17157804188827869 0 -0.25418198431724581 -0.18809916394242601 0 -0.27708552823660842 -0.19790031786117671 0 -0.27724699849667023 -0.17157804188827869 0 -0.25418198431724581 -0.18809916394242601 0 -0.2565438833259911 -0.1687602707777138 0 -0.27724699849667023 -0.17157804188827869 0 -0.2435592126657353 -0.1561425335328199 0 -0.2565438833259911 -0.1687602707777138 0 -0.26683780591716472 -0.14870377212940841 0 -0.27724699849667023 -0.17157804188827869 0 -0.26683780591716472 -0.14870377212940841 0 -0.2930126781551784 -0.15044668515260809 0 -0.2565438833259911 -0.1687602707777138 0 -0.27724699849667023 -0.17157804188827869 0 -0.26683780591716472 -0.14870377212940841 0 -0.2435592126657353 -0.1561425335328199 0 -0.2432602079730701 -0.13485583854350039 0 -0.26683780591716472 -0.14870377212940841 0 -0.2432602079730701 -0.13485583854350039 0 -0.26490928006600228 -0.12397715003998409 0 -0.26683780591716472 -0.14870377212940841 0 -0.26490928006600228 -0.12397715003998409 0 -0.26683780591716472 -0.14870377212940841 0 -0.28428672055728371 -0.13281235115180859 0 -0.28428672055728371 -0.13281235115180859 0 -0.2930126781551784 -0.15044668515260809 0 -0.30877835781368662 -0.12931532841693749 0 -0.26683780591716472 -0.14870377212940841 0 -0.28428672055728371 -0.13281235115180859 0 -0.2930126781551784 -0.15044668515260809 0 -0.2930126781551784 -0.15044668515260809 0 -0.30877835781368662 -0.12931532841693749 0 -0.3206808779707625 -0.15110047818677941 0 -0.2930126781551784 -0.15044668515260809 0 -0.30877835781368662 -0.12931532841693749 0 -0.33570809008837621 -0.11845594114356341 0 -0.30877835781368662 -0.12931532841693749 0 -0.33688620478323589 -0.13358080389391511 0 -0.30877835781368662 -0.12931532841693749 0 -0.3206808779707625 -0.15110047818677941 0 -0.33688620478323589 -0.13358080389391511 0 -0.3206808779707625 -0.15110047818677941 0 -0.33688620478323589 -0.13358080389391511 0 -0.34399943231138669 -0.15408109000358611 0 -0.33688620478323589 -0.13358080389391511 0 -0.35929992868189681 -0.1386942596847188 0 -0.35404294059136687 -0.1217835462641018 0 -0.33688620478323589 -0.13358080389391511 0 -0.35929992868189681 -0.1386942596847188 0 -0.35404294059136687 -0.1217835462641018 0 -0.35929992868189681 -0.1386942596847188 0 -0.37028068739271691 -0.13083580994494901 0 -0.35929992868189681 -0.1386942596847188 0 -0.37028068739271691 -0.13083580994494901 0 -0.3804539816512269 -0.14482329966991631 0 -0.35929992868189681 -0.1386942596847188 0 -0.3804539816512269 -0.14482329966991631 0 -0.35929992868189681 -0.1386942596847188 0 -0.3655172116091886 -0.15688196674787641 0 -0.3804539816512269 -0.14482329966991631 0 -0.3655172116091886 -0.15688196674787641 0 -0.3804539816512269 -0.14482329966991631 0 -0.3655172116091886 -0.15688196674787641 0 -0.37839901512320262 -0.15996290040625341 0 -0.3804539816512269 -0.14482329966991631 0 -0.33688620478323589 -0.13358080389391511 0 -0.35929992868189681 -0.1386942596847188 0 -0.34399943231138669 -0.15408109000358611 0 -0.35929992868189681 -0.1386942596847188 0 -0.34399943231138669 -0.15408109000358611 0 -0.3655172116091886 -0.15688196674787641 0 -0.34399943231138669 -0.15408109000358611 0 -0.35323542112630057 -0.1671812377988513 0 -0.3655172116091886 -0.15688196674787641 0 -0.3655172116091886 -0.15688196674787641 0 -0.37378547386561772 -0.17392500984250869 0 -0.37839901512320262 -0.15996290040625341 0 -0.35323542112630057 -0.1671812377988513 0 -0.3655172116091886 -0.15688196674787641 0 -0.37378547386561772 -0.17392500984250869 0 -0.37378547386561772 -0.17392500984250869 0 -0.35240556330307887 -0.18479875362473361 0 -0.36895563931783232 -0.19259611207654981 0 -0.35323542112630057 -0.1671812377988513 0 -0.37378547386561772 -0.17392500984250869 0 -0.35240556330307887 -0.18479875362473361 0 -0.35323542112630057 -0.1671812377988513 0 -0.35240556330307887 -0.18479875362473361 0 -0.33400288196205857 -0.17193246321376471 0 -0.35240556330307887 -0.18479875362473361 0 -0.33400288196205857 -0.17193246321376471 0 -0.33669316521431608 -0.19324526314955739 0 -0.33400288196205857 -0.17193246321376471 0 -0.32123008678095788 -0.18729232698745699 0 -0.33669316521431608 -0.19324526314955739 0 -0.3206808779707625 -0.15110047818677941 0 -0.34399943231138669 -0.15408109000358611 0 -0.33400288196205857 -0.17193246321376471 0 -0.34399943231138669 -0.15408109000358611 0 -0.35323542112630057 -0.1671812377988513 0 -0.33400288196205857 -0.17193246321376471 0 -0.30674796742087651 -0.1684647150882764 0 -0.3206808779707625 -0.15110047818677941 0 -0.33400288196205857 -0.17193246321376471 0 -0.30674796742087651 -0.1684647150882764 0 -0.33400288196205857 -0.17193246321376471 0 -0.32123008678095788 -0.18729232698745699 0 -0.30195969341908391 -0.19078830755985379 0 -0.32123008678095788 -0.18729232698745699 0 -0.32674672588845421 -0.2120308859258328 0 -0.32674672588845421 -0.2120308859258328 0 -0.35024140450074381 -0.20994798342056251 0 -0.32674672588845421 -0.2120308859258328 0 -0.33669316521431608 -0.19324526314955739 0 -0.35024140450074381 -0.20994798342056251 0 -0.32674672588845421 -0.2120308859258328 0 -0.35024140450074381 -0.20994798342056251 0 -0.3377174746324717 -0.2284461722996495 0 -0.32123008678095788 -0.18729232698745699 0 -0.32674672588845421 -0.2120308859258328 0 -0.33669316521431608 -0.19324526314955739 0 -0.35240556330307887 -0.18479875362473361 0 -0.36895563931783232 -0.19259611207654981 0 -0.35024140450074381 -0.20994798342056251 0 -0.35240556330307887 -0.18479875362473361 0 -0.33669316521431608 -0.19324526314955739 0 -0.35024140450074381 -0.20994798342056251 0 -0.36895563931783232 -0.19259611207654981 0 -0.37373608311303341 -0.20786508091529229 0 -0.35024140450074381 -0.20994798342056251 0 -0.37373608311303341 -0.20786508091529229 0 -0.35024140450074381 -0.20994798342056251 0 -0.37373608311303341 -0.20786508091529229 0 -0.35024140450074381 -0.20994798342056251 0 -0.36602803805366552 -0.21914337572849349 0 -0.37373608311303341 -0.20786508091529229 0 -0.36602803805366552 -0.21914337572849349 0 -0.37785639846487218 -0.21906994256996459 0 -0.35024140450074381 -0.20994798342056251 0 -0.357966965356528 -0.23170644806675769 0 -0.3377174746324717 -0.2284461722996495 0 -0.35024140450074381 -0.20994798342056251 0 -0.357966965356528 -0.23170644806675769 0 -0.36602803805366552 -0.21914337572849349 0 -0.357966965356528 -0.23170644806675769 0 -0.36602803805366552 -0.21914337572849349 0 -0.36983275924353248 -0.22875232439276311 0 -0.36602803805366552 -0.21914337572849349 0 -0.36983275924353248 -0.22875232439276311 0 -0.37785639846487218 -0.21906994256996459 0 -0.357966965356528 -0.23170644806675769 0 -0.36983275924353248 -0.22875232439276311 0 -0.37747963509906429 -0.24508953120583671 0 -0.35872453044413888 -0.25078889886649508 0 -0.357966965356528 -0.23170644806675769 0 -0.37747963509906429 -0.24508953120583671 0 -0.357966965356528 -0.23170644806675769 0 -0.34395992200845399 -0.24382677409400949 0 -0.3377174746324717 -0.2284461722996495 0 -0.35872453044413888 -0.25078889886649508 0 -0.357966965356528 -0.23170644806675769 0 -0.34395992200845399 -0.24382677409400949 0 -0.33345250408021371 -0.25331871279766999 0 -0.34395992200845399 -0.24382677409400949 0 -0.33132333615916232 -0.2411148243472106 0 -0.33345250408021371 -0.25331871279766999 0 -0.33132333615916232 -0.2411148243472106 0 -0.32023222063025569 -0.2489608815952247 0 -0.34395992200845399 -0.24382677409400949 0 -0.33132333615916232 -0.2411148243472106 0 -0.3377174746324717 -0.2284461722996495 0 -0.32674672588845421 -0.2120308859258328 0 -0.3377174746324717 -0.2284461722996495 0 -0.32066485276457768 -0.2334308190911655 0 -0.33132333615916232 -0.2411148243472106 0 -0.3377174746324717 -0.2284461722996495 0 -0.32066485276457768 -0.2334308190911655 0 -0.3004866401015065 -0.2269264896544945 0 -0.32674672588845421 -0.2120308859258328 0 -0.32066485276457768 -0.2334308190911655 0 -0.30748271917561598 -0.2431056607245809 0 -0.32066485276457768 -0.2334308190911655 0 -0.32023222063025569 -0.2489608815952247 0 -0.33132333615916232 -0.2411148243472106 0 -0.32066485276457768 -0.2334308190911655 0 -0.32023222063025569 -0.2489608815952247 0 -0.43445882011373449 -0.25478651907497341 0 -0.43806130733353449 -0.23541812032183559 0 -0.43445882011373449 -0.25478651907497341 0 -0.4258852610480256 -0.24284815888716721 0 -0.43806130733353449 -0.23541812032183559 0 -0.4258852610480256 -0.24284815888716721 0 -0.42538833238501789 -0.2333934851751748 0 -0.41698539980062188 -0.23875950084572559 0 -0.43445882011373449 -0.25478651907497341 0 -0.4258852610480256 -0.24284815888716721 0 -0.42335340856967768 -0.24893549408922019 0 -0.4258852610480256 -0.24284815888716721 0 -0.42538833238501789 -0.2333934851751748 0 -0.43806130733353449 -0.23541812032183559 0 -0.43091611572645672 -0.22699763907763329 0 -0.42538833238501789 -0.2333934851751748 0 -0.43806130733353449 -0.23541812032183559 0 -0.43091611572645672 -0.22699763907763329 0 -0.44166379455333399 -0.21604972156869759 0 -0.43806130733353449 -0.23541812032183559 0 -0.43091611572645672 -0.22699763907763329 0 -0.43133498143110582 -0.21921018883561361 0 -0.44166379455333399 -0.21604972156869759 0 -0.43133498143110582 -0.21921018883561361 0 -0.4232485836513401 -0.22477446532261011 0 -0.4232102070061276 -0.21869015764887889 0 -0.43091611572645672 -0.22699763907763329 0 -0.43133498143110582 -0.21921018883561361 0 -0.4232485836513401 -0.22477446532261011 0 -0.43091611572645672 -0.22699763907763329 0 -0.4232485836513401 -0.22477446532261011 0 -0.42538833238501789 -0.2333934851751748 0 -0.4232485836513401 -0.22477446532261011 0 -0.42538833238501789 -0.2333934851751748 0 -0.41731365953457839 -0.2310953018814938 0 -0.4232485836513401 -0.22477446532261011 0 -0.41731365953457839 -0.2310953018814938 0 -0.4121948509493269 -0.2247325638453028 0 -0.41731365953457839 -0.2310953018814938 0 -0.4080561583250083 -0.23272886934204159 0 -0.41698539980062188 -0.23875950084572559 0 -0.4232485836513401 -0.22477446532261011 0 -0.4121948509493269 -0.2247325638453028 0 -0.41685681033243982 -0.21746512418924929 0 -0.4232485836513401 -0.22477446532261011 0 -0.41685681033243982 -0.21746512418924929 0 -0.4232102070061276 -0.21869015764887889 0 -0.4121948509493269 -0.2247325638453028 0 -0.4080561583250083 -0.23272886934204159 0 -0.39971520205611372 -0.2221352637332015 0 -0.4121948509493269 -0.2247325638453028 0 -0.40807454407470489 -0.21592977391801271 0 -0.41685681033243982 -0.21746512418924929 0 -0.4121948509493269 -0.2247325638453028 0 -0.39971520205611372 -0.2221352637332015 0 -0.40807454407470489 -0.21592977391801271 0 -0.41731365953457839 -0.2310953018814938 0 -0.4121948509493269 -0.2247325638453028 0 -0.4080561583250083 -0.23272886934204159 0 -0.4080561583250083 -0.23272886934204159 0 -0.40983148527785651 -0.24118391776602099 0 -0.41698539980062188 -0.23875950084572559 0 -0.42538833238501789 -0.2333934851751748 0 -0.41731365953457839 -0.2310953018814938 0 -0.41698539980062188 -0.23875950084572559 0 -0.40983148527785651 -0.24118391776602099 0 -0.41698539980062188 -0.23875950084572559 0 -0.41627810448972868 -0.24641300060905449 0 -0.4258852610480256 -0.24284815888716721 0 -0.42335340856967768 -0.24893549408922019 0 -0.41627810448972868 -0.24641300060905449 0 -0.4258852610480256 -0.24284815888716721 0 -0.41698539980062188 -0.23875950084572559 0 -0.41627810448972868 -0.24641300060905449 0 -0.41679144862722167 -0.25169429778568547 0 -0.42335340856967768 -0.24893549408922019 0 -0.41627810448972868 -0.24641300060905449 0 -0.41385673751816382 -0.25312989710486528 0 -0.41627810448972868 -0.24641300060905449 0 -0.4086566941719203 -0.24778871483445111 0 -0.40983148527785651 -0.24118391776602099 0 -0.41627810448972868 -0.24641300060905449 0 -0.4086566941719203 -0.24778871483445111 0 -0.40282532782868952 -0.25224285689579767 0 -0.4086566941719203 -0.24778871483445111 0 -0.40022281387448849 -0.24084313907701979 0 -0.40983148527785651 -0.24118391776602099 0 -0.4086566941719203 -0.24778871483445111 0 -0.40022281387448849 -0.24084313907701979 0 -0.4080561583250083 -0.23272886934204159 0 -0.40983148527785651 -0.24118391776602099 0 -0.40022281387448849 -0.24084313907701979 0 -0.40022281387448849 -0.24084313907701979 0 -0.3903832871219331 -0.2411545733314838 0 -0.38772777019650018 -0.2315142496456449 0 -0.3938256931015453 -0.25037754026629511 0 -0.40022281387448849 -0.24084313907701979 0 -0.3903832871219331 -0.2411545733314838 0 -0.3938256931015453 -0.25037754026629511 0 -0.3903832871219331 -0.2411545733314838 0 -0.37747963509906429 -0.24508953120583671 0 -0.3903832871219331 -0.2411545733314838 0 -0.37747963509906429 -0.24508953120583671 0 -0.38772777019650018 -0.2315142496456449 0 -0.37747963509906429 -0.24508953120583671 0 -0.37785639846487218 -0.21906994256996459 0 -0.37747963509906429 -0.24508953120583671 0 -0.37785639846487218 -0.21906994256996459 0 -0.38772777019650018 -0.2315142496456449 0 -0.36983275924353248 -0.22875232439276311 0 -0.37747963509906429 -0.24508953120583671 0 -0.37785639846487218 -0.21906994256996459 0 -0.37785639846487218 -0.21906994256996459 0 -0.38772777019650018 -0.2315142496456449 0 -0.38790285805175961 -0.2167146319195192 0 -0.4080561583250083 -0.23272886934204159 0 -0.40022281387448849 -0.24084313907701979 0 -0.39971520205611372 -0.2221352637332015 0 -0.40022281387448849 -0.24084313907701979 0 -0.39971520205611372 -0.2221352637332015 0 -0.38772777019650018 -0.2315142496456449 0 -0.39971520205611372 -0.2221352637332015 0 -0.38790285805175961 -0.2167146319195192 0 -0.40022281387448849 -0.24084313907701979 0 -0.38772777019650018 -0.2315142496456449 0 -0.39971520205611372 -0.2221352637332015 0 -0.39971520205611372 -0.2221352637332015 0 -0.39723076172532301 -0.205782178410022 0 -0.40807454407470489 -0.21592977391801271 0 -0.39971520205611372 -0.2221352637332015 0 -0.39723076172532301 -0.205782178410022 0 -0.38790285805175961 -0.2167146319195192 0 -0.39723076172532301 -0.205782178410022 0 -0.41303892827123678 -0.21093405469715851 0 -0.40807454407470489 -0.21592977391801271 0 -0.37373608311303341 -0.20786508091529229 0 -0.39723076172532301 -0.205782178410022 0 -0.38370630256805799 -0.1971119561512929 0 -0.37373608311303341 -0.20786508091529229 0 -0.39723076172532301 -0.205782178410022 0 -0.38790285805175961 -0.2167146319195192 0 -0.37373608311303341 -0.20786508091529229 0 -0.39723076172532301 -0.205782178410022 0 -0.37373608311303341 -0.20786508091529229 0 -0.37785639846487218 -0.21906994256996459 0 -0.38790285805175961 -0.2167146319195192 0 -0.36895563931783232 -0.19259611207654981 0 -0.38370630256805799 -0.1971119561512929 0 -0.3831693110633177 -0.1873742460103984 0 -0.36895563931783232 -0.19259611207654981 0 -0.37373608311303341 -0.20786508091529229 0 -0.38370630256805799 -0.1971119561512929 0 -0.38370630256805799 -0.1971119561512929 0 -0.39543971762078378 -0.19194216334420211 0 -0.3831693110633177 -0.1873742460103984 0 -0.39723076172532301 -0.205782178410022 0 -0.38370630256805799 -0.1971119561512929 0 -0.39543971762078378 -0.19194216334420211 0 -0.39723076172532301 -0.205782178410022 0 -0.39543971762078378 -0.19194216334420211 0 -0.40534117689708921 -0.19634387975323889 0 -0.39543971762078378 -0.19194216334420211 0 -0.40534117689708921 -0.19634387975323889 0 -0.40730162077548249 -0.18407395049314179 0 -0.39723076172532301 -0.205782178410022 0 -0.40534117689708921 -0.19634387975323889 0 -0.42072544033761272 -0.20369927590475301 0 -0.42032122747045741 -0.1927313373696285 0 -0.42072544033761272 -0.20369927590475301 0 -0.40730162077548249 -0.18407395049314179 0 -0.42072544033761272 -0.20369927590475301 0 -0.40730162077548249 -0.18407395049314179 0 -0.40534117689708921 -0.19634387975323889 0 -0.42072544033761272 -0.20369927590475301 0 -0.40730162077548249 -0.18407395049314179 0 -0.39723076172532301 -0.205782178410022 0 -0.41303892827123678 -0.21093405469715851 0 -0.42072544033761272 -0.20369927590475301 0 -0.39723076172532301 -0.205782178410022 0 -0.42072544033761272 -0.20369927590475301 0 -0.41303892827123678 -0.21093405469715851 0 -0.40807454407470489 -0.21592977391801271 0 -0.41685681033243982 -0.21746512418924929 0 -0.41303892827123678 -0.21093405469715851 0 -0.41685681033243982 -0.21746512418924929 0 -0.42140045260962489 -0.21331085224804261 0 -0.41685681033243982 -0.21746512418924929 0 -0.42140045260962489 -0.21331085224804261 0 -0.4232102070061276 -0.21869015764887889 0 -0.41303892827123678 -0.21093405469715851 0 -0.42140045260962489 -0.21331085224804261 0 -0.42072544033761272 -0.20369927590475301 0 -0.42512182626149492 -0.2033095177213731 0 -0.43378961613155448 -0.20908682079381441 0 -0.44184138868315109 -0.20247798044170351 0 -0.42072544033761272 -0.20369927590475301 0 -0.42512182626149492 -0.2033095177213731 0 -0.43133498143110582 -0.21921018883561361 0 -0.42072544033761272 -0.20369927590475301 0 -0.42512182626149492 -0.2033095177213731 0 -0.43133498143110582 -0.21921018883561361 0 -0.42512182626149492 -0.2033095177213731 0 -0.43378961613155448 -0.20908682079381441 0 -0.43133498143110582 -0.21921018883561361 0 -0.42140045260962489 -0.21331085224804261 0 -0.4232102070061276 -0.21869015764887889 0 -0.43133498143110582 -0.21921018883561361 0 -0.42072544033761272 -0.20369927590475301 0 -0.43133498143110582 -0.21921018883561361 0 -0.42140045260962489 -0.21331085224804261 0 -0.42072544033761272 -0.20369927590475301 0 -0.43133498143110582 -0.21921018883561361 0 -0.43378961613155448 -0.20908682079381441 0 -0.44166379455333399 -0.21604972156869759 0 -0.42032122747045741 -0.1927313373696285 0 -0.44184138868315109 -0.20247798044170351 0 -0.42032122747045741 -0.1927313373696285 0 -0.43099962817645188 -0.18319011649723049 0 -0.43833565968517207 -0.19112957676178299 0 -0.42032122747045741 -0.1927313373696285 0 -0.42512182626149492 -0.2033095177213731 0 -0.44184138868315109 -0.20247798044170351 0 -0.42032122747045741 -0.1927313373696285 0 -0.43833565968517207 -0.19112957676178299 0 -0.44184138868315109 -0.20247798044170351 0 -0.42032122747045741 -0.1927313373696285 0 -0.42072544033761272 -0.20369927590475301 0 -0.42512182626149492 -0.2033095177213731 0 -0.42549584187692119 -0.17333418479170171 0 -0.43099962817645188 -0.18319011649723049 0 -0.41834400919125792 -0.18158621355319651 0 -0.42032122747045741 -0.1927313373696285 0 -0.43099962817645188 -0.18319011649723049 0 -0.41834400919125792 -0.18158621355319651 0 -0.43099962817645188 -0.18319011649723049 0 -0.43495901877196291 -0.17485617288990979 0 -0.44455133712372419 -0.18300714728765441 0 -0.42549584187692119 -0.17333418479170171 0 -0.43099962817645188 -0.18319011649723049 0 -0.43495901877196291 -0.17485617288990979 0 -0.42549584187692119 -0.17333418479170171 0 -0.43495901877196291 -0.17485617288990979 0 -0.43155613508544272 -0.1669321437644439 0 -0.43495901877196291 -0.17485617288990979 0 -0.43155613508544272 -0.1669321437644439 0 -0.44219215159727421 -0.16781727210851849 0 -0.43155613508544272 -0.1669321437644439 0 -0.43166640735559808 -0.1552039120346444 0 -0.44219215159727421 -0.16781727210851849 0 -0.43155613508544272 -0.1669321437644439 0 -0.4214232379976206 -0.16216052115063159 0 -0.43166640735559808 -0.1552039120346444 0 -0.42549584187692119 -0.17333418479170171 0 -0.43155613508544272 -0.1669321437644439 0 -0.4214232379976206 -0.16216052115063159 0 -0.42549584187692119 -0.17333418479170171 0 -0.4214232379976206 -0.16216052115063159 0 -0.41110577652129249 -0.1670682470007229 0 -0.4214232379976206 -0.16216052115063159 0 -0.41110577652129249 -0.1670682470007229 0 -0.40669002996807779 -0.1495058137550834 0 -0.41110577652129249 -0.1670682470007229 0 -0.41834400919125792 -0.18158621355319651 0 -0.40730162077548249 -0.18407395049314179 0 -0.42549584187692119 -0.17333418479170171 0 -0.41110577652129249 -0.1670682470007229 0 -0.41834400919125792 -0.18158621355319651 0 -0.42032122747045741 -0.1927313373696285 0 -0.41834400919125792 -0.18158621355319651 0 -0.40730162077548249 -0.18407395049314179 0 -0.39543971762078378 -0.19194216334420211 0 -0.40730162077548249 -0.18407395049314179 0 -0.39267839793348491 -0.17927693187167279 0 -0.40730162077548249 -0.18407395049314179 0 -0.39267839793348491 -0.17927693187167279 0 -0.39387780121335469 -0.16444862508152899 0 -0.40730162077548249 -0.18407395049314179 0 -0.39387780121335469 -0.16444862508152899 0 -0.37378547386561772 -0.17392500984250869 0 -0.36895563931783232 -0.19259611207654981 0 -0.3831693110633177 -0.1873742460103984 0 -0.37378547386561772 -0.17392500984250869 0 -0.39267839793348491 -0.17927693187167279 0 -0.3831693110633177 -0.1873742460103984 0 -0.37378547386561772 -0.17392500984250869 0 -0.39267839793348491 -0.17927693187167279 0 -0.39387780121335469 -0.16444862508152899 0 -0.39543971762078378 -0.19194216334420211 0 -0.39267839793348491 -0.17927693187167279 0 -0.3831693110633177 -0.1873742460103984 0 -0.37378547386561772 -0.17392500984250869 0 -0.37839901512320262 -0.15996290040625341 0 -0.39387780121335469 -0.16444862508152899 0 -0.37839901512320262 -0.15996290040625341 0 -0.39387780121335469 -0.16444862508152899 0 -0.3804539816512269 -0.14482329966991631 0 -0.41110577652129249 -0.1670682470007229 0 -0.39387780121335469 -0.16444862508152899 0 -0.40669002996807779 -0.1495058137550834 0 -0.41110577652129249 -0.1670682470007229 0 -0.40730162077548249 -0.18407395049314179 0 -0.39387780121335469 -0.16444862508152899 0 -0.39387780121335469 -0.16444862508152899 0 -0.3804539816512269 -0.14482329966991631 0 -0.40669002996807779 -0.1495058137550834 0 -0.3804539816512269 -0.14482329966991631 0 -0.39647179587780151 -0.13189450107720049 0 -0.40669002996807779 -0.1495058137550834 0 -0.3804539816512269 -0.14482329966991631 0 -0.40669002996807779 -0.1495058137550834 0 -0.39387780121335469 -0.16444862508152899 0 -0.3804539816512269 -0.14482329966991631 0 -0.3804539816512269 -0.14482329966991631 0 -0.38278168804071749 -0.12940228238898679 0 -0.39647179587780151 -0.13189450107720049 0 -0.3804539816512269 -0.14482329966991631 0 -0.39647179587780151 -0.13189450107720049 0 -0.37212838853434238 -0.11808059788504249 0 -0.37028068739271691 -0.13083580994494901 0 -0.38278168804071749 -0.12940228238898679 0 -0.37028068739271691 -0.13083580994494901 0 -0.3804539816512269 -0.14482329966991631 0 -0.38278168804071749 -0.12940228238898679 0 -0.38278168804071749 -0.12940228238898679 0 -0.39647179587780151 -0.13189450107720049 0 -0.39044023874876249 -0.11757149150947201 0 -0.39647179587780151 -0.13189450107720049 0 -0.40828286160401828 -0.1310364195873514 0 -0.40669002996807779 -0.1495058137550834 0 -0.39647179587780151 -0.13189450107720049 0 -0.40828286160401828 -0.1310364195873514 0 -0.41122993917504558 -0.1199812866788818 0 -0.39647179587780151 -0.13189450107720049 0 -0.41122993917504558 -0.1199812866788818 0 -0.40828286160401828 -0.1310364195873514 0 -0.41930562378398423 -0.12797048681614909 0 -0.41122993917504558 -0.1199812866788818 0 -0.41930562378398423 -0.12797048681614909 0 -0.41533589961201212 -0.13938201891822019 0 -0.4273858072007774 -0.14414008567558009 0 -0.40828286160401828 -0.1310364195873514 0 -0.41533589961201212 -0.13938201891822019 0 -0.40669002996807779 -0.1495058137550834 0 -0.40828286160401828 -0.1310364195873514 0 -0.41930562378398423 -0.12797048681614909 0 -0.41533589961201212 -0.13938201891822019 0 -0.40669002996807779 -0.1495058137550834 0 -0.43166640735559808 -0.1552039120346444 0 -0.4214232379976206 -0.16216052115063159 0 -0.40669002996807779 -0.1495058137550834 0 -0.43166640735559808 -0.1552039120346444 0 -0.41533589961201212 -0.13938201891822019 0 -0.40669002996807779 -0.1495058137550834 0 -0.4273858072007774 -0.14414008567558009 0 -0.40669002996807779 -0.1495058137550834 0 -0.4273858072007774 -0.14414008567558009 0 -0.43166640735559808 -0.1552039120346444 0 -0.43166640735559808 -0.1552039120346444 0 -0.43525592456887258 -0.14374997194848471 0 -0.44410307239699631 -0.15282998285397989 0 -0.4273858072007774 -0.14414008567558009 0 -0.43166640735559808 -0.1552039120346444 0 -0.43525592456887258 -0.14374997194848471 0 -0.41930562378398423 -0.12797048681614909 0 -0.43525592456887258 -0.14374997194848471 0 -0.41930562378398423 -0.12797048681614909 0 -0.4273858072007774 -0.14414008567558009 0 -0.43525592456887258 -0.14374997194848471 0 -0.41930562378398423 -0.12797048681614909 0 -0.4273858072007774 -0.14414008567558009 0 -0.41930562378398423 -0.12797048681614909 0 -0.43525592456887258 -0.14374997194848471 0 -0.43389101300267191 -0.13422730327376839 0 -0.41930562378398423 -0.12797048681614909 0 -0.43389101300267191 -0.13422730327376839 0 -0.4149348530849476 -0.1169905694289516 0 -0.43389101300267191 -0.13422730327376839 0 -0.4149348530849476 -0.1169905694289516 0 -0.43389101300267191 -0.13422730327376839 0 -0.43160182387889101 -0.1187955019330571 0 -0.44085253015216358 -0.1237950587173612 0 -0.43389101300267191 -0.13422730327376839 0 -0.44872577578551592 -0.13320174295465559 0 -0.452847172920396 -0.1514640371185853 0 -0.44872577578551592 -0.13320174295465559 0 -0.45896755277767909 -0.12575633132281341 0 -0.45000974795797011 -0.119430952696417 0 -0.44872577578551592 -0.13320174295465559 0 -0.45000974795797011 -0.119430952696417 0 -0.44085253015216358 -0.1237950587173612 0 -0.43389101300267191 -0.13422730327376839 0 -0.44872577578551592 -0.13320174295465559 0 -0.44085253015216358 -0.1237950587173612 0 -0.43525592456887258 -0.14374997194848471 0 -0.43389101300267191 -0.13422730327376839 0 -0.452847172920396 -0.1514640371185853 0 -0.43525592456887258 -0.14374997194848471 0 -0.44410307239699631 -0.15282998285397989 0 -0.452847172920396 -0.1514640371185853 0 -0.44872577578551592 -0.13320174295465559 0 -0.452847172920396 -0.1514640371185853 0 -0.456386085566235 -0.14096643446963419 0 -0.43389101300267191 -0.13422730327376839 0 -0.452847172920396 -0.1514640371185853 0 -0.44410307239699631 -0.15282998285397989 0 -0.452847172920396 -0.1514640371185853 0 -0.45664278474311831 -0.16090201031420531 0 -0.452847172920396 -0.1514640371185853 0 -0.456386085566235 -0.14096643446963419 0 -0.46738274896045578 -0.15003021006820461 0 -0.452847172920396 -0.1514640371185853 0 -0.46738274896045578 -0.15003021006820461 0 -0.45664278474311831 -0.16090201031420531 0 -0.456386085566235 -0.14096643446963419 0 -0.46738274896045578 -0.15003021006820461 0 -0.47200539146090159 -0.13839174763128981 0 -0.456386085566235 -0.14096643446963419 0 -0.47200539146090159 -0.13839174763128981 0 -0.47750202174635031 -0.1215216316744509 0 -0.456386085566235 -0.14096643446963419 0 -0.45896755277767909 -0.12575633132281341 0 -0.47750202174635031 -0.1215216316744509 0 -0.456386085566235 -0.14096643446963419 0 -0.47750202174635031 -0.1215216316744509 0 -0.44872577578551592 -0.13320174295465559 0 -0.456386085566235 -0.14096643446963419 0 -0.45896755277767909 -0.12575633132281341 0 -0.47200539146090159 -0.13839174763128981 0 -0.48675070957056549 -0.14104871431286931 0 -0.47750202174635031 -0.1215216316744509 0 -0.50000000000000011 -0.12648838757554831 0 -0.48675070957056549 -0.14104871431286931 0 -0.5 -0.15043640832747529 0 -0.50000000000000011 -0.12648838757554831 0 -0.48675070957056549 -0.14104871431286931 0 -0.47750202174635031 -0.1215216316744509 0 -0.48675070957056549 -0.14104871431286931 0 -0.5 -0.15043640832747529 0 -0.48062174440056549 -0.15969986187448909 0 -0.46738274896045578 -0.15003021006820461 0 -0.47200539146090159 -0.13839174763128981 0 -0.48675070957056549 -0.14104871431286931 0 -0.48675070957056549 -0.14104871431286931 0 -0.48062174440056549 -0.15969986187448909 0 -0.46738274896045578 -0.15003021006820461 0 -0.48675070957056549 -0.14104871431286931 0 -0.48062174440056549 -0.15969986187448909 0 -0.48062174440056549 -0.15969986187448909 0 -0.46548313673471758 -0.16971310035941381 0 -0.46753260370971428 -0.1600862956540782 0 -0.46738274896045578 -0.15003021006820461 0 -0.48062174440056549 -0.15969986187448909 0 -0.46753260370971428 -0.1600862956540782 0 -0.48062174440056549 -0.15969986187448909 0 -0.47449277923056221 -0.17835100943610771 0 -0.46548313673471758 -0.16971310035941381 0 -0.48062174440056549 -0.15969986187448909 0 -0.47449277923056221 -0.17835100943610771 0 -0.5 -0.15043640832747529 0 -0.48062174440056549 -0.15969986187448909 0 -0.49999999999999828 -0.17438442907940241 0 -0.48062174440056549 -0.15969986187448909 0 -0.49999999999999828 -0.17438442907940241 0 -0.47449277923056221 -0.17835100943610771 0 -0.49999999999999828 -0.17438442907940241 0 -0.47449277923056221 -0.17835100943610771 0 -0.49999999999999828 -0.17438442907940241 0 -0.47449277923056221 -0.17835100943610771 0 -0.48549376880548989 -0.19132810400505559 0 -0.47449277923056221 -0.17835100943610771 0 -0.46892716456320649 -0.19528781647494389 0 -0.47449277923056221 -0.17835100943610771 0 -0.45952205817714309 -0.18067907836188021 0 -0.46892716456320649 -0.19528781647494389 0 -0.45952205817714309 -0.18067907836188021 0 -0.46548313673471758 -0.16971310035941381 0 -0.45289664290439807 -0.17180374819378549 0 -0.47449277923056221 -0.17835100943610771 0 -0.45952205817714309 -0.18067907836188021 0 -0.47449277923056221 -0.17835100943610771 0 -0.45952205817714309 -0.18067907836188021 0 -0.46548313673471758 -0.16971310035941381 0 -0.46548313673471758 -0.16971310035941381 0 -0.46753260370971428 -0.1600862956540782 0 -0.45664278474311831 -0.16090201031420531 0 -0.46738274896045578 -0.15003021006820461 0 -0.46753260370971428 -0.1600862956540782 0 -0.45664278474311831 -0.16090201031420531 0 -0.46548313673471758 -0.16971310035941381 0 -0.45664278474311831 -0.16090201031420531 0 -0.45289664290439807 -0.17180374819378549 0 -0.45664278474311831 -0.16090201031420531 0 -0.45289664290439807 -0.17180374819378549 0 -0.44219215159727421 -0.16781727210851849 0 -0.43166640735559808 -0.1552039120346444 0 -0.45664278474311831 -0.16090201031420531 0 -0.44219215159727421 -0.16781727210851849 0 -0.43166640735559808 -0.1552039120346444 0 -0.45664278474311831 -0.16090201031420531 0 -0.43166640735559808 -0.1552039120346444 0 -0.44410307239699631 -0.15282998285397989 0 -0.45664278474311831 -0.16090201031420531 0 -0.43495901877196291 -0.17485617288990979 0 -0.44219215159727421 -0.16781727210851849 0 -0.44455133712372419 -0.18300714728765441 0 -0.43099962817645188 -0.18319011649723049 0 -0.44455133712372419 -0.18300714728765441 0 -0.43833565968517207 -0.19112957676178299 0 -0.45952205817714309 -0.18067907836188021 0 -0.44455133712372419 -0.18300714728765441 0 -0.45396471697207569 -0.194241302212698 0 -0.45952205817714309 -0.18067907836188021 0 -0.44455133712372419 -0.18300714728765441 0 -0.45952205817714309 -0.18067907836188021 0 -0.45289664290439807 -0.17180374819378549 0 -0.44455133712372419 -0.18300714728765441 0 -0.45289664290439807 -0.17180374819378549 0 -0.44219215159727421 -0.16781727210851849 0 -0.44455133712372419 -0.18300714728765441 0 -0.44455133712372419 -0.18300714728765441 0 -0.43833565968517207 -0.19112957676178299 0 -0.45396471697207569 -0.194241302212698 0 -0.43833565968517207 -0.19112957676178299 0 -0.44184138868315109 -0.20247798044170351 0 -0.45396471697207569 -0.194241302212698 0 -0.44184138868315109 -0.20247798044170351 0 -0.46336154989584488 -0.2122246235137781 0 -0.45396471697207569 -0.194241302212698 0 -0.44184138868315109 -0.20247798044170351 0 -0.46336154989584488 -0.2122246235137781 0 -0.45338394269579491 -0.2190794284651259 0 -0.43378961613155448 -0.20908682079381441 0 -0.44184138868315109 -0.20247798044170351 0 -0.44166379455333399 -0.21604972156869759 0 -0.44184138868315109 -0.20247798044170351 0 -0.44166379455333399 -0.21604972156869759 0 -0.45338394269579491 -0.2190794284651259 0 -0.44184138868315109 -0.20247798044170351 0 -0.46336154989584488 -0.2122246235137781 0 -0.46336154989584488 -0.2122246235137781 0 -0.46892716456320649 -0.19528781647494389 0 -0.46336154989584488 -0.2122246235137781 0 -0.45396471697207569 -0.194241302212698 0 -0.46892716456320649 -0.19528781647494389 0 -0.45952205817714309 -0.18067907836188021 0 -0.45396471697207569 -0.194241302212698 0 -0.46892716456320649 -0.19528781647494389 0 -0.47449277923056221 -0.17835100943610771 0 -0.46892716456320649 -0.19528781647494389 0 -0.48549376880548989 -0.19132810400505559 0 -0.46892716456320649 -0.19528781647494389 0 -0.48549376880548989 -0.19132810400505559 0 -0.47978640147694102 -0.20418872613165631 0 -0.5 -0.20182215567114031 0 -0.48549376880548989 -0.19132810400505559 0 -0.47978640147694102 -0.20418872613165631 0 -0.49999999999999828 -0.17438442907940241 0 -0.5 -0.20182215567114031 0 -0.48549376880548989 -0.19132810400505559 0 -0.5 -0.20182215567114031 0 -0.48114952412016337 -0.22028093099336349 0 -0.49893749834448198 -0.22833723847294871 0 -0.5 -0.20182215567114031 0 -0.47978640147694102 -0.20418872613165631 0 -0.48114952412016337 -0.22028093099336349 0 -0.46336154989584488 -0.2122246235137781 0 -0.48114952412016337 -0.22028093099336349 0 -0.46336154989584488 -0.2122246235137781 0 -0.47978640147694102 -0.20418872613165631 0 -0.48114952412016337 -0.22028093099336349 0 -0.46336154989584488 -0.2122246235137781 0 -0.46892716456320649 -0.19528781647494389 0 -0.47978640147694102 -0.20418872613165631 0 -0.46336154989584488 -0.2122246235137781 0 -0.48114952412016337 -0.22028093099336349 0 -0.46857810181099829 -0.22486784275082261 0 -0.48114952412016337 -0.22028093099336349 0 -0.48798868478634799 -0.231470988200419 0 -0.47142395938804471 -0.23802335247430181 0 -0.48114952412016337 -0.22028093099336349 0 -0.47142395938804471 -0.23802335247430181 0 -0.46857810181099829 -0.22486784275082261 0 -0.48114952412016337 -0.22028093099336349 0 -0.48798868478634799 -0.231470988200419 0 -0.49893749834448198 -0.22833723847294871 0 -0.48114952412016337 -0.22028093099336349 0 -0.49893749834448198 -0.22833723847294871 0 -0.48798868478634799 -0.231470988200419 0 -0.49893749834448198 -0.22833723847294871 0 -0.4875835208682564 -0.24248539692068891 0 -0.5 -0.25669760885461612 0 -0.49893749834448198 -0.22833723847294871 0 -0.4875835208682564 -0.24248539692068891 0 -0.48798868478634799 -0.231470988200419 0 -0.4875835208682564 -0.24248539692068891 0 -0.47142395938804471 -0.23802335247430181 0 -0.47878778985378329 -0.25835102983948688 0 -0.4875835208682564 -0.24248539692068891 0 -0.47142395938804471 -0.23802335247430181 0 -0.45662330498375908 -0.25656877445722759 0 -0.47142395938804471 -0.23802335247430181 0 -0.45034617445999431 -0.24335722649563979 0 -0.47142395938804471 -0.23802335247430181 0 -0.45735065046854989 -0.23051648340969341 0 -0.45034617445999431 -0.24335722649563979 0 -0.46336154989584488 -0.2122246235137781 0 -0.46857810181099829 -0.22486784275082261 0 -0.45735065046854989 -0.23051648340969341 0 -0.46336154989584488 -0.2122246235137781 0 -0.45735065046854989 -0.23051648340969341 0 -0.47142395938804471 -0.23802335247430181 0 -0.46857810181099829 -0.22486784275082261 0 -0.45735065046854989 -0.23051648340969341 0 -0.46336154989584488 -0.2122246235137781 0 -0.45338394269579491 -0.2190794284651259 0 -0.45735065046854989 -0.23051648340969341 0 -0.45338394269579491 -0.2190794284651259 0 -0.45735065046854989 -0.23051648340969341 0 -0.43806130733353449 -0.23541812032183559 0 -0.44166379455333399 -0.21604972156869759 0 -0.43806130733353449 -0.23541812032183559 0 -0.44166379455333399 -0.21604972156869759 0 -0.45338394269579491 -0.2190794284651259 0 -0.43806130733353449 -0.23541812032183559 0 -0.45735065046854989 -0.23051648340969341 0 -0.45034617445999431 -0.24335722649563979 0 -0.43806130733353449 -0.23541812032183559 0 -0.43445882011373449 -0.25478651907497341 0 -0.45034617445999431 -0.24335722649563979 0 -0.43806130733353449 -0.23541812032183559 0 -0.41324955929443102 -0.038374170610562031 0 -0.41005136228565903 -0.05540387285823338 0 -0.42435348212729052 -0.04457483879584373 0 -0.41324955929443102 -0.038374170610562031 0 -0.41005136228565903 -0.05540387285823338 0 -0.39900851660089293 -0.046429079601448257 0 -0.41324955929443102 -0.038374170610562031 0 -0.40747857107326091 -0.02424585309778798 0 -0.40045416304880688 -0.034240371911693122 0 -0.41005136228565903 -0.05540387285823338 0 -0.4246600563061857 -0.059067830999859447 0 -0.41422906440869389 -0.068128229862373102 0 -0.41005136228565903 -0.05540387285823338 0 -0.4246600563061857 -0.059067830999859447 0 -0.42435348212729052 -0.04457483879584373 0 -0.4246600563061857 -0.059067830999859447 0 -0.42435348212729052 -0.04457483879584373 0 -0.43957367317472601 -0.045089571971719818 0 -0.4246600563061857 -0.059067830999859447 0 -0.43957367317472601 -0.045089571971719818 0 -0.44544580640037118 -0.056213229689383748 0 -0.41324955929443102 -0.038374170610562031 0 -0.42435348212729052 -0.04457483879584373 0 -0.42981912379901888 -0.030443092666165631 0 -0.42435348212729052 -0.04457483879584373 0 -0.42981912379901888 -0.030443092666165631 0 -0.43957367317472601 -0.045089571971719818 0 -0.41302196833726168 -0.01226972299954816 0 -0.4392085005598273 -0.024676348383282701 0 -0.42659341977192161 -0.010103830507352861 0 -0.41302196833726168 -0.01226972299954816 0 -0.4392085005598273 -0.024676348383282701 0 -0.42981912379901888 -0.030443092666165631 0 -0.41673372021425997 -0.022240754673565791 0 -0.4392085005598273 -0.024676348383282701 0 -0.41302196833726168 -0.01226972299954816 0 -0.41673372021425997 -0.022240754673565791 0 -0.4392085005598273 -0.024676348383282701 0 -0.43741768347029059 -0.01288367903972009 0 -0.42659341977192161 -0.010103830507352861 0 -0.4392085005598273 -0.024676348383282701 0 -0.4441818909265971 -0.00998157505946092 0 -0.42578104856505677 0.0031949168855625672 0 -0.43741768347029059 -0.01288367903972009 0 -0.4441818909265971 -0.00998157505946092 0 -0.42578104856505677 0.0031949168855625672 0 -0.43741768347029059 -0.01288367903972009 0 -0.42659341977192161 -0.010103830507352861 0 -0.42578104856505677 0.0031949168855625672 0 -0.43741768347029059 -0.01288367903972009 0 -0.42578104856505677 0.0031949168855625672 0 -0.42659341977192161 -0.010103830507352861 0 -0.41753789792717189 -0.0038843189997757009 0 -0.42578104856505677 0.0031949168855625672 0 -0.42659341977192161 -0.010103830507352861 0 -0.41753789792717189 -0.0038843189997757009 0 -0.41302196833726168 -0.01226972299954816 0 -0.41753789792717189 -0.0038843189997757009 0 -0.41302196833726168 -0.01226972299954816 0 -0.40771050441737638 -0.0035262849216432719 0 -0.41753789792717189 -0.0038843189997757009 0 -0.40771050441737638 -0.0035262849216432719 0 -0.41105156913745711 0.0034129409419674369 0 -0.42981912379901888 -0.030443092666165631 0 -0.40747857107326091 -0.02424585309778798 0 -0.41324955929443102 -0.038374170610562031 0 -0.42981912379901888 -0.030443092666165631 0 -0.40747857107326091 -0.02424585309778798 0 -0.42981912379901888 -0.030443092666165631 0 -0.41673372021425997 -0.022240754673565791 0 -0.40747857107326091 -0.02424585309778798 0 -0.41302196833726168 -0.01226972299954816 0 -0.41673372021425997 -0.022240754673565791 0 -0.40747857107326091 -0.02424585309778798 0 -0.41673372021425997 -0.022240754673565791 0 -0.40747857107326091 -0.02424585309778798 0 -0.40747857107326091 -0.02424585309778798 0 -0.38992317137517202 -0.02804917422583518 0 -0.40747857107326091 -0.02424585309778798 0 -0.38992317137517202 -0.02804917422583518 0 -0.38297625517291389 -0.017448943304264108 0 -0.40747857107326091 -0.02424585309778798 0 -0.38992317137517202 -0.02804917422583518 0 -0.40045416304880688 -0.034240371911693122 0 -0.40747857107326091 -0.02424585309778798 0 -0.39567459441968961 -0.012635194689989219 0 -0.38297625517291389 -0.017448943304264108 0 -0.40747857107326091 -0.02424585309778798 0 -0.38297625517291389 -0.017448943304264108 0 -0.41302196833726168 -0.01226972299954816 0 -0.40747857107326091 -0.02424585309778798 0 -0.39567459441968961 -0.012635194689989219 0 -0.41302196833726168 -0.01226972299954816 0 -0.40771050441737638 -0.0035262849216432719 0 -0.38683543611469601 0.0001369023841863784 0 -0.41302196833726168 -0.01226972299954816 0 -0.39567459441968961 -0.012635194689989219 0 -0.38683543611469601 0.0001369023841863784 0 -0.41302196833726168 -0.01226972299954816 0 -0.38683543611469601 0.0001369023841863784 0 -0.40771050441737638 -0.0035262849216432719 0 -0.38683543611469601 0.0001369023841863784 0 -0.40226596945639398 0.0014711925349297271 0 -0.39567459441968961 -0.012635194689989219 0 -0.38502252263107412 -0.0084426060797158468 0 -0.38683543611469601 0.0001369023841863784 0 -0.39567459441968961 -0.012635194689989219 0 -0.38502252263107412 -0.0084426060797158468 0 -0.38297625517291389 -0.017448943304264108 0 -0.38502252263107412 -0.0084426060797158468 0 -0.38009964520605882 -0.0090403485437739461 0 -0.38297625517291389 -0.017448943304264108 0 -0.37278444596104371 -0.0079457960458173115 0 -0.38009964520605882 -0.0090403485437739461 0 -0.38297625517291389 -0.017448943304264108 0 -0.37474494217865062 -0.0022388935110706832 0 -0.38502252263107412 -0.0084426060797158468 0 -0.38683543611469601 0.0001369023841863784 0 -0.37474494217865062 -0.0022388935110706832 0 -0.38502252263107412 -0.0084426060797158468 0 -0.38009964520605882 -0.0090403485437739461 0 -0.37474494217865062 -0.0022388935110706832 0 -0.37278444596104371 -0.0079457960458173115 0 -0.38009964520605882 -0.0090403485437739461 0 -0.37236777167708351 -0.031852495353884333 0 -0.38992317137517202 -0.02804917422583518 0 -0.37990921189048049 -0.023302515363219579 0 -0.37236777167708351 -0.031852495353884333 0 -0.38992317137517202 -0.02804917422583518 0 -0.38992317137517202 -0.02804917422583518 0 -0.38297625517291389 -0.017448943304264108 0 -0.37990921189048049 -0.023302515363219579 0 -0.3739022591900184 -0.02415390189740213 0 -0.38297625517291389 -0.017448943304264108 0 -0.37990921189048049 -0.023302515363219579 0 -0.37236777167708351 -0.031852495353884333 0 -0.3739022591900184 -0.02415390189740213 0 -0.37990921189048049 -0.023302515363219579 0 -0.37236777167708351 -0.031852495353884333 0 -0.37990921189048049 -0.023302515363219579 0 -0.38458287424021398 -0.039388642062709187 0 -0.39900851660089293 -0.046429079601448257 0 -0.3815482533063424 -0.052412606119804542 0 -0.37355784227175309 -0.045246792894939887 0 -0.37236777167708351 -0.031852495353884333 0 -0.38458287424021398 -0.039388642062709187 0 -0.37236777167708351 -0.031852495353884333 0 -0.38992317137517202 -0.02804917422583518 0 -0.38458287424021398 -0.039388642062709187 0 -0.37355784227175309 -0.045246792894939887 0 -0.38458287424021398 -0.039388642062709187 0 -0.3815482533063424 -0.052412606119804542 0 -0.38458287424021398 -0.039388642062709187 0 -0.39900851660089293 -0.046429079601448257 0 -0.40045416304880688 -0.034240371911693122 0 -0.38992317137517202 -0.02804917422583518 0 -0.38458287424021398 -0.039388642062709187 0 -0.40045416304880688 -0.034240371911693122 0 -0.41324955929443102 -0.038374170610562031 0 -0.39900851660089293 -0.046429079601448257 0 -0.40045416304880688 -0.034240371911693122 0 -0.39900851660089293 -0.046429079601448257 0 -0.39626447370361728 -0.06091275685647668 0 -0.3815482533063424 -0.052412606119804542 0 -0.41005136228565903 -0.05540387285823338 0 -0.39626447370361728 -0.06091275685647668 0 -0.40517181862379281 -0.066558370858305557 0 -0.41005136228565903 -0.05540387285823338 0 -0.39900851660089293 -0.046429079601448257 0 -0.39626447370361728 -0.06091275685647668 0 -0.36862349457690058 -0.057461967220355487 0 -0.3815482533063424 -0.052412606119804542 0 -0.37947166312044489 -0.067272628224985004 0 -0.3815482533063424 -0.052412606119804542 0 -0.37947166312044489 -0.067272628224985004 0 -0.39260231949431601 -0.074533368335879327 0 -0.36882665317829499 -0.078032107790563188 0 -0.39260231949431601 -0.074533368335879327 0 -0.39626447370361728 -0.06091275685647668 0 -0.3815482533063424 -0.052412606119804542 0 -0.39260231949431601 -0.074533368335879327 0 -0.3815482533063424 -0.052412606119804542 0 -0.39260231949431601 -0.074533368335879327 0 -0.36882665317829499 -0.078032107790563188 0 -0.37947166312044489 -0.067272628224985004 0 -0.39260231949431601 -0.074533368335879327 0 -0.36882665317829499 -0.078032107790563188 0 -0.39260231949431601 -0.074533368335879327 0 -0.39002829617667018 -0.099006697234722524 0 -0.36882665317829499 -0.078032107790563188 0 -0.39002829617667018 -0.099006697234722524 0 -0.37367929427193591 -0.1014825750548952 0 -0.36882665317829499 -0.078032107790563188 0 -0.39002829617667018 -0.099006697234722524 0 -0.39260231949431601 -0.074533368335879327 0 -0.39002829617667018 -0.099006697234722524 0 -0.39510370691593599 -0.098958215311000047 0 -0.39260231949431601 -0.074533368335879327 0 -0.40274583300482147 -0.094831984843681591 0 -0.39260231949431601 -0.074533368335879327 0 -0.39510370691593599 -0.098958215311000047 0 -0.40274583300482147 -0.094831984843681591 0 -0.40361170428446441 -0.083317353290434007 0 -0.39260231949431601 -0.074533368335879327 0 -0.40274583300482147 -0.094831984843681591 0 -0.40361170428446441 -0.083317353290434007 0 -0.39867569396630093 -0.073639632925658519 0 -0.40696916935602839 -0.074517235882718885 0 -0.39867569396630093 -0.073639632925658519 0 -0.40517181862379281 -0.066558370858305557 0 -0.40696916935602839 -0.074517235882718885 0 -0.39626447370361728 -0.06091275685647668 0 -0.39867569396630093 -0.073639632925658519 0 -0.40517181862379281 -0.066558370858305557 0 -0.39626447370361728 -0.06091275685647668 0 -0.39867569396630093 -0.073639632925658519 0 -0.39260231949431601 -0.074533368335879327 0 -0.40361170428446441 -0.083317353290434007 0 -0.39867569396630093 -0.073639632925658519 0 -0.39260231949431601 -0.074533368335879327 0 -0.39867569396630093 -0.073639632925658519 0 -0.39260231949431601 -0.074533368335879327 0 -0.37212838853434238 -0.11808059788504249 0 -0.38278168804071749 -0.12940228238898679 0 -0.39044023874876249 -0.11757149150947201 0 -0.37367929427193591 -0.1014825750548952 0 -0.37212838853434238 -0.11808059788504249 0 -0.39044023874876249 -0.11757149150947201 0 -0.37367929427193591 -0.1014825750548952 0 -0.39044023874876249 -0.11757149150947201 0 -0.39002829617667018 -0.099006697234722524 0 -0.39510370691593599 -0.098958215311000047 0 -0.40274583300482147 -0.094831984843681591 0 -0.41288934651532883 -0.11513060135148299 0 -0.39002829617667018 -0.099006697234722524 0 -0.39510370691593599 -0.098958215311000047 0 -0.41122993917504558 -0.1199812866788818 0 -0.39510370691593599 -0.098958215311000047 0 -0.41288934651532883 -0.11513060135148299 0 -0.39647179587780151 -0.13189450107720049 0 -0.39044023874876249 -0.11757149150947201 0 -0.41122993917504558 -0.1199812866788818 0 -0.39002829617667018 -0.099006697234722524 0 -0.41122993917504558 -0.1199812866788818 0 -0.39044023874876249 -0.11757149150947201 0 -0.39002829617667018 -0.099006697234722524 0 -0.41122993917504558 -0.1199812866788818 0 -0.39510370691593599 -0.098958215311000047 0 -0.41122993917504558 -0.1199812866788818 0 -0.41288934651532883 -0.11513060135148299 0 -0.41930562378398423 -0.12797048681614909 0 -0.41122993917504558 -0.1199812866788818 0 -0.4149348530849476 -0.1169905694289516 0 -0.41930562378398423 -0.12797048681614909 0 -0.41122993917504558 -0.1199812866788818 0 -0.41930562378398423 -0.12797048681614909 0 -0.4149348530849476 -0.1169905694289516 0 -0.41122993917504558 -0.1199812866788818 0 -0.41288934651532883 -0.11513060135148299 0 -0.4149348530849476 -0.1169905694289516 0 -0.41122993917504558 -0.1199812866788818 0 -0.4149348530849476 -0.1169905694289516 0 -0.41288934651532883 -0.11513060135148299 0 -0.4149348530849476 -0.1169905694289516 0 -0.41288934651532883 -0.11513060135148299 0 -0.4149348530849476 -0.1169905694289516 0 -0.41458672172207622 -0.10427776634057311 0 -0.40274583300482147 -0.094831984843681591 0 -0.41288934651532883 -0.11513060135148299 0 -0.4149348530849476 -0.1169905694289516 0 -0.41458672172207622 -0.10427776634057311 0 -0.43059848591229039 -0.1043464168163742 0 -0.40274583300482147 -0.094831984843681591 0 -0.41288934651532883 -0.11513060135148299 0 -0.41458672172207622 -0.10427776634057311 0 -0.41458672172207622 -0.10427776634057311 0 -0.41348552386521947 -0.090840815536544176 0 -0.43025813067654672 -0.08737754853092726 0 -0.40274583300482147 -0.094831984843681591 0 -0.41458672172207622 -0.10427776634057311 0 -0.41348552386521947 -0.090840815536544176 0 -0.43059848591229039 -0.1043464168163742 0 -0.43025813067654672 -0.08737754853092726 0 -0.44626211873963212 -0.091702264203795431 0 -0.41458672172207622 -0.10427776634057311 0 -0.43059848591229039 -0.1043464168163742 0 -0.43025813067654672 -0.08737754853092726 0 -0.41458672172207622 -0.10427776634057311 0 -0.43025813067654672 -0.08737754853092726 0 -0.4149348530849476 -0.1169905694289516 0 -0.43059848591229039 -0.1043464168163742 0 -0.43160182387889101 -0.1187955019330571 0 -0.4149348530849476 -0.1169905694289516 0 -0.43059848591229039 -0.1043464168163742 0 -0.43389101300267191 -0.13422730327376839 0 -0.4149348530849476 -0.1169905694289516 0 -0.43160182387889101 -0.1187955019330571 0 -0.43059848591229039 -0.1043464168163742 0 -0.43160182387889101 -0.1187955019330571 0 -0.44003429013576911 -0.11331979272890801 0 -0.43160182387889101 -0.1187955019330571 0 -0.44085253015216358 -0.1237950587173612 0 -0.44003429013576911 -0.11331979272890801 0 -0.41422906440869389 -0.068128229862373102 0 -0.41539885585273961 -0.080089681603359497 0 -0.42594434486026628 -0.073522222089585226 0 -0.4246600563061857 -0.059067830999859447 0 -0.41422906440869389 -0.068128229862373102 0 -0.42594434486026628 -0.073522222089585226 0 -0.41005136228565903 -0.05540387285823338 0 -0.40517181862379281 -0.066558370858305557 0 -0.41422906440869389 -0.068128229862373102 0 -0.40517181862379281 -0.066558370858305557 0 -0.41422906440869389 -0.068128229862373102 0 -0.40696916935602839 -0.074517235882718885 0 -0.41422906440869389 -0.068128229862373102 0 -0.40696916935602839 -0.074517235882718885 0 -0.41539885585273961 -0.080089681603359497 0 -0.41348552386521947 -0.090840815536544176 0 -0.41539885585273961 -0.080089681603359497 0 -0.43025813067654672 -0.08737754853092726 0 -0.40361170428446441 -0.083317353290434007 0 -0.41348552386521947 -0.090840815536544176 0 -0.41539885585273961 -0.080089681603359497 0 -0.40361170428446441 -0.083317353290434007 0 -0.40696916935602839 -0.074517235882718885 0 -0.41539885585273961 -0.080089681603359497 0 -0.40361170428446441 -0.083317353290434007 0 -0.40274583300482147 -0.094831984843681591 0 -0.41348552386521947 -0.090840815536544176 0 -0.41539885585273961 -0.080089681603359497 0 -0.43025813067654672 -0.08737754853092726 0 -0.42594434486026628 -0.073522222089585226 0 -0.4246600563061857 -0.059067830999859447 0 -0.44592953963101739 -0.07047733072128165 0 -0.43025813067654672 -0.08737754853092726 0 -0.42594434486026628 -0.073522222089585226 0 -0.44592953963101739 -0.07047733072128165 0 -0.4246600563061857 -0.059067830999859447 0 -0.42594434486026628 -0.073522222089585226 0 -0.44592953963101739 -0.07047733072128165 0 -0.44592953963101739 -0.07047733072128165 0 -0.45893666683642192 -0.056450303318209168 0 -0.44592953963101739 -0.07047733072128165 0 -0.44626211873963212 -0.091702264203795431 0 -0.46192575156697407 -0.079058111591217034 0 -0.43025813067654672 -0.08737754853092726 0 -0.44592953963101739 -0.07047733072128165 0 -0.43025813067654672 -0.08737754853092726 0 -0.44592953963101739 -0.07047733072128165 0 -0.44626211873963212 -0.091702264203795431 0 -0.44626211873963212 -0.091702264203795431 0 -0.46631049206888459 -0.091444160656324658 0 -0.46192575156697407 -0.079058111591217034 0 -0.44626211873963212 -0.091702264203795431 0 -0.46192575156697407 -0.079058111591217034 0 -0.46631049206888459 -0.091444160656324658 0 -0.46192575156697407 -0.079058111591217034 0 -0.47702460168979111 -0.087157524427869615 0 -0.44592953963101739 -0.07047733072128165 0 -0.46192575156697407 -0.079058111591217034 0 -0.45893666683642192 -0.056450303318209168 0 -0.46192575156697407 -0.079058111591217034 0 -0.47491389520024407 -0.068573693827893439 0 -0.45893666683642192 -0.056450303318209168 0 -0.46192575156697407 -0.079058111591217034 0 -0.47491389520024407 -0.068573693827893439 0 -0.44592953963101739 -0.07047733072128165 0 -0.46192575156697407 -0.079058111591217034 0 -0.45000974795797011 -0.119430952696417 0 -0.44085253015216358 -0.1237950587173612 0 -0.44003429013576911 -0.11331979272890801 0 -0.45000974795797011 -0.119430952696417 0 -0.44003429013576911 -0.11331979272890801 0 -0.44926481423485548 -0.10476542824413421 0 -0.43059848591229039 -0.1043464168163742 0 -0.44626211873963212 -0.091702264203795431 0 -0.43059848591229039 -0.1043464168163742 0 -0.44626211873963212 -0.091702264203795431 0 -0.44926481423485548 -0.10476542824413421 0 -0.43059848591229039 -0.1043464168163742 0 -0.44003429013576911 -0.11331979272890801 0 -0.44926481423485548 -0.10476542824413421 0 -0.44626211873963212 -0.091702264203795431 0 -0.44926481423485548 -0.10476542824413421 0 -0.46153012095291662 -0.1019472767233552 0 -0.44626211873963212 -0.091702264203795431 0 -0.46631049206888459 -0.091444160656324658 0 -0.46153012095291662 -0.1019472767233552 0 -0.46631049206888459 -0.091444160656324658 0 -0.46153012095291662 -0.1019472767233552 0 -0.4710589232177344 -0.098453604121520433 0 -0.46153012095291662 -0.1019472767233552 0 -0.46221413283232399 -0.11366089481890911 0 -0.47430793409480421 -0.10627177682285049 0 -0.44926481423485548 -0.10476542824413421 0 -0.46153012095291662 -0.1019472767233552 0 -0.46221413283232399 -0.11366089481890911 0 -0.45896755277767909 -0.12575633132281341 0 -0.46221413283232399 -0.11366089481890911 0 -0.47750202174635031 -0.1215216316744509 0 -0.45000974795797011 -0.119430952696417 0 -0.44926481423485548 -0.10476542824413421 0 -0.46221413283232399 -0.11366089481890911 0 -0.45896755277767909 -0.12575633132281341 0 -0.45000974795797011 -0.119430952696417 0 -0.46221413283232399 -0.11366089481890911 0 -0.47750202174635031 -0.1215216316744509 0 -0.47430793409480421 -0.10627177682285049 0 -0.48673501487359588 -0.1010237797652184 0 -0.46221413283232399 -0.11366089481890911 0 -0.47750202174635031 -0.1215216316744509 0 -0.47430793409480421 -0.10627177682285049 0 -0.47430793409480421 -0.10627177682285049 0 -0.47745372589702628 -0.099742000537211661 0 -0.48673501487359588 -0.1010237797652184 0 -0.46153012095291662 -0.1019472767233552 0 -0.47430793409480421 -0.10627177682285049 0 -0.4710589232177344 -0.098453604121520433 0 -0.46631049206888459 -0.091444160656324658 0 -0.4710589232177344 -0.098453604121520433 0 -0.47771303140197108 -0.093218841439257433 0 -0.47430793409480421 -0.10627177682285049 0 -0.4710589232177344 -0.098453604121520433 0 -0.47745372589702628 -0.099742000537211661 0 -0.4710589232177344 -0.098453604121520433 0 -0.47745372589702628 -0.099742000537211661 0 -0.47771303140197108 -0.093218841439257433 0 -0.47745372589702628 -0.099742000537211661 0 -0.48673501487359588 -0.1010237797652184 0 -0.47771303140197108 -0.093218841439257433 0 -0.48673501487359588 -0.1010237797652184 0 -0.47771303140197108 -0.093218841439257433 0 -0.47702460168979111 -0.087157524427869615 0 -0.47750202174635031 -0.1215216316744509 0 -0.48673501487359588 -0.1010237797652184 0 -0.4986179579264654 -0.1020768288792674 0 -0.48673501487359588 -0.1010237797652184 0 -0.49842317329231273 -0.098636270432611556 0 -0.47702460168979111 -0.087157524427869615 0 -0.48673501487359588 -0.1010237797652184 0 -0.49842317329231273 -0.098636270432611556 0 -0.4986179579264654 -0.1020768288792674 0 -0.49999999999999939 -0.099482120969144883 0 -0.49842317329231273 -0.098636270432611556 0 -0.4986179579264654 -0.1020768288792674 0 -0.49842317329231273 -0.098636270432611556 0 -0.4986179579264654 -0.1020768288792674 0 -0.49999999999999939 -0.099482120969144883 0 -0.49842317329231273 -0.098636270432611556 0 -0.50000000000000011 -0.12648838757554831 0 -0.47750202174635031 -0.1215216316744509 0 -0.4986179579264654 -0.1020768288792674 0 -0.47750202174635031 -0.1215216316744509 0 -0.4986179579264654 -0.1020768288792674 0 -0.47491389520024407 -0.068573693827893439 0 -0.47702460168979111 -0.087157524427869615 0 -0.4847984782487687 -0.075944598732494498 0 -0.47491389520024407 -0.068573693827893439 0 -0.47702460168979111 -0.087157524427869615 0 -0.47967839073812912 -0.064727650616396362 0 -0.4847984782487687 -0.075944598732494498 0 -0.48794163871831331 -0.064119883023254248 0 -0.47967839073812912 -0.064727650616396362 0 -0.47491389520024407 -0.068573693827893439 0 -0.4847984782487687 -0.075944598732494498 0 -0.47967839073812912 -0.064727650616396362 0 -0.47491389520024407 -0.068573693827893439 0 -0.46192575156697407 -0.079058111591217034 0 -0.47702460168979111 -0.087157524427869615 0 -0.46192575156697407 -0.079058111591217034 0 -0.47491389520024407 -0.068573693827893439 0 -0.47702460168979111 -0.087157524427869615 0 -0.46631049206888459 -0.091444160656324658 0 -0.47771303140197108 -0.093218841439257433 0 -0.47702460168979111 -0.087157524427869615 0 -0.47771303140197108 -0.093218841439257433 0 -0.47702460168979111 -0.087157524427869615 0 -0.49842317329231273 -0.098636270432611556 0 -0.49712708577170861 -0.075742961183477536 0 -0.4847984782487687 -0.075944598732494498 0 -0.49999999999999939 -0.099482120969144883 0 -0.49842317329231273 -0.098636270432611556 0 -0.5 -0.078030389970551228 0 -0.49842317329231273 -0.098636270432611556 0 -0.49712708577170861 -0.075742961183477536 0 -0.49842317329231273 -0.098636270432611556 0 -0.5 -0.078030389970551228 0 -0.49712708577170861 -0.075742961183477536 0 -0.49842317329231273 -0.098636270432611556 0 -0.47702460168979111 -0.087157524427869615 0 -0.4847984782487687 -0.075944598732494498 0 -0.49842317329231273 -0.098636270432611556 0 -0.47702460168979111 -0.087157524427869615 0 -0.5 -0.078030389970551228 0 -0.49712708577170861 -0.075742961183477536 0 -0.49999999999999928 -0.056578658971957581 0 -0.49712708577170861 -0.075742961183477536 0 -0.49583099825110311 -0.052849651934343489 0 -0.49712708577170861 -0.075742961183477536 0 -0.48794163871831331 -0.064119883023254248 0 -0.49583099825110311 -0.052849651934343489 0 -0.49712708577170861 -0.075742961183477536 0 -0.4847984782487687 -0.075944598732494498 0 -0.48794163871831331 -0.064119883023254248 0 -0.49712708577170861 -0.075742961183477536 0 -0.49999999999999928 -0.056578658971957581 0 -0.49583099825110311 -0.052849651934343489 0 -0.49583099825110311 -0.052849651934343489 0 -0.47748890114140963 -0.036443372127734748 0 -0.48227324058185622 -0.051334552649559453 0 -0.49999999999999928 -0.056578658971957581 0 -0.49583099825110311 -0.052849651934343489 0 -0.49999999999999928 -0.056578658971957581 0 -0.50000000000000144 -0.053559852644015388 0 -0.49583099825110311 -0.052849651934343489 0 -0.48794163871831331 -0.064119883023254248 0 -0.49583099825110311 -0.052849651934343489 0 -0.48227324058185622 -0.051334552649559453 0 -0.50000000000000144 -0.053559852644015388 0 -0.49583099825110311 -0.052849651934343489 0 -0.48598145264485831 -0.02728491224803695 0 -0.49583099825110311 -0.052849651934343489 0 -0.47748890114140963 -0.036443372127734748 0 -0.48598145264485831 -0.02728491224803695 0 -0.50000000000000144 -0.053559852644015388 0 -0.48598145264485831 -0.02728491224803695 0 -0.50000000000000144 -0.053559852644015388 0 -0.48598145264485831 -0.02728491224803695 0 -0.5 -0.025161366008633609 0 -0.49583099825110311 -0.052849651934343489 0 -0.47748890114140963 -0.036443372127734748 0 -0.47748890114140963 -0.036443372127734748 0 -0.48598145264485831 -0.02728491224803695 0 -0.47748890114140963 -0.036443372127734748 0 -0.47194379404182718 -0.042423275915137587 0 -0.48227324058185622 -0.051334552649559453 0 -0.47748890114140963 -0.036443372127734748 0 -0.47194379404182718 -0.042423275915137587 0 -0.47748890114140963 -0.036443372127734748 0 -0.47194379404182718 -0.042423275915137587 0 -0.47056077858213702 -0.03024644074295027 0 -0.47194379404182718 -0.042423275915137587 0 -0.46539503278239303 -0.037082973767017267 0 -0.47056077858213702 -0.03024644074295027 0 -0.47194379404182718 -0.042423275915137587 0 -0.47056077858213702 -0.03024644074295027 0 -0.47748890114140963 -0.036443372127734748 0 -0.47056077858213702 -0.03024644074295027 0 -0.47748890114140963 -0.036443372127734748 0 -0.47056077858213702 -0.03024644074295027 0 -0.47745882259212458 -0.028728106929589409 0 -0.47967839073812912 -0.064727650616396362 0 -0.47491389520024407 -0.068573693827893439 0 -0.47194379404182718 -0.042423275915137587 0 -0.47967839073812912 -0.064727650616396362 0 -0.47194379404182718 -0.042423275915137587 0 -0.48227324058185622 -0.051334552649559453 0 -0.47491389520024407 -0.068573693827893439 0 -0.47194379404182718 -0.042423275915137587 0 -0.47967839073812912 -0.064727650616396362 0 -0.48794163871831331 -0.064119883023254248 0 -0.48227324058185622 -0.051334552649559453 0 -0.47491389520024407 -0.068573693827893439 0 -0.47194379404182718 -0.042423275915137587 0 -0.45893666683642192 -0.056450303318209168 0 -0.45893666683642192 -0.056450303318209168 0 -0.45743491846808387 -0.04563500224908737 0 -0.44544580640037118 -0.056213229689383748 0 -0.47194379404182718 -0.042423275915137587 0 -0.45893666683642192 -0.056450303318209168 0 -0.45743491846808387 -0.04563500224908737 0 -0.47194379404182718 -0.042423275915137587 0 -0.45893666683642192 -0.056450303318209168 0 -0.46539503278239303 -0.037082973767017267 0 -0.44890774518284438 -0.02927164544362729 0 -0.46539503278239303 -0.037082973767017267 0 -0.45215967652477718 -0.036640332234541717 0 -0.44890774518284438 -0.02927164544362729 0 -0.46539503278239303 -0.037082973767017267 0 -0.44890774518284438 -0.02927164544362729 0 -0.46189821575704781 -0.02986243911986371 0 -0.47194379404182718 -0.042423275915137587 0 -0.46539503278239303 -0.037082973767017267 0 -0.45743491846808387 -0.04563500224908737 0 -0.46539503278239303 -0.037082973767017267 0 -0.46189821575704781 -0.02986243911986371 0 -0.47056077858213702 -0.03024644074295027 0 -0.46539503278239303 -0.037082973767017267 0 -0.45743491846808387 -0.04563500224908737 0 -0.45215967652477718 -0.036640332234541717 0 -0.42981912379901888 -0.030443092666165631 0 -0.45215967652477718 -0.036640332234541717 0 -0.45743491846808387 -0.04563500224908737 0 -0.45215967652477718 -0.036640332234541717 0 -0.43957367317472601 -0.045089571971719818 0 -0.42981912379901888 -0.030443092666165631 0 -0.45215967652477718 -0.036640332234541717 0 -0.43957367317472601 -0.045089571971719818 0 -0.45743491846808387 -0.04563500224908737 0 -0.43957367317472601 -0.045089571971719818 0 -0.44544580640037118 -0.056213229689383748 0 -0.4246600563061857 -0.059067830999859447 0 -0.44592953963101739 -0.07047733072128165 0 -0.44544580640037118 -0.056213229689383748 0 -0.44592953963101739 -0.07047733072128165 0 -0.45893666683642192 -0.056450303318209168 0 -0.44544580640037118 -0.056213229689383748 0 -0.4441818909265971 -0.00998157505946092 0 -0.45588653083934588 0.00041698580085632909 0 -0.44737850259376799 0.0077656591989471307 0 -0.4441818909265971 -0.00998157505946092 0 -0.4570262928383732 -0.018140378997512391 0 -0.45633913854906122 -0.0094275687658610888 0 -0.4441818909265971 -0.00998157505946092 0 -0.45633913854906122 -0.0094275687658610888 0 -0.45588653083934588 0.00041698580085632909 0 -0.43741768347029059 -0.01288367903972009 0 -0.4441818909265971 -0.00998157505946092 0 -0.44890774518284438 -0.02927164544362729 0 -0.42981912379901888 -0.030443092666165631 0 -0.45215967652477718 -0.036640332234541717 0 -0.4392085005598273 -0.024676348383282701 0 -0.4441818909265971 -0.00998157505946092 0 -0.44890774518284438 -0.02927164544362729 0 -0.46258273328813732 -0.023158067004484729 0 -0.43741768347029059 -0.01288367903972009 0 -0.44890774518284438 -0.02927164544362729 0 -0.43741768347029059 -0.01288367903972009 0 -0.4392085005598273 -0.024676348383282701 0 -0.44890774518284438 -0.02927164544362729 0 -0.4392085005598273 -0.024676348383282701 0 -0.44890774518284438 -0.02927164544362729 0 -0.45215967652477718 -0.036640332234541717 0 -0.4392085005598273 -0.024676348383282701 0 -0.44890774518284438 -0.02927164544362729 0 -0.4441818909265971 -0.00998157505946092 0 -0.46258273328813732 -0.023158067004484729 0 -0.46258273328813732 -0.023158067004484729 0 -0.46826183959192841 -0.01000530680732737 0 -0.47056077858213702 -0.03024644074295027 0 -0.4441818909265971 -0.00998157505946092 0 -0.4570262928383732 -0.018140378997512391 0 -0.46258273328813732 -0.023158067004484729 0 -0.4570262928383732 -0.018140378997512391 0 -0.46258273328813732 -0.023158067004484729 0 -0.44890774518284438 -0.02927164544362729 0 -0.46189821575704781 -0.02986243911986371 0 -0.46258273328813732 -0.023158067004484729 0 -0.46258273328813732 -0.023158067004484729 0 -0.47056077858213702 -0.03024644074295027 0 -0.46189821575704781 -0.02986243911986371 0 -0.46258273328813732 -0.023158067004484729 0 -0.47056077858213702 -0.03024644074295027 0 -0.4570262928383732 -0.018140378997512391 0 -0.46258273328813732 -0.023158067004484729 0 -0.46826183959192841 -0.01000530680732737 0 -0.4570262928383732 -0.018140378997512391 0 -0.46826183959192841 -0.01000530680732737 0 -0.45633913854906122 -0.0094275687658610888 0 -0.46826183959192841 -0.01000530680732737 0 -0.45633913854906122 -0.0094275687658610888 0 -0.45588653083934588 0.00041698580085632909 0 -0.46826183959192841 -0.01000530680732737 0 -0.47597217662329228 -0.0085245425598697612 0 -0.4659629006017233 0.010235827128295859 0 -0.46826183959192841 -0.01000530680732737 0 -0.47597217662329228 -0.0085245425598697612 0 -0.47580415800009379 -0.02093770259963601 0 -0.47597217662329228 -0.0085245425598697612 0 -0.48922725890134677 -0.010453537226696331 0 -0.48082517856277007 0.001845263919603602 0 -0.47597217662329228 -0.0085245425598697612 0 -0.47580415800009379 -0.02093770259963601 0 -0.48598145264485831 -0.02728491224803695 0 -0.47597217662329228 -0.0085245425598697612 0 -0.48598145264485831 -0.02728491224803695 0 -0.46826183959192841 -0.01000530680732737 0 -0.47056077858213702 -0.03024644074295027 0 -0.47580415800009379 -0.02093770259963601 0 -0.47597217662329228 -0.0085245425598697612 0 -0.48598145264485831 -0.02728491224803695 0 -0.4893389393206713 -0.02366416211133009 0 -0.46826183959192841 -0.01000530680732737 0 -0.47056077858213702 -0.03024644074295027 0 -0.47056077858213702 -0.03024644074295027 0 -0.47580415800009379 -0.02093770259963601 0 -0.47745882259212458 -0.028728106929589409 0 -0.47580415800009379 -0.02093770259963601 0 -0.47745882259212458 -0.028728106929589409 0 -0.48598145264485831 -0.02728491224803695 0 -0.47748890114140963 -0.036443372127734748 0 -0.47745882259212458 -0.028728106929589409 0 -0.48598145264485831 -0.02728491224803695 0 -0.48598145264485831 -0.02728491224803695 0 -0.4893389393206713 -0.02366416211133009 0 -0.5 -0.025161366008633609 0 -0.48598145264485831 -0.02728491224803695 0 -0.4893389393206713 -0.02366416211133009 0 -0.4893389393206713 -0.02366416211133009 0 -0.5 -0.025161366008633609 0 -0.48922725890134677 -0.010453537226696331 0 -0.48922725890134677 -0.010453537226696331 0 -0.5 0.0032371206267481911 0 -0.48082517856277007 0.001845263919603602 0 -0.5 -0.025161366008633609 0 -0.48922725890134677 -0.010453537226696331 0 -0.5 0.0032371206267481911 0 -0.47597217662329228 -0.0085245425598697612 0 -0.4893389393206713 -0.02366416211133009 0 -0.48922725890134677 -0.010453537226696331 0 -0.5 0.0032371206267481911 0 -0.48596576445654982 0.01457961489688041 0 -0.48082517856277007 0.001845263919603602 0 -0.48596576445654982 0.01457961489688041 0 -0.47541999506787802 0.025418180444172121 0 -0.5 0.031635607262129987 0 -0.5 0.0032371206267481911 0 -0.48596576445654982 0.01457961489688041 0 -0.5 0.031635607262129987 0 -0.48596576445654982 0.01457961489688041 0 -0.47541999506787802 0.025418180444172121 0 -0.47401658579892991 0.013489912392399149 0 -0.47541999506787802 0.025418180444172121 0 -0.46963945276383978 0.01793989872667965 0 -0.47401658579892991 0.013489912392399149 0 -0.47597217662329228 -0.0085245425598697612 0 -0.48082517856277007 0.001845263919603602 0 -0.4659629006017233 0.010235827128295859 0 -0.47401658579892991 0.013489912392399149 0 -0.48082517856277007 0.001845263919603602 0 -0.4659629006017233 0.010235827128295859 0 -0.46963945276383978 0.01793989872667965 0 -0.47401658579892991 0.013489912392399149 0 -0.4659629006017233 0.010235827128295859 0 -0.47597217662329228 -0.0085245425598697612 0 -0.4659629006017233 0.010235827128295859 0 -0.48596576445654982 0.01457961489688041 0 -0.47401658579892991 0.013489912392399149 0 -0.48082517856277007 0.001845263919603602 0 -0.5 0.060034093897511798 0 -0.47816362815030861 0.043832779932641487 0 -0.48068047186290208 0.063626500276227002 0 -0.47541999506787802 0.025418180444172121 0 -0.5 0.031635607262129987 0 -0.47816362815030861 0.043832779932641487 0 -0.5 0.060034093897511798 0 -0.5 0.031635607262129987 0 -0.47816362815030861 0.043832779932641487 0 -0.47541999506787802 0.025418180444172121 0 -0.47816362815030861 0.043832779932641487 0 -0.46442391639916691 0.036471327701905212 0 -0.47816362815030861 0.043832779932641487 0 -0.46119618507356652 0.049359273152949731 0 -0.48068047186290208 0.063626500276227002 0 -0.46119618507356652 0.049359273152949731 0 -0.46103932749027238 0.064238871702306077 0 -0.48068047186290208 0.063626500276227002 0 -0.46119618507356652 0.049359273152949731 0 -0.44286953411296898 0.045255716157198693 0 -0.46103932749027238 0.064238871702306077 0 -0.47816362815030861 0.043832779932641487 0 -0.46119618507356652 0.049359273152949731 0 -0.46442391639916691 0.036471327701905212 0 -0.46119618507356652 0.049359273152949731 0 -0.46442391639916691 0.036471327701905212 0 -0.45082509298125129 0.038608595210277222 0 -0.46442391639916691 0.036471327701905212 0 -0.45082509298125129 0.038608595210277222 0 -0.4583939967914884 0.024422211169287101 0 -0.45082509298125129 0.038608595210277222 0 -0.4583939967914884 0.024422211169287101 0 -0.46119618507356652 0.049359273152949731 0 -0.45082509298125129 0.038608595210277222 0 -0.44286953411296898 0.045255716157198693 0 -0.45082509298125129 0.038608595210277222 0 -0.4405409619944019 0.035432846457562263 0 -0.4458839614772655 0.023387518650519249 0 -0.45082509298125129 0.038608595210277222 0 -0.4405409619944019 0.035432846457562263 0 -0.44286953411296898 0.045255716157198693 0 -0.4405409619944019 0.035432846457562263 0 -0.44286953411296898 0.045255716157198693 0 -0.43229092530358848 0.04451632412921195 0 -0.44286953411296898 0.045255716157198693 0 -0.44282721760043869 0.062046251170956107 0 -0.46103932749027238 0.064238871702306077 0 -0.44286953411296898 0.045255716157198693 0 -0.44282721760043869 0.062046251170956107 0 -0.43188097302969042 0.056955122555226501 0 -0.44286953411296898 0.045255716157198693 0 -0.46103932749027238 0.064238871702306077 0 -0.46826183959192841 -0.01000530680732737 0 -0.45588653083934588 0.00041698580085632909 0 -0.4659629006017233 0.010235827128295859 0 -0.46826183959192841 -0.01000530680732737 0 -0.4659629006017233 0.010235827128295859 0 -0.45609316173783881 0.014082317838893479 0 -0.45588653083934588 0.00041698580085632909 0 -0.4659629006017233 0.010235827128295859 0 -0.46963945276383978 0.01793989872667965 0 -0.4659629006017233 0.010235827128295859 0 -0.4583939967914884 0.024422211169287101 0 -0.4659629006017233 0.010235827128295859 0 -0.4583939967914884 0.024422211169287101 0 -0.47541999506787802 0.025418180444172121 0 -0.46963945276383978 0.01793989872667965 0 -0.4583939967914884 0.024422211169287101 0 -0.47541999506787802 0.025418180444172121 0 -0.46442391639916691 0.036471327701905212 0 -0.4583939967914884 0.024422211169287101 0 -0.45609316173783881 0.014082317838893479 0 -0.4659629006017233 0.010235827128295859 0 -0.4583939967914884 0.024422211169287101 0 -0.45609316173783881 0.014082317838893479 0 -0.4583939967914884 0.024422211169287101 0 -0.4458839614772655 0.023387518650519249 0 -0.45082509298125129 0.038608595210277222 0 -0.4583939967914884 0.024422211169287101 0 -0.4458839614772655 0.023387518650519249 0 -0.4405409619944019 0.035432846457562263 0 -0.4458839614772655 0.023387518650519249 0 -0.43566193494816191 0.02574822372494872 0 -0.4458839614772655 0.023387518650519249 0 -0.4359559447540089 0.01018896392150693 0 -0.43566193494816191 0.02574822372494872 0 -0.4441818909265971 -0.00998157505946092 0 -0.44737850259376799 0.0077656591989471307 0 -0.4359559447540089 0.01018896392150693 0 -0.4458839614772655 0.023387518650519249 0 -0.44737850259376799 0.0077656591989471307 0 -0.4359559447540089 0.01018896392150693 0 -0.45609316173783881 0.014082317838893479 0 -0.4458839614772655 0.023387518650519249 0 -0.44737850259376799 0.0077656591989471307 0 -0.45609316173783881 0.014082317838893479 0 -0.45588653083934588 0.00041698580085632909 0 -0.44737850259376799 0.0077656591989471307 0 -0.4441818909265971 -0.00998157505946092 0 -0.4359559447540089 0.01018896392150693 0 -0.42578104856505677 0.0031949168855625672 0 -0.42578104856505677 0.0031949168855625672 0 -0.41622595309658328 0.016397403714119251 0 -0.42870406893849561 0.019163111370922251 0 -0.4359559447540089 0.01018896392150693 0 -0.42578104856505677 0.0031949168855625672 0 -0.42870406893849561 0.019163111370922251 0 -0.41753789792717189 -0.0038843189997757009 0 -0.42578104856505677 0.0031949168855625672 0 -0.41105156913745711 0.0034129409419674369 0 -0.42578104856505677 0.0031949168855625672 0 -0.40852807671777941 0.0155494406680463 0 -0.41622595309658328 0.016397403714119251 0 -0.42578104856505677 0.0031949168855625672 0 -0.40852807671777941 0.0155494406680463 0 -0.41105156913745711 0.0034129409419674369 0 -0.42578104856505677 0.0031949168855625672 0 -0.40852807671777941 0.0155494406680463 0 -0.42578104856505677 0.0031949168855625672 0 -0.41622595309658328 0.016397403714119251 0 -0.40852807671777941 0.0155494406680463 0 -0.41105156913745711 0.0034129409419674369 0 -0.40262572535869262 0.0089097845909437267 0 -0.40771050441737638 -0.0035262849216432719 0 -0.41105156913745711 0.0034129409419674369 0 -0.40226596945639398 0.0014711925349297271 0 -0.40667085762811028 0.029599890542676258 0 -0.41622595309658328 0.016397403714119251 0 -0.42870406893849561 0.019163111370922251 0 -0.40667085762811028 0.029599890542676258 0 -0.42870406893849561 0.019163111370922251 0 -0.40667085762811028 0.029599890542676258 0 -0.41990433555607742 0.03061685230769556 0 -0.42870406893849561 0.019163111370922251 0 -0.40852807671777941 0.0155494406680463 0 -0.40667085762811028 0.029599890542676258 0 -0.41622595309658328 0.016397403714119251 0 -0.40667085762811028 0.029599890542676258 0 -0.41622595309658328 0.016397403714119251 0 -0.41990433555607742 0.03061685230769556 0 -0.4284463216954002 0.029357354603554459 0 -0.42870406893849561 0.019163111370922251 0 -0.4359559447540089 0.01018896392150693 0 -0.42870406893849561 0.019163111370922251 0 -0.43566193494816191 0.02574822372494872 0 -0.4284463216954002 0.029357354603554459 0 -0.42870406893849561 0.019163111370922251 0 -0.43566193494816191 0.02574822372494872 0 -0.4284463216954002 0.029357354603554459 0 -0.43566193494816191 0.02574822372494872 0 -0.43264023121812112 0.033917661463996759 0 -0.4405409619944019 0.035432846457562263 0 -0.43264023121812112 0.033917661463996759 0 -0.43229092530358848 0.04451632412921195 0 -0.43264023121812112 0.033917661463996759 0 -0.43229092530358848 0.04451632412921195 0 -0.42532103781614489 0.037340924150209003 0 -0.4405409619944019 0.035432846457562263 0 -0.43566193494816191 0.02574822372494872 0 -0.43264023121812112 0.033917661463996759 0 -0.43229092530358848 0.04451632412921195 0 -0.42532103781614489 0.037340924150209003 0 -0.42042490988599091 0.046091327469671317 0 -0.4284463216954002 0.029357354603554459 0 -0.43264023121812112 0.033917661463996759 0 -0.42532103781614489 0.037340924150209003 0 -0.41990433555607742 0.03061685230769556 0 -0.4284463216954002 0.029357354603554459 0 -0.42532103781614489 0.037340924150209003 0 -0.43229092530358848 0.04451632412921195 0 -0.43188097302969042 0.056955122555226501 0 -0.42585725303016408 0.051510102087770737 0 -0.44286953411296898 0.045255716157198693 0 -0.43229092530358848 0.04451632412921195 0 -0.43188097302969042 0.056955122555226501 0 -0.43229092530358848 0.04451632412921195 0 -0.42585725303016408 0.051510102087770737 0 -0.42042490988599091 0.046091327469671317 0 -0.43188097302969042 0.056955122555226501 0 -0.41883220390138681 0.058477634196973202 0 -0.43131469147834472 0.070632617455275076 0 -0.43188097302969042 0.056955122555226501 0 -0.42585725303016408 0.051510102087770737 0 -0.41883220390138681 0.058477634196973202 0 -0.41883220390138681 0.058477634196973202 0 -0.40840220717331749 0.048304634434869917 0 -0.39985653820026013 0.060860810446949978 0 -0.42585725303016408 0.051510102087770737 0 -0.41883220390138681 0.058477634196973202 0 -0.42042490988599091 0.046091327469671317 0 -0.41883220390138681 0.058477634196973202 0 -0.40840220717331749 0.048304634434869917 0 -0.42042490988599091 0.046091327469671317 0 -0.41990433555607742 0.03061685230769556 0 -0.42532103781614489 0.037340924150209003 0 -0.4122967326089878 0.037821593301397609 0 -0.42532103781614489 0.037340924150209003 0 -0.42042490988599091 0.046091327469671317 0 -0.4122967326089878 0.037821593301397609 0 -0.40840220717331749 0.048304634434869917 0 -0.4122967326089878 0.037821593301397609 0 -0.40579981868685489 0.041495006097714962 0 -0.40840220717331749 0.048304634434869917 0 -0.42042490988599091 0.046091327469671317 0 -0.4122967326089878 0.037821593301397609 0 -0.4122967326089878 0.037821593301397609 0 -0.40278544391907911 0.034968452634622761 0 -0.40579981868685489 0.041495006097714962 0 -0.40667085762811028 0.029599890542676258 0 -0.4122967326089878 0.037821593301397609 0 -0.40278544391907911 0.034968452634622761 0 -0.40667085762811028 0.029599890542676258 0 -0.41990433555607742 0.03061685230769556 0 -0.4122967326089878 0.037821593301397609 0 -0.40667085762811028 0.029599890542676258 0 -0.40278544391907911 0.034968452634622761 0 -0.40667085762811028 0.029599890542676258 0 -0.38856614517843069 0.038175802748282091 0 -0.40667085762811028 0.029599890542676258 0 -0.38856614517843069 0.038175802748282091 0 -0.39127510487050182 0.027903964450529759 0 -0.40667085762811028 0.029599890542676258 0 -0.40278544391907911 0.034968452634622761 0 -0.38856614517843069 0.038175802748282091 0 -0.40278544391907911 0.034968452634622761 0 -0.40579981868685489 0.041495006097714962 0 -0.3977250587697031 0.045015474274426849 0 -0.40840220717331749 0.048304634434869917 0 -0.40579981868685489 0.041495006097714962 0 -0.3977250587697031 0.045015474274426849 0 -0.40278544391907911 0.034968452634622761 0 -0.3977250587697031 0.045015474274426849 0 -0.38856614517843069 0.038175802748282091 0 -0.40840220717331749 0.048304634434869917 0 -0.3977250587697031 0.045015474274426849 0 -0.39985653820026013 0.060860810446949978 0 -0.3977250587697031 0.045015474274426849 0 -0.39985653820026013 0.060860810446949978 0 -0.38472691017257071 0.052921849058569698 0 -0.39985653820026013 0.060860810446949978 0 -0.38472691017257071 0.052921849058569698 0 -0.38510762700538009 0.066428587654483159 0 -0.38472691017257071 0.052921849058569698 0 -0.37046143272875132 0.04675171495388801 0 -0.37000681959492809 0.05831264468359916 0 -0.38472691017257071 0.052921849058569698 0 -0.38510762700538009 0.066428587654483159 0 -0.37000681959492809 0.05831264468359916 0 -0.38856614517843069 0.038175802748282091 0 -0.37871402691879819 0.03757115751491092 0 -0.37046143272875132 0.04675171495388801 0 -0.38856614517843069 0.038175802748282091 0 -0.37046143272875132 0.04675171495388801 0 -0.38472691017257071 0.052921849058569698 0 -0.38856614517843069 0.038175802748282091 0 -0.37046143272875132 0.04675171495388801 0 -0.38856614517843069 0.038175802748282091 0 -0.38315308642314733 0.033917821982192238 0 -0.39127510487050182 0.027903964450529759 0 -0.38856614517843069 0.038175802748282091 0 -0.38315308642314733 0.033917821982192238 0 -0.37871402691879819 0.03757115751491092 0 -0.3977250587697031 0.045015474274426849 0 -0.38472691017257071 0.052921849058569698 0 -0.38856614517843069 0.038175802748282091 0 -0.37871402691879819 0.03757115751491092 0 -0.3764786745208083 0.032098692741998169 0 -0.37046143272875132 0.04675171495388801 0 -0.38315308642314733 0.033917821982192238 0 -0.3764786745208083 0.032098692741998169 0 -0.38155727091044611 0.028316364585127811 0 -0.38315308642314733 0.033917821982192238 0 -0.37871402691879819 0.03757115751491092 0 -0.3764786745208083 0.032098692741998169 0 -0.3764786745208083 0.032098692741998169 0 -0.38155727091044611 0.028316364585127811 0 -0.37960108001976323 0.022263106047543741 0 -0.37960108001976323 0.022263106047543741 0 -0.37998819155715241 0.0057865511937031933 0 -0.37123175334181557 0.027162262264614271 0 -0.3764786745208083 0.032098692741998169 0 -0.37960108001976323 0.022263106047543741 0 -0.37123175334181557 0.027162262264614271 0 -0.38155727091044611 0.028316364585127811 0 -0.38533699425949169 0.022674384769296389 0 -0.37960108001976323 0.022263106047543741 0 -0.38155727091044611 0.028316364585127811 0 -0.38533699425949169 0.022674384769296389 0 -0.39127510487050182 0.027903964450529759 0 -0.38315308642314733 0.033917821982192238 0 -0.38155727091044611 0.028316364585127811 0 -0.39127510487050182 0.027903964450529759 0 -0.39054146691731162 0.018060194648231769 0 -0.38533699425949169 0.022674384769296389 0 -0.39127510487050182 0.027903964450529759 0 -0.38533699425949169 0.022674384769296389 0 -0.3837100485794358 0.01682829411504885 0 -0.37960108001976323 0.022263106047543741 0 -0.39054146691731162 0.018060194648231769 0 -0.38533699425949169 0.022674384769296389 0 -0.3837100485794358 0.01682829411504885 0 -0.3837100485794358 0.01682829411504885 0 -0.37960108001976323 0.022263106047543741 0 -0.37998819155715241 0.0057865511937031933 0 -0.37998819155715241 0.0057865511937031933 0 -0.38683543611469601 0.0001369023841863784 0 -0.36064890389212972 0.0125435277679194 0 -0.37998819155715241 0.0057865511937031933 0 -0.38683543611469601 0.0001369023841863784 0 -0.38901012294298121 0.0062908016400105649 0 -0.38683543611469601 0.0001369023841863784 0 -0.38901012294298121 0.0062908016400105649 0 -0.39501457079486157 0.0055715078560810288 0 -0.37998819155715241 0.0057865511937031933 0 -0.38901012294298121 0.0062908016400105649 0 -0.38744744785130802 0.01185902438546781 0 -0.3837100485794358 0.01682829411504885 0 -0.37998819155715241 0.0057865511937031933 0 -0.38744744785130802 0.01185902438546781 0 -0.38901012294298121 0.0062908016400105649 0 -0.38744744785130802 0.01185902438546781 0 -0.39422738021243581 0.01127211946813913 0 -0.39054146691731162 0.018060194648231769 0 -0.3837100485794358 0.01682829411504885 0 -0.38744744785130802 0.01185902438546781 0 -0.39054146691731162 0.018060194648231769 0 -0.39422738021243581 0.01127211946813913 0 -0.39743955081534421 0.016339100765178138 0 -0.39054146691731162 0.018060194648231769 0 -0.38744744785130802 0.01185902438546781 0 -0.39422738021243581 0.01127211946813913 0 -0.39422738021243581 0.01127211946813913 0 -0.39501457079486157 0.0055715078560810288 0 -0.40262572535869262 0.0089097845909437267 0 -0.39422738021243581 0.01127211946813913 0 -0.40262572535869262 0.0089097845909437267 0 -0.39743955081534421 0.016339100765178138 0 -0.38683543611469601 0.0001369023841863784 0 -0.39501457079486157 0.0055715078560810288 0 -0.40226596945639398 0.0014711925349297271 0 -0.38901012294298121 0.0062908016400105649 0 -0.39422738021243581 0.01127211946813913 0 -0.39501457079486157 0.0055715078560810288 0 -0.41105156913745711 0.0034129409419674369 0 -0.40226596945639398 0.0014711925349297271 0 -0.40262572535869262 0.0089097845909437267 0 -0.39501457079486157 0.0055715078560810288 0 -0.40226596945639398 0.0014711925349297271 0 -0.40262572535869262 0.0089097845909437267 0 -0.40852807671777941 0.0155494406680463 0 -0.40262572535869262 0.0089097845909437267 0 -0.39743955081534421 0.016339100765178138 0 -0.40852807671777941 0.0155494406680463 0 -0.39127510487050182 0.027903964450529759 0 -0.40852807671777941 0.0155494406680463 0 -0.40667085762811028 0.029599890542676258 0 -0.39127510487050182 0.027903964450529759 0 -0.40852807671777941 0.0155494406680463 0 -0.39127510487050182 0.027903964450529759 0 -0.39743955081534421 0.016339100765178138 0 -0.39054146691731162 0.018060194648231769 0 -0.39127510487050182 0.027903964450529759 0 -0.39743955081534421 0.016339100765178138 0 -0.39792088922733271 0.1160922105611595 0 -0.40104213778508202 0.092866093853817611 0 -0.41467909406405851 0.1139188519362445 0 -0.39792088922733271 0.1160922105611595 0 -0.3782625711058698 0.101617738696854 0 -0.40104213778508202 0.092866093853817611 0 -0.3782625711058698 0.101617738696854 0 -0.38372255811484618 0.13025780258704611 0 -0.3782625711058698 0.101617738696854 0 -0.38372255811484618 0.13025780258704611 0 -0.36747352968705388 0.12273486311700831 0 -0.39792088922733271 0.1160922105611595 0 -0.3782625711058698 0.101617738696854 0 -0.38372255811484618 0.13025780258704611 0 -0.39792088922733271 0.1160922105611595 0 -0.3782625711058698 0.101617738696854 0 -0.3782625711058698 0.101617738696854 0 -0.40104213778508202 0.092866093853817611 0 -0.37470600383380392 0.082961959162170973 0 -0.39520328107527708 0.075997639864115257 0 -0.40104213778508202 0.092866093853817611 0 -0.37470600383380392 0.082961959162170973 0 -0.3782625711058698 0.101617738696854 0 -0.37470600383380392 0.082961959162170973 0 -0.40104213778508202 0.092866093853817611 0 -0.37470600383380392 0.082961959162170973 0 -0.38510762700538009 0.066428587654483159 0 -0.37000681959492809 0.05831264468359916 0 -0.37470600383380392 0.082961959162170973 0 -0.38510762700538009 0.066428587654483159 0 -0.39520328107527708 0.075997639864115257 0 -0.37470600383380392 0.082961959162170973 0 -0.39985653820026013 0.060860810446949978 0 -0.39520328107527708 0.075997639864115257 0 -0.41322693425173768 0.074694678089132868 0 -0.39985653820026013 0.060860810446949978 0 -0.38510762700538009 0.066428587654483159 0 -0.39520328107527708 0.075997639864115257 0 -0.39520328107527708 0.075997639864115257 0 -0.40104213778508202 0.092866093853817611 0 -0.41322693425173768 0.074694678089132868 0 -0.40104213778508202 0.092866093853817611 0 -0.41322693425173768 0.074694678089132868 0 -0.42957324029363853 0.085693113452461764 0 -0.41883220390138681 0.058477634196973202 0 -0.41322693425173768 0.074694678089132868 0 -0.43131469147834472 0.070632617455275076 0 -0.41883220390138681 0.058477634196973202 0 -0.39985653820026013 0.060860810446949978 0 -0.41322693425173768 0.074694678089132868 0 -0.43131469147834472 0.070632617455275076 0 -0.42957324029363853 0.085693113452461764 0 -0.4470315618909167 0.073148927984774167 0 -0.41322693425173768 0.074694678089132868 0 -0.43131469147834472 0.070632617455275076 0 -0.42957324029363853 0.085693113452461764 0 -0.44282721760043869 0.062046251170956107 0 -0.43188097302969042 0.056955122555226501 0 -0.43131469147834472 0.070632617455275076 0 -0.42957324029363853 0.085693113452461764 0 -0.42737827173636012 0.1027702285454639 0 -0.44343173260412461 0.097571970950778963 0 -0.40104213778508202 0.092866093853817611 0 -0.42737827173636012 0.1027702285454639 0 -0.41467909406405851 0.1139188519362445 0 -0.40104213778508202 0.092866093853817611 0 -0.42737827173636012 0.1027702285454639 0 -0.40104213778508202 0.092866093853817611 0 -0.42957324029363853 0.085693113452461764 0 -0.42737827173636012 0.1027702285454639 0 -0.39792088922733271 0.1160922105611595 0 -0.41467909406405851 0.1139188519362445 0 -0.417579207348795 0.13056668242546571 0 -0.39792088922733271 0.1160922105611595 0 -0.417579207348795 0.13056668242546571 0 -0.41467909406405851 0.1139188519362445 0 -0.42608096723388439 0.1205091241492761 0 -0.417579207348795 0.13056668242546571 0 -0.42737827173636012 0.1027702285454639 0 -0.41467909406405851 0.1139188519362445 0 -0.42608096723388439 0.1205091241492761 0 -0.42737827173636012 0.1027702285454639 0 -0.42608096723388439 0.1205091241492761 0 -0.43826405507869293 0.1195835460605416 0 -0.42608096723388439 0.1205091241492761 0 -0.43826405507869293 0.1195835460605416 0 -0.43293323699752101 0.1317554923945817 0 -0.43826405507869293 0.1195835460605416 0 -0.45371440568763749 0.1126743632371118 0 -0.44901593584904892 0.12912088192892021 0 -0.42737827173636012 0.1027702285454639 0 -0.43826405507869293 0.1195835460605416 0 -0.45371440568763749 0.1126743632371118 0 -0.4523882543875366 0.10983005993361 0 -0.45371440568763749 0.1126743632371118 0 -0.42737827173636012 0.1027702285454639 0 -0.4523882543875366 0.10983005993361 0 -0.44343173260412461 0.097571970950778963 0 -0.42737827173636012 0.1027702285454639 0 -0.4523882543875366 0.10983005993361 0 -0.45371440568763749 0.1126743632371118 0 -0.42737827173636012 0.1027702285454639 0 -0.45371440568763749 0.1126743632371118 0 -0.44343173260412461 0.097571970950778963 0 -0.45084974973894648 0.096020795281878568 0 -0.45306155814551219 0.1028275296158008 0 -0.44343173260412461 0.097571970950778963 0 -0.45084974973894648 0.096020795281878568 0 -0.44733932132275389 0.088290098875458828 0 -0.4523882543875366 0.10983005993361 0 -0.44343173260412461 0.097571970950778963 0 -0.45306155814551219 0.1028275296158008 0 -0.4523882543875366 0.10983005993361 0 -0.45306155814551219 0.1028275296158008 0 -0.45661100561120399 0.109540819014999 0 -0.45306155814551219 0.1028275296158008 0 -0.46084618436187341 0.10490351706993729 0 -0.45661100561120399 0.109540819014999 0 -0.45306155814551219 0.1028275296158008 0 -0.46084618436187341 0.10490351706993729 0 -0.45799439118323759 0.099220837031069903 0 -0.46084618436187341 0.10490351706993729 0 -0.4635407771028337 0.1124237257980706 0 -0.45661100561120399 0.109540819014999 0 -0.45799439118323759 0.099220837031069903 0 -0.46723244863383712 0.097971273043108306 0 -0.45594156200913483 0.091684632610025046 0 -0.45084974973894648 0.096020795281878568 0 -0.45799439118323759 0.099220837031069903 0 -0.45594156200913483 0.091684632610025046 0 -0.45084974973894648 0.096020795281878568 0 -0.45306155814551219 0.1028275296158008 0 -0.45799439118323759 0.099220837031069903 0 -0.46084618436187341 0.10490351706993729 0 -0.45799439118323759 0.099220837031069903 0 -0.46723244863383712 0.097971273043108306 0 -0.46084618436187341 0.10490351706993729 0 -0.46723244863383712 0.097971273043108306 0 -0.46686982756835349 0.1074114054382402 0 -0.46084618436187341 0.10490351706993729 0 -0.46686982756835349 0.1074114054382402 0 -0.4635407771028337 0.1124237257980706 0 -0.45371440568763749 0.1126743632371118 0 -0.46425598871103851 0.13528374379222011 0 -0.4635407771028337 0.1124237257980706 0 -0.45674497769142258 0.1138140594952527 0 -0.46958882025875243 0.12035793204680111 0 -0.46686982756835349 0.1074114054382402 0 -0.4635407771028337 0.1124237257980706 0 -0.47044075898603932 0.11380610730348489 0 -0.4635407771028337 0.1124237257980706 0 -0.46958882025875243 0.12035793204680111 0 -0.47044075898603932 0.11380610730348489 0 -0.45674497769142258 0.1138140594952527 0 -0.45371440568763749 0.1126743632371118 0 -0.46425598871103851 0.13528374379222011 0 -0.45674497769142258 0.1138140594952527 0 -0.46958882025875243 0.12035793204680111 0 -0.46425598871103851 0.13528374379222011 0 -0.4523882543875366 0.10983005993361 0 -0.45661100561120399 0.109540819014999 0 -0.45371440568763749 0.1126743632371118 0 -0.45674497769142258 0.1138140594952527 0 -0.45661100561120399 0.109540819014999 0 -0.45371440568763749 0.1126743632371118 0 -0.45674497769142258 0.1138140594952527 0 -0.45371440568763749 0.1126743632371118 0 -0.4635407771028337 0.1124237257980706 0 -0.45674497769142258 0.1138140594952527 0 -0.45661100561120399 0.109540819014999 0 -0.44282721760043869 0.062046251170956107 0 -0.4470315618909167 0.073148927984774167 0 -0.46103932749027238 0.064238871702306077 0 -0.44282721760043869 0.062046251170956107 0 -0.43131469147834472 0.070632617455275076 0 -0.4470315618909167 0.073148927984774167 0 -0.42957324029363853 0.085693113452461764 0 -0.44343173260412461 0.097571970950778963 0 -0.44733932132275389 0.088290098875458828 0 -0.42957324029363853 0.085693113452461764 0 -0.4470315618909167 0.073148927984774167 0 -0.44733932132275389 0.088290098875458828 0 -0.4470315618909167 0.073148927984774167 0 -0.44733932132275389 0.088290098875458828 0 -0.46047789149500767 0.082617330138573752 0 -0.45084974973894648 0.096020795281878568 0 -0.44733932132275389 0.088290098875458828 0 -0.45594156200913483 0.091684632610025046 0 -0.44733932132275389 0.088290098875458828 0 -0.45594156200913483 0.091684632610025046 0 -0.46047789149500767 0.082617330138573752 0 -0.46723244863383712 0.097971273043108306 0 -0.45594156200913483 0.091684632610025046 0 -0.46047789149500767 0.082617330138573752 0 -0.46047789149500767 0.082617330138573752 0 -0.46103932749027238 0.064238871702306077 0 -0.47920912086757578 0.083222027247413538 0 -0.4470315618909167 0.073148927984774167 0 -0.46047789149500767 0.082617330138573752 0 -0.46103932749027238 0.064238871702306077 0 -0.46103932749027238 0.064238871702306077 0 -0.48068047186290208 0.063626500276227002 0 -0.47920912086757578 0.083222027247413538 0 -0.46103932749027238 0.064238871702306077 0 -0.47920912086757578 0.083222027247413538 0 -0.46723244863383712 0.097971273043108306 0 -0.46047789149500767 0.082617330138573752 0 -0.47920912086757578 0.083222027247413538 0 -0.48068047186290208 0.063626500276227002 0 -0.47920912086757578 0.083222027247413538 0 -0.5 0.088432580532893601 0 -0.47920912086757578 0.083222027247413538 0 -0.49737891424487929 0.102205182792521 0 -0.47920912086757578 0.083222027247413538 0 -0.5 0.088432580532893601 0 -0.49737891424487929 0.102205182792521 0 -0.5 0.060034093897511798 0 -0.48068047186290208 0.063626500276227002 0 -0.5 0.088432580532893601 0 -0.47827810320487629 0.116675775998883 0 -0.48837893466537508 0.1117690854599766 0 -0.4842723158563047 0.1301441798928954 0 -0.47827810320487629 0.116675775998883 0 -0.47512549980118862 0.10796659812409699 0 -0.48837893466537508 0.1117690854599766 0 -0.47827810320487629 0.116675775998883 0 -0.46958882025875243 0.12035793204680111 0 -0.4842723158563047 0.1301441798928954 0 -0.47827810320487629 0.116675775998883 0 -0.47044075898603932 0.11380610730348489 0 -0.47512549980118862 0.10796659812409699 0 -0.46686982756835349 0.1074114054382402 0 -0.47044075898603932 0.11380610730348489 0 -0.47512549980118862 0.10796659812409699 0 -0.47827810320487629 0.116675775998883 0 -0.46958882025875243 0.12035793204680111 0 -0.47044075898603932 0.11380610730348489 0 -0.46723244863383712 0.097971273043108306 0 -0.47512549980118862 0.10796659812409699 0 -0.48162445158666772 0.1005823670901454 0 -0.46723244863383712 0.097971273043108306 0 -0.47920912086757578 0.083222027247413538 0 -0.48162445158666772 0.1005823670901454 0 -0.46723244863383712 0.097971273043108306 0 -0.46686982756835349 0.1074114054382402 0 -0.47512549980118862 0.10796659812409699 0 -0.47512549980118862 0.10796659812409699 0 -0.48162445158666772 0.1005823670901454 0 -0.48837893466537508 0.1117690854599766 0 -0.48162445158666772 0.1005823670901454 0 -0.49737891424487929 0.102205182792521 0 -0.48837893466537508 0.1117690854599766 0 -0.47920912086757578 0.083222027247413538 0 -0.48162445158666772 0.1005823670901454 0 -0.49737891424487929 0.102205182792521 0 -0.5 0.088432580532893601 0 -0.49737891424487929 0.102205182792521 0 -0.5 0.1168310671682755 0 -0.49737891424487929 0.102205182792521 0 -0.5 0.1168310671682755 0 -0.48837893466537508 0.1117690854599766 0 -0.5 0.1168310671682755 0 -0.48837893466537508 0.1117690854599766 0 -0.4842723158563047 0.1301441798928954 0 -0.5 0.1168310671682755 0 -0.4842723158563047 0.1301441798928954 0 -0.5 0.14522955380365729 0 -0.46958882025875243 0.12035793204680111 0 -0.4842723158563047 0.1301441798928954 0 -0.46425598871103851 0.13528374379222011 0 -0.4842723158563047 0.1301441798928954 0 -0.47479757173443998 0.15789312434732811 0 -0.46425598871103851 0.13528374379222011 0 -0.47479757173443998 0.15789312434732811 0 -0.46425598871103851 0.13528374379222011 0 -0.4842723158563047 0.1301441798928954 0 -0.5 0.14522955380365729 0 -0.47479757173443998 0.15789312434732811 0 -0.5 0.14522955380365729 0 -0.49999999999999972 0.17362804043903909 0 -0.47479757173443998 0.15789312434732811 0 -0.49999999999999972 0.17362804043903909 0 -0.47479757173443998 0.15789312434732811 0 -0.49999999999999972 0.17362804043903909 0 -0.49200992699072321 0.1743962810239672 0 -0.47479757173443998 0.15789312434732811 0 -0.48341269367675271 0.17637066895233999 0 -0.49170634683837577 0.1941587336203292 0 -0.49368671912131301 0.1828531969182482 0 -0.49999999999999972 0.17362804043903909 0 -0.5 0.19278741936367841 0 -0.49368671912131301 0.1828531969182482 0 -0.48341269367675271 0.17637066895233999 0 -0.49170634683837577 0.1941587336203292 0 -0.49368671912131301 0.1828531969182482 0 -0.49999999999999972 0.17362804043903909 0 -0.49200992699072321 0.1743962810239672 0 -0.49200992699072321 0.1743962810239672 0 -0.48341269367675271 0.17637066895233999 0 -0.49368671912131301 0.1828531969182482 0 -0.49200992699072321 0.1743962810239672 0 -0.48341269367675271 0.17637066895233999 0 -0.48341269367675271 0.17637066895233999 0 -0.45591042926964898 0.18268667049205081 0 -0.47274380268756999 0.19288508587190861 0 -0.48341269367675271 0.17637066895233999 0 -0.45591042926964898 0.18268667049205081 0 -0.49200992699072321 0.1743962810239672 0 -0.48341269367675271 0.17637066895233999 0 -0.47479757173443998 0.15789312434732811 0 -0.48341269367675271 0.17637066895233999 0 -0.47479757173443998 0.15789312434732811 0 -0.48341269367675271 0.17637066895233999 0 -0.47479757173443998 0.15789312434732811 0 -0.45723956394668003 0.16387676974864759 0 -0.48341269367675271 0.17637066895233999 0 -0.45723956394668003 0.16387676974864759 0 -0.45591042926964898 0.18268667049205081 0 -0.45591042926964898 0.18268667049205081 0 -0.43992511097516529 0.17411109905454999 0 -0.4284081648625454 0.1890026720317621 0 -0.45591042926964898 0.18268667049205081 0 -0.4284081648625454 0.1890026720317621 0 -0.45723956394668003 0.16387676974864759 0 -0.45591042926964898 0.18268667049205081 0 -0.43992511097516529 0.17411109905454999 0 -0.45723956394668003 0.16387676974864759 0 -0.43992511097516529 0.17411109905454999 0 -0.43892522612619872 0.15930650560997939 0 -0.43892522612619872 0.15930650560997939 0 -0.43796764784210812 0.14528805014891141 0 -0.45386540436598038 0.14482430837095511 0 -0.45723956394668003 0.16387676974864759 0 -0.43892522612619872 0.15930650560997939 0 -0.45386540436598038 0.14482430837095511 0 -0.45386540436598038 0.14482430837095511 0 -0.43293323699752101 0.1317554923945817 0 -0.43826405507869293 0.1195835460605416 0 -0.44901593584904892 0.12912088192892021 0 -0.43293323699752101 0.1317554923945817 0 -0.43796764784210812 0.14528805014891141 0 -0.45386540436598038 0.14482430837095511 0 -0.43293323699752101 0.1317554923945817 0 -0.44901593584904892 0.12912088192892021 0 -0.45386540436598038 0.14482430837095511 0 -0.43293323699752101 0.1317554923945817 0 -0.45371440568763749 0.1126743632371118 0 -0.44901593584904892 0.12912088192892021 0 -0.46425598871103851 0.13528374379222011 0 -0.44901593584904892 0.12912088192892021 0 -0.46425598871103851 0.13528374379222011 0 -0.45386540436598038 0.14482430837095511 0 -0.47479757173443998 0.15789312434732811 0 -0.45723956394668003 0.16387676974864759 0 -0.45386540436598038 0.14482430837095511 0 -0.47479757173443998 0.15789312434732811 0 -0.46425598871103851 0.13528374379222011 0 -0.45386540436598038 0.14482430837095511 0 -0.47479757173443998 0.15789312434732811 0 -0.45386540436598038 0.14482430837095511 0 -0.48226153920099157 0.23766317590200001 0 -0.47864167104372218 0.246590621409366 0 -0.48932095354102823 0.25454658797793611 0 -0.47315400564016008 0.2364435414805684 0 -0.47864167104372218 0.246590621409366 0 -0.46938038244821267 0.25133041049185839 0 -0.47315400564016008 0.2364435414805684 0 -0.48226153920099157 0.23766317590200001 0 -0.47864167104372218 0.246590621409366 0 -0.49106398183666961 0.22759324404760359 0 -0.48932095354102823 0.25454658797793611 0 -0.5 0.23810140997737081 0 -0.49106398183666961 0.22759324404760359 0 -0.48932095354102823 0.25454658797793611 0 -0.48226153920099157 0.23766317590200001 0 -0.49106398183666961 0.22759324404760359 0 -0.48932095354102823 0.25454658797793611 0 -0.5 0.23810140997737081 0 -0.49106398183666961 0.22759324404760359 0 -0.50000000000000022 0.21194679828831781 0 -0.49106398183666961 0.22759324404760359 0 -0.47912708394337772 0.2231418845945258 0 -0.48726644121087642 0.21298690825741631 0 -0.48226153920099157 0.23766317590200001 0 -0.49106398183666961 0.22759324404760359 0 -0.47912708394337772 0.2231418845945258 0 -0.47315400564016008 0.2364435414805684 0 -0.48226153920099157 0.23766317590200001 0 -0.47912708394337772 0.2231418845945258 0 -0.47315400564016008 0.2364435414805684 0 -0.47912708394337772 0.2231418845945258 0 -0.46764368341616458 0.22415830119077751 0 -0.47912708394337772 0.2231418845945258 0 -0.47360767850491831 0.20951316246361981 0 -0.46764368341616458 0.22415830119077751 0 -0.47360767850491831 0.20951316246361981 0 -0.48726644121087642 0.21298690825741631 0 -0.49170634683837577 0.1941587336203292 0 -0.47912708394337772 0.2231418845945258 0 -0.47360767850491831 0.20951316246361981 0 -0.48726644121087642 0.21298690825741631 0 -0.49106398183666961 0.22759324404760359 0 -0.50000000000000022 0.21194679828831781 0 -0.48726644121087642 0.21298690825741631 0 -0.50000000000000022 0.21194679828831781 0 -0.48726644121087642 0.21298690825741631 0 -0.49170634683837577 0.1941587336203292 0 -0.50000000000000022 0.21194679828831781 0 -0.49170634683837577 0.1941587336203292 0 -0.50000000000000022 0.21194679828831781 0 -0.5 0.19278741936367841 0 -0.49170634683837577 0.1941587336203292 0 -0.49368671912131301 0.1828531969182482 0 -0.5 0.19278741936367841 0 -0.49170634683837577 0.1941587336203292 0 -0.48341269367675271 0.17637066895233999 0 -0.49170634683837577 0.1941587336203292 0 -0.47274380268756999 0.19288508587190861 0 -0.47360767850491831 0.20951316246361981 0 -0.49170634683837577 0.1941587336203292 0 -0.47274380268756999 0.19288508587190861 0 -0.47360767850491831 0.20951316246361981 0 -0.47274380268756999 0.19288508587190861 0 -0.45820261548712909 0.20353130823034371 0 -0.45591042926964898 0.18268667049205081 0 -0.47274380268756999 0.19288508587190861 0 -0.45820261548712909 0.20353130823034371 0 -0.45591042926964898 0.18268667049205081 0 -0.43516662619925378 0.20614333559983469 0 -0.4284081648625454 0.1890026720317621 0 -0.45591042926964898 0.18268667049205081 0 -0.45820261548712909 0.20353130823034371 0 -0.43516662619925378 0.20614333559983469 0 -0.44192508753596349 0.22328399916790689 0 -0.43516662619925378 0.20614333559983469 0 -0.45032248765871591 0.2151961798839368 0 -0.44192508753596349 0.22328399916790689 0 -0.43516662619925378 0.20614333559983469 0 -0.45032248765871591 0.2151961798839368 0 -0.45820261548712909 0.20353130823034371 0 -0.43516662619925378 0.20614333559983469 0 -0.45032248765871591 0.2151961798839368 0 -0.46109406183397039 0.21551848415653921 0 -0.45620465585954723 0.2251951411450015 0 -0.45032248765871591 0.2151961798839368 0 -0.45820261548712909 0.20353130823034371 0 -0.46109406183397039 0.21551848415653921 0 -0.47360767850491831 0.20951316246361981 0 -0.45820261548712909 0.20353130823034371 0 -0.46109406183397039 0.21551848415653921 0 -0.47360767850491831 0.20951316246361981 0 -0.46109406183397039 0.21551848415653921 0 -0.46764368341616458 0.22415830119077751 0 -0.47315400564016008 0.2364435414805684 0 -0.46764368341616458 0.22415830119077751 0 -0.45925329591452863 0.2407771106774913 0 -0.46764368341616458 0.22415830119077751 0 -0.45620465585954723 0.2251951411450015 0 -0.45925329591452863 0.2407771106774913 0 -0.46109406183397039 0.21551848415653921 0 -0.46764368341616458 0.22415830119077751 0 -0.45620465585954723 0.2251951411450015 0 -0.45032248765871591 0.2151961798839368 0 -0.45620465585954723 0.2251951411450015 0 -0.44192508753596349 0.22328399916790689 0 -0.44192508753596349 0.22328399916790689 0 -0.44062222049055039 0.24203477259657111 0 -0.43146145522804691 0.2313120115293863 0 -0.45620465585954723 0.2251951411450015 0 -0.44062222049055039 0.24203477259657111 0 -0.45620465585954723 0.2251951411450015 0 -0.44192508753596349 0.22328399916790689 0 -0.44062222049055039 0.24203477259657111 0 -0.44062222049055039 0.24203477259657111 0 -0.45046339488490522 0.249057113070103 0 -0.44442574262614493 0.25832327296872359 0 -0.44062222049055039 0.24203477259657111 0 -0.45046339488490522 0.249057113070103 0 -0.45925329591452863 0.2407771106774913 0 -0.45620465585954723 0.2251951411450015 0 -0.44062222049055039 0.24203477259657111 0 -0.45925329591452863 0.2407771106774913 0 -0.45046339488490522 0.249057113070103 0 -0.45925329591452863 0.2407771106774913 0 -0.45807104112411212 0.25534721177055669 0 -0.45925329591452863 0.2407771106774913 0 -0.46938038244821267 0.25133041049185839 0 -0.45807104112411212 0.25534721177055669 0 -0.47315400564016008 0.2364435414805684 0 -0.45925329591452863 0.2407771106774913 0 -0.46938038244821267 0.25133041049185839 0 -0.4198454647722451 0.23985190764030939 0 -0.40081965837488509 0.24074316727492401 0 -0.40585136056822319 0.25674789398696107 0 -0.4198454647722451 0.23985190764030939 0 -0.405480724964072 0.22581663549259839 0 -0.40081965837488509 0.24074316727492401 0 -0.44062222049055039 0.24203477259657111 0 -0.4198454647722451 0.23985190764030939 0 -0.42503978512155383 0.25887440404814072 0 -0.44062222049055039 0.24203477259657111 0 -0.4198454647722451 0.23985190764030939 0 -0.43146145522804691 0.2313120115293863 0 -0.4198454647722451 0.23985190764030939 0 -0.43146145522804691 0.2313120115293863 0 -0.42370673975344808 0.22056464269113771 0 -0.44192508753596349 0.22328399916790689 0 -0.43146145522804691 0.2313120115293863 0 -0.42370673975344808 0.22056464269113771 0 -0.4198454647722451 0.23985190764030939 0 -0.42370673975344808 0.22056464269113771 0 -0.405480724964072 0.22581663549259839 0 -0.42370673975344808 0.22056464269113771 0 -0.40708390191205951 0.20882890034131879 0 -0.405480724964072 0.22581663549259839 0 -0.42370673975344808 0.22056464269113771 0 -0.40708390191205951 0.20882890034131879 0 -0.42107335870595469 0.2022269477122331 0 -0.44192508753596349 0.22328399916790689 0 -0.42370673975344808 0.22056464269113771 0 -0.43516662619925378 0.20614333559983469 0 -0.42370673975344808 0.22056464269113771 0 -0.43516662619925378 0.20614333559983469 0 -0.42107335870595469 0.2022269477122331 0 -0.43516662619925378 0.20614333559983469 0 -0.4284081648625454 0.1890026720317621 0 -0.42107335870595469 0.2022269477122331 0 -0.43516662619925378 0.20614333559983469 0 -0.4284081648625454 0.1890026720317621 0 -0.4284081648625454 0.1890026720317621 0 -0.40915969581062839 0.19342315750049971 0 -0.4284081648625454 0.1890026720317621 0 -0.42107335870595469 0.2022269477122331 0 -0.40915969581062839 0.19342315750049971 0 -0.40708390191205951 0.20882890034131879 0 -0.42107335870595469 0.2022269477122331 0 -0.40915969581062839 0.19342315750049971 0 -0.40708390191205951 0.20882890034131879 0 -0.40915969581062839 0.19342315750049971 0 -0.38991122675871148 0.19784364296923759 0 -0.40915969581062839 0.19342315750049971 0 -0.38991122675871148 0.19784364296923759 0 -0.40915969581062839 0.19342315750049971 0 -0.38991122675871148 0.19784364296923759 0 -0.39569501158598158 0.17813944679546001 0 -0.39158905321283283 0.2136173787495643 0 -0.38435338999826391 0.22831720607051781 0 -0.36414166766971379 0.2074649771098355 0 -0.38991122675871148 0.19784364296923759 0 -0.39158905321283283 0.2136173787495643 0 -0.36414166766971379 0.2074649771098355 0 -0.40708390191205951 0.20882890034131879 0 -0.39158905321283283 0.2136173787495643 0 -0.405480724964072 0.22581663549259839 0 -0.40708390191205951 0.20882890034131879 0 -0.38991122675871148 0.19784364296923759 0 -0.39158905321283283 0.2136173787495643 0 -0.405480724964072 0.22581663549259839 0 -0.38435338999826391 0.22831720607051781 0 -0.40081965837488509 0.24074316727492401 0 -0.39158905321283283 0.2136173787495643 0 -0.405480724964072 0.22581663549259839 0 -0.38435338999826391 0.22831720607051781 0 -0.37619177155740557 0.24036243622333081 0 -0.38790582398472923 0.24962922847932231 0 -0.36318679658289171 0.25196182354824148 0 -0.38435338999826391 0.22831720607051781 0 -0.37619177155740557 0.24036243622333081 0 -0.38790582398472923 0.24962922847932231 0 -0.38435338999826391 0.22831720607051781 0 -0.38790582398472923 0.24962922847932231 0 -0.40081965837488509 0.24074316727492401 0 -0.38790582398472923 0.24962922847932231 0 -0.40081965837488509 0.24074316727492401 0 -0.40585136056822319 0.25674789398696107 0 -0.40926453963391513 0.14045102348790381 0 -0.42614672387873248 0.14526589422012931 0 -0.41883635224822963 0.16472684775983329 0 -0.40926453963391513 0.14045102348790381 0 -0.41883635224822963 0.16472684775983329 0 -0.40926453963391513 0.14045102348790381 0 -0.41883635224822963 0.16472684775983329 0 -0.40029434983296169 0.15790366282291429 0 -0.40926453963391513 0.14045102348790381 0 -0.417579207348795 0.13056668242546571 0 -0.40026410281127539 0.13237877311027449 0 -0.40926453963391513 0.14045102348790381 0 -0.417579207348795 0.13056668242546571 0 -0.42614672387873248 0.14526589422012931 0 -0.417579207348795 0.13056668242546571 0 -0.43293323699752101 0.1317554923945817 0 -0.42614672387873248 0.14526589422012931 0 -0.42608096723388439 0.1205091241492761 0 -0.417579207348795 0.13056668242546571 0 -0.43293323699752101 0.1317554923945817 0 -0.43796764784210812 0.14528805014891141 0 -0.43293323699752101 0.1317554923945817 0 -0.42614672387873248 0.14526589422012931 0 -0.43892522612619872 0.15930650560997939 0 -0.43796764784210812 0.14528805014891141 0 -0.42614672387873248 0.14526589422012931 0 -0.43892522612619872 0.15930650560997939 0 -0.42614672387873248 0.14526589422012931 0 -0.41883635224822963 0.16472684775983329 0 -0.43992511097516529 0.17411109905454999 0 -0.43892522612619872 0.15930650560997939 0 -0.41883635224822963 0.16472684775983329 0 -0.4284081648625454 0.1890026720317621 0 -0.41883635224822963 0.16472684775983329 0 -0.43992511097516529 0.17411109905454999 0 -0.4284081648625454 0.1890026720317621 0 -0.41883635224822963 0.16472684775983329 0 -0.40915969581062839 0.19342315750049971 0 -0.41883635224822963 0.16472684775983329 0 -0.39569501158598158 0.17813944679546001 0 -0.4284081648625454 0.1890026720317621 0 -0.40915969581062839 0.19342315750049971 0 -0.41883635224822963 0.16472684775983329 0 -0.40029434983296169 0.15790366282291429 0 -0.39569501158598158 0.17813944679546001 0 -0.38484252596519369 0.16167484958157691 0 -0.41883635224822963 0.16472684775983329 0 -0.40029434983296169 0.15790366282291429 0 -0.39569501158598158 0.17813944679546001 0 -0.39569501158598158 0.17813944679546001 0 -0.38484252596519369 0.16167484958157691 0 -0.36525228834216061 0.17922160577889321 0 -0.38991122675871148 0.19784364296923759 0 -0.39569501158598158 0.17813944679546001 0 -0.36525228834216061 0.17922160577889321 0 -0.39283331973148827 0.14452614648979731 0 -0.38372255811484618 0.13025780258704611 0 -0.36636290901460722 0.1509782344479508 0 -0.38484252596519369 0.16167484958157691 0 -0.39283331973148827 0.14452614648979731 0 -0.36636290901460722 0.1509782344479508 0 -0.40029434983296169 0.15790366282291429 0 -0.38484252596519369 0.16167484958157691 0 -0.39283331973148827 0.14452614648979731 0 -0.40926453963391513 0.14045102348790381 0 -0.40029434983296169 0.15790366282291429 0 -0.39283331973148827 0.14452614648979731 0 -0.39283331973148827 0.14452614648979731 0 -0.40026410281127539 0.13237877311027449 0 -0.38372255811484618 0.13025780258704611 0 -0.39792088922733271 0.1160922105611595 0 -0.417579207348795 0.13056668242546571 0 -0.40026410281127539 0.13237877311027449 0 -0.39792088922733271 0.1160922105611595 0 -0.40026410281127539 0.13237877311027449 0 -0.38372255811484618 0.13025780258704611 0 -0.40926453963391513 0.14045102348790381 0 -0.39283331973148827 0.14452614648979731 0 -0.40026410281127539 0.13237877311027449 0 -0.38372255811484618 0.13025780258704611 0 -0.36636290901460722 0.1509782344479508 0 -0.36747352968705388 0.12273486311700831 0 -0.36636290901460722 0.1509782344479508 0 -0.36747352968705388 0.12273486311700831 0 -0.35528769071996391 0.12689780186549679 0 -0.36636290901460722 0.1509782344479508 0 -0.36747352968705388 0.12273486311700831 0 -0.35528769071996391 0.12689780186549679 0 -0.33512599087492562 0.1447950320020088 0 -0.35528769071996391 0.12689780186549679 0 -0.35168351666373848 0.14314256241625531 0 -0.33512599087492562 0.1447950320020088 0 -0.35528769071996391 0.12689780186549679 0 -0.33512599087492562 0.1447950320020088 0 -0.34115039425197219 0.12498493974687711 0 -0.35528769071996391 0.12689780186549679 0 -0.35168351666373848 0.14314256241625531 0 -0.36636290901460722 0.1509782344479508 0 -0.35168351666373848 0.14314256241625531 0 -0.36636290901460722 0.1509782344479508 0 -0.34333519974196419 0.16612441953572921 0 -0.38484252596519369 0.16167484958157691 0 -0.36636290901460722 0.1509782344479508 0 -0.36525228834216061 0.17922160577889321 0 -0.36636290901460722 0.1509782344479508 0 -0.36525228834216061 0.17922160577889321 0 -0.36525228834216061 0.17922160577889321 0 -0.34333519974196419 0.16612441953572921 0 -0.34654591437965571 0.19533490523866279 0 -0.36636290901460722 0.1509782344479508 0 -0.36525228834216061 0.17922160577889321 0 -0.34333519974196419 0.16612441953572921 0 -0.34333519974196419 0.16612441953572921 0 -0.31496429102988749 0.16269226213852109 0 -0.33512599087492562 0.1447950320020088 0 -0.34333519974196419 0.16612441953572921 0 -0.34654591437965571 0.19533490523866279 0 -0.32412519241006588 0.1878495682783011 0 -0.31496429102988749 0.16269226213852109 0 -0.32412519241006588 0.1878495682783011 0 -0.34333519974196419 0.16612441953572921 0 -0.31496429102988749 0.16269226213852109 0 -0.32412519241006588 0.1878495682783011 0 -0.31303823693556859 0.17707572181323081 0 -0.31496429102988749 0.16269226213852109 0 -0.32412519241006588 0.1878495682783011 0 -0.31303823693556859 0.17707572181323081 0 -0.32412519241006588 0.1878495682783011 0 -0.3108046026399135 0.18379038091696129 0 -0.31496429102988749 0.16269226213852109 0 -0.31353256245119709 0.1587605055712967 0 -0.31354631638020197 0.13395604467094269 0 -0.33512599087492562 0.1447950320020088 0 -0.3122891553291075 0.14635758184588041 0 -0.31353256245119709 0.1587605055712967 0 -0.33512599087492562 0.1447950320020088 0 -0.3122891553291075 0.14635758184588041 0 -0.31496429102988749 0.16269226213852109 0 -0.31353256245119709 0.1587605055712967 0 -0.33512599087492562 0.1447950320020088 0 -0.31496429102988749 0.16269226213852109 0 -0.33512599087492562 0.1447950320020088 0 -0.31354631638020197 0.13395604467094269 0 -0.32917568526667751 0.12578156900391591 0 -0.33512599087492562 0.1447950320020088 0 -0.31354631638020197 0.13395604467094269 0 -0.32917568526667751 0.12578156900391591 0 -0.32114709127587232 0.11611322513389059 0 -0.32917568526667751 0.12578156900391591 0 -0.33512599087492562 0.1447950320020088 0 -0.34115039425197219 0.12498493974687711 0 -0.35168351666373848 0.14314256241625531 0 -0.34333519974196419 0.16612441953572921 0 -0.33512599087492562 0.1447950320020088 0 -0.36303104699726713 0.23570834844077809 0 -0.34244699517042121 0.23816418055786151 0 -0.36318679658289171 0.25196182354824148 0 -0.34244699517042121 0.23816418055786151 0 -0.36318679658289171 0.25196182354824148 0 -0.33952374355129727 0.25899057541505788 0 -0.37619177155740557 0.24036243622333081 0 -0.36303104699726713 0.23570834844077809 0 -0.36318679658289171 0.25196182354824148 0 -0.38435338999826391 0.22831720607051781 0 -0.37619177155740557 0.24036243622333081 0 -0.36303104699726713 0.23570834844077809 0 -0.38435338999826391 0.22831720607051781 0 -0.36303104699726713 0.23570834844077809 0 -0.36414166766971379 0.2074649771098355 0 -0.36303104699726713 0.23570834844077809 0 -0.36414166766971379 0.2074649771098355 0 -0.36303104699726713 0.23570834844077809 0 -0.35084793517488477 0.2210857468323085 0 -0.34244699517042121 0.23816418055786151 0 -0.36303104699726713 0.23570834844077809 0 -0.35084793517488477 0.2210857468323085 0 -0.36414166766971379 0.2074649771098355 0 -0.35084793517488477 0.2210857468323085 0 -0.36414166766971379 0.2074649771098355 0 -0.34654591437965571 0.19533490523866279 0 -0.36525228834216061 0.17922160577889321 0 -0.36414166766971379 0.2074649771098355 0 -0.38991122675871148 0.19784364296923759 0 -0.36525228834216061 0.17922160577889321 0 -0.36414166766971379 0.2074649771098355 0 -0.36525228834216061 0.17922160577889321 0 -0.36414166766971379 0.2074649771098355 0 -0.34654591437965571 0.19533490523866279 0 -0.32412519241006588 0.1878495682783011 0 -0.33328609379024349 0.2130068744180813 0 -0.34654591437965571 0.19533490523866279 0 -0.32412519241006588 0.1878495682783011 0 -0.33328609379024349 0.2130068744180813 0 -0.32412519241006588 0.1878495682783011 0 -0.33328609379024349 0.2130068744180813 0 -0.31080006153106382 0.20197173666100501 0 -0.32412519241006588 0.1878495682783011 0 -0.31080006153106382 0.20197173666100501 0 -0.3108046026399135 0.18379038091696129 0 -0.33328609379024349 0.2130068744180813 0 -0.31873218963182409 0.22654972870499029 0 -0.31080006153106382 0.20197173666100501 0 -0.35084793517488477 0.2210857468323085 0 -0.34654591437965571 0.19533490523866279 0 -0.33328609379024349 0.2130068744180813 0 -0.35084793517488477 0.2210857468323085 0 -0.33328609379024349 0.2130068744180813 0 -0.34244699517042121 0.23816418055786151 0 -0.33328609379024349 0.2130068744180813 0 -0.34244699517042121 0.23816418055786151 0 -0.33328609379024349 0.2130068744180813 0 -0.31873218963182409 0.22654972870499029 0 -0.34244699517042121 0.23816418055786151 0 -0.31873218963182409 0.22654972870499029 0 -0.32200613725511351 0.24850726385495631 0 -0.34244699517042121 0.23816418055786151 0 -0.31873218963182409 0.22654972870499029 0 -0.32200613725511351 0.24850726385495631 0 -0.30672251365844311 0.23743048015470111 0 -0.32200613725511351 0.24850726385495631 0 -0.34244699517042121 0.23816418055786151 0 -0.33952374355129727 0.25899057541505788 0 -0.29125564533142001 0.24067530578368901 0 -0.30672251365844311 0.23743048015470111 0 -0.30640548876467488 0.25787073169030861 0 -0.32200613725511351 0.24850726385495631 0 -0.30672251365844311 0.23743048015470111 0 -0.30640548876467488 0.25787073169030861 0 -0.29125564533142001 0.24067530578368901 0 -0.30672251365844311 0.23743048015470111 0 -0.29521310730918271 0.21354937073956171 0 -0.31873218963182409 0.22654972870499029 0 -0.30672251365844311 0.23743048015470111 0 -0.29521310730918271 0.21354937073956171 0 -0.29125564533142001 0.24067530578368901 0 -0.29521310730918271 0.21354937073956171 0 -0.29125564533142001 0.24067530578368901 0 -0.29521310730918271 0.21354937073956171 0 -0.27258595833473342 0.22149207507906341 0 -0.29521310730918271 0.21354937073956171 0 -0.28878760701375322 0.1984352968903606 0 -0.27490594785389072 0.20112241201531189 0 -0.31873218963182409 0.22654972870499029 0 -0.29521310730918271 0.21354937073956171 0 -0.31080006153106382 0.20197173666100501 0 -0.29521310730918271 0.21354937073956171 0 -0.29917056928694541 0.1864234356954344 0 -0.29521310730918271 0.21354937073956171 0 -0.31080006153106382 0.20197173666100501 0 -0.29917056928694541 0.1864234356954344 0 -0.31080006153106382 0.20197173666100501 0 -0.3108046026399135 0.18379038091696129 0 -0.29917056928694541 0.1864234356954344 0 -0.28878760701375322 0.1984352968903606 0 -0.29917056928694541 0.1864234356954344 0 -0.28955343229492791 0.1852490896997587 0 -0.29521310730918271 0.21354937073956171 0 -0.28878760701375322 0.1984352968903606 0 -0.29917056928694541 0.1864234356954344 0 -0.28878760701375322 0.1984352968903606 0 -0.27938784373491388 0.18917199981814359 0 -0.28955343229492791 0.1852490896997587 0 -0.27938784373491388 0.18917199981814359 0 -0.27490594785389072 0.20112241201531189 0 -0.26439180367967152 0.18225540552070321 0 -0.28878760701375322 0.1984352968903606 0 -0.27938784373491388 0.18917199981814359 0 -0.27490594785389072 0.20112241201531189 0 -0.27490594785389072 0.20112241201531189 0 -0.25370102580463139 0.2052288024824625 0 -0.26439180367967152 0.18225540552070321 0 -0.25370102580463139 0.2052288024824625 0 -0.26439180367967152 0.18225540552070321 0 -0.23359887481107691 0.1809086922627815 0 -0.27490594785389072 0.20112241201531189 0 -0.25370102580463139 0.2052288024824625 0 -0.27258595833473342 0.22149207507906341 0 -0.29521310730918271 0.21354937073956171 0 -0.27490594785389072 0.20112241201531189 0 -0.27258595833473342 0.22149207507906341 0 -0.29125564533142001 0.24067530578368901 0 -0.27258595833473342 0.22149207507906341 0 -0.26834113505385238 0.23837358332174549 0 -0.27258595833473342 0.22149207507906341 0 -0.25272375818517617 0.22994970808158929 0 -0.26834113505385238 0.23837358332174549 0 -0.25370102580463139 0.2052288024824625 0 -0.27258595833473342 0.22149207507906341 0 -0.25272375818517617 0.22994970808158929 0 -0.25272375818517617 0.22994970808158929 0 -0.25621817608628389 0.2460965770837312 0 -0.26834113505385238 0.23837358332174549 0 -0.25621817608628389 0.2460965770837312 0 -0.26834113505385238 0.23837358332174549 0 -0.26892213733164849 0.25365425058065472 0 -0.29125564533142001 0.24067530578368901 0 -0.26834113505385238 0.23837358332174549 0 -0.26892213733164849 0.25365425058065472 0 -0.29370567785695612 0.15770531643225719 0 -0.28412418886142132 0.16518528890623771 0 -0.28065913062351988 0.14575155473079041 0 -0.30159211447790629 0.14759241864651959 0 -0.29370567785695612 0.15770531643225719 0 -0.28065913062351988 0.14575155473079041 0 -0.29682817834931757 0.13068013418198679 0 -0.30159211447790629 0.14759241864651959 0 -0.28065913062351988 0.14575155473079041 0 -0.29682817834931757 0.13068013418198679 0 -0.28065913062351988 0.14575155473079041 0 -0.28285123447775751 0.1183560919224374 0 -0.31354631638020197 0.13395604467094269 0 -0.29682817834931757 0.13068013418198679 0 -0.30159211447790629 0.14759241864651959 0 -0.31354631638020197 0.13395604467094269 0 -0.3122891553291075 0.14635758184588041 0 -0.30159211447790629 0.14759241864651959 0 -0.31353256245119709 0.1587605055712967 0 -0.3122891553291075 0.14635758184588041 0 -0.30159211447790629 0.14759241864651959 0 -0.31496429102988749 0.16269226213852109 0 -0.31353256245119709 0.1587605055712967 0 -0.30488677357152572 0.1641353808659653 0 -0.30159211447790629 0.14759241864651959 0 -0.30488677357152572 0.1641353808659653 0 -0.29370567785695612 0.15770531643225719 0 -0.31353256245119709 0.1587605055712967 0 -0.30159211447790629 0.14759241864651959 0 -0.30488677357152572 0.1641353808659653 0 -0.31496429102988749 0.16269226213852109 0 -0.30225886166240762 0.17397067591913981 0 -0.31303823693556859 0.17707572181323081 0 -0.31496429102988749 0.16269226213852109 0 -0.30225886166240762 0.17397067591913981 0 -0.31496429102988749 0.16269226213852109 0 -0.30488677357152572 0.1641353808659653 0 -0.30225886166240762 0.17397067591913981 0 -0.30488677357152572 0.1641353808659653 0 -0.30225886166240762 0.17397067591913981 0 -0.29597535979189887 0.1670989905046398 0 -0.30488677357152572 0.1641353808659653 0 -0.29370567785695612 0.15770531643225719 0 -0.29597535979189887 0.1670989905046398 0 -0.31303823693556859 0.17707572181323081 0 -0.3108046026399135 0.18379038091696129 0 -0.30225886166240762 0.17397067591913981 0 -0.30225886166240762 0.17397067591913981 0 -0.29917056928694541 0.1864234356954344 0 -0.28955343229492791 0.1852490896997587 0 -0.3108046026399135 0.18379038091696129 0 -0.30225886166240762 0.17397067591913981 0 -0.29917056928694541 0.1864234356954344 0 -0.30225886166240762 0.17397067591913981 0 -0.28955343229492791 0.1852490896997587 0 -0.30225886166240762 0.17397067591913981 0 -0.28955343229492791 0.1852490896997587 0 -0.29024545837739651 0.173916500811098 0 -0.28955343229492791 0.1852490896997587 0 -0.29024545837739651 0.173916500811098 0 -0.27889874324695868 0.17762520371433099 0 -0.29024545837739651 0.173916500811098 0 -0.28412418886142132 0.16518528890623771 0 -0.27889874324695868 0.17762520371433099 0 -0.27938784373491388 0.18917199981814359 0 -0.28955343229492791 0.1852490896997587 0 -0.27889874324695868 0.17762520371433099 0 -0.29370567785695612 0.15770531643225719 0 -0.29597535979189887 0.1670989905046398 0 -0.28412418886142132 0.16518528890623771 0 -0.30225886166240762 0.17397067591913981 0 -0.29024545837739651 0.173916500811098 0 -0.29597535979189887 0.1670989905046398 0 -0.29024545837739651 0.173916500811098 0 -0.29597535979189887 0.1670989905046398 0 -0.28412418886142132 0.16518528890623771 0 -0.28412418886142132 0.16518528890623771 0 -0.26844272787379447 0.16268744982768751 0 -0.27889874324695868 0.17762520371433099 0 -0.28412418886142132 0.16518528890623771 0 -0.26844272787379447 0.16268744982768751 0 -0.28065913062351988 0.14575155473079041 0 -0.26844272787379447 0.16268744982768751 0 -0.27889874324695868 0.17762520371433099 0 -0.26439180367967152 0.18225540552070321 0 -0.27938784373491388 0.18917199981814359 0 -0.27889874324695868 0.17762520371433099 0 -0.26439180367967152 0.18225540552070321 0 -0.26844272787379447 0.16268744982768751 0 -0.26439180367967152 0.18225540552070321 0 -0.247018622616726 0.15992587597476091 0 -0.26844272787379447 0.16268744982768751 0 -0.25846103874104392 0.14702121199507179 0 -0.247018622616726 0.15992587597476091 0 -0.26844272787379447 0.16268744982768751 0 -0.25846103874104392 0.14702121199507179 0 -0.28065913062351988 0.14575155473079041 0 -0.25846103874104392 0.14702121199507179 0 -0.28065913062351988 0.14575155473079041 0 -0.25922316449870308 0.12628093809151891 0 -0.28065913062351988 0.14575155473079041 0 -0.25922316449870308 0.12628093809151891 0 -0.28285123447775751 0.1183560919224374 0 -0.25846103874104392 0.14702121199507179 0 -0.25922316449870308 0.12628093809151891 0 -0.2369615480924761 0.1404602413506009 0 -0.25922316449870308 0.12628093809151891 0 -0.25136603029008331 0.1103208693098497 0 -0.26687835675477128 0.1014348965859585 0 -0.25136603029008331 0.1103208693098497 0 -0.26687835675477128 0.1014348965859585 0 -0.24377998071086901 0.096378574065869249 0 -0.26687835675477128 0.1014348965859585 0 -0.28737892951993471 0.098967158637655914 0 -0.27569457229827071 0.081243623470509244 0 -0.26687835675477128 0.1014348965859585 0 -0.28285123447775751 0.1183560919224374 0 -0.28737892951993471 0.098967158637655914 0 -0.25922316449870308 0.12628093809151891 0 -0.26687835675477128 0.1014348965859585 0 -0.28285123447775751 0.1183560919224374 0 -0.29682817834931757 0.13068013418198679 0 -0.28285123447775751 0.1183560919224374 0 -0.30549209578720232 0.10774456093924389 0 -0.28285123447775751 0.1183560919224374 0 -0.28737892951993471 0.098967158637655914 0 -0.30549209578720232 0.10774456093924389 0 -0.28737892951993471 0.098967158637655914 0 -0.30549209578720232 0.10774456093924389 0 -0.29743787519420251 0.08153307720754506 0 -0.30549209578720232 0.10774456093924389 0 -0.29743787519420251 0.08153307720754506 0 -0.31354631638020197 0.13395604467094269 0 -0.29682817834931757 0.13068013418198679 0 -0.30549209578720232 0.10774456093924389 0 -0.31354631638020197 0.13395604467094269 0 -0.30549209578720232 0.10774456093924389 0 -0.29926204670725021 0.066629363318123747 0 -0.30931237829482389 0.073252958087475881 0 -0.31697319293959142 0.061410437985649477 0 -0.29926204670725021 0.066629363318123747 0 -0.30931237829482389 0.073252958087475881 0 -0.29743787519420251 0.08153307720754506 0 -0.30549209578720232 0.10774456093924389 0 -0.29743787519420251 0.08153307720754506 0 -0.31312795334666071 0.083579729522452809 0 -0.30931237829482389 0.073252958087475881 0 -0.29743787519420251 0.08153307720754506 0 -0.31312795334666071 0.083579729522452809 0 -0.28737892951993471 0.098967158637655914 0 -0.29743787519420251 0.08153307720754506 0 -0.27569457229827071 0.081243623470509244 0 -0.29743787519420251 0.08153307720754506 0 -0.28743776060402371 0.060458689408765323 0 -0.28938365460120269 0.05532159347584624 0 -0.29743787519420251 0.08153307720754506 0 -0.28938365460120269 0.05532159347584624 0 -0.29926204670725021 0.066629363318123747 0 -0.29743787519420251 0.08153307720754506 0 -0.28938365460120269 0.05532159347584624 0 -0.29743787519420251 0.08153307720754506 0 -0.27569457229827071 0.081243623470509244 0 -0.28743776060402371 0.060458689408765323 0 -0.27569457229827071 0.081243623470509244 0 -0.26257114212692878 0.06573449919026883 0 -0.28743776060402371 0.060458689408765323 0 -0.26257114212692878 0.06573449919026883 0 -0.28743776060402371 0.060458689408765323 0 -0.26687835675477128 0.1014348965859585 0 -0.25261226255175379 0.080423606239198905 0 -0.24377998071086901 0.096378574065869249 0 -0.26687835675477128 0.1014348965859585 0 -0.27569457229827071 0.081243623470509244 0 -0.25261226255175379 0.080423606239198905 0 -0.26257114212692878 0.06573449919026883 0 -0.23770452364983391 0.071010308971772351 0 -0.25261226255175379 0.080423606239198905 0 -0.26257114212692878 0.06573449919026883 0 -0.23770452364983391 0.071010308971772351 0 -0.27569457229827071 0.081243623470509244 0 -0.25261226255175379 0.080423606239198905 0 -0.26257114212692878 0.06573449919026883 0 -0.2522816967992324 0.037264740289820159 0 -0.27263172987273521 0.051913181220590639 0 -0.24906194248509719 0.058488871325365822 0 -0.26257114212692878 0.06573449919026883 0 -0.27263172987273521 0.051913181220590639 0 -0.24906194248509719 0.058488871325365822 0 -0.2522816967992324 0.037264740289820159 0 -0.2684979789729644 0.03593820420606865 0 -0.27263172987273521 0.051913181220590639 0 -0.2684979789729644 0.03593820420606865 0 -0.27263172987273521 0.051913181220590639 0 -0.28132943400820298 0.02911010974414751 0 -0.27263172987273521 0.051913181220590639 0 -0.28132943400820298 0.02911010974414751 0 -0.28938365460120269 0.05532159347584624 0 -0.26257114212692878 0.06573449919026883 0 -0.27263172987273521 0.051913181220590639 0 -0.28743776060402371 0.060458689408765323 0 -0.25267499080189931 -0.0034516002120552492 0 -0.26909988492935111 -0.0018655285383734981 0 -0.25157722050270093 0.012682655753942951 0 -0.26909988492935111 -0.0018655285383734981 0 -0.25157722050270093 0.012682655753942951 0 -0.27200359261247947 0.017754051058092819 0 -0.2522816967992324 0.037264740289820159 0 -0.25157722050270093 0.012682655753942951 0 -0.27200359261247947 0.017754051058092819 0 -0.2522816967992324 0.037264740289820159 0 -0.2684979789729644 0.03593820420606865 0 -0.27200359261247947 0.017754051058092819 0 -0.2522816967992324 0.037264740289820159 0 -0.27200359261247947 0.017754051058092819 0 -0.27200359261247947 0.017754051058092819 0 -0.28831373269731447 0.017122983851404761 0 -0.28132943400820298 0.02911010974414751 0 -0.2684979789729644 0.03593820420606865 0 -0.27200359261247947 0.017754051058092819 0 -0.28132943400820298 0.02911010974414751 0 -0.26909988492935111 -0.0018655285383734981 0 -0.2917254884257266 -0.0017566381736345419 0 -0.27200359261247947 0.017754051058092819 0 -0.2917254884257266 -0.0017566381736345419 0 -0.27200359261247947 0.017754051058092819 0 -0.28831373269731447 0.017122983851404761 0 -0.2917254884257266 -0.0017566381736345419 0 -0.28831373269731447 0.017122983851404761 0 -0.29997880334656019 0.01439552450637107 0 -0.2917254884257266 -0.0017566381736345419 0 -0.27200359261247947 0.017754051058092819 0 -0.28831373269731447 0.017122983851404761 0 -0.29656482898857922 0.02610767777843559 0 -0.29997880334656019 0.01439552450637107 0 -0.28831373269731447 0.017122983851404761 0 -0.28132943400820298 0.02911010974414751 0 -0.29656482898857922 0.02610767777843559 0 -0.28132943400820298 0.02911010974414751 0 -0.29656482898857922 0.02610767777843559 0 -0.29344050585463782 0.03493273697686209 0 -0.29656482898857922 0.02610767777843559 0 -0.31039051656375261 0.022327184027059441 0 -0.30541723396373921 0.038711125382435783 0 -0.31039051656375261 0.022327184027059441 0 -0.30541723396373921 0.038711125382435783 0 -0.32038394146944787 0.031620215762440292 0 -0.29656482898857922 0.02610767777843559 0 -0.31039051656375261 0.022327184027059441 0 -0.29997880334656019 0.01439552450637107 0 -0.31039051656375261 0.022327184027059441 0 -0.31177688145040278 0.0050359958776742568 0 -0.29997880334656019 0.01439552450637107 0 -0.2917254884257266 -0.0017566381736345419 0 -0.31177688145040278 0.0050359958776742568 0 -0.29997880334656019 0.01439552450637107 0 -0.27263172987273521 0.051913181220590639 0 -0.28743776060402371 0.060458689408765323 0 -0.28938365460120269 0.05532159347584624 0 -0.28938365460120269 0.05532159347584624 0 -0.29045052645802971 0.045802035002429492 0 -0.29738278035354182 0.050541329601553678 0 -0.28938365460120269 0.05532159347584624 0 -0.29738278035354182 0.050541329601553678 0 -0.29780899910201009 0.056562827273038227 0 -0.29926204670725021 0.066629363318123747 0 -0.28938365460120269 0.05532159347584624 0 -0.29780899910201009 0.056562827273038227 0 -0.28132943400820298 0.02911010974414751 0 -0.28938365460120269 0.05532159347584624 0 -0.29045052645802971 0.045802035002429492 0 -0.28132943400820298 0.02911010974414751 0 -0.28938365460120269 0.05532159347584624 0 -0.28132943400820298 0.02911010974414751 0 -0.29344050585463782 0.03493273697686209 0 -0.29045052645802971 0.045802035002429492 0 -0.29344050585463782 0.03493273697686209 0 -0.29045052645802971 0.045802035002429492 0 -0.30541723396373921 0.038711125382435783 0 -0.29045052645802971 0.045802035002429492 0 -0.30541723396373921 0.038711125382435783 0 -0.29738278035354182 0.050541329601553678 0 -0.29045052645802971 0.045802035002429492 0 -0.30541723396373921 0.038711125382435783 0 -0.29656482898857922 0.02610767777843559 0 -0.29344050585463782 0.03493273697686209 0 -0.30541723396373921 0.038711125382435783 0 -0.30541723396373921 0.038711125382435783 0 -0.30520751474604563 0.05375902269662923 0 -0.31780711793698518 0.045521831715634557 0 -0.29926204670725021 0.066629363318123747 0 -0.30520751474604563 0.05375902269662923 0 -0.31697319293959142 0.061410437985649477 0 -0.30541723396373921 0.038711125382435783 0 -0.30520751474604563 0.05375902269662923 0 -0.29738278035354182 0.050541329601553678 0 -0.30520751474604563 0.05375902269662923 0 -0.29738278035354182 0.050541329601553678 0 -0.29780899910201009 0.056562827273038227 0 -0.29926204670725021 0.066629363318123747 0 -0.30520751474604563 0.05375902269662923 0 -0.29780899910201009 0.056562827273038227 0 -0.32553678940662539 0.052415823907368687 0 -0.31780711793698518 0.045521831715634557 0 -0.33422422494732851 0.04449049745268327 0 -0.31697319293959142 0.061410437985649477 0 -0.32553678940662539 0.052415823907368687 0 -0.31780711793698518 0.045521831715634557 0 -0.30520751474604563 0.05375902269662923 0 -0.31697319293959142 0.061410437985649477 0 -0.31780711793698518 0.045521831715634557 0 -0.31697319293959142 0.061410437985649477 0 -0.32808937753058609 0.059947696530402161 0 -0.32553678940662539 0.052415823907368687 0 -0.31780711793698518 0.045521831715634557 0 -0.32038394146944787 0.031620215762440292 0 -0.33422422494732851 0.04449049745268327 0 -0.30541723396373921 0.038711125382435783 0 -0.31780711793698518 0.045521831715634557 0 -0.32038394146944787 0.031620215762440292 0 -0.30541723396373921 0.038711125382435783 0 -0.32038394146944787 0.031620215762440292 0 -0.32038394146944787 0.031620215762440292 0 -0.33422422494732851 0.04449049745268327 0 -0.33422422494732851 0.04449049745268327 0 -0.34051642268078958 0.02208187176518148 0 -0.34924074101412461 0.03711639968071382 0 -0.32038394146944787 0.031620215762440292 0 -0.33422422494732851 0.04449049745268327 0 -0.34051642268078958 0.02208187176518148 0 -0.33422422494732851 0.04449049745268327 0 -0.34715076893326918 0.04673829876922056 0 -0.34924074101412461 0.03711639968071382 0 -0.33422422494732851 0.04449049745268327 0 -0.34806450842520742 0.057360779142928031 0 -0.34715076893326918 0.04673829876922056 0 -0.33422422494732851 0.04449049745268327 0 -0.34806450842520742 0.057360779142928031 0 -0.33422422494732851 0.04449049745268327 0 -0.33482930480244999 0.055095026294593591 0 -0.34806450842520742 0.057360779142928031 0 -0.3407399656121517 0.06083029771636933 0 -0.33482930480244999 0.055095026294593591 0 -0.33440717105718593 0.063083878638897639 0 -0.3407399656121517 0.06083029771636933 0 -0.33482930480244999 0.055095026294593591 0 -0.34806450842520742 0.057360779142928031 0 -0.32808937753058609 0.059947696530402161 0 -0.33482930480244999 0.055095026294593591 0 -0.33440717105718593 0.063083878638897639 0 -0.32808937753058609 0.059947696530402161 0 -0.32553678940662539 0.052415823907368687 0 -0.33482930480244999 0.055095026294593591 0 -0.32553678940662539 0.052415823907368687 0 -0.33422422494732851 0.04449049745268327 0 -0.33482930480244999 0.055095026294593591 0 -0.31039051656375261 0.022327184027059441 0 -0.31177688145040278 0.0050359958776742568 0 -0.3261420213634148 0.01391490981329808 0 -0.32828291010712762 -0.0049346835118845543 0 -0.31177688145040278 0.0050359958776742568 0 -0.3261420213634148 0.01391490981329808 0 -0.31039051656375261 0.022327184027059441 0 -0.32038394146944787 0.031620215762440292 0 -0.3261420213634148 0.01391490981329808 0 -0.31039051656375261 0.022327184027059441 0 -0.32038394146944787 0.031620215762440292 0 -0.32038394146944787 0.031620215762440292 0 -0.34051642268078958 0.02208187176518148 0 -0.32038394146944787 0.031620215762440292 0 -0.3261420213634148 0.01391490981329808 0 -0.34051642268078958 0.02208187176518148 0 -0.3261420213634148 0.01391490981329808 0 -0.34051642268078958 0.02208187176518148 0 -0.34055428987364128 0.0059527955302196532 0 -0.32828291010712762 -0.0049346835118845543 0 -0.3261420213634148 0.01391490981329808 0 -0.34055428987364128 0.0059527955302196532 0 -0.34051642268078958 0.02208187176518148 0 -0.34055428987364128 0.0059527955302196532 0 -0.36064890389212972 0.0125435277679194 0 -0.34718119132474479 -0.01384164818341615 0 -0.34055428987364128 0.0059527955302196532 0 -0.36064890389212972 0.0125435277679194 0 -0.34051642268078958 0.02208187176518148 0 -0.36064890389212972 0.0125435277679194 0 -0.34051642268078958 0.02208187176518148 0 -0.35699945364537122 0.027147445145089769 0 -0.34924074101412461 0.03711639968071382 0 -0.34051642268078958 0.02208187176518148 0 -0.35699945364537122 0.027147445145089769 0 -0.36064890389212972 0.0125435277679194 0 -0.35699945364537122 0.027147445145089769 0 -0.36163302121541668 0.029781402687577421 0 -0.35940737946489582 0.035374977024224222 0 -0.37998819155715241 0.0057865511937031933 0 -0.36738966121720701 0.029980518529024301 0 -0.37123175334181557 0.027162262264614271 0 -0.37998819155715241 0.0057865511937031933 0 -0.36738966121720701 0.029980518529024301 0 -0.3645477689834325 0.020181962352102071 0 -0.37998819155715241 0.0057865511937031933 0 -0.36738966121720701 0.029980518529024301 0 -0.36273559053419291 0.026622670051971411 0 -0.36738966121720701 0.029980518529024301 0 -0.3645477689834325 0.020181962352102071 0 -0.35699945364537122 0.027147445145089769 0 -0.36163302121541668 0.029781402687577421 0 -0.36273559053419291 0.026622670051971411 0 -0.35699945364537122 0.027147445145089769 0 -0.36273559053419291 0.026622670051971411 0 -0.3645477689834325 0.020181962352102071 0 -0.36163302121541668 0.029781402687577421 0 -0.36273559053419291 0.026622670051971411 0 -0.36738966121720701 0.029980518529024301 0 -0.35699945364537122 0.027147445145089769 0 -0.3645477689834325 0.020181962352102071 0 -0.36064890389212972 0.0125435277679194 0 -0.3645477689834325 0.020181962352102071 0 -0.36064890389212972 0.0125435277679194 0 -0.37998819155715241 0.0057865511937031933 0 -0.3645477689834325 0.020181962352102071 0 -0.36064890389212972 0.0125435277679194 0 -0.38683543611469601 0.0001369023841863784 0 -0.36064890389212972 0.0125435277679194 0 -0.37474494217865062 -0.0022388935110706832 0 -0.38683543611469601 0.0001369023841863784 0 -0.36064890389212972 0.0125435277679194 0 -0.37474494217865062 -0.0022388935110706832 0 -0.36307869926690151 -0.00068504054922277494 0 -0.36064890389212972 0.0125435277679194 0 -0.35479113087726238 0.05417448586434577 0 -0.34715076893326918 0.04673829876922056 0 -0.35593663516940488 0.04278932274017315 0 -0.35479113087726238 0.05417448586434577 0 -0.35147867423579721 0.06053566178096708 0 -0.3622197730044176 0.060127746183944272 0 -0.35479113087726238 0.05417448586434577 0 -0.35147867423579721 0.06053566178096708 0 -0.35479113087726238 0.05417448586434577 0 -0.34806450842520742 0.057360779142928031 0 -0.35147867423579721 0.06053566178096708 0 -0.35479113087726238 0.05417448586434577 0 -0.34806450842520742 0.057360779142928031 0 -0.34806450842520742 0.057360779142928031 0 -0.35147867423579721 0.06053566178096708 0 -0.3447014191436914 0.063951910484466787 0 -0.34806450842520742 0.057360779142928031 0 -0.35147867423579721 0.06053566178096708 0 -0.3407399656121517 0.06083029771636933 0 -0.34806450842520742 0.057360779142928031 0 -0.3407399656121517 0.06083029771636933 0 -0.34806450842520742 0.057360779142928031 0 -0.3447014191436914 0.063951910484466787 0 -0.35479113087726238 0.05417448586434577 0 -0.34806450842520742 0.057360779142928031 0 -0.34715076893326918 0.04673829876922056 0 -0.34715076893326918 0.04673829876922056 0 -0.34924074101412461 0.03711639968071382 0 -0.35593663516940488 0.04278932274017315 0 -0.36738966121720701 0.029980518529024301 0 -0.35479113087726238 0.05417448586434577 0 -0.35593663516940488 0.04278932274017315 0 -0.35699945364537122 0.027147445145089769 0 -0.34924074101412461 0.03711639968071382 0 -0.35940737946489582 0.035374977024224222 0 -0.34924074101412461 0.03711639968071382 0 -0.35593663516940488 0.04278932274017315 0 -0.35940737946489582 0.035374977024224222 0 -0.36738966121720701 0.029980518529024301 0 -0.35479113087726238 0.05417448586434577 0 -0.36677646394688163 0.041367990420506082 0 -0.37123175334181557 0.027162262264614271 0 -0.37046143272875132 0.04675171495388801 0 -0.36738966121720701 0.029980518529024301 0 -0.35479113087726238 0.05417448586434577 0 -0.37123175334181557 0.027162262264614271 0 -0.36677646394688163 0.041367990420506082 0 -0.37046143272875132 0.04675171495388801 0 -0.3764786745208083 0.032098692741998169 0 -0.37123175334181557 0.027162262264614271 0 -0.37046143272875132 0.04675171495388801 0 -0.36163302121541668 0.029781402687577421 0 -0.36738966121720701 0.029980518529024301 0 -0.35940737946489582 0.035374977024224222 0 -0.36738966121720701 0.029980518529024301 0 -0.35593663516940488 0.04278932274017315 0 -0.35940737946489582 0.035374977024224222 0 -0.36738966121720701 0.029980518529024301 0 -0.37123175334181557 0.027162262264614271 0 -0.36677646394688163 0.041367990420506082 0 -0.36677646394688163 0.041367990420506082 0 -0.37046143272875132 0.04675171495388801 0 -0.36802302346639398 0.047906750352184523 0 -0.36677646394688163 0.041367990420506082 0 -0.36802302346639398 0.047906750352184523 0 -0.37046143272875132 0.04675171495388801 0 -0.37000681959492809 0.05831264468359916 0 -0.36802302346639398 0.047906750352184523 0 -0.37000681959492809 0.05831264468359916 0 -0.37046143272875132 0.04675171495388801 0 -0.36802302346639398 0.047906750352184523 0 -0.37000681959492809 0.05831264468359916 0 -0.37046143272875132 0.04675171495388801 0 -0.36802302346639398 0.047906750352184523 0 -0.35479113087726238 0.05417448586434577 0 -0.36802302346639398 0.047906750352184523 0 -0.35479113087726238 0.05417448586434577 0 -0.36802302346639398 0.047906750352184523 0 -0.3622197730044176 0.060127746183944272 0 -0.35479113087726238 0.05417448586434577 0 -0.36677646394688163 0.041367990420506082 0 -0.36802302346639398 0.047906750352184523 0 -0.36802302346639398 0.047906750352184523 0 -0.3622197730044176 0.060127746183944272 0 -0.37000681959492809 0.05831264468359916 0 -0.35147867423579721 0.06053566178096708 0 -0.36926886504626422 0.077079019973005369 0 -0.3622197730044176 0.060127746183944272 0 -0.37000681959492809 0.05831264468359916 0 -0.36926886504626422 0.077079019973005369 0 -0.37000681959492809 0.05831264468359916 0 -0.36926886504626422 0.077079019973005369 0 -0.37079498002478778 0.078498176574577722 0 -0.36926886504626422 0.077079019973005369 0 -0.34551673285671652 0.071984855543133663 0 -0.36912013352382872 0.080861301107253064 0 -0.37000681959492809 0.05831264468359916 0 -0.37079498002478778 0.078498176574577722 0 -0.37470600383380392 0.082961959162170973 0 -0.35147867423579721 0.06053566178096708 0 -0.3622197730044176 0.060127746183944272 0 -0.36926886504626422 0.077079019973005369 0 -0.37000681959492809 0.05831264468359916 0 -0.37470600383380392 0.082961959162170973 0 -0.37000681959492809 0.05831264468359916 0 -0.36926886504626422 0.077079019973005369 0 -0.36926886504626422 0.077079019973005369 0 -0.37079498002478778 0.078498176574577722 0 -0.34551673285671652 0.071984855543133663 0 -0.34763839367566191 0.079069075487607554 0 -0.36912013352382872 0.080861301107253064 0 -0.34551673285671652 0.071984855543133663 0 -0.36912013352382872 0.080861301107253064 0 -0.35147867423579721 0.06053566178096708 0 -0.36926886504626422 0.077079019973005369 0 -0.34551673285671652 0.071984855543133663 0 -0.34408269824063842 0.074738747125954852 0 -0.34763839367566191 0.079069075487607554 0 -0.34179116264722731 0.080399472229040897 0 -0.34408269824063842 0.074738747125954852 0 -0.34551673285671652 0.071984855543133663 0 -0.34763839367566191 0.079069075487607554 0 -0.34408269824063842 0.074738747125954852 0 -0.34551673285671652 0.071984855543133663 0 -0.35147867423579721 0.06053566178096708 0 -0.34551673285671652 0.071984855543133663 0 -0.3447014191436914 0.063951910484466787 0 -0.35147867423579721 0.06053566178096708 0 -0.34551673285671652 0.071984855543133663 0 -0.34763839367566191 0.079069075487607554 0 -0.36858415035949882 0.094491491786065696 0 -0.34763839367566191 0.079069075487607554 0 -0.36858415035949882 0.094491491786065696 0 -0.35198293914272999 0.094145145766245733 0 -0.34456144318064219 0.08667329674911145 0 -0.34763839367566191 0.079069075487607554 0 -0.35198293914272999 0.094145145766245733 0 -0.34456144318064219 0.08667329674911145 0 -0.35198293914272999 0.094145145766245733 0 -0.34431035454597703 0.093789606507308373 0 -0.34456144318064219 0.08667329674911145 0 -0.34763839367566191 0.079069075487607554 0 -0.34179116264722731 0.080399472229040897 0 -0.3782625711058698 0.101617738696854 0 -0.37470600383380392 0.082961959162170973 0 -0.36858415035949882 0.094491491786065696 0 -0.34763839367566191 0.079069075487607554 0 -0.36912013352382872 0.080861301107253064 0 -0.36858415035949882 0.094491491786065696 0 -0.36926886504626422 0.077079019973005369 0 -0.37079498002478778 0.078498176574577722 0 -0.36912013352382872 0.080861301107253064 0 -0.36926886504626422 0.077079019973005369 0 -0.36912013352382872 0.080861301107253064 0 -0.36912013352382872 0.080861301107253064 0 -0.37470600383380392 0.082961959162170973 0 -0.37079498002478778 0.078498176574577722 0 -0.36912013352382872 0.080861301107253064 0 -0.37470600383380392 0.082961959162170973 0 -0.36912013352382872 0.080861301107253064 0 -0.37470600383380392 0.082961959162170973 0 -0.36858415035949882 0.094491491786065696 0 -0.36912013352382872 0.080861301107253064 0 -0.36858415035949882 0.094491491786065696 0 -0.36858415035949882 0.094491491786065696 0 -0.36747352968705388 0.12273486311700831 0 -0.3782625711058698 0.101617738696854 0 -0.36858415035949882 0.094491491786065696 0 -0.36858415035949882 0.094491491786065696 0 -0.36006702585218792 0.10838608290929221 0 -0.35198293914272999 0.094145145766245733 0 -0.36858415035949882 0.094491491786065696 0 -0.36006702585218792 0.10838608290929221 0 -0.36747352968705388 0.12273486311700831 0 -0.3782625711058698 0.101617738696854 0 -0.36858415035949882 0.094491491786065696 0 -0.36747352968705388 0.12273486311700831 0 -0.36006702585218792 0.10838608290929221 0 -0.36747352968705388 0.12273486311700831 0 -0.35832203275528268 0.1183511860346923 0 -0.35528769071996391 0.12689780186549679 0 -0.36747352968705388 0.12273486311700831 0 -0.35832203275528268 0.1183511860346923 0 -0.35528769071996391 0.12689780186549679 0 -0.35832203275528268 0.1183511860346923 0 -0.35045988476192508 0.115385996246972 0 -0.36006702585218792 0.10838608290929221 0 -0.35832203275528268 0.1183511860346923 0 -0.35045988476192508 0.115385996246972 0 -0.35045988476192508 0.115385996246972 0 -0.34547580274860562 0.10394098399483009 0 -0.33570271963636877 0.11206429961599181 0 -0.35528769071996391 0.12689780186549679 0 -0.35045988476192508 0.115385996246972 0 -0.34115039425197219 0.12498493974687711 0 -0.36006702585218792 0.10838608290929221 0 -0.35198293914272999 0.094145145766245733 0 -0.34547580274860562 0.10394098399483009 0 -0.36006702585218792 0.10838608290929221 0 -0.35045988476192508 0.115385996246972 0 -0.34547580274860562 0.10394098399483009 0 -0.35198293914272999 0.094145145766245733 0 -0.34547580274860562 0.10394098399483009 0 -0.34431035454597703 0.093789606507308373 0 -0.34547580274860562 0.10394098399483009 0 -0.34431035454597703 0.093789606507308373 0 -0.335413749579693 0.097286071719103154 0 -0.34547580274860562 0.10394098399483009 0 -0.335413749579693 0.097286071719103154 0 -0.33570271963636877 0.11206429961599181 0 -0.335413749579693 0.097286071719103154 0 -0.33570271963636877 0.11206429961599181 0 -0.32444247844199348 0.1047035033472971 0 -0.35045988476192508 0.115385996246972 0 -0.34115039425197219 0.12498493974687711 0 -0.33570271963636877 0.11206429961599181 0 -0.32917568526667751 0.12578156900391591 0 -0.33570271963636877 0.11206429961599181 0 -0.32114709127587232 0.11611322513389059 0 -0.32917568526667751 0.12578156900391591 0 -0.34115039425197219 0.12498493974687711 0 -0.33570271963636877 0.11206429961599181 0 -0.31354631638020197 0.13395604467094269 0 -0.30549209578720232 0.10774456093924389 0 -0.32114709127587232 0.11611322513389059 0 -0.30549209578720232 0.10774456093924389 0 -0.32114709127587232 0.11611322513389059 0 -0.32444247844199348 0.1047035033472971 0 -0.33570271963636877 0.11206429961599181 0 -0.32114709127587232 0.11611322513389059 0 -0.32444247844199348 0.1047035033472971 0 -0.30549209578720232 0.10774456093924389 0 -0.32444247844199348 0.1047035033472971 0 -0.32445673593083119 0.090309359328255762 0 -0.30549209578720232 0.10774456093924389 0 -0.32445673593083119 0.090309359328255762 0 -0.31312795334666071 0.083579729522452809 0 -0.335413749579693 0.097286071719103154 0 -0.32444247844199348 0.1047035033472971 0 -0.32445673593083119 0.090309359328255762 0 -0.32445673593083119 0.090309359328255762 0 -0.3275606083710243 0.080211281293741998 0 -0.31312795334666071 0.083579729522452809 0 -0.3275606083710243 0.080211281293741998 0 -0.31312795334666071 0.083579729522452809 0 -0.31976082328641481 0.073112182403608325 0 -0.30931237829482389 0.073252958087475881 0 -0.31312795334666071 0.083579729522452809 0 -0.31976082328641481 0.073112182403608325 0 -0.30931237829482389 0.073252958087475881 0 -0.31697319293959142 0.061410437985649477 0 -0.31976082328641481 0.073112182403608325 0 -0.31697319293959142 0.061410437985649477 0 -0.31976082328641481 0.073112182403608325 0 -0.32886731949388731 0.069155273298144179 0 -0.31697319293959142 0.061410437985649477 0 -0.32808937753058609 0.059947696530402161 0 -0.32886731949388731 0.069155273298144179 0 -0.3275606083710243 0.080211281293741998 0 -0.31976082328641481 0.073112182403608325 0 -0.32886731949388731 0.069155273298144179 0 -0.32886731949388731 0.069155273298144179 0 -0.33770721458858299 0.069047958238937293 0 -0.336378655355973 0.076693290193422539 0 -0.3275606083710243 0.080211281293741998 0 -0.32886731949388731 0.069155273298144179 0 -0.336378655355973 0.076693290193422539 0 -0.33440717105718593 0.063083878638897639 0 -0.32886731949388731 0.069155273298144179 0 -0.33770721458858299 0.069047958238937293 0 -0.32808937753058609 0.059947696530402161 0 -0.33440717105718593 0.063083878638897639 0 -0.32886731949388731 0.069155273298144179 0 -0.3407399656121517 0.06083029771636933 0 -0.33440717105718593 0.063083878638897639 0 -0.33770721458858299 0.069047958238937293 0 -0.3407399656121517 0.06083029771636933 0 -0.3447014191436914 0.063951910484466787 0 -0.33770721458858299 0.069047958238937293 0 -0.34551673285671652 0.071984855543133663 0 -0.3447014191436914 0.063951910484466787 0 -0.33770721458858299 0.069047958238937293 0 -0.34408269824063842 0.074738747125954852 0 -0.33770721458858299 0.069047958238937293 0 -0.336378655355973 0.076693290193422539 0 -0.34408269824063842 0.074738747125954852 0 -0.34551673285671652 0.071984855543133663 0 -0.33770721458858299 0.069047958238937293 0 -0.34551673285671652 0.071984855543133663 0 -0.33770721458858299 0.069047958238937293 0 -0.34408269824063842 0.074738747125954852 0 -0.336378655355973 0.076693290193422539 0 -0.34179116264722731 0.080399472229040897 0 -0.336378655355973 0.076693290193422539 0 -0.34179116264722731 0.080399472229040897 0 -0.33708436589161489 0.085963183755354639 0 -0.34456144318064219 0.08667329674911145 0 -0.34179116264722731 0.080399472229040897 0 -0.33708436589161489 0.085963183755354639 0 -0.34456144318064219 0.08667329674911145 0 -0.34431035454597703 0.093789606507308373 0 -0.33708436589161489 0.085963183755354639 0 -0.34431035454597703 0.093789606507308373 0 -0.335413749579693 0.097286071719103154 0 -0.33708436589161489 0.085963183755354639 0 -0.335413749579693 0.097286071719103154 0 -0.32445673593083119 0.090309359328255762 0 -0.33708436589161489 0.085963183755354639 0 -0.32445673593083119 0.090309359328255762 0 -0.3275606083710243 0.080211281293741998 0 -0.33708436589161489 0.085963183755354639 0 -0.3275606083710243 0.080211281293741998 0 -0.336378655355973 0.076693290193422539 0 -0.33708436589161489 0.085963183755354639 0 -0.38891458820749281 0.47713565504117422 0 -0.42172655890518862 0.5 0 -0.3640375775585698 0.5 0 -0.38891458820749281 0.47713565504117422 0 -0.37103467036260362 0.45695891695805302 0 -0.36943712044780219 0.47475959506207249 0 -0.39694697642853649 0.45370639251272787 0 -0.37103467036260362 0.45695891695805302 0 -0.38891458820749281 0.47713565504117422 0 -0.39694697642853649 0.45370639251272787 0 -0.37103467036260362 0.45695891695805302 0 -0.38249991962136642 0.44345487931465249 0 -0.39694697642853649 0.45370639251272787 0 -0.37103467036260362 0.45695891695805302 0 -0.38249991962136642 0.44345487931465249 0 -0.39694697642853649 0.45370639251272787 0 -0.40464661760035381 0.43350824459614162 0 -0.38891458820749281 0.47713565504117422 0 -0.39694697642853649 0.45370639251272787 0 -0.41631826774707797 0.4711213942969617 0 -0.39694697642853649 0.45370639251272787 0 -0.42285928249446952 0.45045386806740279 0 -0.41631826774707797 0.4711213942969617 0 -0.42285928249446952 0.45045386806740279 0 -0.42501824733507809 0.43459816807542118 0 -0.40464661760035381 0.43350824459614162 0 -0.39694697642853649 0.45370639251272787 0 -0.42285928249446952 0.45045386806740279 0 -0.39694697642853649 0.45370639251272787 0 -0.42285928249446952 0.45045386806740279 0 -0.40464661760035381 0.43350824459614162 0 -0.42285928249446952 0.45045386806740279 0 -0.43521244088076849 0.46107148678855758 0 -0.44877158856040261 0.44720134362207808 0 -0.42285928249446952 0.45045386806740279 0 -0.44877158856040261 0.44720134362207808 0 -0.42285928249446952 0.45045386806740279 0 -0.43592409671607729 0.44045812782560079 0 -0.44877158856040261 0.44720134362207808 0 -0.42285928249446952 0.45045386806740279 0 -0.43592409671607729 0.44045812782560079 0 -0.42501824733507809 0.43459816807542118 0 -0.42285928249446952 0.45045386806740279 0 -0.43521244088076849 0.46107148678855758 0 -0.41631826774707797 0.4711213942969617 0 -0.41631826774707797 0.4711213942969617 0 -0.42172655890518862 0.5 0 -0.43935827984199688 0.47473889959161758 0 -0.43521244088076849 0.46107148678855758 0 -0.41631826774707797 0.4711213942969617 0 -0.43935827984199688 0.47473889959161758 0 -0.38891458820749281 0.47713565504117422 0 -0.41631826774707797 0.4711213942969617 0 -0.42172655890518862 0.5 0 -0.42172655890518862 0.5 0 -0.43935827984199688 0.47473889959161758 0 -0.47784082473980471 0.47626967285504462 0 -0.42172655890518862 0.5 0 -0.5 0.5 0 -0.47784082473980471 0.47626967285504462 0 -0.43935827984199688 0.47473889959161758 0 -0.47784082473980471 0.47626967285504462 0 -0.4487547857598953 0.46184192836472759 0 -0.5 0.5 0 -0.47784082473980471 0.47626967285504462 0 -0.49999999999999589 0.44077113011354369 0 -0.47784082473980471 0.47626967285504462 0 -0.47438579428019922 0.44398623686781052 0 -0.4627013265822788 0.4545376326069438 0 -0.47784082473980471 0.47626967285504462 0 -0.49999999999999589 0.44077113011354369 0 -0.47438579428019922 0.44398623686781052 0 -0.49999999999999589 0.44077113011354369 0 -0.47438579428019922 0.44398623686781052 0 -0.48180565015534738 0.42787197640755792 0 -0.49999999999999589 0.44077113011354369 0 -0.47438579428019922 0.44398623686781052 0 -0.47438579428019922 0.44398623686781052 0 -0.4627013265822788 0.4545376326069438 0 -0.44877158856040261 0.44720134362207808 0 -0.47438579428019922 0.44398623686781052 0 -0.44877158856040261 0.44720134362207808 0 -0.47438579428019922 0.44398623686781052 0 -0.44877158856040261 0.44720134362207808 0 -0.46289485375526918 0.43579199928955081 0 -0.44877158856040261 0.44720134362207808 0 -0.44878504691792248 0.43547483269414872 0 -0.46289485375526918 0.43579199928955081 0 -0.47784082473980471 0.47626967285504462 0 -0.4627013265822788 0.4545376326069438 0 -0.4487547857598953 0.46184192836472759 0 -0.4627013265822788 0.4545376326069438 0 -0.4487547857598953 0.46184192836472759 0 -0.44877158856040261 0.44720134362207808 0 -0.4487547857598953 0.46184192836472759 0 -0.44877158856040261 0.44720134362207808 0 -0.43521244088076849 0.46107148678855758 0 -0.4487547857598953 0.46184192836472759 0 -0.44877158856040261 0.44720134362207808 0 -0.43521244088076849 0.46107148678855758 0 -0.43935827984199688 0.47473889959161758 0 -0.4487547857598953 0.46184192836472759 0 -0.44877158856040261 0.44720134362207808 0 -0.44508566455651338 0.43839632914573512 0 -0.44878504691792248 0.43547483269414872 0 -0.44877158856040261 0.44720134362207808 0 -0.44878504691792248 0.43547483269414872 0 -0.43592409671607729 0.44045812782560079 0 -0.44877158856040261 0.44720134362207808 0 -0.44508566455651338 0.43839632914573512 0 -0.44531233658805403 0.42513554986162888 0 -0.44878504691792248 0.43547483269414872 0 -0.44880957839306629 0.41410011360809668 0 -0.44878504691792248 0.43547483269414872 0 -0.44880957839306629 0.41410011360809668 0 -0.43788570063392329 0.43164093021736671 0 -0.44531233658805403 0.42513554986162888 0 -0.44878504691792248 0.43547483269414872 0 -0.43592409671607729 0.44045812782560079 0 -0.44508566455651338 0.43839632914573512 0 -0.43788570063392329 0.43164093021736671 0 -0.44508566455651338 0.43839632914573512 0 -0.43788570063392329 0.43164093021736671 0 -0.44878504691792248 0.43547483269414872 0 -0.44508566455651338 0.43839632914573512 0 -0.44878504691792248 0.43547483269414872 0 -0.44531233658805403 0.42513554986162888 0 -0.44880957839306629 0.41410011360809668 0 -0.42391867717568832 0.41711337076656618 0 -0.44880957839306629 0.41410011360809668 0 -0.46585669794528167 0.42199291516666237 0 -0.4641229039382897 0.40091036417177778 0 -0.44878504691792248 0.43547483269414872 0 -0.46585669794528167 0.42199291516666237 0 -0.44878504691792248 0.43547483269414872 0 -0.44880957839306629 0.41410011360809668 0 -0.46585669794528167 0.42199291516666237 0 -0.44878504691792248 0.43547483269414872 0 -0.46585669794528167 0.42199291516666237 0 -0.46289485375526918 0.43579199928955081 0 -0.47438579428019922 0.44398623686781052 0 -0.46289485375526918 0.43579199928955081 0 -0.48180565015534738 0.42787197640755792 0 -0.46585669794528167 0.42199291516666237 0 -0.46289485375526918 0.43579199928955081 0 -0.48180565015534738 0.42787197640755792 0 -0.46585669794528167 0.42199291516666237 0 -0.48292834897264081 0.4085109976391762 0 -0.4641229039382897 0.40091036417177778 0 -0.46585669794528167 0.42199291516666237 0 -0.48292834897264081 0.4085109976391762 0 -0.46585669794528167 0.42199291516666237 0 -0.48180565015534738 0.42787197640755792 0 -0.48292834897264081 0.4085109976391762 0 -0.48292834897264081 0.4085109976391762 0 -0.5 0.41790010511261683 0 -0.5 0.39502908011169002 0 -0.48180565015534738 0.42787197640755792 0 -0.48292834897264081 0.4085109976391762 0 -0.5 0.41790010511261683 0 -0.49999999999999589 0.44077113011354369 0 -0.48180565015534738 0.42787197640755792 0 -0.5 0.41790010511261683 0 -0.48850556386005051 0.3766603246979251 0 -0.5 0.39502908011169002 0 -0.47832653283541199 0.38608194873200979 0 -0.48850556386005051 0.3766603246979251 0 -0.5 0.39502908011169002 0 -0.5 0.36887446842263683 0 -0.48292834897264081 0.4085109976391762 0 -0.5 0.39502908011169002 0 -0.47832653283541199 0.38608194873200979 0 -0.48292834897264081 0.4085109976391762 0 -0.5 0.39502908011169002 0 -0.48292834897264081 0.4085109976391762 0 -0.47832653283541199 0.38608194873200979 0 -0.4641229039382897 0.40091036417177778 0 -0.48850556386005051 0.3766603246979251 0 -0.47832653283541199 0.38608194873200979 0 -0.48259334700195489 0.36409898273387958 0 -0.47832653283541199 0.38608194873200979 0 -0.46059005399087027 0.38292215568240928 0 -0.4641229039382897 0.40091036417177778 0 -0.47832653283541199 0.38608194873200979 0 -0.46059005399087027 0.38292215568240928 0 -0.46572599417265398 0.36772482908493609 0 -0.44880957839306629 0.41410011360809668 0 -0.4641229039382897 0.40091036417177778 0 -0.44883410986820999 0.3927253945220448 0 -0.46059005399087027 0.38292215568240928 0 -0.4641229039382897 0.40091036417177778 0 -0.44883410986820999 0.3927253945220448 0 -0.44880957839306629 0.41410011360809668 0 -0.44883410986820999 0.3927253945220448 0 -0.43699833754743561 0.40294499431243458 0 -0.44880957839306629 0.41410011360809668 0 -0.44883410986820999 0.3927253945220448 0 -0.44883410986820999 0.3927253945220448 0 -0.43978391516082421 0.3912231797547942 0 -0.43699833754743561 0.40294499431243458 0 -0.44883410986820999 0.3927253945220448 0 -0.43978391516082421 0.3912231797547942 0 -0.44802713623065987 0.37645115623263098 0 -0.44883410986820999 0.3927253945220448 0 -0.44885864134335329 0.37135067543599282 0 -0.44883410986820999 0.3927253945220448 0 -0.44802713623065987 0.37645115623263098 0 -0.44885864134335329 0.37135067543599282 0 -0.43978391516082421 0.3912231797547942 0 -0.44802713623065987 0.37645115623263098 0 -0.42527607699699133 0.39277117395206662 0 -0.46059005399087027 0.38292215568240928 0 -0.44883410986820999 0.3927253945220448 0 -0.44885864134335329 0.37135067543599282 0 -0.44802713623065987 0.37645115623263098 0 -0.4250431626101242 0.37647010748543319 0 -0.42527607699699133 0.39277117395206662 0 -0.44802713623065987 0.37645115623263098 0 -0.42527607699699133 0.39277117395206662 0 -0.4250431626101242 0.37647010748543319 0 -0.4134887672477453 0.38574914578498593 0 -0.40122768387689522 0.38158953953487368 0 -0.4250431626101242 0.37647010748543319 0 -0.40122768387689522 0.38158953953487368 0 -0.4250431626101242 0.37647010748543319 0 -0.4134887672477453 0.38574914578498593 0 -0.42527607699699133 0.39277117395206662 0 -0.4250431626101242 0.37647010748543319 0 -0.40122768387689522 0.38158953953487368 0 -0.40086489287733429 0.37467411733839928 0 -0.4134887672477453 0.38574914578498593 0 -0.40798835104355652 0.39359067917546098 0 -0.40557429982823212 0.38794008425198068 0 -0.4134887672477453 0.38574914578498593 0 -0.40122768387689522 0.38158953953487368 0 -0.40557429982823212 0.38794008425198068 0 -0.40798835104355652 0.39359067917546098 0 -0.42527607699699133 0.39277117395206662 0 -0.40252501776332311 0.40909119167150271 0 -0.42527607699699133 0.39277117395206662 0 -0.40252501776332311 0.40909119167150271 0 -0.4134887672477453 0.38574914578498593 0 -0.40798835104355652 0.39359067917546098 0 -0.42527607699699133 0.39277117395206662 0 -0.42527607699699133 0.39277117395206662 0 -0.43699833754743561 0.40294499431243458 0 -0.42391867717568832 0.41711337076656618 0 -0.43978391516082421 0.3912231797547942 0 -0.42527607699699133 0.39277117395206662 0 -0.43699833754743561 0.40294499431243458 0 -0.44880957839306629 0.41410011360809668 0 -0.43699833754743561 0.40294499431243458 0 -0.42391867717568832 0.41711337076656618 0 -0.44531233658805403 0.42513554986162888 0 -0.42391867717568832 0.41711337076656618 0 -0.43788570063392329 0.43164093021736671 0 -0.44531233658805403 0.42513554986162888 0 -0.42391867717568832 0.41711337076656618 0 -0.43788570063392329 0.43164093021736671 0 -0.42391867717568832 0.41711337076656618 0 -0.42501824733507809 0.43459816807542118 0 -0.43592409671607729 0.44045812782560079 0 -0.43788570063392329 0.43164093021736671 0 -0.42501824733507809 0.43459816807542118 0 -0.42391867717568832 0.41711337076656618 0 -0.42501824733507809 0.43459816807542118 0 -0.40464661760035381 0.43350824459614162 0 -0.42527607699699133 0.39277117395206662 0 -0.42391867717568832 0.41711337076656618 0 -0.40252501776332311 0.40909119167150271 0 -0.42391867717568832 0.41711337076656618 0 -0.40252501776332311 0.40909119167150271 0 -0.40464661760035381 0.43350824459614162 0 -0.42391867717568832 0.41711337076656618 0 -0.40252501776332311 0.40909119167150271 0 -0.40252501776332311 0.40909119167150271 0 -0.37875820238401509 0.42613984176471847 0 -0.40252501776332311 0.40909119167150271 0 -0.40464661760035381 0.43350824459614162 0 -0.37875820238401509 0.42613984176471847 0 -0.38249991962136642 0.44345487931465249 0 -0.40464661760035381 0.43350824459614162 0 -0.37875820238401509 0.42613984176471847 0 -0.40252501776332311 0.40909119167150271 0 -0.37875820238401509 0.42613984176471847 0 -0.37769092578324193 0.39977892163450779 0 -0.37769092578324193 0.39977892163450779 0 -0.38963770449155072 0.39285491215608792 0 -0.37686086334024771 0.38257038446795849 0 -0.40252501776332311 0.40909119167150271 0 -0.37769092578324193 0.39977892163450779 0 -0.38963770449155072 0.39285491215608792 0 -0.40252501776332311 0.40909119167150271 0 -0.37769092578324193 0.39977892163450779 0 -0.37686086334024771 0.38257038446795849 0 -0.39363670834615189 0.38450398520198442 0 -0.40086489287733429 0.37467411733839928 0 -0.38963770449155072 0.39285491215608792 0 -0.37686086334024771 0.38257038446795849 0 -0.39363670834615189 0.38450398520198442 0 -0.37686086334024771 0.38257038446795849 0 -0.40086489287733429 0.37467411733839928 0 -0.37686086334024771 0.38257038446795849 0 -0.40086489287733429 0.37467411733839928 0 -0.39033592763893787 0.37070590072739279 0 -0.39363670834615189 0.38450398520198442 0 -0.40122768387689522 0.38158953953487368 0 -0.39959239714473138 0.39083097251260251 0 -0.38963770449155072 0.39285491215608792 0 -0.39363670834615189 0.38450398520198442 0 -0.39959239714473138 0.39083097251260251 0 -0.39363670834615189 0.38450398520198442 0 -0.40122768387689522 0.38158953953487368 0 -0.40086489287733429 0.37467411733839928 0 -0.40122768387689522 0.38158953953487368 0 -0.40557429982823212 0.38794008425198068 0 -0.39959239714473138 0.39083097251260251 0 -0.40798835104355652 0.39359067917546098 0 -0.40557429982823212 0.38794008425198068 0 -0.39959239714473138 0.39083097251260251 0 -0.40252501776332311 0.40909119167150271 0 -0.38963770449155072 0.39285491215608792 0 -0.39959239714473138 0.39083097251260251 0 -0.40798835104355652 0.39359067917546098 0 -0.40252501776332311 0.40909119167150271 0 -0.39959239714473138 0.39083097251260251 0 -0.3926828114571661 0.35541775914535301 0 -0.40105078960399698 0.34662517948293931 0 -0.40586906590548888 0.3393029225754271 0 -0.3926828114571661 0.35541775914535301 0 -0.39400561065841477 0.34382680172727831 0 -0.40586906590548888 0.3393029225754271 0 -0.3926828114571661 0.35541775914535301 0 -0.40586906590548888 0.3393029225754271 0 -0.3926828114571661 0.35541775914535301 0 -0.39969836615416421 0.35756427730283669 0 -0.39341808057325789 0.36431669671432632 0 -0.3926828114571661 0.35541775914535301 0 -0.40105078960399698 0.34662517948293931 0 -0.39969836615416421 0.35756427730283669 0 -0.3926828114571661 0.35541775914535301 0 -0.39400561065841477 0.34382680172727831 0 -0.38539473684528258 0.34837828204789067 0 -0.40105078960399698 0.34662517948293931 0 -0.40525205349158999 0.35429039595711992 0 -0.40888688292129022 0.34941903462410451 0 -0.40105078960399698 0.34662517948293931 0 -0.4080564418273247 0.34368885170405422 0 -0.40888688292129022 0.34941903462410451 0 -0.40105078960399698 0.34662517948293931 0 -0.40525205349158999 0.35429039595711992 0 -0.39969836615416421 0.35756427730283669 0 -0.40525205349158999 0.35429039595711992 0 -0.39969836615416421 0.35756427730283669 0 -0.40553625032349627 0.36037170931698131 0 -0.40553625032349627 0.36037170931698131 0 -0.40544017780568847 0.3661562974108753 0 -0.40025021147547779 0.36436392320030081 0 -0.40544017780568847 0.3661562974108753 0 -0.40025021147547779 0.36436392320030081 0 -0.397742957241214 0.36844985128713797 0 -0.39969836615416421 0.35756427730283669 0 -0.40553625032349627 0.36037170931698131 0 -0.40025021147547779 0.36436392320030081 0 -0.40544017780568847 0.3661562974108753 0 -0.40086489287733429 0.37467411733839928 0 -0.397742957241214 0.36844985128713797 0 -0.40086489287733429 0.37467411733839928 0 -0.397742957241214 0.36844985128713797 0 -0.39033592763893787 0.37070590072739279 0 -0.397742957241214 0.36844985128713797 0 -0.39341808057325789 0.36431669671432632 0 -0.39033592763893787 0.37070590072739279 0 -0.39969836615416421 0.35756427730283669 0 -0.40025021147547779 0.36436392320030081 0 -0.39341808057325789 0.36431669671432632 0 -0.40025021147547779 0.36436392320030081 0 -0.397742957241214 0.36844985128713797 0 -0.39341808057325789 0.36431669671432632 0 -0.3926828114571661 0.35541775914535301 0 -0.39341808057325789 0.36431669671432632 0 -0.37949655700884349 0.37153259571527891 0 -0.37949655700884349 0.37153259571527891 0 -0.37823932191431281 0.35548757599615399 0 -0.37024808467873749 0.36543132639488701 0 -0.3926828114571661 0.35541775914535301 0 -0.37949655700884349 0.37153259571527891 0 -0.37823932191431281 0.35548757599615399 0 -0.3926828114571661 0.35541775914535301 0 -0.37949655700884349 0.37153259571527891 0 -0.39341808057325789 0.36431669671432632 0 -0.39033592763893787 0.37070590072739279 0 -0.37949655700884349 0.37153259571527891 0 -0.37686086334024771 0.38257038446795849 0 -0.39033592763893787 0.37070590072739279 0 -0.37949655700884349 0.37153259571527891 0 -0.37823932191431281 0.35548757599615399 0 -0.38539473684528258 0.34837828204789067 0 -0.3787015959315434 0.33902802614693439 0 -0.3926828114571661 0.35541775914535301 0 -0.37823932191431281 0.35548757599615399 0 -0.38539473684528258 0.34837828204789067 0 -0.3787015959315434 0.33902802614693439 0 -0.37816355277066899 0.32985684687273281 0 -0.39158393304450312 0.32769252248945308 0 -0.39400561065841477 0.34382680172727831 0 -0.38539473684528258 0.34837828204789067 0 -0.3787015959315434 0.33902802614693439 0 -0.39158393304450312 0.32769252248945308 0 -0.37442838800096029 0.32044424157556423 0 -0.37816355277066899 0.32985684687273281 0 -0.39158393304450312 0.32769252248945308 0 -0.37442838800096029 0.32044424157556423 0 -0.38613629988198012 0.31665983269396758 0 -0.39158393304450312 0.32769252248945308 0 -0.37442838800096029 0.32044424157556423 0 -0.38613629988198012 0.31665983269396758 0 -0.37442838800096029 0.32044424157556423 0 -0.37415321332832258 0.31386652142517069 0 -0.39158393304450312 0.32769252248945308 0 -0.4039094095666334 0.320812311378052 0 -0.40925887999808552 0.33516025262174892 0 -0.38613629988198012 0.31665983269396758 0 -0.39830358576524327 0.31266849694114901 0 -0.39158393304450312 0.32769252248945308 0 -0.39830358576524327 0.31266849694114901 0 -0.39158393304450312 0.32769252248945308 0 -0.4039094095666334 0.320812311378052 0 -0.39830358576524327 0.31266849694114901 0 -0.4039094095666334 0.320812311378052 0 -0.40826549608127172 0.31275764886218971 0 -0.3787015959315434 0.33902802614693439 0 -0.40777024278950652 0.33697950655941222 0 -0.39158393304450312 0.32769252248945308 0 -0.40925887999808552 0.33516025262174892 0 -0.39158393304450312 0.32769252248945308 0 -0.40777024278950652 0.33697950655941222 0 -0.40925887999808552 0.33516025262174892 0 -0.3787015959315434 0.33902802614693439 0 -0.39158393304450312 0.32769252248945308 0 -0.40777024278950652 0.33697950655941222 0 -0.39400561065841477 0.34382680172727831 0 -0.3787015959315434 0.33902802614693439 0 -0.40777024278950652 0.33697950655941222 0 -0.39400561065841477 0.34382680172727831 0 -0.40586906590548888 0.3393029225754271 0 -0.40777024278950652 0.33697950655941222 0 -0.40105078960399698 0.34662517948293931 0 -0.40586906590548888 0.3393029225754271 0 -0.40105078960399698 0.34662517948293931 0 -0.40586906590548888 0.3393029225754271 0 -0.4080564418273247 0.34368885170405422 0 -0.4080564418273247 0.34368885170405422 0 -0.41125860555200922 0.34134685969384471 0 -0.40895905381070002 0.33957121871677393 0 -0.40586906590548888 0.3393029225754271 0 -0.4080564418273247 0.34368885170405422 0 -0.40895905381070002 0.33957121871677393 0 -0.4080564418273247 0.34368885170405422 0 -0.41125860555200922 0.34134685969384471 0 -0.41366919887348358 0.34576378073699821 0 -0.41125860555200922 0.34134685969384471 0 -0.41273643032526569 0.33662953043248711 0 -0.41433336845197538 0.3415594658204692 0 -0.41125860555200922 0.34134685969384471 0 -0.41433336845197538 0.3415594658204692 0 -0.41366919887348358 0.34576378073699821 0 -0.41125860555200922 0.34134685969384471 0 -0.41273643032526569 0.33662953043248711 0 -0.40895905381070002 0.33957121871677393 0 -0.41273643032526569 0.33662953043248711 0 -0.40777024278950652 0.33697950655941222 0 -0.41273643032526569 0.33662953043248711 0 -0.40895905381070002 0.33957121871677393 0 -0.40777024278950652 0.33697950655941222 0 -0.41273643032526569 0.33662953043248711 0 -0.40777024278950652 0.33697950655941222 0 -0.40925887999808552 0.33516025262174892 0 -0.40777024278950652 0.33697950655941222 0 -0.40925887999808552 0.33516025262174892 0 -0.40586906590548888 0.3393029225754271 0 -0.40895905381070002 0.33957121871677393 0 -0.40777024278950652 0.33697950655941222 0 -0.40586906590548888 0.3393029225754271 0 -0.40777024278950652 0.33697950655941222 0 -0.41273643032526569 0.33662953043248711 0 -0.40925887999808552 0.33516025262174892 0 -0.40925887999808552 0.33516025262174892 0 -0.42024067891477529 0.32173946694831868 0 -0.40925887999808552 0.33516025262174892 0 -0.42071708592719742 0.33131558094746122 0 -0.42024067891477529 0.32173946694831868 0 -0.41273643032526569 0.33662953043248711 0 -0.40925887999808552 0.33516025262174892 0 -0.42071708592719742 0.33131558094746122 0 -0.41273643032526569 0.33662953043248711 0 -0.4199209072431685 0.34318781838679219 0 -0.41433336845197538 0.3415594658204692 0 -0.4199209072431685 0.34318781838679219 0 -0.41433336845197538 0.3415594658204692 0 -0.41366919887348358 0.34576378073699821 0 -0.40925887999808552 0.33516025262174892 0 -0.41892768793075841 0.31754462100172592 0 -0.42141481873501418 0.31567829233095179 0 -0.40925887999808552 0.33516025262174892 0 -0.411263050936583 0.31954773430139438 0 -0.41892768793075841 0.31754462100172592 0 -0.40925887999808552 0.33516025262174892 0 -0.42141481873501418 0.31567829233095179 0 -0.40925887999808552 0.33516025262174892 0 -0.42024067891477529 0.32173946694831868 0 -0.42141481873501418 0.31567829233095179 0 -0.411263050936583 0.31954773430139438 0 -0.40826549608127172 0.31275764886218971 0 -0.41647318301620623 0.31168328686166002 0 -0.4039094095666334 0.320812311378052 0 -0.411263050936583 0.31954773430139438 0 -0.40826549608127172 0.31275764886218971 0 -0.4039094095666334 0.320812311378052 0 -0.40925887999808552 0.33516025262174892 0 -0.411263050936583 0.31954773430139438 0 -0.411263050936583 0.31954773430139438 0 -0.41892768793075841 0.31754462100172592 0 -0.41647318301620623 0.31168328686166002 0 -0.41892768793075841 0.31754462100172592 0 -0.42141481873501418 0.31567829233095179 0 -0.41892768793075841 0.31754462100172592 0 -0.42141481873501418 0.31567829233095179 0 -0.41647318301620623 0.31168328686166002 0 -0.42024067891477529 0.32173946694831868 0 -0.43790895006943947 0.32081412042189511 0 -0.43122247783146522 0.30831868127488848 0 -0.42024067891477529 0.32173946694831868 0 -0.42938605365092247 0.3272194948190838 0 -0.43790895006943947 0.32081412042189511 0 -0.42024067891477529 0.32173946694831868 0 -0.42141481873501418 0.31567829233095179 0 -0.43122247783146522 0.30831868127488848 0 -0.42024067891477529 0.32173946694831868 0 -0.43122247783146522 0.30831868127488848 0 -0.42071708592719742 0.33131558094746122 0 -0.42024067891477529 0.32173946694831868 0 -0.42938605365092247 0.3272194948190838 0 -0.42938605365092247 0.3272194948190838 0 -0.43674098495811231 0.33493788649063261 0 -0.43790895006943947 0.32081412042189511 0 -0.43790895006943947 0.32081412042189511 0 -0.4401847358662575 0.3127477530096977 0 -0.43122247783146522 0.30831868127488848 0 -0.41273643032526569 0.33662953043248711 0 -0.43674098495811231 0.33493788649063261 0 -0.42071708592719742 0.33131558094746122 0 -0.42938605365092247 0.3272194948190838 0 -0.43674098495811231 0.33493788649063261 0 -0.41273643032526569 0.33662953043248711 0 -0.4199209072431685 0.34318781838679219 0 -0.43385085243219867 0.34555045147446217 0 -0.41273643032526569 0.33662953043248711 0 -0.42071708592719742 0.33131558094746122 0 -0.43674098495811231 0.33493788649063261 0 -0.41273643032526569 0.33662953043248711 0 -0.43385085243219867 0.34555045147446217 0 -0.41273643032526569 0.33662953043248711 0 -0.43674098495811231 0.33493788649063261 0 -0.43385085243219867 0.34555045147446217 0 -0.43385085243219867 0.34555045147446217 0 -0.4302486007270056 0.35272204188882378 0 -0.42573384958437638 0.34916959158482058 0 -0.43385085243219867 0.34555045147446217 0 -0.43539550265875948 0.35741731211322858 0 -0.44110397924445488 0.35756373905142852 0 -0.43539550265875948 0.35741731211322858 0 -0.4302486007270056 0.35272204188882378 0 -0.42757171946388478 0.35850981688022993 0 -0.43385085243219867 0.34555045147446217 0 -0.43539550265875948 0.35741731211322858 0 -0.4302486007270056 0.35272204188882378 0 -0.4302486007270056 0.35272204188882378 0 -0.42480748600639012 0.35482075793933809 0 -0.42573384958437638 0.34916959158482058 0 -0.4302486007270056 0.35272204188882378 0 -0.42757171946388478 0.35850981688022993 0 -0.42480748600639012 0.35482075793933809 0 -0.42757171946388478 0.35850981688022993 0 -0.42480748600639012 0.35482075793933809 0 -0.42195212413097077 0.36043988011418487 0 -0.4199209072431685 0.34318781838679219 0 -0.43385085243219867 0.34555045147446217 0 -0.42573384958437638 0.34916959158482058 0 -0.42480748600639012 0.35482075793933809 0 -0.42573384958437638 0.34916959158482058 0 -0.41984140151311927 0.3495668882346864 0 -0.4199209072431685 0.34318781838679219 0 -0.42573384958437638 0.34916959158482058 0 -0.41984140151311927 0.3495668882346864 0 -0.4199209072431685 0.34318781838679219 0 -0.41984140151311927 0.3495668882346864 0 -0.41366919887348358 0.34576378073699821 0 -0.41984140151311927 0.3495668882346864 0 -0.41366919887348358 0.34576378073699821 0 -0.41404230344944593 0.35073751764187411 0 -0.42480748600639012 0.35482075793933809 0 -0.41984140151311927 0.3495668882346864 0 -0.41755863725870102 0.35684421707679032 0 -0.42480748600639012 0.35482075793933809 0 -0.41755863725870102 0.35684421707679032 0 -0.42195212413097077 0.36043988011418487 0 -0.41984140151311927 0.3495668882346864 0 -0.41755863725870102 0.35684421707679032 0 -0.41404230344944593 0.35073751764187411 0 -0.41755863725870102 0.35684421707679032 0 -0.41125051028190041 0.35540848222164118 0 -0.41404230344944593 0.35073751764187411 0 -0.41125051028190041 0.35540848222164118 0 -0.40888688292129022 0.34941903462410451 0 -0.41404230344944593 0.35073751764187411 0 -0.41755863725870102 0.35684421707679032 0 -0.41125051028190041 0.35540848222164118 0 -0.41142088061722581 0.36176204086772412 0 -0.40553625032349627 0.36037170931698131 0 -0.41125051028190041 0.35540848222164118 0 -0.41142088061722581 0.36176204086772412 0 -0.40525205349158999 0.35429039595711992 0 -0.40553625032349627 0.36037170931698131 0 -0.41125051028190041 0.35540848222164118 0 -0.40525205349158999 0.35429039595711992 0 -0.41125051028190041 0.35540848222164118 0 -0.40888688292129022 0.34941903462410451 0 -0.4080564418273247 0.34368885170405422 0 -0.40888688292129022 0.34941903462410451 0 -0.41366919887348358 0.34576378073699821 0 -0.40888688292129022 0.34941903462410451 0 -0.41366919887348358 0.34576378073699821 0 -0.41404230344944593 0.35073751764187411 0 -0.4250431626101242 0.37647010748543319 0 -0.40086489287733429 0.37467411733839928 0 -0.42486892241442098 0.36677785020884007 0 -0.40086489287733429 0.37467411733839928 0 -0.42486892241442098 0.36677785020884007 0 -0.40086489287733429 0.37467411733839928 0 -0.41378193274770297 0.36450427419225789 0 -0.42486892241442098 0.36677785020884007 0 -0.40544017780568847 0.3661562974108753 0 -0.40086489287733429 0.37467411733839928 0 -0.41378193274770297 0.36450427419225789 0 -0.40544017780568847 0.3661562974108753 0 -0.41142088061722581 0.36176204086772412 0 -0.41378193274770297 0.36450427419225789 0 -0.40553625032349627 0.36037170931698131 0 -0.40544017780568847 0.3661562974108753 0 -0.41142088061722581 0.36176204086772412 0 -0.41755863725870102 0.35684421707679032 0 -0.41378193274770297 0.36450427419225789 0 -0.42195212413097077 0.36043988011418487 0 -0.41378193274770297 0.36450427419225789 0 -0.42486892241442098 0.36677785020884007 0 -0.42195212413097077 0.36043988011418487 0 -0.41755863725870102 0.35684421707679032 0 -0.41142088061722581 0.36176204086772412 0 -0.41378193274770297 0.36450427419225789 0 -0.4250431626101242 0.37647010748543319 0 -0.44885864134335329 0.37135067543599282 0 -0.4250431626101242 0.37647010748543319 0 -0.42486892241442098 0.36677785020884007 0 -0.44885864134335329 0.37135067543599282 0 -0.42486892241442098 0.36677785020884007 0 -0.448872951951507 0.35888158307927881 0 -0.43539550265875948 0.35741731211322858 0 -0.42486892241442098 0.36677785020884007 0 -0.44110397924445488 0.35756373905142852 0 -0.43539550265875948 0.35741731211322858 0 -0.42757171946388478 0.35850981688022993 0 -0.42486892241442098 0.36677785020884007 0 -0.42757171946388478 0.35850981688022993 0 -0.42486892241442098 0.36677785020884007 0 -0.42195212413097077 0.36043988011418487 0 -0.42486892241442098 0.36677785020884007 0 -0.44885864134335329 0.37135067543599282 0 -0.448872951951507 0.35888158307927881 0 -0.44802713623065987 0.37645115623263098 0 -0.4250431626101242 0.37647010748543319 0 -0.44885864134335329 0.37135067543599282 0 -0.42486892241442098 0.36677785020884007 0 -0.44110397924445488 0.35756373905142852 0 -0.448872951951507 0.35888158307927881 0 -0.44885864134335329 0.37135067543599282 0 -0.448872951951507 0.35888158307927881 0 -0.44885864134335329 0.37135067543599282 0 -0.448872951951507 0.35888158307927881 0 -0.45634368000688869 0.36512471152292858 0 -0.43385085243219867 0.34555045147446217 0 -0.45496527453913199 0.35447137251643651 0 -0.44889299330712729 0.34242966823447613 0 -0.43385085243219867 0.34555045147446217 0 -0.45496527453913199 0.35447137251643651 0 -0.43385085243219867 0.34555045147446217 0 -0.44887533288597797 0.35680703170406669 0 -0.45496527453913199 0.35447137251643651 0 -0.43385085243219867 0.34555045147446217 0 -0.44110397924445488 0.35756373905142852 0 -0.44887533288597797 0.35680703170406669 0 -0.44110397924445488 0.35756373905142852 0 -0.44887533288597797 0.35680703170406669 0 -0.448872951951507 0.35888158307927881 0 -0.44887533288597797 0.35680703170406669 0 -0.448872951951507 0.35888158307927881 0 -0.44887533288597797 0.35680703170406669 0 -0.448872951951507 0.35888158307927881 0 -0.45496527453913199 0.35447137251643651 0 -0.448872951951507 0.35888158307927881 0 -0.45496527453913199 0.35447137251643651 0 -0.47186707529616939 0.3513175305497272 0 -0.448872951951507 0.35888158307927881 0 -0.47186707529616939 0.3513175305497272 0 -0.448872951951507 0.35888158307927881 0 -0.45634368000688869 0.36512471152292858 0 -0.47186707529616939 0.3513175305497272 0 -0.45911772068334677 0.34536620346235469 0 -0.45496527453913199 0.35447137251643651 0 -0.47186707529616939 0.3513175305497272 0 -0.45911772068334677 0.34536620346235469 0 -0.45496527453913199 0.35447137251643651 0 -0.44889299330712729 0.34242966823447613 0 -0.46572599417265398 0.36772482908493609 0 -0.45634368000688869 0.36512471152292858 0 -0.47186707529616939 0.3513175305497272 0 -0.46059005399087027 0.38292215568240928 0 -0.44885864134335329 0.37135067543599282 0 -0.46572599417265398 0.36772482908493609 0 -0.44885864134335329 0.37135067543599282 0 -0.46572599417265398 0.36772482908493609 0 -0.44885864134335329 0.37135067543599282 0 -0.46572599417265398 0.36772482908493609 0 -0.45634368000688869 0.36512471152292858 0 -0.47832653283541199 0.38608194873200979 0 -0.46572599417265398 0.36772482908493609 0 -0.48259334700195489 0.36409898273387958 0 -0.46572599417265398 0.36772482908493609 0 -0.48259334700195489 0.36409898273387958 0 -0.47186707529616939 0.3513175305497272 0 -0.46572599417265398 0.36772482908493609 0 -0.48259334700195489 0.36409898273387958 0 -0.47186707529616939 0.3513175305497272 0 -0.494861198640831 0.34375347802017348 0 -0.47186707529616939 0.3513175305497272 0 -0.48536711719674469 0.35339641184703091 0 -0.494861198640831 0.34375347802017348 0 -0.48259334700195489 0.36409898273387958 0 -0.47186707529616939 0.3513175305497272 0 -0.48536711719674469 0.35339641184703091 0 -0.48259334700195489 0.36409898273387958 0 -0.49214684784802371 0.35441565608434311 0 -0.48536711719674469 0.35339641184703091 0 -0.49214684784802371 0.35441565608434311 0 -0.5 0.36887446842263683 0 -0.5 0.34271985673358363 0 -0.49214684784802371 0.35441565608434311 0 -0.48536711719674469 0.35339641184703091 0 -0.494861198640831 0.34375347802017348 0 -0.49214684784802371 0.35441565608434311 0 -0.494861198640831 0.34375347802017348 0 -0.5 0.34271985673358363 0 -0.48850556386005051 0.3766603246979251 0 -0.48259334700195489 0.36409898273387958 0 -0.5 0.36887446842263683 0 -0.48259334700195489 0.36409898273387958 0 -0.49214684784802371 0.35441565608434311 0 -0.5 0.36887446842263683 0 -0.485708092488497 0.3189911195031831 0 -0.5 0.31656524504453032 0 -0.48475009422380527 0.3315545986069256 0 -0.485708092488497 0.3189911195031831 0 -0.5 0.31656524504453032 0 -0.48583489694974541 0.30845327583860088 0 -0.5 0.31656524504453032 0 -0.5 0.34271985673358363 0 -0.48475009422380527 0.3315545986069256 0 -0.494861198640831 0.34375347802017348 0 -0.5 0.34271985673358363 0 -0.48475009422380527 0.3315545986069256 0 -0.48475009422380527 0.3315545986069256 0 -0.46074553959095882 0.3332462425487791 0 -0.47186707529616939 0.3513175305497272 0 -0.494861198640831 0.34375347802017348 0 -0.48475009422380527 0.3315545986069256 0 -0.47186707529616939 0.3513175305497272 0 -0.48475009422380527 0.3315545986069256 0 -0.46074553959095882 0.3332462425487791 0 -0.48475009422380527 0.3315545986069256 0 -0.47224737878043732 0.31939135852267558 0 -0.46074553959095882 0.3332462425487791 0 -0.485708092488497 0.3189911195031831 0 -0.48475009422380527 0.3315545986069256 0 -0.47224737878043732 0.31939135852267558 0 -0.485708092488497 0.3189911195031831 0 -0.47224737878043732 0.31939135852267558 0 -0.48583489694974541 0.30845327583860088 0 -0.47224737878043732 0.31939135852267558 0 -0.46258830912673421 0.31343425170936878 0 -0.46074553959095882 0.3332462425487791 0 -0.46258830912673421 0.31343425170936878 0 -0.46074553959095882 0.3332462425487791 0 -0.45107709460752138 0.31557533431346357 0 -0.45911772068334677 0.34536620346235469 0 -0.47186707529616939 0.3513175305497272 0 -0.46074553959095882 0.3332462425487791 0 -0.45911772068334677 0.34536620346235469 0 -0.46074553959095882 0.3332462425487791 0 -0.44889299330712729 0.34242966823447613 0 -0.43674098495811231 0.33493788649063261 0 -0.46074553959095882 0.3332462425487791 0 -0.43674098495811231 0.33493788649063261 0 -0.46074553959095882 0.3332462425487791 0 -0.44889299330712729 0.34242966823447613 0 -0.43674098495811231 0.33493788649063261 0 -0.46074553959095882 0.3332462425487791 0 -0.43790895006943947 0.32081412042189511 0 -0.43674098495811231 0.33493788649063261 0 -0.43385085243219867 0.34555045147446217 0 -0.44889299330712729 0.34242966823447613 0 -0.46074553959095882 0.3332462425487791 0 -0.45107709460752138 0.31557533431346357 0 -0.43790895006943947 0.32081412042189511 0 -0.45107709460752138 0.31557533431346357 0 -0.43790895006943947 0.32081412042189511 0 -0.4401847358662575 0.3127477530096977 0 -0.44444415583193408 0.29216055381020578 0 -0.43122247783146522 0.30831868127488848 0 -0.44810052680614793 0.29565349026271098 0 -0.43122247783146522 0.30831868127488848 0 -0.44368336155109173 0.30649675881006838 0 -0.44810052680614793 0.29565349026271098 0 -0.43122247783146522 0.30831868127488848 0 -0.4401847358662575 0.3127477530096977 0 -0.44368336155109173 0.30649675881006838 0 -0.43122247783146522 0.30831868127488848 0 -0.44444415583193408 0.29216055381020578 0 -0.44810052680614793 0.29565349026271098 0 -0.43122247783146522 0.30831868127488848 0 -0.45107709460752138 0.31557533431346357 0 -0.4401847358662575 0.3127477530096977 0 -0.44368336155109173 0.30649675881006838 0 -0.44368336155109173 0.30649675881006838 0 -0.44996115485610377 0.3015940899144034 0 -0.4551770389262465 0.30483297142504889 0 -0.44368336155109173 0.30649675881006838 0 -0.44996115485610377 0.3015940899144034 0 -0.44810052680614793 0.29565349026271098 0 -0.45288369214092922 0.29939313915978533 0 -0.44996115485610377 0.3015940899144034 0 -0.44810052680614793 0.29565349026271098 0 -0.45288369214092922 0.29939313915978533 0 -0.44996115485610377 0.3015940899144034 0 -0.4551770389262465 0.30483297142504889 0 -0.45107709460752138 0.31557533431346357 0 -0.44368336155109173 0.30649675881006838 0 -0.4551770389262465 0.30483297142504889 0 -0.44702735364695217 0.27675533545947301 0 -0.43422108619098299 0.29621681389521232 0 -0.44444415583193408 0.29216055381020578 0 -0.44702735364695217 0.27675533545947301 0 -0.43422108619098299 0.29621681389521232 0 -0.44702735364695217 0.27675533545947301 0 -0.43274811138672559 0.28469846643612018 0 -0.43422108619098299 0.29621681389521232 0 -0.44810052680614793 0.29565349026271098 0 -0.4493542421043164 0.28919027156790111 0 -0.45395006383388498 0.28587005882998617 0 -0.44444415583193408 0.29216055381020578 0 -0.44810052680614793 0.29565349026271098 0 -0.4493542421043164 0.28919027156790111 0 -0.44444415583193408 0.29216055381020578 0 -0.4493542421043164 0.28919027156790111 0 -0.44702735364695217 0.27675533545947301 0 -0.4493542421043164 0.28919027156790111 0 -0.45395006383388498 0.28587005882998617 0 -0.44702735364695217 0.27675533545947301 0 -0.44810052680614793 0.29565349026271098 0 -0.45395006383388498 0.28587005882998617 0 -0.46497857578083068 0.28298829925053381 0 -0.44810052680614793 0.29565349026271098 0 -0.4593999708052337 0.29480301670676529 0 -0.46497857578083068 0.28298829925053381 0 -0.44810052680614793 0.29565349026271098 0 -0.46497857578083068 0.28298829925053381 0 -0.45288369214092922 0.29939313915978533 0 -0.44810052680614793 0.29565349026271098 0 -0.4593999708052337 0.29480301670676529 0 -0.4593999708052337 0.29480301670676529 0 -0.46827174088950307 0.29409138505043392 0 -0.46497857578083068 0.28298829925053381 0 -0.46258830912673421 0.31343425170936878 0 -0.45107709460752138 0.31557533431346357 0 -0.4551770389262465 0.30483297142504889 0 -0.45288369214092922 0.29939313915978533 0 -0.4593999708052337 0.29480301670676529 0 -0.4551770389262465 0.30483297142504889 0 -0.4593999708052337 0.29480301670676529 0 -0.4551770389262465 0.30483297142504889 0 -0.46625021185001803 0.30380681263807602 0 -0.4593999708052337 0.29480301670676529 0 -0.46827174088950307 0.29409138505043392 0 -0.46625021185001803 0.30380681263807602 0 -0.47224737878043732 0.31939135852267558 0 -0.46258830912673421 0.31343425170936878 0 -0.46625021185001803 0.30380681263807602 0 -0.46258830912673421 0.31343425170936878 0 -0.4551770389262465 0.30483297142504889 0 -0.46625021185001803 0.30380681263807602 0 -0.47551717359816043 0.30301602212345602 0 -0.4769183937012712 0.29196404103452073 0 -0.48583489694974541 0.30845327583860088 0 -0.47224737878043732 0.31939135852267558 0 -0.46625021185001803 0.30380681263807602 0 -0.47551717359816043 0.30301602212345602 0 -0.47224737878043732 0.31939135852267558 0 -0.47551717359816043 0.30301602212345602 0 -0.48583489694974541 0.30845327583860088 0 -0.46827174088950307 0.29409138505043392 0 -0.46625021185001803 0.30380681263807602 0 -0.47551717359816043 0.30301602212345602 0 -0.46827174088950307 0.29409138505043392 0 -0.46497857578083068 0.28298829925053381 0 -0.4769183937012712 0.29196404103452073 0 -0.4769183937012712 0.29196404103452073 0 -0.48757792524538679 0.2814999319082685 0 -0.48583489694974541 0.30845327583860088 0 -0.46827174088950307 0.29409138505043392 0 -0.47551717359816043 0.30301602212345602 0 -0.4769183937012712 0.29196404103452073 0 -0.46497857578083068 0.28298829925053381 0 -0.47783287987075052 0.28169384510791978 0 -0.4769183937012712 0.29196404103452073 0 -0.47783287987075052 0.28169384510791978 0 -0.4769183937012712 0.29196404103452073 0 -0.48757792524538679 0.2814999319082685 0 -0.5 0.29041063335547701 0 -0.48757792524538679 0.2814999319082685 0 -0.48583489694974541 0.30845327583860088 0 -0.48757792524538679 0.2814999319082685 0 -0.48583489694974541 0.30845327583860088 0 -0.5 0.31656524504453032 0 -0.5 0.29041063335547701 0 -0.48583489694974541 0.30845327583860088 0 -0.5 0.23810140997737081 0 -0.5 0.26425602166642381 0 -0.48932095354102823 0.25454658797793611 0 -0.48757792524538679 0.2814999319082685 0 -0.48932095354102823 0.25454658797793611 0 -0.48366697684514259 0.26703881783025729 0 -0.48757792524538679 0.2814999319082685 0 -0.5 0.26425602166642381 0 -0.48932095354102823 0.25454658797793611 0 -0.48757792524538679 0.2814999319082685 0 -0.48932095354102823 0.25454658797793611 0 -0.5 0.29041063335547701 0 -0.48757792524538679 0.2814999319082685 0 -0.5 0.26425602166642381 0 -0.46497857578083068 0.28298829925053381 0 -0.48185662475551339 0.27032310823835648 0 -0.46497857578083068 0.28298829925053381 0 -0.47783287987075052 0.28169384510791978 0 -0.48185662475551339 0.27032310823835648 0 -0.48366697684514259 0.26703881783025729 0 -0.45893043448094739 0.2699305570534084 0 -0.48757792524538679 0.2814999319082685 0 -0.48366697684514259 0.26703881783025729 0 -0.48185662475551339 0.27032310823835648 0 -0.48366697684514259 0.26703881783025729 0 -0.48185662475551339 0.27032310823835648 0 -0.47235815296560851 0.27257019559313889 0 -0.46497857578083068 0.28298829925053381 0 -0.48185662475551339 0.27032310823835648 0 -0.47235815296560851 0.27257019559313889 0 -0.48366697684514259 0.26703881783025729 0 -0.46959483388743167 0.25994315597580908 0 -0.45893043448094739 0.2699305570534084 0 -0.48366697684514259 0.26703881783025729 0 -0.47235815296560851 0.27257019559313889 0 -0.45893043448094739 0.2699305570534084 0 -0.47783287987075052 0.28169384510791978 0 -0.48757792524538679 0.2814999319082685 0 -0.48185662475551339 0.27032310823835648 0 -0.48932095354102823 0.25454658797793611 0 -0.48366697684514259 0.26703881783025729 0 -0.47792533453874358 0.25606878273296479 0 -0.48366697684514259 0.26703881783025729 0 -0.46959483388743167 0.25994315597580908 0 -0.47792533453874358 0.25606878273296479 0 -0.47864167104372218 0.246590621409366 0 -0.48932095354102823 0.25454658797793611 0 -0.47792533453874358 0.25606878273296479 0 -0.47864167104372218 0.246590621409366 0 -0.47792533453874358 0.25606878273296479 0 -0.46938038244821267 0.25133041049185839 0 -0.46959483388743167 0.25994315597580908 0 -0.47792533453874358 0.25606878273296479 0 -0.46938038244821267 0.25133041049185839 0 -0.46959483388743167 0.25994315597580908 0 -0.46938038244821267 0.25133041049185839 0 -0.45807104112411212 0.25534721177055669 0 -0.46959483388743167 0.25994315597580908 0 -0.45807104112411212 0.25534721177055669 0 -0.45893043448094739 0.2699305570534084 0 -0.45807104112411212 0.25534721177055669 0 -0.45893043448094739 0.2699305570534084 0 -0.44442574262614493 0.25832327296872359 0 -0.45395006383388498 0.28587005882998617 0 -0.46497857578083068 0.28298829925053381 0 -0.45893043448094739 0.2699305570534084 0 -0.45395006383388498 0.28587005882998617 0 -0.45893043448094739 0.2699305570534084 0 -0.44702735364695217 0.27675533545947301 0 -0.46497857578083068 0.28298829925053381 0 -0.47235815296560851 0.27257019559313889 0 -0.45893043448094739 0.2699305570534084 0 -0.45893043448094739 0.2699305570534084 0 -0.43419389211675241 0.27282229627655952 0 -0.45893043448094739 0.2699305570534084 0 -0.44442574262614493 0.25832327296872359 0 -0.43419389211675241 0.27282229627655952 0 -0.45893043448094739 0.2699305570534084 0 -0.44702735364695217 0.27675533545947301 0 -0.43419389211675241 0.27282229627655952 0 -0.44702735364695217 0.27675533545947301 0 -0.43419389211675241 0.27282229627655952 0 -0.43274811138672559 0.28469846643612018 0 -0.45046339488490522 0.249057113070103 0 -0.45807104112411212 0.25534721177055669 0 -0.44442574262614493 0.25832327296872359 0 -0.44062222049055039 0.24203477259657111 0 -0.44442574262614493 0.25832327296872359 0 -0.42503978512155383 0.25887440404814072 0 -0.44062222049055039 0.24203477259657111 0 -0.42503978512155383 0.25887440404814072 0 -0.44442574262614493 0.25832327296872359 0 -0.42503978512155383 0.25887440404814072 0 -0.43419389211675241 0.27282229627655952 0 -0.42503978512155383 0.25887440404814072 0 -0.40945734975255721 0.27571403549971041 0 -0.40585136056822319 0.25674789398696107 0 -0.4198454647722451 0.23985190764030939 0 -0.42503978512155383 0.25887440404814072 0 -0.40585136056822319 0.25674789398696107 0 -0.40945734975255721 0.27571403549971041 0 -0.43419389211675241 0.27282229627655952 0 -0.42503978512155383 0.25887440404814072 0 -0.40945734975255721 0.27571403549971041 0 -0.42503978512155383 0.25887440404814072 0 -0.40945734975255721 0.27571403549971041 0 -0.43419389211675241 0.27282229627655952 0 -0.40945734975255721 0.27571403549971041 0 -0.43419389211675241 0.27282229627655952 0 -0.4229835889384117 0.28415291652507912 0 -0.43419389211675241 0.27282229627655952 0 -0.43274811138672559 0.28469846643612018 0 -0.4229835889384117 0.28415291652507912 0 -0.43274811138672559 0.28469846643612018 0 -0.43422108619098299 0.29621681389521232 0 -0.42519236151645012 0.29288975242762622 0 -0.43274811138672559 0.28469846643612018 0 -0.42519236151645012 0.29288975242762622 0 -0.4229835889384117 0.28415291652507912 0 -0.42141481873501418 0.31567829233095179 0 -0.43422108619098299 0.29621681389521232 0 -0.42141481873501418 0.31567829233095179 0 -0.43422108619098299 0.29621681389521232 0 -0.42237726971740519 0.30236741203524931 0 -0.44444415583193408 0.29216055381020578 0 -0.43422108619098299 0.29621681389521232 0 -0.43122247783146522 0.30831868127488848 0 -0.42141481873501418 0.31567829233095179 0 -0.43422108619098299 0.29621681389521232 0 -0.43122247783146522 0.30831868127488848 0 -0.43422108619098299 0.29621681389521232 0 -0.42519236151645012 0.29288975242762622 0 -0.42237726971740519 0.30236741203524931 0 -0.42141481873501418 0.31567829233095179 0 -0.43122247783146522 0.30831868127488848 0 -0.42237726971740519 0.30236741203524931 0 -0.41647318301620623 0.31168328686166002 0 -0.40812109447663159 0.30329838776079099 0 -0.42141481873501418 0.31567829233095179 0 -0.42237726971740519 0.30236741203524931 0 -0.41647318301620623 0.31168328686166002 0 -0.42237726971740519 0.30236741203524931 0 -0.40812109447663159 0.30329838776079099 0 -0.41256551749876041 0.29129965580367562 0 -0.40826549608127172 0.31275764886218971 0 -0.41647318301620623 0.31168328686166002 0 -0.40812109447663159 0.30329838776079099 0 -0.40945734975255721 0.27571403549971041 0 -0.4229835889384117 0.28415291652507912 0 -0.41256551749876041 0.29129965580367562 0 -0.42519236151645012 0.29288975242762622 0 -0.4229835889384117 0.28415291652507912 0 -0.41256551749876041 0.29129965580367562 0 -0.42519236151645012 0.29288975242762622 0 -0.42237726971740519 0.30236741203524931 0 -0.41256551749876041 0.29129965580367562 0 -0.40945734975255721 0.27571403549971041 0 -0.39180528154043992 0.29479027846244049 0 -0.39350738277932218 0.27757861076756318 0 -0.40945734975255721 0.27571403549971041 0 -0.39180528154043992 0.29479027846244049 0 -0.40812109447663159 0.30329838776079099 0 -0.41256551749876041 0.29129965580367562 0 -0.39180528154043992 0.29479027846244049 0 -0.40945734975255721 0.27571403549971041 0 -0.41256551749876041 0.29129965580367562 0 -0.39180528154043992 0.29479027846244049 0 -0.38613629988198012 0.31665983269396758 0 -0.39830358576524327 0.31266849694114901 0 -0.39180528154043992 0.29479027846244049 0 -0.39830358576524327 0.31266849694114901 0 -0.40812109447663159 0.30329838776079099 0 -0.39180528154043992 0.29479027846244049 0 -0.39830358576524327 0.31266849694114901 0 -0.40826549608127172 0.31275764886218971 0 -0.40812109447663159 0.30329838776079099 0 -0.39180528154043992 0.29479027846244049 0 -0.37819889022761238 0.29924868842846319 0 -0.37415321332832258 0.31386652142517069 0 -0.38613629988198012 0.31665983269396758 0 -0.39180528154043992 0.29479027846244049 0 -0.37415321332832258 0.31386652142517069 0 -0.39180528154043992 0.29479027846244049 0 -0.37415321332832258 0.31386652142517069 0 -0.39180528154043992 0.29479027846244049 0 -0.37819889022761238 0.29924868842846319 0 -0.37870614451813112 0.28175948497688769 0 -0.39180528154043992 0.29479027846244049 0 -0.37870614451813112 0.28175948497688769 0 -0.39350738277932218 0.27757861076756318 0 -0.37870614451813112 0.28175948497688769 0 -0.37647038179830861 0.26645711442365799 0 -0.39350738277932218 0.27757861076756318 0 -0.37647038179830861 0.26645711442365799 0 -0.39336972403141229 0.26369738761855421 0 -0.39350738277932218 0.27757861076756318 0 -0.38790582398472923 0.24962922847932231 0 -0.37647038179830861 0.26645711442365799 0 -0.39336972403141229 0.26369738761855421 0 -0.38790582398472923 0.24962922847932231 0 -0.37647038179830861 0.26645711442365799 0 -0.36318679658289171 0.25196182354824148 0 -0.40945734975255721 0.27571403549971041 0 -0.40585136056822319 0.25674789398696107 0 -0.39336972403141229 0.26369738761855421 0 -0.38790582398472923 0.24962922847932231 0 -0.40585136056822319 0.25674789398696107 0 -0.39336972403141229 0.26369738761855421 0 -0.40945734975255721 0.27571403549971041 0 -0.39336972403141229 0.26369738761855421 0 -0.39350738277932218 0.27757861076756318 0 -0.40945734975255721 0.27571403549971041 0 -0.39350738277932218 0.27757861076756318 0 -0.35583614606747688 0.27501819518035592 0 -0.36318679658289171 0.25196182354824148 0 -0.33952374355129727 0.25899057541505788 0 -0.37647038179830861 0.26645711442365799 0 -0.35583614606747688 0.27501819518035592 0 -0.36318679658289171 0.25196182354824148 0 -0.37870614451813112 0.28175948497688769 0 -0.37647038179830861 0.26645711442365799 0 -0.35583614606747688 0.27501819518035592 0 -0.37819889022761238 0.29924868842846319 0 -0.37870614451813112 0.28175948497688769 0 -0.36775571630023218 0.2927315942663431 0 -0.37870614451813112 0.28175948497688769 0 -0.35583614606747688 0.27501819518035592 0 -0.36775571630023218 0.2927315942663431 0 -0.37819889022761238 0.29924868842846319 0 -0.36899777432263853 0.30469822459034263 0 -0.37415321332832258 0.31386652142517069 0 -0.36899777432263853 0.30469822459034263 0 -0.36272901898995358 0.31473918551029578 0 -0.37415321332832258 0.31386652142517069 0 -0.37819889022761238 0.29924868842846319 0 -0.36775571630023218 0.2927315942663431 0 -0.36899777432263853 0.30469822459034263 0 -0.36775571630023218 0.2927315942663431 0 -0.36899777432263853 0.30469822459034263 0 -0.35931620367806588 0.30475084950198522 0 -0.36775571630023218 0.2927315942663431 0 -0.35931620367806588 0.30475084950198522 0 -0.35261706249820868 0.29381533636168528 0 -0.36899777432263853 0.30469822459034263 0 -0.35931620367806588 0.30475084950198522 0 -0.36272901898995358 0.31473918551029578 0 -0.35931620367806588 0.30475084950198522 0 -0.35261706249820868 0.29381533636168528 0 -0.34344143829887858 0.30736403781452232 0 -0.35931620367806588 0.30475084950198522 0 -0.34344143829887858 0.30736403781452232 0 -0.35467675850453528 0.31743756764607989 0 -0.35931620367806588 0.30475084950198522 0 -0.35467675850453528 0.31743756764607989 0 -0.36272901898995358 0.31473918551029578 0 -0.35583614606747688 0.27501819518035592 0 -0.36775571630023218 0.2927315942663431 0 -0.35261706249820868 0.29381533636168528 0 -0.35583614606747688 0.27501819518035592 0 -0.35261706249820868 0.29381533636168528 0 -0.33673580814638959 0.28921200504521999 0 -0.35261706249820868 0.29381533636168528 0 -0.33673580814638959 0.28921200504521999 0 -0.34344143829887858 0.30736403781452232 0 -0.33673580814638959 0.28921200504521999 0 -0.32075162894010661 0.28280614760534989 0 -0.33379142081270979 0.2734424933293601 0 -0.34344143829887858 0.30736403781452232 0 -0.31699951866320542 0.30755322334125379 0 -0.34344143829887858 0.30736403781452232 0 -0.31699951866320542 0.30755322334125379 0 -0.33459812393413729 0.32207732583041709 0 -0.33673580814638959 0.28921200504521999 0 -0.34344143829887858 0.30736403781452232 0 -0.31699951866320542 0.30755322334125379 0 -0.33673580814638959 0.28921200504521999 0 -0.31699951866320542 0.30755322334125379 0 -0.32075162894010661 0.28280614760534989 0 -0.31699951866320542 0.30755322334125379 0 -0.32075162894010661 0.28280614760534989 0 -0.30493521127791462 0.28695781074044469 0 -0.32075162894010661 0.28280614760534989 0 -0.31931282352829687 0.26617321261290411 0 -0.33379142081270979 0.2734424933293601 0 -0.32075162894010661 0.28280614760534989 0 -0.31931282352829687 0.26617321261290411 0 -0.30493521127791462 0.28695781074044469 0 -0.35583614606747688 0.27501819518035592 0 -0.33673580814638959 0.28921200504521999 0 -0.33379142081270979 0.2734424933293601 0 -0.35583614606747688 0.27501819518035592 0 -0.33379142081270979 0.2734424933293601 0 -0.33952374355129727 0.25899057541505788 0 -0.31931282352829687 0.26617321261290411 0 -0.33379142081270979 0.2734424933293601 0 -0.33952374355129727 0.25899057541505788 0 -0.32200613725511351 0.24850726385495631 0 -0.31931282352829687 0.26617321261290411 0 -0.33952374355129727 0.25899057541505788 0 -0.32200613725511351 0.24850726385495631 0 -0.31931282352829687 0.26617321261290411 0 -0.30640548876467488 0.25787073169030861 0 -0.31931282352829687 0.26617321261290411 0 -0.30640548876467488 0.25787073169030861 0 -0.3010630097917536 0.27273037638764702 0 -0.31931282352829687 0.26617321261290411 0 -0.3010630097917536 0.27273037638764702 0 -0.30493521127791462 0.28695781074044469 0 -0.31931282352829687 0.26617321261290411 0 -0.30493521127791462 0.28695781074044469 0 -0.3010630097917536 0.27273037638764702 0 -0.29309283898050847 0.28048055459605348 0 -0.30493521127791462 0.28695781074044469 0 -0.3010630097917536 0.27273037638764702 0 -0.29309283898050847 0.28048055459605348 0 -0.28156868640737281 0.27216957229852412 0 -0.30640548876467488 0.25787073169030861 0 -0.3010630097917536 0.27273037638764702 0 -0.28156868640737281 0.27216957229852412 0 -0.30640548876467488 0.25787073169030861 0 -0.28156868640737281 0.27216957229852412 0 -0.28729818335365731 0.26780124082781631 0 -0.28156868640737281 0.27216957229852412 0 -0.28729818335365731 0.26780124082781631 0 -0.27880962639343299 0.26078065685839158 0 -0.29309283898050847 0.28048055459605348 0 -0.28156868640737281 0.27216957229852412 0 -0.28401529333418091 0.28255904946725641 0 -0.30640548876467488 0.25787073169030861 0 -0.28156868640737281 0.27216957229852412 0 -0.29125564533142001 0.24067530578368901 0 -0.30640548876467488 0.25787073169030861 0 -0.28729818335365731 0.26780124082781631 0 -0.29125564533142001 0.24067530578368901 0 -0.28729818335365731 0.26780124082781631 0 -0.27880962639343299 0.26078065685839158 0 -0.29125564533142001 0.24067530578368901 0 -0.28729818335365731 0.26780124082781631 0 -0.29125564533142001 0.24067530578368901 0 -0.26892213733164849 0.25365425058065472 0 -0.27880962639343299 0.26078065685839158 0 -0.26892213733164849 0.25365425058065472 0 -0.27880962639343299 0.26078065685839158 0 -0.26500347954306669 0.26960291480127369 0 -0.28156868640737281 0.27216957229852412 0 -0.25673188405007052 0.28646841290673969 0 -0.28156868640737281 0.27216957229852412 0 -0.26500347954306669 0.26960291480127369 0 -0.25673188405007052 0.28646841290673969 0 -0.28156868640737281 0.27216957229852412 0 -0.27880962639343299 0.26078065685839158 0 -0.26500347954306669 0.26960291480127369 0 -0.28156868640737281 0.27216957229852412 0 -0.27479408276187339 0.28687287199942368 0 -0.28401529333418091 0.28255904946725641 0 -0.26500347954306669 0.26960291480127369 0 -0.25265925142613249 0.26128234508680298 0 -0.25673188405007052 0.28646841290673969 0 -0.26892213733164849 0.25365425058065472 0 -0.26500347954306669 0.26960291480127369 0 -0.25265925142613249 0.26128234508680298 0 -0.25621817608628389 0.2460965770837312 0 -0.26892213733164849 0.25365425058065472 0 -0.25265925142613249 0.26128234508680298 0 -0.25505401324638421 0.30366623925853881 0 -0.26661761067819428 0.2958317928062858 0 -0.26721257633701828 0.30790943684761429 0 -0.25505401324638421 0.30366623925853881 0 -0.26721257633701828 0.30790943684761429 0 -0.25901197930261888 0.31383205914145501 0 -0.26721257633701828 0.30790943684761429 0 -0.25901197930261888 0.31383205914145501 0 -0.26528599585519008 0.31471464054907522 0 -0.25505401324638421 0.30366623925853881 0 -0.25901197930261888 0.31383205914145501 0 -0.24885494741763489 0.31718848033418301 0 -0.25505401324638421 0.30366623925853881 0 -0.25673188405007052 0.28646841290673969 0 -0.26661761067819428 0.2958317928062858 0 -0.26661761067819428 0.2958317928062858 0 -0.27573637841232751 0.29432500902679382 0 -0.27326763327687947 0.30016750757533939 0 -0.28156868640737281 0.27216957229852412 0 -0.25673188405007052 0.28646841290673969 0 -0.27479408276187339 0.28687287199942368 0 -0.26661761067819428 0.2958317928062858 0 -0.27479408276187339 0.28687287199942368 0 -0.27573637841232751 0.29432500902679382 0 -0.25673188405007052 0.28646841290673969 0 -0.26661761067819428 0.2958317928062858 0 -0.27479408276187339 0.28687287199942368 0 -0.27479408276187339 0.28687287199942368 0 -0.28401529333418091 0.28255904946725641 0 -0.28313816676434478 0.29069510378855717 0 -0.27479408276187339 0.28687287199942368 0 -0.27573637841232751 0.29432500902679382 0 -0.28313816676434478 0.29069510378855717 0 -0.27573637841232751 0.29432500902679382 0 -0.28086439858034518 0.29805776896436298 0 -0.28313816676434478 0.29069510378855717 0 -0.28086439858034518 0.29805776896436298 0 -0.27753065875984329 0.30327410754998058 0 -0.28274061889410179 0.30278083970340541 0 -0.27753065875984329 0.30327410754998058 0 -0.27514776209796898 0.30785266251660498 0 -0.28274061889410179 0.30278083970340541 0 -0.27753065875984329 0.30327410754998058 0 -0.27326763327687947 0.30016750757533939 0 -0.27348155140824082 0.30658246875079598 0 -0.28086439858034518 0.29805776896436298 0 -0.27753065875984329 0.30327410754998058 0 -0.27326763327687947 0.30016750757533939 0 -0.27573637841232751 0.29432500902679382 0 -0.28086439858034518 0.29805776896436298 0 -0.27326763327687947 0.30016750757533939 0 -0.26661761067819428 0.2958317928062858 0 -0.27326763327687947 0.30016750757533939 0 -0.26721257633701828 0.30790943684761429 0 -0.26721257633701828 0.30790943684761429 0 -0.27514776209796898 0.30785266251660498 0 -0.27123720609067609 0.3158529302113221 0 -0.26721257633701828 0.30790943684761429 0 -0.27348155140824082 0.30658246875079598 0 -0.27514776209796898 0.30785266251660498 0 -0.26721257633701828 0.30790943684761429 0 -0.27514776209796898 0.30785266251660498 0 -0.27326763327687947 0.30016750757533939 0 -0.26721257633701828 0.30790943684761429 0 -0.27348155140824082 0.30658246875079598 0 -0.27514776209796898 0.30785266251660498 0 -0.2851872012256097 0.31550597615259851 0 -0.27753065875984329 0.30327410754998058 0 -0.27348155140824082 0.30658246875079598 0 -0.27514776209796898 0.30785266251660498 0 -0.27348155140824082 0.30658246875079598 0 -0.27514776209796898 0.30785266251660498 0 -0.27514776209796898 0.30785266251660498 0 -0.2905575990275322 0.30774240886798532 0 -0.27514776209796898 0.30785266251660498 0 -0.2905575990275322 0.30774240886798532 0 -0.2851872012256097 0.31550597615259851 0 -0.2896026760048197 0.2969772506180926 0 -0.2905575990275322 0.30774240886798532 0 -0.30493521127791462 0.28695781074044469 0 -0.27514776209796898 0.30785266251660498 0 -0.28274061889410179 0.30278083970340541 0 -0.2905575990275322 0.30774240886798532 0 -0.2905575990275322 0.30774240886798532 0 -0.2851872012256097 0.31550597615259851 0 -0.28274061889410179 0.30278083970340541 0 -0.2896026760048197 0.2969772506180926 0 -0.2905575990275322 0.30774240886798532 0 -0.28086439858034518 0.29805776896436298 0 -0.28274061889410179 0.30278083970340541 0 -0.2896026760048197 0.2969772506180926 0 -0.28401529333418091 0.28255904946725641 0 -0.28313816676434478 0.29069510378855717 0 -0.29095683727235372 0.28753395384208091 0 -0.28086439858034518 0.29805776896436298 0 -0.2896026760048197 0.2969772506180926 0 -0.28313816676434478 0.29069510378855717 0 -0.2896026760048197 0.2969772506180926 0 -0.28313816676434478 0.29069510378855717 0 -0.29095683727235372 0.28753395384208091 0 -0.2896026760048197 0.2969772506180926 0 -0.29095683727235372 0.28753395384208091 0 -0.30493521127791462 0.28695781074044469 0 -0.29309283898050847 0.28048055459605348 0 -0.29095683727235372 0.28753395384208091 0 -0.30493521127791462 0.28695781074044469 0 -0.29309283898050847 0.28048055459605348 0 -0.28401529333418091 0.28255904946725641 0 -0.29095683727235372 0.28753395384208091 0 -0.31699951866320542 0.30755322334125379 0 -0.2905575990275322 0.30774240886798532 0 -0.30563014257680821 0.31779627416788381 0 -0.31699951866320542 0.30755322334125379 0 -0.2905575990275322 0.30774240886798532 0 -0.2905575990275322 0.30774240886798532 0 -0.30493521127791462 0.28695781074044469 0 -0.31699951866320542 0.30755322334125379 0 -0.2905575990275322 0.30774240886798532 0 -0.30493521127791462 0.28695781074044469 0 -0.30538608464820588 0.33090408634228141 0 -0.28942706780696309 0.31873813168532672 0 -0.30563014257680821 0.31779627416788381 0 -0.30538608464820588 0.33090408634228141 0 -0.31811651498789978 0.32488887006413791 0 -0.30563014257680821 0.31779627416788381 0 -0.30538608464820588 0.33090408634228141 0 -0.2937791937433501 0.31637108240395312 0 -0.30538608464820588 0.33090408634228141 0 -0.3017933608705089 0.344447887165377 0 -0.32134510148944728 0.34307004099923799 0 -0.30538608464820588 0.33090408634228141 0 -0.29093013722955491 0.33661105704622479 0 -0.3017933608705089 0.344447887165377 0 -0.30538608464820588 0.33090408634228141 0 -0.29093013722955491 0.33661105704622479 0 -0.2885751077852815 0.32830696870384862 0 -0.29093013722955491 0.33661105704622479 0 -0.28224162025157051 0.34582573333151501 0 -0.3017933608705089 0.344447887165377 0 -0.2885751077852815 0.32830696870384862 0 -0.28146834572906437 0.33465123959114113 0 -0.2790455690922089 0.3243844570517187 0 -0.29093013722955491 0.33661105704622479 0 -0.2885751077852815 0.32830696870384862 0 -0.28146834572906437 0.33465123959114113 0 -0.29093013722955491 0.33661105704622479 0 -0.28146834572906437 0.33465123959114113 0 -0.28224162025157051 0.34582573333151501 0 -0.30538608464820588 0.33090408634228141 0 -0.2885751077852815 0.32830696870384862 0 -0.28942706780696309 0.31873813168532672 0 -0.30538608464820588 0.33090408634228141 0 -0.28942706780696309 0.31873813168532672 0 -0.2937791937433501 0.31637108240395312 0 -0.28942706780696309 0.31873813168532672 0 -0.2937791937433501 0.31637108240395312 0 -0.2851872012256097 0.31550597615259851 0 -0.2905575990275322 0.30774240886798532 0 -0.30563014257680821 0.31779627416788381 0 -0.2937791937433501 0.31637108240395312 0 -0.2905575990275322 0.30774240886798532 0 -0.2937791937433501 0.31637108240395312 0 -0.2851872012256097 0.31550597615259851 0 -0.28942706780696309 0.31873813168532672 0 -0.2937791937433501 0.31637108240395312 0 -0.2885751077852815 0.32830696870384862 0 -0.28942706780696309 0.31873813168532672 0 -0.2790455690922089 0.3243844570517187 0 -0.28942706780696309 0.31873813168532672 0 -0.2790455690922089 0.3243844570517187 0 -0.2851872012256097 0.31550597615259851 0 -0.2790455690922089 0.3243844570517187 0 -0.28942706780696309 0.31873813168532672 0 -0.2851872012256097 0.31550597615259851 0 -0.2790455690922089 0.3243844570517187 0 -0.28942706780696309 0.31873813168532672 0 -0.2851872012256097 0.31550597615259851 0 -0.27514776209796898 0.30785266251660498 0 -0.2851872012256097 0.31550597615259851 0 -0.27699557949655113 0.31645322234696882 0 -0.2851872012256097 0.31550597615259851 0 -0.27699557949655113 0.31645322234696882 0 -0.2790455690922089 0.3243844570517187 0 -0.27514776209796898 0.30785266251660498 0 -0.27699557949655113 0.31645322234696882 0 -0.27123720609067609 0.3158529302113221 0 -0.27001263578126711 0.32263717043347712 0 -0.2790455690922089 0.3243844570517187 0 -0.25910260253645218 0.33523110656146687 0 -0.26721257633701828 0.30790943684761429 0 -0.27123720609067609 0.3158529302113221 0 -0.26528599585519008 0.31471464054907522 0 -0.27699557949655113 0.31645322234696882 0 -0.27123720609067609 0.3158529302113221 0 -0.27001263578126711 0.32263717043347712 0 -0.27123720609067609 0.3158529302113221 0 -0.26528599585519008 0.31471464054907522 0 -0.26368222169044719 0.32126413599590953 0 -0.27123720609067609 0.3158529302113221 0 -0.27001263578126711 0.32263717043347712 0 -0.26368222169044719 0.32126413599590953 0 -0.27699557949655113 0.31645322234696882 0 -0.27001263578126711 0.32263717043347712 0 -0.2790455690922089 0.3243844570517187 0 -0.2790455690922089 0.3243844570517187 0 -0.25910260253645218 0.33523110656146687 0 -0.2790455690922089 0.3243844570517187 0 -0.26824012707650141 0.34000504592112352 0 -0.28146834572906437 0.33465123959114113 0 -0.2790455690922089 0.3243844570517187 0 -0.26824012707650141 0.34000504592112352 0 -0.2790455690922089 0.3243844570517187 0 -0.26824012707650141 0.34000504592112352 0 -0.25910260253645218 0.33523110656146687 0 -0.28146834572906437 0.33465123959114113 0 -0.26824012707650141 0.34000504592112352 0 -0.28224162025157051 0.34582573333151501 0 -0.25910260253645218 0.33523110656146687 0 -0.25407523553642281 0.3497448278934856 0 -0.23915963598069589 0.34607775607121571 0 -0.25910260253645218 0.33523110656146687 0 -0.25407523553642281 0.3497448278934856 0 -0.26309588156361569 0.34576168367824162 0 -0.26824012707650141 0.34000504592112352 0 -0.25910260253645218 0.33523110656146687 0 -0.26309588156361569 0.34576168367824162 0 -0.25910260253645218 0.33523110656146687 0 -0.25451497659773847 0.32559442806853028 0 -0.24843663428782739 0.33758714710907461 0 -0.25451497659773847 0.32559442806853028 0 -0.25901197930261888 0.31383205914145501 0 -0.24885494741763489 0.31718848033418301 0 -0.25451497659773847 0.32559442806853028 0 -0.25901197930261888 0.31383205914145501 0 -0.26368222169044719 0.32126413599590953 0 -0.25901197930261888 0.31383205914145501 0 -0.26528599585519008 0.31471464054907522 0 -0.26368222169044719 0.32126413599590953 0 -0.27001263578126711 0.32263717043347712 0 -0.25910260253645218 0.33523110656146687 0 -0.26368222169044719 0.32126413599590953 0 -0.25910260253645218 0.33523110656146687 0 -0.25451497659773847 0.32559442806853028 0 -0.26368222169044719 0.32126413599590953 0 -0.26470209097228098 0.37140351159401941 0 -0.25562758441007077 0.36194187249828802 0 -0.266880351992417 0.3582272519812631 0 -0.26470209097228098 0.37140351159401941 0 -0.25213085833087667 0.37355178257669552 0 -0.25562758441007077 0.36194187249828802 0 -0.25213085833087667 0.37355178257669552 0 -0.25562758441007077 0.36194187249828802 0 -0.24329038266145239 0.36134909741814653 0 -0.25562758441007077 0.36194187249828802 0 -0.25407523553642281 0.3497448278934856 0 -0.24329038266145239 0.36134909741814653 0 -0.25407523553642281 0.3497448278934856 0 -0.26309588156361569 0.34576168367824162 0 -0.266880351992417 0.3582272519812631 0 -0.25562758441007077 0.36194187249828802 0 -0.25407523553642281 0.3497448278934856 0 -0.266880351992417 0.3582272519812631 0 -0.266880351992417 0.3582272519812631 0 -0.27640009279511962 0.35155878343443242 0 -0.28837447244510311 0.36628710188532532 0 -0.26309588156361569 0.34576168367824162 0 -0.266880351992417 0.3582272519812631 0 -0.27640009279511962 0.35155878343443242 0 -0.26824012707650141 0.34000504592112352 0 -0.26309588156361569 0.34576168367824162 0 -0.27640009279511962 0.35155878343443242 0 -0.26824012707650141 0.34000504592112352 0 -0.27640009279511962 0.35155878343443242 0 -0.28224162025157051 0.34582573333151501 0 -0.266880351992417 0.3582272519812631 0 -0.28837447244510311 0.36628710188532532 0 -0.266880351992417 0.3582272519812631 0 -0.28837447244510311 0.36628710188532532 0 -0.27747916353329311 0.37529003384729942 0 -0.26470209097228098 0.37140351159401941 0 -0.266880351992417 0.3582272519812631 0 -0.27747916353329311 0.37529003384729942 0 -0.28837447244510311 0.36628710188532532 0 -0.28714059247178902 0.37543321948423419 0 -0.27747916353329311 0.37529003384729942 0 -0.28837447244510311 0.36628710188532532 0 -0.28956810344150979 0.35324588380912608 0 -0.30292150033679799 0.36018321991941088 0 -0.28837447244510311 0.36628710188532532 0 -0.29874239202075642 0.37528196759933868 0 -0.28714059247178902 0.37543321948423419 0 -0.28224162025157051 0.34582573333151501 0 -0.3017933608705089 0.344447887165377 0 -0.28224162025157051 0.34582573333151501 0 -0.28956810344150979 0.35324588380912608 0 -0.3017933608705089 0.344447887165377 0 -0.27640009279511962 0.35155878343443242 0 -0.28224162025157051 0.34582573333151501 0 -0.28956810344150979 0.35324588380912608 0 -0.27640009279511962 0.35155878343443242 0 -0.28837447244510311 0.36628710188532532 0 -0.28956810344150979 0.35324588380912608 0 -0.3017933608705089 0.344447887165377 0 -0.31193410579265052 0.3536039280541286 0 -0.30292150033679799 0.36018321991941088 0 -0.28956810344150979 0.35324588380912608 0 -0.3017933608705089 0.344447887165377 0 -0.30292150033679799 0.36018321991941088 0 -0.3017933608705089 0.344447887165377 0 -0.32134510148944728 0.34307004099923799 0 -0.3017933608705089 0.344447887165377 0 -0.31193410579265052 0.3536039280541286 0 -0.32134510148944728 0.34307004099923799 0 -0.31193410579265052 0.3536039280541286 0 -0.30292150033679799 0.36018321991941088 0 -0.31340485972314069 0.36375751913665871 0 -0.28837447244510311 0.36628710188532532 0 -0.30292150033679799 0.36018321991941088 0 -0.30986859289778912 0.37434695178938759 0 -0.28837447244510311 0.36628710188532532 0 -0.30986859289778912 0.37434695178938759 0 -0.28837447244510311 0.36628710188532532 0 -0.30986859289778912 0.37434695178938759 0 -0.29874239202075642 0.37528196759933868 0 -0.30292150033679799 0.36018321991941088 0 -0.30986859289778912 0.37434695178938759 0 -0.31340485972314069 0.36375751913665871 0 -0.30986859289778912 0.37434695178938759 0 -0.31340485972314069 0.36375751913665871 0 -0.32167824364597858 0.36970754211250728 0 -0.31340485972314069 0.36375751913665871 0 -0.32243327870136801 0.35950699838777223 0 -0.32167824364597858 0.36970754211250728 0 -0.32243327870136801 0.35950699838777223 0 -0.32167824364597858 0.36970754211250728 0 -0.33132177355711989 0.36851943955526861 0 -0.32167824364597858 0.36970754211250728 0 -0.33132177355711989 0.36851943955526861 0 -0.33136271335047512 0.38240680169344993 0 -0.32243327870136801 0.35950699838777223 0 -0.33132177355711989 0.36851943955526861 0 -0.33989838930305449 0.35721367281084643 0 -0.33132177355711989 0.36851943955526861 0 -0.34304766554360439 0.37232322735168022 0 -0.33136271335047512 0.38240680169344993 0 -0.33132177355711989 0.36851943955526861 0 -0.34304766554360439 0.37232322735168022 0 -0.33989838930305449 0.35721367281084643 0 -0.33989838930305449 0.35721367281084643 0 -0.32134510148944728 0.34307004099923799 0 -0.33989838930305449 0.35721367281084643 0 -0.32134510148944728 0.34307004099923799 0 -0.3500233487104954 0.34104903357308669 0 -0.32243327870136801 0.35950699838777223 0 -0.33989838930305449 0.35721367281084643 0 -0.32134510148944728 0.34307004099923799 0 -0.31193410579265052 0.3536039280541286 0 -0.32243327870136801 0.35950699838777223 0 -0.32134510148944728 0.34307004099923799 0 -0.31193410579265052 0.3536039280541286 0 -0.31340485972314069 0.36375751913665871 0 -0.32243327870136801 0.35950699838777223 0 -0.30538608464820588 0.33090408634228141 0 -0.32134510148944728 0.34307004099923799 0 -0.30538608464820588 0.33090408634228141 0 -0.32134510148944728 0.34307004099923799 0 -0.31811651498789978 0.32488887006413791 0 -0.32134510148944728 0.34307004099923799 0 -0.31811651498789978 0.32488887006413791 0 -0.33459812393413729 0.32207732583041709 0 -0.31699951866320542 0.30755322334125379 0 -0.30563014257680821 0.31779627416788381 0 -0.31811651498789978 0.32488887006413791 0 -0.31699951866320542 0.30755322334125379 0 -0.31811651498789978 0.32488887006413791 0 -0.33459812393413729 0.32207732583041709 0 -0.32134510148944728 0.34307004099923799 0 -0.34342889555096417 0.33131534648734451 0 -0.3500233487104954 0.34104903357308669 0 -0.32134510148944728 0.34307004099923799 0 -0.33459812393413729 0.32207732583041709 0 -0.34342889555096417 0.33131534648734451 0 -0.32134510148944728 0.34307004099923799 0 -0.3500233487104954 0.34104903357308669 0 -0.3500233487104954 0.34104903357308669 0 -0.35650114511620551 0.33294276438790088 0 -0.36794029410566942 0.33226259727897972 0 -0.34342889555096417 0.33131534648734451 0 -0.3500233487104954 0.34104903357308669 0 -0.35650114511620551 0.33294276438790088 0 -0.33459812393413729 0.32207732583041709 0 -0.34342889555096417 0.33131534648734451 0 -0.35467675850453528 0.31743756764607989 0 -0.34344143829887858 0.30736403781452232 0 -0.33459812393413729 0.32207732583041709 0 -0.35467675850453528 0.31743756764607989 0 -0.35650114511620551 0.33294276438790088 0 -0.35467675850453528 0.31743756764607989 0 -0.36272901898995358 0.31473918551029578 0 -0.34342889555096417 0.33131534648734451 0 -0.35650114511620551 0.33294276438790088 0 -0.35467675850453528 0.31743756764607989 0 -0.35650114511620551 0.33294276438790088 0 -0.36272901898995358 0.31473918551029578 0 -0.37415321332832258 0.31386652142517069 0 -0.35650114511620551 0.33294276438790088 0 -0.37415321332832258 0.31386652142517069 0 -0.35650114511620551 0.33294276438790088 0 -0.37442838800096029 0.32044424157556423 0 -0.37415321332832258 0.31386652142517069 0 -0.37816355277066899 0.32985684687273281 0 -0.37442838800096029 0.32044424157556423 0 -0.36794029410566942 0.33226259727897972 0 -0.3787015959315434 0.33902802614693439 0 -0.3500233487104954 0.34104903357308669 0 -0.36794029410566942 0.33226259727897972 0 -0.35650114511620551 0.33294276438790088 0 -0.37442838800096029 0.32044424157556423 0 -0.36794029410566942 0.33226259727897972 0 -0.3787015959315434 0.33902802614693439 0 -0.3500233487104954 0.34104903357308669 0 -0.3787015959315434 0.33902802614693439 0 -0.37816355277066899 0.32985684687273281 0 -0.36794029410566942 0.33226259727897972 0 -0.3787015959315434 0.33902802614693439 0 -0.3500233487104954 0.34104903357308669 0 -0.36501658974902518 0.35367198233662939 0 -0.37823932191431281 0.35548757599615399 0 -0.3787015959315434 0.33902802614693439 0 -0.36501658974902518 0.35367198233662939 0 -0.37823932191431281 0.35548757599615399 0 -0.36501658974902518 0.35367198233662939 0 -0.37024808467873749 0.36543132639488701 0 -0.36501658974902518 0.35367198233662939 0 -0.37024808467873749 0.36543132639488701 0 -0.35845167711666143 0.37135730462245548 0 -0.37949655700884349 0.37153259571527891 0 -0.37024808467873749 0.36543132639488701 0 -0.36758280318953013 0.37627165255961892 0 -0.37024808467873749 0.36543132639488701 0 -0.35845167711666143 0.37135730462245548 0 -0.36758280318953013 0.37627165255961892 0 -0.36501658974902518 0.35367198233662939 0 -0.35845167711666143 0.37135730462245548 0 -0.35334750121980912 0.35582299833575448 0 -0.34304766554360439 0.37232322735168022 0 -0.33989838930305449 0.35721367281084643 0 -0.35845167711666143 0.37135730462245548 0 -0.33989838930305449 0.35721367281084643 0 -0.35845167711666143 0.37135730462245548 0 -0.35334750121980912 0.35582299833575448 0 -0.33989838930305449 0.35721367281084643 0 -0.35845167711666143 0.37135730462245548 0 -0.33989838930305449 0.35721367281084643 0 -0.3500233487104954 0.34104903357308669 0 -0.35334750121980912 0.35582299833575448 0 -0.3500233487104954 0.34104903357308669 0 -0.36501658974902518 0.35367198233662939 0 -0.35334750121980912 0.35582299833575448 0 -0.35285683380316007 0.39046665159751448 0 -0.36027192889352422 0.40897543894708011 0 -0.34270265381785459 0.40768080501023862 0 -0.34304766554360439 0.37232322735168022 0 -0.35845167711666143 0.37135730462245548 0 -0.35285683380316007 0.39046665159751448 0 -0.37686086334024771 0.38257038446795849 0 -0.35285683380316007 0.39046665159751448 0 -0.37686086334024771 0.38257038446795849 0 -0.35285683380316007 0.39046665159751448 0 -0.36758280318953013 0.37627165255961892 0 -0.35845167711666143 0.37135730462245548 0 -0.35285683380316007 0.39046665159751448 0 -0.36758280318953013 0.37627165255961892 0 -0.37686086334024771 0.38257038446795849 0 -0.37949655700884349 0.37153259571527891 0 -0.36758280318953013 0.37627165255961892 0 -0.37769092578324193 0.39977892163450779 0 -0.35285683380316007 0.39046665159751448 0 -0.37769092578324193 0.39977892163450779 0 -0.37686086334024771 0.38257038446795849 0 -0.35285683380316007 0.39046665159751448 0 -0.37769092578324193 0.39977892163450779 0 -0.35285683380316007 0.39046665159751448 0 -0.36027192889352422 0.40897543894708011 0 -0.37875820238401509 0.42613984176471847 0 -0.37769092578324193 0.39977892163450779 0 -0.36027192889352422 0.40897543894708011 0 -0.37875820238401509 0.42613984176471847 0 -0.36027192889352422 0.40897543894708011 0 -0.36048507512927641 0.42545129427310208 0 -0.37875820238401509 0.42613984176471847 0 -0.36048507512927641 0.42545129427310208 0 -0.35499138700470761 0.44318849185793469 0 -0.37875820238401509 0.42613984176471847 0 -0.35499138700470761 0.44318849185793469 0 -0.34691622899781399 0.42161541908905831 0 -0.33223168701086447 0.43660936806356893 0 -0.35499138700470761 0.44318849185793469 0 -0.36048507512927641 0.42545129427310208 0 -0.34691622899781399 0.42161541908905831 0 -0.35499138700470761 0.44318849185793469 0 -0.36027192889352422 0.40897543894708011 0 -0.34691622899781399 0.42161541908905831 0 -0.34270265381785459 0.40768080501023862 0 -0.36027192889352422 0.40897543894708011 0 -0.36048507512927641 0.42545129427310208 0 -0.34691622899781399 0.42161541908905831 0 -0.34270265381785459 0.40768080501023862 0 -0.32841174735063311 0.41773478988879181 0 -0.32505653004414181 0.39961172552874852 0 -0.34691622899781399 0.42161541908905831 0 -0.34270265381785459 0.40768080501023862 0 -0.32841174735063311 0.41773478988879181 0 -0.34691622899781399 0.42161541908905831 0 -0.32841174735063311 0.41773478988879181 0 -0.33223168701086447 0.43660936806356893 0 -0.32841174735063311 0.41773478988879181 0 -0.33223168701086447 0.43660936806356893 0 -0.31148998866141242 0.43181261152586448 0 -0.32841174735063311 0.41773478988879181 0 -0.31441363705571701 0.41408607272300291 0 -0.32505653004414181 0.39961172552874852 0 -0.32841174735063311 0.41773478988879181 0 -0.31441363705571701 0.41408607272300291 0 -0.31148998866141242 0.43181261152586448 0 -0.32505653004414181 0.39961172552874852 0 -0.31219235154091651 0.39185403334122892 0 -0.30619500853749271 0.39725637532293351 0 -0.32505653004414181 0.39961172552874852 0 -0.31778050989885959 0.38527433798844479 0 -0.31219235154091651 0.39185403334122892 0 -0.35285683380316007 0.39046665159751448 0 -0.32505653004414181 0.39961172552874852 0 -0.33136271335047512 0.38240680169344993 0 -0.35285683380316007 0.39046665159751448 0 -0.34270265381785459 0.40768080501023862 0 -0.32505653004414181 0.39961172552874852 0 -0.35285683380316007 0.39046665159751448 0 -0.32505653004414181 0.39961172552874852 0 -0.35285683380316007 0.39046665159751448 0 -0.33136271335047512 0.38240680169344993 0 -0.34304766554360439 0.37232322735168022 0 -0.35285683380316007 0.39046665159751448 0 -0.33136271335047512 0.38240680169344993 0 -0.30986859289778912 0.37434695178938759 0 -0.32167824364597858 0.36970754211250728 0 -0.33136271335047512 0.38240680169344993 0 -0.30986859289778912 0.37434695178938759 0 -0.33136271335047512 0.38240680169344993 0 -0.32505653004414181 0.39961172552874852 0 -0.33136271335047512 0.38240680169344993 0 -0.31778050989885959 0.38527433798844479 0 -0.30986859289778912 0.37434695178938759 0 -0.33136271335047512 0.38240680169344993 0 -0.31778050989885959 0.38527433798844479 0 -0.30986859289778912 0.37434695178938759 0 -0.31778050989885959 0.38527433798844479 0 -0.30574515252343709 0.38648905476423068 0 -0.30986859289778912 0.37434695178938759 0 -0.30574515252343709 0.38648905476423068 0 -0.29874239202075642 0.37528196759933868 0 -0.30574515252343709 0.38648905476423068 0 -0.29874239202075642 0.37528196759933868 0 -0.29146244090030071 0.40289140707507309 0 -0.31778050989885959 0.38527433798844479 0 -0.30574515252343709 0.38648905476423068 0 -0.31219235154091651 0.39185403334122892 0 -0.32505653004414181 0.39961172552874852 0 -0.30619500853749271 0.39725637532293351 0 -0.29725622628512233 0.40875679945997928 0 -0.32505653004414181 0.39961172552874852 0 -0.29725622628512233 0.40875679945997928 0 -0.30574515252343709 0.38648905476423068 0 -0.30619500853749271 0.39725637532293351 0 -0.29146244090030071 0.40289140707507309 0 -0.30574515252343709 0.38648905476423068 0 -0.31219235154091651 0.39185403334122892 0 -0.30619500853749271 0.39725637532293351 0 -0.30619500853749271 0.39725637532293351 0 -0.29146244090030071 0.40289140707507309 0 -0.29725622628512233 0.40875679945997928 0 -0.29146244090030071 0.40289140707507309 0 -0.2882496590958894 0.39023794275143442 0 -0.278827461574497 0.39790462172635238 0 -0.28396634188800352 0.38487377460497352 0 -0.2882496590958894 0.39023794275143442 0 -0.278827461574497 0.39790462172635238 0 -0.29146244090030071 0.40289140707507309 0 -0.278827461574497 0.39790462172635238 0 -0.27940045790464241 0.41220012044695847 0 -0.29874239202075642 0.37528196759933868 0 -0.29146244090030071 0.40289140707507309 0 -0.29874239202075642 0.37528196759933868 0 -0.29146244090030071 0.40289140707507309 0 -0.2882496590958894 0.39023794275143442 0 -0.29874239202075642 0.37528196759933868 0 -0.28396634188800352 0.38487377460497352 0 -0.28714059247178902 0.37543321948423419 0 -0.29874239202075642 0.37528196759933868 0 -0.28396634188800352 0.38487377460497352 0 -0.2882496590958894 0.39023794275143442 0 -0.28396634188800352 0.38487377460497352 0 -0.28714059247178902 0.37543321948423419 0 -0.27747916353329311 0.37529003384729942 0 -0.28396634188800352 0.38487377460497352 0 -0.27747916353329311 0.37529003384729942 0 -0.26775424033426293 0.38456849691175748 0 -0.28396634188800352 0.38487377460497352 0 -0.26775424033426293 0.38456849691175748 0 -0.278827461574497 0.39790462172635238 0 -0.26470209097228098 0.37140351159401941 0 -0.27747916353329311 0.37529003384729942 0 -0.26775424033426293 0.38456849691175748 0 -0.278827461574497 0.39790462172635238 0 -0.26298604578065232 0.3973558675440883 0 -0.2677584473194361 0.40899541659639099 0 -0.26775424033426293 0.38456849691175748 0 -0.278827461574497 0.39790462172635238 0 -0.26298604578065232 0.3973558675440883 0 -0.26298604578065232 0.3973558675440883 0 -0.25152819264859128 0.38883491631829081 0 -0.2490618870264745 0.40647588616764979 0 -0.26298604578065232 0.3973558675440883 0 -0.2677584473194361 0.40899541659639099 0 -0.2490618870264745 0.40647588616764979 0 -0.25213085833087667 0.37355178257669552 0 -0.26775424033426293 0.38456849691175748 0 -0.25152819264859128 0.38883491631829081 0 -0.26775424033426293 0.38456849691175748 0 -0.26298604578065232 0.3973558675440883 0 -0.25152819264859128 0.38883491631829081 0 -0.26470209097228098 0.37140351159401941 0 -0.25213085833087667 0.37355178257669552 0 -0.26775424033426293 0.38456849691175748 0 -0.2572482915111563 0.42152384209731297 0 -0.26330490497154813 0.43976041958731371 0 -0.24092688658692171 0.43286849171069308 0 -0.2572482915111563 0.42152384209731297 0 -0.27163392734069919 0.42205675226444578 0 -0.26330490497154813 0.43976041958731371 0 -0.2572482915111563 0.42152384209731297 0 -0.2677584473194361 0.40899541659639099 0 -0.2490618870264745 0.40647588616764979 0 -0.2572482915111563 0.42152384209731297 0 -0.2677584473194361 0.40899541659639099 0 -0.27163392734069919 0.42205675226444578 0 -0.27940045790464241 0.41220012044695847 0 -0.27163392734069919 0.42205675226444578 0 -0.28418248977984512 0.43050084655080739 0 -0.2677584473194361 0.40899541659639099 0 -0.27940045790464241 0.41220012044695847 0 -0.27163392734069919 0.42205675226444578 0 -0.278827461574497 0.39790462172635238 0 -0.2677584473194361 0.40899541659639099 0 -0.27940045790464241 0.41220012044695847 0 -0.27163392734069919 0.42205675226444578 0 -0.28418248977984512 0.43050084655080739 0 -0.26330490497154813 0.43976041958731371 0 -0.28418248977984512 0.43050084655080739 0 -0.29943060469912958 0.42576946359573847 0 -0.28981068171355151 0.44369098771903792 0 -0.29146244090030071 0.40289140707507309 0 -0.28418248977984512 0.43050084655080739 0 -0.29146244090030071 0.40289140707507309 0 -0.27940045790464241 0.41220012044695847 0 -0.28418248977984512 0.43050084655080739 0 -0.28418248977984512 0.43050084655080739 0 -0.29725622628512233 0.40875679945997928 0 -0.29943060469912958 0.42576946359573847 0 -0.29146244090030071 0.40289140707507309 0 -0.28418248977984512 0.43050084655080739 0 -0.29725622628512233 0.40875679945997928 0 -0.31441363705571701 0.41408607272300291 0 -0.32505653004414181 0.39961172552874852 0 -0.29725622628512233 0.40875679945997928 0 -0.31441363705571701 0.41408607272300291 0 -0.29725622628512233 0.40875679945997928 0 -0.29943060469912958 0.42576946359573847 0 -0.31441363705571701 0.41408607272300291 0 -0.29943060469912958 0.42576946359573847 0 -0.31148998866141242 0.43181261152586448 0 -0.29943060469912958 0.42576946359573847 0 -0.31148998866141242 0.43181261152586448 0 -0.28981068171355151 0.44369098771903792 0 -0.31148998866141242 0.43181261152586448 0 -0.30120616623050861 0.45239726712555162 0 -0.31718999816658727 0.45065056632578487 0 -0.31148998866141242 0.43181261152586448 0 -0.30120616623050861 0.45239726712555162 0 -0.31148998866141242 0.43181261152586448 0 -0.30120616623050861 0.45239726712555162 0 -0.28981068171355151 0.44369098771903792 0 -0.30120616623050861 0.45239726712555162 0 -0.29092234379960469 0.47298192272523881 0 -0.30745775624609217 0.47728579204436761 0 -0.30120616623050861 0.45239726712555162 0 -0.30745775624609217 0.47728579204436761 0 -0.31718999816658727 0.45065056632578487 0 -0.2852957606144535 0.45730244818253718 0 -0.28186649269177161 0.46567885888970018 0 -0.29092234379960469 0.47298192272523881 0 -0.30120616623050861 0.45239726712555162 0 -0.29092234379960469 0.47298192272523881 0 -0.30120616623050861 0.45239726712555162 0 -0.2852957606144535 0.45730244818253718 0 -0.29092234379960469 0.47298192272523881 0 -0.2852957606144535 0.45730244818253718 0 -0.28186649269177161 0.46567885888970018 0 -0.27690253865938408 0.45811028602654041 0 -0.28418248977984512 0.43050084655080739 0 -0.28981068171355151 0.44369098771903792 0 -0.27690253865938408 0.45811028602654041 0 -0.30120616623050861 0.45239726712555162 0 -0.2852957606144535 0.45730244818253718 0 -0.28981068171355151 0.44369098771903792 0 -0.2852957606144535 0.45730244818253718 0 -0.28981068171355151 0.44369098771903792 0 -0.27690253865938408 0.45811028602654041 0 -0.28418248977984512 0.43050084655080739 0 -0.27690253865938408 0.45811028602654041 0 -0.28418248977984512 0.43050084655080739 0 -0.27690253865938408 0.45811028602654041 0 -0.26330490497154813 0.43976041958731371 0 -0.2852957606144535 0.45730244818253718 0 -0.27690253865938408 0.45811028602654041 0 -0.28186649269177161 0.46567885888970018 0 -0.27690253865938408 0.45811028602654041 0 -0.27835780074514338 0.47366975871288508 0 -0.27690253865938408 0.45811028602654041 0 -0.25345677561811758 0.46036691342989022 0 -0.27690253865938408 0.45811028602654041 0 -0.25345677561811758 0.46036691342989022 0 -0.26590293397843329 0.47057525233348851 0 -0.25345677561811758 0.46036691342989022 0 -0.25315469521642581 0.4750486889203015 0 -0.26590293397843329 0.47057525233348851 0 -0.25345677561811758 0.46036691342989022 0 -0.26330490497154813 0.43976041958731371 0 -0.24129970279445639 0.44943490890582899 0 -0.27690253865938408 0.45811028602654041 0 -0.25345677561811758 0.46036691342989022 0 -0.26330490497154813 0.43976041958731371 0 -0.26169037092037989 0.4910190989046625 0 -0.25397816739109252 0.5 0 -0.27113802145370669 0.49283981386083792 0 -0.26169037092037989 0.4910190989046625 0 -0.25474868654415728 0.48692894813519849 0 -0.26689660829256312 0.48430763362261348 0 -0.26169037092037989 0.4910190989046625 0 -0.25397816739109252 0.5 0 -0.25474868654415728 0.48692894813519849 0 -0.25315469521642581 0.4750486889203015 0 -0.26689660829256312 0.48430763362261348 0 -0.25315469521642581 0.4750486889203015 0 -0.26689660829256312 0.48430763362261348 0 -0.26590293397843329 0.47057525233348851 0 -0.25474868654415728 0.48692894813519849 0 -0.25315469521642581 0.4750486889203015 0 -0.26689660829256312 0.48430763362261348 0 -0.27690253865938408 0.45811028602654041 0 -0.26590293397843329 0.47057525233348851 0 -0.26946370716205509 0.4860372782758946 0 -0.27690253865938408 0.45811028602654041 0 -0.26946370716205509 0.4860372782758946 0 -0.27690253865938408 0.45811028602654041 0 -0.27835780074514338 0.47366975871288508 0 -0.26946370716205509 0.4860372782758946 0 -0.26689660829256312 0.48430763362261348 0 -0.26590293397843329 0.47057525233348851 0 -0.26946370716205509 0.4860372782758946 0 -0.28186649269177161 0.46567885888970018 0 -0.27835780074514338 0.47366975871288508 0 -0.28298297564177088 0.4743823417855309 0 -0.27835780074514338 0.47366975871288508 0 -0.2798907507987049 0.48286402398659151 0 -0.28298297564177088 0.4743823417855309 0 -0.27835780074514338 0.47366975871288508 0 -0.2798907507987049 0.48286402398659151 0 -0.26946370716205509 0.4860372782758946 0 -0.26946370716205509 0.4860372782758946 0 -0.28063852136870049 0.49356657832492562 0 -0.26946370716205509 0.4860372782758946 0 -0.27113802145370669 0.49283981386083792 0 -0.28063852136870049 0.49356657832492562 0 -0.2798907507987049 0.48286402398659151 0 -0.26946370716205509 0.4860372782758946 0 -0.28063852136870049 0.49356657832492562 0 -0.25397816739109252 0.5 0 -0.27113802145370669 0.49283981386083792 0 -0.27742446875513049 0.50000000000000155 0 -0.26689660829256312 0.48430763362261348 0 -0.26946370716205509 0.4860372782758946 0 -0.27113802145370669 0.49283981386083792 0 -0.26169037092037989 0.4910190989046625 0 -0.26689660829256312 0.48430763362261348 0 -0.27113802145370669 0.49283981386083792 0 -0.26689660829256312 0.48430763362261348 0 -0.26946370716205509 0.4860372782758946 0 -0.27113802145370669 0.49283981386083792 0 -0.28063852136870049 0.49356657832492562 0 -0.27742446875513049 0.50000000000000155 0 -0.28063852136870049 0.49356657832492562 0 -0.27742446875513049 0.50000000000000155 0 -0.28063852136870049 0.49356657832492562 0 -0.27742446875513049 0.50000000000000155 0 -0.29018685806186229 0.50000000000000122 0 -0.28063852136870049 0.49356657832492562 0 -0.29018685806186229 0.50000000000000122 0 -0.29092234379960469 0.47298192272523881 0 -0.28063852136870049 0.49356657832492562 0 -0.29018685806186229 0.50000000000000122 0 -0.29018685806186229 0.50000000000000122 0 -0.29092234379960469 0.47298192272523881 0 -0.30745775624609217 0.47728579204436761 0 -0.28063852136870049 0.49356657832492562 0 -0.29092234379960469 0.47298192272523881 0 -0.2798907507987049 0.48286402398659151 0 -0.28063852136870049 0.49356657832492562 0 -0.29092234379960469 0.47298192272523881 0 -0.28186649269177161 0.46567885888970018 0 -0.28298297564177088 0.4743823417855309 0 -0.29092234379960469 0.47298192272523881 0 -0.2798907507987049 0.48286402398659151 0 -0.28298297564177088 0.4743823417855309 0 -0.29092234379960469 0.47298192272523881 0 -0.29018685806186229 0.50000000000000122 0 -0.30745775624609217 0.47728579204436761 0 -0.3640375775585698 0.5 0 -0.30745775624609217 0.47728579204436761 0 -0.33122457162539992 0.46023714195115112 0 -0.3640375775585698 0.5 0 -0.30745775624609217 0.47728579204436761 0 -0.33122457162539992 0.46023714195115112 0 -0.30745775624609217 0.47728579204436761 0 -0.31718999816658727 0.45065056632578487 0 -0.33122457162539992 0.46023714195115112 0 -0.33223168701086447 0.43660936806356893 0 -0.31148998866141242 0.43181261152586448 0 -0.31718999816658727 0.45065056632578487 0 -0.33223168701086447 0.43660936806356893 0 -0.31718999816658727 0.45065056632578487 0 -0.33122457162539992 0.46023714195115112 0 -0.33122457162539992 0.46023714195115112 0 -0.35499138700470761 0.44318849185793469 0 -0.33223168701086447 0.43660936806356893 0 -0.33122457162539992 0.46023714195115112 0 -0.35499138700470761 0.44318849185793469 0 -0.33122457162539992 0.46023714195115112 0 -0.35376164566254242 0.46494380824906301 0 -0.35499138700470761 0.44318849185793469 0 -0.38249991962136642 0.44345487931465249 0 -0.35499138700470761 0.44318849185793469 0 -0.37103467036260362 0.45695891695805302 0 -0.38249991962136642 0.44345487931465249 0 -0.37875820238401509 0.42613984176471847 0 -0.35499138700470761 0.44318849185793469 0 -0.35376164566254242 0.46494380824906301 0 -0.35499138700470761 0.44318849185793469 0 -0.37103467036260362 0.45695891695805302 0 -0.35376164566254242 0.46494380824906301 0 -0.37103467036260362 0.45695891695805302 0 -0.36943712044780219 0.47475959506207249 0 -0.33122457162539992 0.46023714195115112 0 -0.35376164566254242 0.46494380824906301 0 -0.3640375775585698 0.5 0 -0.38891458820749281 0.47713565504117422 0 -0.36943712044780219 0.47475959506207249 0 -0.3640375775585698 0.5 0 -0.35376164566254242 0.46494380824906301 0 -0.36943712044780219 0.47475959506207249 0 -0.3640375775585698 0.5 0 -0.1410608215807003 0.47118489318428192 0 -0.1506389915883973 0.47451242435581331 0 -0.15779819732271971 0.4695739402503486 0 -0.1410608215807003 0.47118489318428192 0 -0.15779819732271971 0.4695739402503486 0 -0.1455325599989582 0.47665965757352818 0 -0.14983465253105441 0.48099067897208148 0 -0.1405957742956809 0.47995063378193648 0 -0.14983465253105441 0.48099067897208148 0 -0.14427471349546869 0.48965289008050411 0 -0.1405957742956809 0.47995063378193648 0 -0.1455325599989582 0.47665965757352818 0 -0.1410608215807003 0.47118489318428192 0 -0.1506389915883973 0.47451242435581331 0 -0.1455325599989582 0.47665965757352818 0 -0.1410608215807003 0.47118489318428192 0 -0.1405957742956809 0.47995063378193648 0 -0.1506389915883973 0.47451242435581331 0 -0.15682389603308189 0.47748605108520858 0 -0.15779819732271971 0.4695739402503486 0 -0.1506389915883973 0.47451242435581331 0 -0.14983465253105441 0.48099067897208148 0 -0.15682389603308189 0.47748605108520858 0 -0.1455325599989582 0.47665965757352818 0 -0.1506389915883973 0.47451242435581331 0 -0.14983465253105441 0.48099067897208148 0 -0.14983465253105441 0.48099067897208148 0 -0.1558122254133027 0.48316327461493752 0 -0.15682389603308189 0.47748605108520858 0 -0.14983465253105441 0.48099067897208148 0 -0.1558122254133027 0.48316327461493752 0 -0.15140604362779489 0.486968875654338 0 -0.1558122254133027 0.48316327461493752 0 -0.15140604362779489 0.486968875654338 0 -0.15545271364459581 0.49281799385228547 0 -0.14983465253105441 0.48099067897208148 0 -0.15140604362779489 0.486968875654338 0 -0.14427471349546869 0.48965289008050411 0 -0.15140604362779489 0.486968875654338 0 -0.15545271364459581 0.49281799385228547 0 -0.14427471349546869 0.48965289008050411 0 -0.15453849507163009 0.5 0 -0.14427471349546869 0.48965289008050411 0 -0.12543772684428189 0.5 0 -0.15453849507163009 0.5 0 -0.15545271364459581 0.49281799385228547 0 -0.14427471349546869 0.48965289008050411 0 -0.14427471349546869 0.48965289008050411 0 -0.12543772684428189 0.5 0 -0.13178312884530541 0.48627570230508688 0 -0.14427471349546869 0.48965289008050411 0 -0.13178312884530541 0.48627570230508688 0 -0.1405957742956809 0.47995063378193648 0 -0.13178312884530541 0.48627570230508688 0 -0.1317912103042716 0.47600940211286807 0 -0.11642361318749669 0.48420448820259387 0 -0.1317912103042716 0.47600940211286807 0 -0.14083201439797821 0.46516349611765162 0 -0.12052644250191399 0.4682622397032008 0 -0.13178312884530541 0.48627570230508688 0 -0.1405957742956809 0.47995063378193648 0 -0.1317912103042716 0.47600940211286807 0 -0.1410608215807003 0.47118489318428192 0 -0.1405957742956809 0.47995063378193648 0 -0.1317912103042716 0.47600940211286807 0 -0.1410608215807003 0.47118489318428192 0 -0.1317912103042716 0.47600940211286807 0 -0.14083201439797821 0.46516349611765162 0 -0.12618187852634369 0.45882241462805679 0 -0.14083201439797821 0.46516349611765162 0 -0.12052644250191399 0.4682622397032008 0 -0.14083201439797821 0.46516349611765162 0 -0.12052644250191399 0.4682622397032008 0 -0.12618187852634369 0.45882241462805679 0 -0.13621980461969219 0.45775649261309698 0 -0.13482926781972801 0.45201676164804122 0 -0.13621980461969219 0.45775649261309698 0 -0.13482926781972801 0.45201676164804122 0 -0.1430360577347192 0.45502329805863873 0 -0.13621980461969219 0.45775649261309698 0 -0.14083201439797821 0.46516349611765162 0 -0.1430360577347192 0.45502329805863873 0 -0.12618187852634369 0.45882241462805679 0 -0.13621980461969219 0.45775649261309698 0 -0.14083201439797821 0.46516349611765162 0 -0.12618187852634369 0.45882241462805679 0 -0.13482926781972801 0.45201676164804122 0 -0.1248743097581413 0.44162978393037222 0 -0.13482926781972801 0.45201676164804122 0 -0.13973201497409549 0.44099892737807922 0 -0.1415241139788854 0.4488412036993919 0 -0.13482926781972801 0.45201676164804122 0 -0.1415241139788854 0.4488412036993919 0 -0.1430360577347192 0.45502329805863873 0 -0.13973201497409549 0.44099892737807922 0 -0.13491063247587859 0.43073185275000708 0 -0.1248743097581413 0.44162978393037222 0 -0.13482926781972801 0.45201676164804122 0 -0.13973201497409549 0.44099892737807922 0 -0.1248743097581413 0.44162978393037222 0 -0.13973201497409549 0.44099892737807922 0 -0.14849911538699881 0.44732582771280882 0 -0.14949031039727409 0.43903968606904947 0 -0.14849911538699881 0.44732582771280882 0 -0.1430360577347192 0.45502329805863873 0 -0.15230793746503779 0.45507497120342549 0 -0.13973201497409549 0.44099892737807922 0 -0.1415241139788854 0.4488412036993919 0 -0.14849911538699881 0.44732582771280882 0 -0.1415241139788854 0.4488412036993919 0 -0.14849911538699881 0.44732582771280882 0 -0.1430360577347192 0.45502329805863873 0 -0.14849911538699881 0.44732582771280882 0 -0.15230793746503779 0.45507497120342549 0 -0.15767924869329919 0.44641741059368378 0 -0.14949031039727409 0.43903968606904947 0 -0.15767924869329919 0.44641741059368378 0 -0.15912083936695831 0.4347249498771325 0 -0.14849911538699881 0.44732582771280882 0 -0.14949031039727409 0.43903968606904947 0 -0.15767924869329919 0.44641741059368378 0 -0.14083201439797821 0.46516349611765162 0 -0.16113758629404229 0.46206475253210239 0 -0.15779819732271971 0.4695739402503486 0 -0.1410608215807003 0.47118489318428192 0 -0.14083201439797821 0.46516349611765162 0 -0.15779819732271971 0.4695739402503486 0 -0.14083201439797821 0.46516349611765162 0 -0.16113758629404229 0.46206475253210239 0 -0.14083201439797821 0.46516349611765162 0 -0.15230793746503779 0.45507497120342549 0 -0.16113758629404229 0.46206475253210239 0 -0.14083201439797821 0.46516349611765162 0 -0.1430360577347192 0.45502329805863873 0 -0.15230793746503779 0.45507497120342549 0 -0.16113758629404229 0.46206475253210239 0 -0.16940388650370539 0.44815354093755089 0 -0.18144315819010631 0.45896600894655282 0 -0.16113758629404229 0.46206475253210239 0 -0.18144315819010631 0.45896600894655282 0 -0.16113758629404229 0.46206475253210239 0 -0.17453557306473899 0.46796298731641428 0 -0.15779819732271971 0.4695739402503486 0 -0.15230793746503779 0.45507497120342549 0 -0.16113758629404229 0.46206475253210239 0 -0.16013216473902109 0.45292766881669072 0 -0.16113758629404229 0.46206475253210239 0 -0.16013216473902109 0.45292766881669072 0 -0.16940388650370539 0.44815354093755089 0 -0.15767924869329919 0.44641741059368378 0 -0.16940388650370539 0.44815354093755089 0 -0.15912083936695831 0.4347249498771325 0 -0.15230793746503779 0.45507497120342549 0 -0.16013216473902109 0.45292766881669072 0 -0.15767924869329919 0.44641741059368378 0 -0.16013216473902109 0.45292766881669072 0 -0.15767924869329919 0.44641741059368378 0 -0.16940388650370539 0.44815354093755089 0 -0.1829590266345629 0.45699162349075462 0 -0.18255950863604661 0.43173185523385532 0 -0.1829590266345629 0.45699162349075462 0 -0.19557533522393281 0.44055915781337712 0 -0.18255950863604661 0.43173185523385532 0 -0.16940388650370539 0.44815354093755089 0 -0.1829590266345629 0.45699162349075462 0 -0.18255950863604661 0.43173185523385532 0 -0.16113758629404229 0.46206475253210239 0 -0.17453557306473899 0.46796298731641428 0 -0.18144315819010631 0.45896600894655282 0 -0.17453557306473899 0.46796298731641428 0 -0.18144315819010631 0.45896600894655282 0 -0.17453557306473899 0.46796298731641428 0 -0.18311948649431831 0.46713679563994498 0 -0.16940388650370539 0.44815354093755089 0 -0.18144315819010631 0.45896600894655282 0 -0.1829590266345629 0.45699162349075462 0 -0.18144315819010631 0.45896600894655282 0 -0.1829590266345629 0.45699162349075462 0 -0.18144315819010631 0.45896600894655282 0 -0.1829865290739871 0.45873048193697258 0 -0.1829590266345629 0.45699162349075462 0 -0.18144315819010631 0.45896600894655282 0 -0.1829865290739871 0.45873048193697258 0 -0.1829865290739871 0.45873048193697258 0 -0.1829590266345629 0.45699162349075462 0 -0.17453557306473899 0.46796298731641428 0 -0.18144315819010631 0.45896600894655282 0 -0.18311948649431831 0.46713679563994498 0 -0.1829865290739871 0.45873048193697258 0 -0.18311948649431831 0.46713679563994498 0 -0.18144315819010631 0.45896600894655282 0 -0.1829865290739871 0.45873048193697258 0 -0.18311948649431831 0.46713679563994498 0 -0.18311948649431831 0.46713679563994498 0 -0.18337937489664821 0.48356839781997168 0 -0.19511197543601369 0.47606725323690458 0 -0.18311948649431831 0.46713679563994498 0 -0.18337937489664821 0.48356839781997168 0 -0.18311948649431831 0.46713679563994498 0 -0.18337937489664821 0.48356839781997168 0 -0.17485937494801759 0.47808814193434568 0 -0.17453557306473899 0.46796298731641428 0 -0.18311948649431831 0.46713679563994498 0 -0.17485937494801759 0.47808814193434568 0 -0.17453557306473899 0.46796298731641428 0 -0.15779819732271971 0.4695739402503486 0 -0.17453557306473899 0.46796298731641428 0 -0.16499414335466689 0.48039049058434952 0 -0.17453557306473899 0.46796298731641428 0 -0.16499414335466689 0.48039049058434952 0 -0.15779819732271971 0.4695739402503486 0 -0.17453557306473899 0.46796298731641428 0 -0.17485937494801759 0.47808814193434568 0 -0.16499414335466689 0.48039049058434952 0 -0.17485937494801759 0.47808814193434568 0 -0.16499414335466689 0.48039049058434952 0 -0.1699453859209171 0.49288017845899518 0 -0.1558122254133027 0.48316327461493752 0 -0.16499414335466689 0.48039049058434952 0 -0.15682389603308189 0.47748605108520858 0 -0.16499414335466689 0.48039049058434952 0 -0.15682389603308189 0.47748605108520858 0 -0.15779819732271971 0.4695739402503486 0 -0.15453849507163009 0.5 0 -0.1699453859209171 0.49288017845899518 0 -0.18363926329897839 0.49999999999999828 0 -0.15453849507163009 0.5 0 -0.15545271364459581 0.49281799385228547 0 -0.1699453859209171 0.49288017845899518 0 -0.15545271364459581 0.49281799385228547 0 -0.16499414335466689 0.48039049058434952 0 -0.1699453859209171 0.49288017845899518 0 -0.15545271364459581 0.49281799385228547 0 -0.16499414335466689 0.48039049058434952 0 -0.1558122254133027 0.48316327461493752 0 -0.15545271364459581 0.49281799385228547 0 -0.16499414335466689 0.48039049058434952 0 -0.18337937489664821 0.48356839781997168 0 -0.18363926329897839 0.49999999999999828 0 -0.18337937489664821 0.48356839781997168 0 -0.1699453859209171 0.49288017845899518 0 -0.18363926329897839 0.49999999999999828 0 -0.18337937489664821 0.48356839781997168 0 -0.17485937494801759 0.47808814193434568 0 -0.1699453859209171 0.49288017845899518 0 -0.18337937489664821 0.48356839781997168 0 -0.18363926329897839 0.49999999999999828 0 -0.19848883175809501 0.48685236178056529 0 -0.18363926329897839 0.49999999999999828 0 -0.19848883175809501 0.48685236178056529 0 -0.20708556466301639 0.5 0 -0.18311948649431831 0.46713679563994498 0 -0.19511197543601369 0.47606725323690458 0 -0.20656524953558469 0.46488016823659339 0 -0.18337937489664821 0.48356839781997168 0 -0.19848883175809501 0.48685236178056529 0 -0.19511197543601369 0.47606725323690458 0 -0.19848883175809501 0.48685236178056529 0 -0.19511197543601369 0.47606725323690458 0 -0.206747867840962 0.47700509082497228 0 -0.19511197543601369 0.47606725323690458 0 -0.206747867840962 0.47700509082497228 0 -0.20656524953558469 0.46488016823659339 0 -0.19848883175809501 0.48685236178056529 0 -0.206747867840962 0.47700509082497228 0 -0.21585796601610141 0.48648558657266339 0 -0.206747867840962 0.47700509082497228 0 -0.21852396914967101 0.47285401242330122 0 -0.20656524953558469 0.46488016823659339 0 -0.206747867840962 0.47700509082497228 0 -0.21852396914967101 0.47285401242330122 0 -0.21585796601610141 0.48648558657266339 0 -0.20708556466301639 0.5 0 -0.21585796601610141 0.48648558657266339 0 -0.23053186602705439 0.5 0 -0.19848883175809501 0.48685236178056529 0 -0.20708556466301639 0.5 0 -0.21585796601610141 0.48648558657266339 0 -0.21585796601610141 0.48648558657266339 0 -0.23053186602705439 0.5 0 -0.2373192826940049 0.48342253064983348 0 -0.21852396914967101 0.47285401242330122 0 -0.2373192826940049 0.48342253064983348 0 -0.23001101257685119 0.46262354083324181 0 -0.21852396914967101 0.47285401242330122 0 -0.21585796601610141 0.48648558657266339 0 -0.2373192826940049 0.48342253064983348 0 -0.25474868654415728 0.48692894813519849 0 -0.25315469521642581 0.4750486889203015 0 -0.2373192826940049 0.48342253064983348 0 -0.25315469521642581 0.4750486889203015 0 -0.2373192826940049 0.48342253064983348 0 -0.23001101257685119 0.46262354083324181 0 -0.25397816739109252 0.5 0 -0.23053186602705439 0.5 0 -0.2373192826940049 0.48342253064983348 0 -0.25397816739109252 0.5 0 -0.25474868654415728 0.48692894813519849 0 -0.2373192826940049 0.48342253064983348 0 -0.26330490497154813 0.43976041958731371 0 -0.24129970279445639 0.44943490890582899 0 -0.24092688658692171 0.43286849171069308 0 -0.24129970279445639 0.44943490890582899 0 -0.2242493546558077 0.44235471361969553 0 -0.24092688658692171 0.43286849171069308 0 -0.25345677561811758 0.46036691342989022 0 -0.23001101257685119 0.46262354083324181 0 -0.25345677561811758 0.46036691342989022 0 -0.24129970279445639 0.44943490890582899 0 -0.23001101257685119 0.46262354083324181 0 -0.25345677561811758 0.46036691342989022 0 -0.25315469521642581 0.4750486889203015 0 -0.23001101257685119 0.46262354083324181 0 -0.24129970279445639 0.44943490890582899 0 -0.23001101257685119 0.46262354083324181 0 -0.2242493546558077 0.44235471361969553 0 -0.23001101257685119 0.46262354083324181 0 -0.2242493546558077 0.44235471361969553 0 -0.2144914677851314 0.45380351874251162 0 -0.2242493546558077 0.44235471361969553 0 -0.20880164963731279 0.443380440886459 0 -0.2144914677851314 0.45380351874251162 0 -0.20880164963731279 0.443380440886459 0 -0.2144914677851314 0.45380351874251162 0 -0.20415969833182021 0.45549933815243238 0 -0.23001101257685119 0.46262354083324181 0 -0.2144914677851314 0.45380351874251162 0 -0.20656524953558469 0.46488016823659339 0 -0.21852396914967101 0.47285401242330122 0 -0.23001101257685119 0.46262354083324181 0 -0.20656524953558469 0.46488016823659339 0 -0.23001101257685119 0.46262354083324181 0 -0.20656524953558469 0.46488016823659339 0 -0.2144914677851314 0.45380351874251162 0 -0.20415969833182021 0.45549933815243238 0 -0.20656524953558469 0.46488016823659339 0 -0.1829865290739871 0.45873048193697258 0 -0.1829590266345629 0.45699162349075462 0 -0.20415969833182021 0.45549933815243238 0 -0.1829865290739871 0.45873048193697258 0 -0.20415969833182021 0.45549933815243238 0 -0.18311948649431831 0.46713679563994498 0 -0.20415969833182021 0.45549933815243238 0 -0.20656524953558469 0.46488016823659339 0 -0.1829865290739871 0.45873048193697258 0 -0.18311948649431831 0.46713679563994498 0 -0.20415969833182021 0.45549933815243238 0 -0.18311948649431831 0.46713679563994498 0 -0.20656524953558469 0.46488016823659339 0 -0.1829590266345629 0.45699162349075462 0 -0.19557533522393281 0.44055915781337712 0 -0.1829590266345629 0.45699162349075462 0 -0.20415969833182021 0.45549933815243238 0 -0.19557533522393281 0.44055915781337712 0 -0.20880164963731279 0.443380440886459 0 -0.20415969833182021 0.45549933815243238 0 -0.19557533522393281 0.44055915781337712 0 -0.19557533522393281 0.44055915781337712 0 -0.20819164381331129 0.42412669213600601 0 -0.19557533522393281 0.44055915781337712 0 -0.19413142888046839 0.4217351031076268 0 -0.18255950863604661 0.43173185523385532 0 -0.19557533522393281 0.44055915781337712 0 -0.19413142888046839 0.4217351031076268 0 -0.20819164381331129 0.42412669213600601 0 -0.19413142888046839 0.4217351031076268 0 -0.20819164381331129 0.42412669213600601 0 -0.2021706660915297 0.40578572337793972 0 -0.19413142888046839 0.4217351031076268 0 -0.2021706660915297 0.40578572337793972 0 -0.18215999063752189 0.40647208697695608 0 -0.20819164381331129 0.42412669213600601 0 -0.22405449890785839 0.40643558214578251 0 -0.2021706660915297 0.40578572337793972 0 -0.20880164963731279 0.443380440886459 0 -0.19557533522393281 0.44055915781337712 0 -0.20819164381331129 0.42412669213600601 0 -0.2242493546558077 0.44235471361969553 0 -0.20880164963731279 0.443380440886459 0 -0.20819164381331129 0.42412669213600601 0 -0.2242493546558077 0.44235471361969553 0 -0.20819164381331129 0.42412669213600601 0 -0.22600929792909111 0.42518400498706249 0 -0.2242493546558077 0.44235471361969553 0 -0.22600929792909111 0.42518400498706249 0 -0.24092688658692171 0.43286849171069308 0 -0.20819164381331129 0.42412669213600601 0 -0.22600929792909111 0.42518400498706249 0 -0.22405449890785839 0.40643558214578251 0 -0.22600929792909111 0.42518400498706249 0 -0.22405449890785839 0.40643558214578251 0 -0.2382988550227183 0.41778448946306668 0 -0.2572482915111563 0.42152384209731297 0 -0.2382988550227183 0.41778448946306668 0 -0.2490618870264745 0.40647588616764979 0 -0.22405449890785839 0.40643558214578251 0 -0.2382988550227183 0.41778448946306668 0 -0.2490618870264745 0.40647588616764979 0 -0.2572482915111563 0.42152384209731297 0 -0.2382988550227183 0.41778448946306668 0 -0.24092688658692171 0.43286849171069308 0 -0.22600929792909111 0.42518400498706249 0 -0.2382988550227183 0.41778448946306668 0 -0.24092688658692171 0.43286849171069308 0 -0.24000210142933509 0.37809552861286783 0 -0.23801773827758249 0.39392053259368742 0 -0.22567210936962789 0.38582584627882549 0 -0.25152819264859128 0.38883491631829081 0 -0.24000210142933509 0.37809552861286783 0 -0.23801773827758249 0.39392053259368742 0 -0.25213085833087667 0.37355178257669552 0 -0.25152819264859128 0.38883491631829081 0 -0.24000210142933509 0.37809552861286783 0 -0.25152819264859128 0.38883491631829081 0 -0.2490618870264745 0.40647588616764979 0 -0.23801773827758249 0.39392053259368742 0 -0.22405449890785839 0.40643558214578251 0 -0.2490618870264745 0.40647588616764979 0 -0.23801773827758249 0.39392053259368742 0 -0.22405449890785839 0.40643558214578251 0 -0.22567210936962789 0.38582584627882549 0 -0.2099895612515065 0.38861519238670661 0 -0.22405449890785839 0.40643558214578251 0 -0.23801773827758249 0.39392053259368742 0 -0.22567210936962789 0.38582584627882549 0 -0.22567210936962789 0.38582584627882549 0 -0.21752164111765379 0.37637519474985792 0 -0.23054114355980421 0.3681661286558337 0 -0.24000210142933509 0.37809552861286783 0 -0.22567210936962789 0.38582584627882549 0 -0.23054114355980421 0.3681661286558337 0 -0.22567210936962789 0.38582584627882549 0 -0.21752164111765379 0.37637519474985792 0 -0.2099895612515065 0.38861519238670661 0 -0.21752164111765379 0.37637519474985792 0 -0.2099895612515065 0.38861519238670661 0 -0.20825127389149589 0.37038948781896619 0 -0.2099895612515065 0.38861519238670661 0 -0.1956253707180633 0.37355818799515828 0 -0.20825127389149589 0.37038948781896619 0 -0.22405449890785839 0.40643558214578251 0 -0.2099895612515065 0.38861519238670661 0 -0.2021706660915297 0.40578572337793972 0 -0.2021706660915297 0.40578572337793972 0 -0.19434121226752371 0.39112870189136351 0 -0.18215999063752189 0.40647208697695608 0 -0.2099895612515065 0.38861519238670661 0 -0.2021706660915297 0.40578572337793972 0 -0.19434121226752371 0.39112870189136351 0 -0.2099895612515065 0.38861519238670661 0 -0.19434121226752371 0.39112870189136351 0 -0.1956253707180633 0.37355818799515828 0 -0.19434121226752371 0.39112870189136351 0 -0.18176047263899719 0.38121231872005679 0 -0.1956253707180633 0.37355818799515828 0 -0.18176047263899719 0.38121231872005679 0 -0.16585623702428451 0.39107516703040651 0 -0.16689278400863089 0.37048631692620287 0 -0.16585623702428451 0.39107516703040651 0 -0.1532541744773912 0.375434017343177 0 -0.15169756500005979 0.38990146883471011 0 -0.16585623702428451 0.39107516703040651 0 -0.1532541744773912 0.375434017343177 0 -0.16689278400863089 0.37048631692620287 0 -0.16585623702428451 0.39107516703040651 0 -0.1665369108918931 0.40914444316194981 0 -0.1556916669008335 0.40278409093046019 0 -0.16585623702428451 0.39107516703040651 0 -0.18215999063752189 0.40647208697695608 0 -0.1665369108918931 0.40914444316194981 0 -0.16585623702428451 0.39107516703040651 0 -0.15169756500005979 0.38990146883471011 0 -0.1556916669008335 0.40278409093046019 0 -0.18176047263899719 0.38121231872005679 0 -0.16585623702428451 0.39107516703040651 0 -0.18215999063752189 0.40647208697695608 0 -0.18176047263899719 0.38121231872005679 0 -0.18215999063752189 0.40647208697695608 0 -0.19434121226752371 0.39112870189136351 0 -0.18176047263899719 0.38121231872005679 0 -0.18215999063752189 0.40647208697695608 0 -0.18215999063752189 0.40647208697695608 0 -0.18255950863604661 0.43173185523385532 0 -0.18215999063752189 0.40647208697695608 0 -0.16958367679162159 0.42493542776846188 0 -0.1665369108918931 0.40914444316194981 0 -0.19413142888046839 0.4217351031076268 0 -0.18215999063752189 0.40647208697695608 0 -0.18255950863604661 0.43173185523385532 0 -0.18215999063752189 0.40647208697695608 0 -0.18255950863604661 0.43173185523385532 0 -0.16958367679162159 0.42493542776846188 0 -0.16940388650370539 0.44815354093755089 0 -0.18255950863604661 0.43173185523385532 0 -0.16958367679162159 0.42493542776846188 0 -0.16940388650370539 0.44815354093755089 0 -0.16958367679162159 0.42493542776846188 0 -0.15912083936695831 0.4347249498771325 0 -0.16958367679162159 0.42493542776846188 0 -0.15912083936695831 0.4347249498771325 0 -0.15604886632200479 0.41831593774319042 0 -0.16958367679162159 0.42493542776846188 0 -0.1665369108918931 0.40914444316194981 0 -0.15604886632200479 0.41831593774319042 0 -0.1665369108918931 0.40914444316194981 0 -0.15604886632200479 0.41831593774319042 0 -0.1556916669008335 0.40278409093046019 0 -0.15604886632200479 0.41831593774319042 0 -0.14768726638806501 0.40958107086639878 0 -0.1556916669008335 0.40278409093046019 0 -0.15604886632200479 0.41831593774319042 0 -0.1455440964649429 0.41771164433310332 0 -0.14575226394851429 0.42876386523653243 0 -0.15604886632200479 0.41831593774319042 0 -0.1455440964649429 0.41771164433310332 0 -0.14768726638806501 0.40958107086639878 0 -0.1455440964649429 0.41771164433310332 0 -0.14768726638806501 0.40958107086639878 0 -0.13820848934052041 0.41088683445876423 0 -0.15912083936695831 0.4347249498771325 0 -0.15604886632200479 0.41831593774319042 0 -0.14575226394851429 0.42876386523653243 0 -0.14949031039727409 0.43903968606904947 0 -0.15912083936695831 0.4347249498771325 0 -0.14575226394851429 0.42876386523653243 0 -0.1455440964649429 0.41771164433310332 0 -0.14575226394851429 0.42876386523653243 0 -0.13557398954387551 0.42076075412316039 0 -0.13973201497409549 0.44099892737807922 0 -0.14949031039727409 0.43903968606904947 0 -0.14575226394851429 0.42876386523653243 0 -0.13491063247587859 0.43073185275000708 0 -0.1242188050129694 0.42501783294758849 0 -0.1248743097581413 0.44162978393037222 0 -0.13973201497409549 0.44099892737807922 0 -0.14575226394851429 0.42876386523653243 0 -0.13491063247587859 0.43073185275000708 0 -0.14575226394851429 0.42876386523653243 0 -0.13491063247587859 0.43073185275000708 0 -0.13557398954387551 0.42076075412316039 0 -0.13491063247587859 0.43073185275000708 0 -0.13557398954387551 0.42076075412316039 0 -0.1242188050129694 0.42501783294758849 0 -0.13820848934052041 0.41088683445876423 0 -0.13557398954387551 0.42076075412316039 0 -0.12623023605756489 0.41143854881348008 0 -0.1455440964649429 0.41771164433310332 0 -0.13820848934052041 0.41088683445876423 0 -0.13557398954387551 0.42076075412316039 0 -0.13557398954387551 0.42076075412316039 0 -0.12623023605756489 0.41143854881348008 0 -0.1242188050129694 0.42501783294758849 0 -0.13820848934052041 0.41088683445876423 0 -0.12623023605756489 0.41143854881348008 0 -0.13398515235888339 0.40371564514020769 0 -0.12997925716256209 0.39431640422262348 0 -0.14074253368576661 0.38200722200303072 0 -0.1429432129120235 0.39820684686647628 0 -0.12623023605756489 0.41143854881348008 0 -0.13398515235888339 0.40371564514020769 0 -0.12997925716256209 0.39431640422262348 0 -0.13398515235888339 0.40371564514020769 0 -0.12997925716256209 0.39431640422262348 0 -0.1429432129120235 0.39820684686647628 0 -0.13820848934052041 0.41088683445876423 0 -0.13398515235888339 0.40371564514020769 0 -0.1429432129120235 0.39820684686647628 0 -0.12997925716256209 0.39431640422262348 0 -0.14074253368576661 0.38200722200303072 0 -0.12523428666698541 0.37069662222368049 0 -0.12997925716256209 0.39431640422262348 0 -0.12523428666698541 0.37069662222368049 0 -0.12103247972044499 0.39311621374447298 0 -0.14074253368576661 0.38200722200303072 0 -0.15169756500005979 0.38990146883471011 0 -0.1429432129120235 0.39820684686647628 0 -0.14074253368576661 0.38200722200303072 0 -0.1532541744773912 0.375434017343177 0 -0.15169756500005979 0.38990146883471011 0 -0.15169756500005979 0.38990146883471011 0 -0.1556916669008335 0.40278409093046019 0 -0.1429432129120235 0.39820684686647628 0 -0.14768726638806501 0.40958107086639878 0 -0.1556916669008335 0.40278409093046019 0 -0.1429432129120235 0.39820684686647628 0 -0.14768726638806501 0.40958107086639878 0 -0.13820848934052041 0.41088683445876423 0 -0.1429432129120235 0.39820684686647628 0 -0.14407255521749979 0.34403263722221961 0 -0.15504053286571459 0.3545366000593369 0 -0.14129669608781389 0.36249735492572199 0 -0.14407255521749979 0.34403263722221961 0 -0.15504053286571459 0.3545366000593369 0 -0.1549481930100888 0.34056708499864929 0 -0.14074253368576661 0.38200722200303072 0 -0.1532541744773912 0.375434017343177 0 -0.14129669608781389 0.36249735492572199 0 -0.1532541744773912 0.375434017343177 0 -0.15504053286571459 0.3545366000593369 0 -0.14129669608781389 0.36249735492572199 0 -0.14129669608781389 0.36249735492572199 0 -0.12523428666698541 0.37069662222368049 0 -0.1294360936135257 0.3482770307028879 0 -0.12523428666698541 0.37069662222368049 0 -0.1294360936135257 0.3482770307028879 0 -0.14074253368576661 0.38200722200303072 0 -0.14129669608781389 0.36249735492572199 0 -0.12523428666698541 0.37069662222368049 0 -0.14407255521749979 0.34403263722221961 0 -0.14129669608781389 0.36249735492572199 0 -0.1294360936135257 0.3482770307028879 0 -0.1294360936135257 0.3482770307028879 0 -0.13363790056006589 0.32585743918209531 0 -0.14407255521749979 0.34403263722221961 0 -0.1294360936135257 0.3482770307028879 0 -0.13363790056006589 0.32585743918209531 0 -0.1294360936135257 0.3482770307028879 0 -0.13363790056006589 0.32585743918209531 0 -0.1154499742120704 0.34086754873962172 0 -0.12722248981549561 0.3181430308760943 0 -0.13363790056006589 0.32585743918209531 0 -0.1360408951285694 0.3130357752318072 0 -0.12722248981549561 0.3181430308760943 0 -0.1360408951285694 0.3130357752318072 0 -0.12136448477009221 0.30951812845445109 0 -0.12722248981549561 0.3181430308760943 0 -0.13363790056006589 0.32585743918209531 0 -0.12142985306419619 0.32461006626398298 0 -0.13363790056006589 0.32585743918209531 0 -0.12142985306419619 0.32461006626398298 0 -0.13363790056006589 0.32585743918209531 0 -0.1360408951285694 0.3130357752318072 0 -0.14290423209994971 0.32095809222069871 0 -0.13363790056006589 0.32585743918209531 0 -0.1360408951285694 0.3130357752318072 0 -0.14290423209994971 0.32095809222069871 0 -0.1532404752523272 0.32269894785805692 0 -0.1464174014568787 0.29836992735667278 0 -0.13363790056006589 0.32585743918209531 0 -0.14290423209994971 0.32095809222069871 0 -0.15729966860100811 0.32827511069417059 0 -0.13363790056006589 0.32585743918209531 0 -0.15729966860100811 0.32827511069417059 0 -0.14290423209994971 0.32095809222069871 0 -0.1532404752523272 0.32269894785805692 0 -0.15729966860100811 0.32827511069417059 0 -0.1532404752523272 0.32269894785805692 0 -0.15943794807189979 0.31595908059817063 0 -0.1547819877644892 0.3091453549012102 0 -0.14407255521749979 0.34403263722221961 0 -0.13363790056006589 0.32585743918209531 0 -0.14748957934716561 0.33468306802428371 0 -0.13363790056006589 0.32585743918209531 0 -0.14748957934716561 0.33468306802428371 0 -0.15729966860100811 0.32827511069417059 0 -0.14748957934716561 0.33468306802428371 0 -0.1549481930100888 0.34056708499864929 0 -0.15729966860100811 0.32827511069417059 0 -0.14407255521749979 0.34403263722221961 0 -0.14748957934716561 0.33468306802428371 0 -0.1549481930100888 0.34056708499864929 0 -0.15729966860100811 0.32827511069417059 0 -0.18096143664194889 0.33069278220625808 0 -0.1549481930100888 0.34056708499864929 0 -0.15729966860100811 0.32827511069417059 0 -0.16781010436956259 0.34240718275037813 0 -0.15729966860100811 0.32827511069417059 0 -0.16781010436956259 0.34240718275037813 0 -0.18096143664194889 0.33069278220625808 0 -0.15729966860100811 0.32827511069417059 0 -0.17028988351433311 0.32233995817617028 0 -0.18096143664194889 0.33069278220625808 0 -0.15943794807189979 0.31595908059817063 0 -0.16495134068588049 0.31685297469802859 0 -0.1638395481514221 0.30983277085387728 0 -0.1532404752523272 0.32269894785805692 0 -0.15943794807189979 0.31595908059817063 0 -0.16037638850537991 0.32126535467967993 0 -0.15943794807189979 0.31595908059817063 0 -0.16037638850537991 0.32126535467967993 0 -0.16495134068588049 0.31685297469802859 0 -0.15729966860100811 0.32827511069417059 0 -0.16037638850537991 0.32126535467967993 0 -0.17028988351433311 0.32233995817617028 0 -0.1532404752523272 0.32269894785805692 0 -0.15729966860100811 0.32827511069417059 0 -0.16037638850537991 0.32126535467967993 0 -0.16495134068588049 0.31685297469802859 0 -0.17285953122972289 0.31090601179704258 0 -0.1638395481514221 0.30983277085387728 0 -0.17028988351433311 0.32233995817617028 0 -0.16495134068588049 0.31685297469802859 0 -0.17285953122972289 0.31090601179704258 0 -0.16037638850537991 0.32126535467967993 0 -0.17028988351433311 0.32233995817617028 0 -0.16495134068588049 0.31685297469802859 0 -0.18077272512400111 0.31876138179813301 0 -0.17285953122972289 0.31090601179704258 0 -0.17028988351433311 0.32233995817617028 0 -0.18077272512400111 0.31876138179813301 0 -0.17285953122972289 0.31090601179704258 0 -0.17028988351433311 0.32233995817617028 0 -0.18077272512400111 0.31876138179813301 0 -0.18096143664194889 0.33069278220625808 0 -0.18077272512400111 0.31876138179813301 0 -0.19386790912735871 0.33176087567547108 0 -0.18077272512400111 0.31876138179813301 0 -0.18096143664194889 0.33069278220625808 0 -0.18077272512400111 0.31876138179813301 0 -0.18096143664194889 0.33069278220625808 0 -0.19386790912735871 0.33176087567547108 0 -0.18096143664194889 0.33069278220625808 0 -0.1813609546404725 0.35595255046315749 0 -0.18096143664194889 0.33069278220625808 0 -0.1813609546404725 0.35595255046315749 0 -0.19258948339875709 0.33633707034479371 0 -0.16781010436956259 0.34240718275037813 0 -0.18096143664194889 0.33069278220625808 0 -0.1813609546404725 0.35595255046315749 0 -0.18096143664194889 0.33069278220625808 0 -0.19386790912735871 0.33176087567547108 0 -0.15504053286571459 0.3545366000593369 0 -0.16781010436956259 0.34240718275037813 0 -0.1813609546404725 0.35595255046315749 0 -0.15504053286571459 0.3545366000593369 0 -0.1549481930100888 0.34056708499864929 0 -0.16781010436956259 0.34240718275037813 0 -0.1532541744773912 0.375434017343177 0 -0.15504053286571459 0.3545366000593369 0 -0.16689278400863089 0.37048631692620287 0 -0.15504053286571459 0.3545366000593369 0 -0.1813609546404725 0.35595255046315749 0 -0.16689278400863089 0.37048631692620287 0 -0.18176047263899719 0.38121231872005679 0 -0.1813609546404725 0.35595255046315749 0 -0.18176047263899719 0.38121231872005679 0 -0.1813609546404725 0.35595255046315749 0 -0.1956253707180633 0.37355818799515828 0 -0.18176047263899719 0.38121231872005679 0 -0.1813609546404725 0.35595255046315749 0 -0.16689278400863089 0.37048631692620287 0 -0.1813609546404725 0.35595255046315749 0 -0.1956253707180633 0.37355818799515828 0 -0.2000380028121157 0.35856944723279938 0 -0.1956253707180633 0.37355818799515828 0 -0.2000380028121157 0.35856944723279938 0 -0.20825127389149589 0.37038948781896619 0 -0.1813609546404725 0.35595255046315749 0 -0.1951678646333711 0.34883535218340811 0 -0.19258948339875709 0.33633707034479371 0 -0.1813609546404725 0.35595255046315749 0 -0.1951678646333711 0.34883535218340811 0 -0.2000380028121157 0.35856944723279938 0 -0.1951678646333711 0.34883535218340811 0 -0.2000380028121157 0.35856944723279938 0 -0.20668301768213909 0.34448234069288158 0 -0.20668301768213909 0.34448234069288158 0 -0.2120127789660084 0.36084248239747968 0 -0.21921666942493959 0.3569244055809645 0 -0.2000380028121157 0.35856944723279938 0 -0.20668301768213909 0.34448234069288158 0 -0.2120127789660084 0.36084248239747968 0 -0.2120127789660084 0.36084248239747968 0 -0.21921666942493959 0.3569244055809645 0 -0.20668301768213909 0.34448234069288158 0 -0.21921666942493959 0.3569244055809645 0 -0.22158808080033929 0.34557455345049992 0 -0.20668301768213909 0.34448234069288158 0 -0.21921666942493959 0.3569244055809645 0 -0.2000380028121157 0.35856944723279938 0 -0.20825127389149589 0.37038948781896619 0 -0.2120127789660084 0.36084248239747968 0 -0.2120127789660084 0.36084248239747968 0 -0.2199937556016836 0.36693485901855288 0 -0.21921666942493959 0.3569244055809645 0 -0.20825127389149589 0.37038948781896619 0 -0.2120127789660084 0.36084248239747968 0 -0.2199937556016836 0.36693485901855288 0 -0.21752164111765379 0.37637519474985792 0 -0.20825127389149589 0.37038948781896619 0 -0.2199937556016836 0.36693485901855288 0 -0.21752164111765379 0.37637519474985792 0 -0.23054114355980421 0.3681661286558337 0 -0.2199937556016836 0.36693485901855288 0 -0.23054114355980421 0.3681661286558337 0 -0.21921666942493959 0.3569244055809645 0 -0.23305195790672301 0.35812934693154008 0 -0.23054114355980421 0.3681661286558337 0 -0.2199937556016836 0.36693485901855288 0 -0.21921666942493959 0.3569244055809645 0 -0.23054114355980421 0.3681661286558337 0 -0.21921666942493959 0.3569244055809645 0 -0.21921666942493959 0.3569244055809645 0 -0.22158808080033929 0.34557455345049992 0 -0.23915963598069589 0.34607775607121571 0 -0.21921666942493959 0.3569244055809645 0 -0.23915963598069589 0.34607775607121571 0 -0.21921666942493959 0.3569244055809645 0 -0.23305195790672301 0.35812934693154008 0 -0.23915963598069589 0.34607775607121571 0 -0.23305195790672301 0.35812934693154008 0 -0.23915963598069589 0.34607775607121571 0 -0.24329038266145239 0.36134909741814653 0 -0.25407523553642281 0.3497448278934856 0 -0.23915963598069589 0.34607775607121571 0 -0.24329038266145239 0.36134909741814653 0 -0.25213085833087667 0.37355178257669552 0 -0.24000210142933509 0.37809552861286783 0 -0.24329038266145239 0.36134909741814653 0 -0.24000210142933509 0.37809552861286783 0 -0.23054114355980421 0.3681661286558337 0 -0.24329038266145239 0.36134909741814653 0 -0.23054114355980421 0.3681661286558337 0 -0.23305195790672301 0.35812934693154008 0 -0.24329038266145239 0.36134909741814653 0 -0.23582541811145999 0.32679902143390172 0 -0.24885494741763489 0.31718848033418301 0 -0.23189508169276829 0.30076725351495531 0 -0.23582541811145999 0.32679902143390172 0 -0.24885494741763489 0.31718848033418301 0 -0.24633099797708269 0.32737693631841108 0 -0.25451497659773847 0.32559442806853028 0 -0.24885494741763489 0.31718848033418301 0 -0.24633099797708269 0.32737693631841108 0 -0.24843663428782739 0.33758714710907461 0 -0.22129300011358269 0.33481371145693772 0 -0.25451497659773847 0.32559442806853028 0 -0.24633099797708269 0.32737693631841108 0 -0.24843663428782739 0.33758714710907461 0 -0.25910260253645218 0.33523110656146687 0 -0.23915963598069589 0.34607775607121571 0 -0.23582541811145999 0.32679902143390172 0 -0.24633099797708269 0.32737693631841108 0 -0.24843663428782739 0.33758714710907461 0 -0.25910260253645218 0.33523110656146687 0 -0.23915963598069589 0.34607775607121571 0 -0.24843663428782739 0.33758714710907461 0 -0.23582541811145999 0.32679902143390172 0 -0.24843663428782739 0.33758714710907461 0 -0.22129300011358269 0.33481371145693772 0 -0.23915963598069589 0.34607775607121571 0 -0.24843663428782739 0.33758714710907461 0 -0.22129300011358269 0.33481371145693772 0 -0.22158808080033929 0.34557455345049992 0 -0.23915963598069589 0.34607775607121571 0 -0.22129300011358269 0.33481371145693772 0 -0.23582541811145999 0.32679902143390172 0 -0.21954464392232159 0.31820766509236142 0 -0.23189508169276829 0.30076725351495531 0 -0.23582541811145999 0.32679902143390172 0 -0.22129300011358269 0.33481371145693772 0 -0.21954464392232159 0.31820766509236142 0 -0.21954464392232159 0.31820766509236142 0 -0.20492818889453221 0.32276220977772679 0 -0.20060783596013981 0.3076349397264902 0 -0.22129300011358269 0.33481371145693772 0 -0.21954464392232159 0.31820766509236142 0 -0.20492818889453221 0.32276220977772679 0 -0.22129300011358269 0.33481371145693772 0 -0.20492818889453221 0.32276220977772679 0 -0.19386790912735871 0.33176087567547108 0 -0.22129300011358269 0.33481371145693772 0 -0.19386790912735871 0.33176087567547108 0 -0.20668301768213909 0.34448234069288158 0 -0.22129300011358269 0.33481371145693772 0 -0.19386790912735871 0.33176087567547108 0 -0.20668301768213909 0.34448234069288158 0 -0.22158808080033929 0.34557455345049992 0 -0.22129300011358269 0.33481371145693772 0 -0.20668301768213909 0.34448234069288158 0 -0.19386790912735871 0.33176087567547108 0 -0.19258948339875709 0.33633707034479371 0 -0.20668301768213909 0.34448234069288158 0 -0.19386790912735871 0.33176087567547108 0 -0.1951678646333711 0.34883535218340811 0 -0.20668301768213909 0.34448234069288158 0 -0.19258948339875709 0.33633707034479371 0 -0.18096143664194889 0.33069278220625808 0 -0.19386790912735871 0.33176087567547108 0 -0.19258948339875709 0.33633707034479371 0 -0.19386790912735871 0.33176087567547108 0 -0.19258948339875709 0.33633707034479371 0 -0.18077272512400111 0.31876138179813301 0 -0.19386790912735871 0.33176087567547108 0 -0.20060783596013981 0.3076349397264902 0 -0.20492818889453221 0.32276220977772679 0 -0.19386790912735871 0.33176087567547108 0 -0.20060783596013981 0.3076349397264902 0 -0.19386790912735871 0.33176087567547108 0 -0.20060783596013981 0.3076349397264902 0 -0.20060783596013981 0.3076349397264902 0 -0.20734776279292019 0.28350900377750898 0 -0.23189508169276829 0.30076725351495531 0 -0.21954464392232159 0.31820766509236142 0 -0.20060783596013981 0.3076349397264902 0 -0.23189508169276829 0.30076725351495531 0 -0.20060783596013981 0.3076349397264902 0 -0.20734776279292019 0.28350900377750898 0 -0.18034630435624241 0.29180066960649809 0 -0.20734776279292019 0.28350900377750898 0 -0.19375927737912041 0.2730469699042487 0 -0.18034630435624241 0.29180066960649809 0 -0.20060783596013981 0.3076349397264902 0 -0.20734776279292019 0.28350900377750898 0 -0.20734776279292019 0.28350900377750898 0 -0.23189508169276829 0.30076725351495531 0 -0.22396762922540969 0.27514125130055722 0 -0.23189508169276829 0.30076725351495531 0 -0.2378434694439332 0.28391349183279069 0 -0.22396762922540969 0.27514125130055722 0 -0.25673188405007052 0.28646841290673969 0 -0.23189508169276829 0.30076725351495531 0 -0.2378434694439332 0.28391349183279069 0 -0.25673188405007052 0.28646841290673969 0 -0.23189508169276829 0.30076725351495531 0 -0.25505401324638421 0.30366623925853881 0 -0.25673188405007052 0.28646841290673969 0 -0.23189508169276829 0.30076725351495531 0 -0.25505401324638421 0.30366623925853881 0 -0.24885494741763489 0.31718848033418301 0 -0.23189508169276829 0.30076725351495531 0 -0.25265925142613249 0.26128234508680298 0 -0.23885305679183191 0.2684477152547543 0 -0.23951274761537589 0.2474853768326048 0 -0.23885305679183191 0.2684477152547543 0 -0.22811192938500721 0.25829645972706228 0 -0.23951274761537589 0.2474853768326048 0 -0.25621817608628389 0.2460965770837312 0 -0.25265925142613249 0.26128234508680298 0 -0.23951274761537589 0.2474853768326048 0 -0.25673188405007052 0.28646841290673969 0 -0.2378434694439332 0.28391349183279069 0 -0.23885305679183191 0.2684477152547543 0 -0.25265925142613249 0.26128234508680298 0 -0.25673188405007052 0.28646841290673969 0 -0.23885305679183191 0.2684477152547543 0 -0.23885305679183191 0.2684477152547543 0 -0.22396762922540969 0.27514125130055722 0 -0.22811192938500721 0.25829645972706228 0 -0.2378434694439332 0.28391349183279069 0 -0.23885305679183191 0.2684477152547543 0 -0.22396762922540969 0.27514125130055722 0 -0.22811192938500721 0.25829645972706228 0 -0.22371849106378741 0.2462845034026982 0 -0.23951274761537589 0.2474853768326048 0 -0.22396762922540969 0.27514125130055722 0 -0.22811192938500721 0.25829645972706228 0 -0.21408768962570049 0.25938306782852782 0 -0.22811192938500721 0.25829645972706228 0 -0.21408768962570049 0.25938306782852782 0 -0.22371849106378741 0.2462845034026982 0 -0.21408768962570049 0.25938306782852782 0 -0.19928355658839081 0.25766712263582692 0 -0.2066863838603582 0.24242880758937649 0 -0.21408768962570049 0.25938306782852782 0 -0.20163280817849061 0.26608937016207479 0 -0.19928355658839081 0.25766712263582692 0 -0.20734776279292019 0.28350900377750898 0 -0.21408768962570049 0.25938306782852782 0 -0.20734776279292019 0.28350900377750898 0 -0.22396762922540969 0.27514125130055722 0 -0.21408768962570049 0.25938306782852782 0 -0.20734776279292019 0.28350900377750898 0 -0.21408768962570049 0.25938306782852782 0 -0.20163280817849061 0.26608937016207479 0 -0.20734776279292019 0.28350900377750898 0 -0.20163280817849061 0.26608937016207479 0 -0.19375927737912041 0.2730469699042487 0 -0.20163280817849061 0.26608937016207479 0 -0.19375927737912041 0.2730469699042487 0 -0.19160269433399771 0.26436194023610149 0 -0.19375927737912041 0.2730469699042487 0 -0.19160269433399771 0.26436194023610149 0 -0.17991988358848049 0.26483995741486333 0 -0.19928355658839081 0.25766712263582692 0 -0.18259587964237009 0.2606558300825601 0 -0.2066863838603582 0.24242880758937649 0 -0.18259587964237009 0.2606558300825601 0 -0.19333963139412971 0.24385714112684301 0 -0.19928355658839081 0.25766712263582692 0 -0.19160269433399771 0.26436194023610149 0 -0.18259587964237009 0.2606558300825601 0 -0.18259587964237009 0.2606558300825601 0 -0.2066863838603582 0.24242880758937649 0 -0.20163280817849061 0.26608937016207479 0 -0.19928355658839081 0.25766712263582692 0 -0.19160269433399771 0.26436194023610149 0 -0.17991988358848049 0.26483995741486333 0 -0.17951502337729761 0.2392424245160312 0 -0.17991988358848049 0.26483995741486333 0 -0.17042143569771079 0.26099360542817968 0 -0.17951502337729761 0.2392424245160312 0 -0.18259587964237009 0.2606558300825601 0 -0.17991988358848049 0.26483995741486333 0 -0.17951502337729761 0.2392424245160312 0 -0.19160269433399771 0.26436194023610149 0 -0.18259587964237009 0.2606558300825601 0 -0.17991988358848049 0.26483995741486333 0 -0.18259587964237009 0.2606558300825601 0 -0.17991988358848049 0.26483995741486333 0 -0.17991988358848049 0.26483995741486333 0 -0.17042143569771079 0.26099360542817968 0 -0.17716480609589361 0.26914773470870201 0 -0.17042143569771079 0.26099360542817968 0 -0.1627301728603629 0.26968240911070368 0 -0.1532221513837192 0.25419418888983192 0 -0.17042143569771079 0.26099360542817968 0 -0.1532221513837192 0.25419418888983192 0 -0.17951502337729761 0.2392424245160312 0 -0.1627301728603629 0.26968240911070368 0 -0.1620479085915319 0.28265904931380531 0 -0.15271877240598841 0.27446820953958367 0 -0.17042143569771079 0.26099360542817968 0 -0.1627301728603629 0.26968240911070368 0 -0.1699765768805111 0.26885491792894611 0 -0.1627301728603629 0.26968240911070368 0 -0.1699765768805111 0.26885491792894611 0 -0.16860704672851359 0.27535934789532951 0 -0.1627301728603629 0.26968240911070368 0 -0.16860704672851359 0.27535934789532951 0 -0.1620479085915319 0.28265904931380531 0 -0.16860704672851359 0.27535934789532951 0 -0.17077339862397739 0.28423195702734899 0 -0.1620479085915319 0.28265904931380531 0 -0.17991988358848049 0.26483995741486333 0 -0.18034630435624241 0.29180066960649809 0 -0.17991988358848049 0.26483995741486333 0 -0.17716480609589361 0.26914773470870201 0 -0.18034630435624241 0.29180066960649809 0 -0.16860704672851359 0.27535934789532951 0 -0.17716480609589361 0.26914773470870201 0 -0.17077339862397739 0.28423195702734899 0 -0.19375927737912041 0.2730469699042487 0 -0.17991988358848049 0.26483995741486333 0 -0.18034630435624241 0.29180066960649809 0 -0.17042143569771079 0.26099360542817968 0 -0.1699765768805111 0.26885491792894611 0 -0.17716480609589361 0.26914773470870201 0 -0.1699765768805111 0.26885491792894611 0 -0.16860704672851359 0.27535934789532951 0 -0.17716480609589361 0.26914773470870201 0 -0.17991988358848049 0.26483995741486333 0 -0.17716480609589361 0.26914773470870201 0 -0.17716480609589361 0.26914773470870201 0 -0.18034630435624241 0.29180066960649809 0 -0.17077339862397739 0.28423195702734899 0 -0.18034630435624241 0.29180066960649809 0 -0.16501618616712291 0.29775164083812761 0 -0.17077339862397739 0.28423195702734899 0 -0.18077272512400111 0.31876138179813301 0 -0.18034630435624241 0.29180066960649809 0 -0.18077272512400111 0.31876138179813301 0 -0.18034630435624241 0.29180066960649809 0 -0.17285953122972289 0.31090601179704258 0 -0.18034630435624241 0.29180066960649809 0 -0.17285953122972289 0.31090601179704258 0 -0.16501618616712291 0.29775164083812761 0 -0.18077272512400111 0.31876138179813301 0 -0.20060783596013981 0.3076349397264902 0 -0.18034630435624241 0.29180066960649809 0 -0.16501618616712291 0.29775164083812761 0 -0.15329008091572741 0.28945008379417048 0 -0.1547819877644892 0.3091453549012102 0 -0.17285953122972289 0.31090601179704258 0 -0.16501618616712291 0.29775164083812761 0 -0.1638395481514221 0.30983277085387728 0 -0.16501618616712291 0.29775164083812761 0 -0.1638395481514221 0.30983277085387728 0 -0.1547819877644892 0.3091453549012102 0 -0.15943794807189979 0.31595908059817063 0 -0.1638395481514221 0.30983277085387728 0 -0.1547819877644892 0.3091453549012102 0 -0.16501618616712291 0.29775164083812761 0 -0.17077339862397739 0.28423195702734899 0 -0.1620479085915319 0.28265904931380531 0 -0.16501618616712291 0.29775164083812761 0 -0.1620479085915319 0.28265904931380531 0 -0.15329008091572741 0.28945008379417048 0 -0.1464174014568787 0.29836992735667278 0 -0.13959432766143021 0.2740409068552887 0 -0.1620479085915319 0.28265904931380531 0 -0.15329008091572741 0.28945008379417048 0 -0.15271877240598841 0.27446820953958367 0 -0.15329008091572741 0.28945008379417048 0 -0.1464174014568787 0.29836992735667278 0 -0.13959432766143021 0.2740409068552887 0 -0.15329008091572741 0.28945008379417048 0 -0.1464174014568787 0.29836992735667278 0 -0.1547819877644892 0.3091453549012102 0 -0.1532404752523272 0.32269894785805692 0 -0.1464174014568787 0.29836992735667278 0 -0.1360408951285694 0.3130357752318072 0 -0.14290423209994971 0.32095809222069871 0 -0.1464174014568787 0.29836992735667278 0 -0.1532404752523272 0.32269894785805692 0 -0.1464174014568787 0.29836992735667278 0 -0.1547819877644892 0.3091453549012102 0 -0.1360408951285694 0.3130357752318072 0 -0.1264253840414637 0.29528772621663357 0 -0.12136448477009221 0.30951812845445109 0 -0.1360408951285694 0.3130357752318072 0 -0.1464174014568787 0.29836992735667278 0 -0.1264253840414637 0.29528772621663357 0 -0.1464174014568787 0.29836992735667278 0 -0.1264253840414637 0.29528772621663357 0 -0.13959432766143021 0.2740409068552887 0 -0.1264253840414637 0.29528772621663357 0 -0.13959432766143021 0.2740409068552887 0 -0.1185373796182298 0.27837978510360878 0 -0.13959432766143021 0.2740409068552887 0 -0.1327712538659816 0.24971188635390451 0 -0.13959432766143021 0.2740409068552887 0 -0.116744543106582 0.25728181003509248 0 -0.1327712538659816 0.24971188635390451 0 -0.13959432766143021 0.2740409068552887 0 -0.1532221513837192 0.25419418888983192 0 -0.1327712538659816 0.24971188635390451 0 -0.1627301728603629 0.26968240911070368 0 -0.1532221513837192 0.25419418888983192 0 -0.15271877240598841 0.27446820953958367 0 -0.13959432766143021 0.2740409068552887 0 -0.1532221513837192 0.25419418888983192 0 -0.15271877240598841 0.27446820953958367 0 -0.15329008091572741 0.28945008379417048 0 -0.13959432766143021 0.2740409068552887 0 -0.15271877240598841 0.27446820953958367 0 -0.1061606963602142 0.26761343855331338 0 -0.1001789302111205 0.27974269320078388 0 -0.1185373796182298 0.27837978510360878 0 -0.1061606963602142 0.26761343855331338 0 -0.1001789302111205 0.27974269320078388 0 -0.092613028744971265 0.26767711662392979 0 -0.1061606963602142 0.26761343855331338 0 -0.10005120432924321 0.25626016583208688 0 -0.116744543106582 0.25728181003509248 0 -0.1061606963602142 0.26761343855331338 0 -0.10005120432924321 0.25626016583208688 0 -0.092613028744971265 0.26767711662392979 0 -0.10005120432924321 0.25626016583208688 0 -0.116744543106582 0.25728181003509248 0 -0.1045487088169635 0.24438495162540061 0 -0.13959432766143021 0.2740409068552887 0 -0.116744543106582 0.25728181003509248 0 -0.1185373796182298 0.27837978510360878 0 -0.1061606963602142 0.26761343855331338 0 -0.116744543106582 0.25728181003509248 0 -0.1185373796182298 0.27837978510360878 0 -0.1264253840414637 0.29528772621663357 0 -0.1127724140037699 0.30190213115774378 0 -0.1091517300735869 0.29135078386346752 0 -0.1264253840414637 0.29528772621663357 0 -0.1185373796182298 0.27837978510360878 0 -0.1091517300735869 0.29135078386346752 0 -0.1264253840414637 0.29528772621663357 0 -0.12136448477009221 0.30951812845445109 0 -0.1127724140037699 0.30190213115774378 0 -0.12136448477009221 0.30951812845445109 0 -0.1127724140037699 0.30190213115774378 0 -0.1061991548417472 0.31213959050036899 0 -0.1127724140037699 0.30190213115774378 0 -0.1061991548417472 0.31213959050036899 0 -0.1005146973405663 0.30141191014932889 0 -0.1127724140037699 0.30190213115774378 0 -0.1005146973405663 0.30141191014932889 0 -0.1091517300735869 0.29135078386346752 0 -0.1005146973405663 0.30141191014932889 0 -0.094430836728355921 0.29177030977787999 0 -0.089068024122243669 0.30112896568664949 0 -0.1061991548417472 0.31213959050036899 0 -0.1005146973405663 0.30141191014932889 0 -0.090928135519314904 0.31087631578889069 0 -0.1001789302111205 0.27974269320078388 0 -0.1185373796182298 0.27837978510360878 0 -0.1091517300735869 0.29135078386346752 0 -0.1005146973405663 0.30141191014932889 0 -0.1091517300735869 0.29135078386346752 0 -0.094430836728355921 0.29177030977787999 0 -0.1001789302111205 0.27974269320078388 0 -0.1091517300735869 0.29135078386346752 0 -0.094430836728355921 0.29177030977787999 0 -0.1001789302111205 0.27974269320078388 0 -0.094430836728355921 0.29177030977787999 0 -0.086145563619835275 0.2816538088019015 0 -0.094430836728355921 0.29177030977787999 0 -0.086145563619835275 0.2816538088019015 0 -0.081526075002782958 0.29533369696514911 0 -0.094430836728355921 0.29177030977787999 0 -0.081526075002782958 0.29533369696514911 0 -0.089068024122243669 0.30112896568664949 0 -0.086145563619835275 0.2816538088019015 0 -0.081526075002782958 0.29533369696514911 0 -0.070830210313899522 0.29195808219782299 0 -0.090928135519314904 0.31087631578889069 0 -0.079482369404140468 0.30560554845979909 0 -0.074915307566508993 0.31649039264194578 0 -0.090928135519314904 0.31087631578889069 0 -0.089068024122243669 0.30112896568664949 0 -0.079482369404140468 0.30560554845979909 0 -0.1005146973405663 0.30141191014932889 0 -0.090928135519314904 0.31087631578889069 0 -0.089068024122243669 0.30112896568664949 0 -0.081526075002782958 0.29533369696514911 0 -0.089068024122243669 0.30112896568664949 0 -0.079482369404140468 0.30560554845979909 0 -0.054647974243728172 0.30430181459310768 0 -0.074915307566508993 0.31649039264194578 0 -0.079482369404140468 0.30560554845979909 0 -0.068661557073843291 0.3005821027458685 0 -0.074915307566508993 0.31649039264194578 0 -0.068661557073843291 0.3005821027458685 0 -0.054647974243728172 0.30430181459310768 0 -0.074915307566508993 0.31649039264194578 0 -0.081526075002782958 0.29533369696514911 0 -0.079482369404140468 0.30560554845979909 0 -0.068661557073843291 0.3005821027458685 0 -0.070830210313899522 0.29195808219782299 0 -0.067453711470644842 0.27023673344429472 0 -0.052574645638654917 0.28480468584225688 0 -0.081526075002782958 0.29533369696514911 0 -0.068661557073843291 0.3005821027458685 0 -0.070830210313899522 0.29195808219782299 0 -0.068661557073843291 0.3005821027458685 0 -0.070830210313899522 0.29195808219782299 0 -0.068661557073843291 0.3005821027458685 0 -0.070830210313899522 0.29195808219782299 0 -0.059610011597539182 0.29372125904316332 0 -0.086145563619835275 0.2816538088019015 0 -0.070830210313899522 0.29195808219782299 0 -0.077256670317037021 0.26667642926106078 0 -0.070830210313899522 0.29195808219782299 0 -0.067453711470644842 0.27023673344429472 0 -0.070830210313899522 0.29195808219782299 0 -0.077256670317037021 0.26667642926106078 0 -0.070830210313899522 0.29195808219782299 0 -0.067453711470644842 0.27023673344429472 0 -0.077256670317037021 0.26667642926106078 0 -0.086145563619835275 0.2816538088019015 0 -0.077256670317037021 0.26667642926106078 0 -0.092613028744971265 0.26767711662392979 0 -0.1001789302111205 0.27974269320078388 0 -0.086145563619835275 0.2816538088019015 0 -0.092613028744971265 0.26767711662392979 0 -0.077256670317037021 0.26667642926106078 0 -0.086302411784292182 0.25447467192259482 0 -0.083666647235009842 0.24139059785004849 0 -0.077256670317037021 0.26667642926106078 0 -0.083666647235009842 0.24139059785004849 0 -0.10005120432924321 0.25626016583208688 0 -0.086302411784292182 0.25447467192259482 0 -0.094679029848152713 0.24609146959404629 0 -0.10005120432924321 0.25626016583208688 0 -0.092613028744971265 0.26767711662392979 0 -0.086302411784292182 0.25447467192259482 0 -0.077256670317037021 0.26667642926106078 0 -0.092613028744971265 0.26767711662392979 0 -0.086302411784292182 0.25447467192259482 0 -0.077256670317037021 0.26667642926106078 0 -0.064077212627390134 0.24851538469076631 0 -0.083666647235009842 0.24139059785004849 0 -0.067453711470644842 0.27023673344429472 0 -0.077256670317037021 0.26667642926106078 0 -0.064077212627390134 0.24851538469076631 0 -0.067453711470644842 0.27023673344429472 0 -0.064077212627390134 0.24851538469076631 0 -0.067453711470644842 0.27023673344429472 0 -0.04634179854296408 0.26632715615711849 0 -0.064077212627390134 0.24851538469076631 0 -0.04634179854296408 0.26632715615711849 0 -0.064077212627390134 0.24851538469076631 0 -0.046578861792199937 0.24361118962503389 0 -0.067453711470644842 0.27023673344429472 0 -0.04634179854296408 0.26632715615711849 0 -0.052574645638654917 0.28480468584225688 0 -0.04634179854296408 0.26632715615711849 0 -0.034380640920947357 0.29211323654426968 0 -0.052574645638654917 0.28480468584225688 0 -0.04634179854296408 0.26632715615711849 0 -0.022607631921228569 0.27169805167723737 0 -0.034380640920947357 0.29211323654426968 0 -0.04634179854296408 0.26632715615711849 0 -0.03068766995985707 0.25286978792993342 0 -0.022607631921228569 0.27169805167723737 0 -0.04634179854296408 0.26632715615711849 0 -0.03068766995985707 0.25286978792993342 0 -0.046578861792199937 0.24361118962503389 0 -0.03068766995985707 0.25286978792993342 0 -0.022607631921228569 0.27169805167723737 0 -0.0098044441781452579 0.25473951632571468 0 -0.022607631921228569 0.27169805167723737 0 -0.015153941911089409 0.29208252597919021 0 3.3590645499582607e-05 0.27236849017123349 0 -0.022607631921228569 0.27169805167723737 0 -0.0098044441781452579 0.25473951632571468 0 3.3590645499582607e-05 0.27236849017123349 0 -0.0098044441781452579 0.25473951632571468 0 0.0073806355134042019 0.25529449578482938 0 3.3590645499582607e-05 0.27236849017123349 0 -0.0088759444352828343 0.31092800175718183 0 -0.015153941911089409 0.29208252597919021 0 0.0083336089875100904 0.29343585490586271 0 -0.015153941911089409 0.29208252597919021 0 0.0083336089875100904 0.29343585490586271 0 3.3590645499582607e-05 0.27236849017123349 0 -0.022607631921228569 0.27169805167723737 0 -0.015153941911089409 0.29208252597919021 0 -0.034380640920947357 0.29211323654426968 0 -0.0088759444352828343 0.31092800175718183 0 -0.015153941911089409 0.29208252597919021 0 -0.03508050583840458 0.3127012881250415 0 -0.015153941911089409 0.29208252597919021 0 -0.034380640920947357 0.29211323654426968 0 -0.03508050583840458 0.3127012881250415 0 -0.034380640920947357 0.29211323654426968 0 -0.054647974243728172 0.30430181459310768 0 -0.034380640920947357 0.29211323654426968 0 -0.054647974243728172 0.30430181459310768 0 -0.03508050583840458 0.3127012881250415 0 -0.034380640920947357 0.29211323654426968 0 -0.052574645638654917 0.28480468584225688 0 -0.054647974243728172 0.30430181459310768 0 -0.052574645638654917 0.28480468584225688 0 -0.059610011597539182 0.29372125904316332 0 -0.054647974243728172 0.30430181459310768 0 -0.070830210313899522 0.29195808219782299 0 -0.052574645638654917 0.28480468584225688 0 -0.059610011597539182 0.29372125904316332 0 -0.068661557073843291 0.3005821027458685 0 -0.059610011597539182 0.29372125904316332 0 -0.054647974243728172 0.30430181459310768 0 -0.058679851530075752 0.32054224196392622 0 -0.045885169747561752 0.33132665820789581 0 -0.073191842414501496 0.33174208285196288 0 -0.054647974243728172 0.30430181459310768 0 -0.058679851530075752 0.32054224196392622 0 -0.03508050583840458 0.3127012881250415 0 -0.045885169747561752 0.33132665820789581 0 -0.067541502003893042 0.3482616942848048 0 -0.073191842414501496 0.33174208285196288 0 -0.045885169747561752 0.33132665820789581 0 -0.073191842414501496 0.33174208285196288 0 -0.045885169747561752 0.33132665820789581 0 -0.018578497080621779 0.33091123356382868 0 -0.045885169747561752 0.33132665820789581 0 -0.03508050583840458 0.3127012881250415 0 -0.018578497080621779 0.33091123356382868 0 -0.058679851530075752 0.32054224196392622 0 -0.045885169747561752 0.33132665820789581 0 -0.03508050583840458 0.3127012881250415 0 -0.0088759444352828343 0.31092800175718183 0 -0.03508050583840458 0.3127012881250415 0 -0.018578497080621779 0.33091123356382868 0 -0.018578497080621779 0.33091123356382868 0 -0.0050552824635438226 0.34569829691311771 0 -0.02749858990914332 0.35301881799134821 0 -0.045885169747561752 0.33132665820789581 0 -0.018578497080621779 0.33091123356382868 0 -0.02749858990914332 0.35301881799134821 0 -0.018578497080621779 0.33091123356382868 0 -0.0050552824635438226 0.34569829691311771 0 0.0064742168078369342 0.3347740657525386 0 -0.018578497080621779 0.33091123356382868 0 0.0087281755863181168 0.33049580891976171 0 -0.018578497080621779 0.33091123356382868 0 0.0064742168078369342 0.3347740657525386 0 0.0087281755863181168 0.33049580891976171 0 -0.018578497080621779 0.33091123356382868 0 -0.003280447873963227 0.32161399115684158 0 0.0087281755863181168 0.33049580891976171 0 -0.0088759444352828343 0.31092800175718183 0 -0.018578497080621779 0.33091123356382868 0 -0.003280447873963227 0.32161399115684158 0 -0.0088759444352828343 0.31092800175718183 0 -0.003280447873963227 0.32161399115684158 0 0.0056044744337335906 0.31412092038659428 0 -0.0052616759920083916 0.36132776784546622 0 -0.0045342830833226501 0.3863935686212247 0 -0.0052616759920083916 0.36132776784546622 0 -0.024169526760701381 0.37267007813580277 0 -0.0045342830833226501 0.3863935686212247 0 -0.0052616759920083916 0.36132776784546622 0 -0.0045342830833226501 0.3863935686212247 0 0.0079023355216259559 0.37348921158265391 0 -0.0052616759920083916 0.36132776784546622 0 -0.0050552824635438226 0.34569829691311771 0 0.0061318462344260851 0.35417601161121459 0 -0.0052616759920083916 0.36132776784546622 0 -0.0050552824635438226 0.34569829691311771 0 -0.02749858990914332 0.35301881799134821 0 -0.02749858990914332 0.35301881799134821 0 -0.024169526760701381 0.37267007813580277 0 -0.04149310004589906 0.37124785083274592 0 -0.0052616759920083916 0.36132776784546622 0 -0.02749858990914332 0.35301881799134821 0 -0.024169526760701381 0.37267007813580277 0 -0.02749858990914332 0.35301881799134821 0 -0.04149310004589906 0.37124785083274592 0 -0.051818441616049399 0.35735321764765782 0 -0.045885169747561752 0.33132665820789581 0 -0.02749858990914332 0.35301881799134821 0 -0.051818441616049399 0.35735321764765782 0 -0.045885169747561752 0.33132665820789581 0 -0.051818441616049399 0.35735321764765782 0 -0.067541502003893042 0.3482616942848048 0 -0.04149310004589906 0.37124785083274592 0 -0.051818441616049399 0.35735321764765782 0 -0.056875823715872062 0.37631267096962301 0 -0.051818441616049399 0.35735321764765782 0 -0.069616273344600341 0.3650636543096733 0 -0.056875823715872062 0.37631267096962301 0 -0.069616273344600341 0.3650636543096733 0 -0.085055645225370236 0.37193713089684588 0 -0.071788917171084016 0.3809272333041443 0 -0.069616273344600341 0.3650636543096733 0 -0.071788917171084016 0.3809272333041443 0 -0.056875823715872062 0.37631267096962301 0 -0.069616273344600341 0.3650636543096733 0 -0.085055645225370236 0.37193713089684588 0 -0.084100884505446297 0.3554636863979832 0 -0.085055645225370236 0.37193713089684588 0 -0.084100884505446297 0.3554636863979832 0 -0.1008292236537022 0.36036332390371462 0 -0.084100884505446297 0.3554636863979832 0 -0.067541502003893042 0.3482616942848048 0 -0.085709514220790303 0.34113927750747819 0 -0.084100884505446297 0.3554636863979832 0 -0.085709514220790303 0.34113927750747819 0 -0.099722393067727538 0.34687368244968458 0 -0.069616273344600341 0.3650636543096733 0 -0.084100884505446297 0.3554636863979832 0 -0.067541502003893042 0.3482616942848048 0 -0.051818441616049399 0.35735321764765782 0 -0.069616273344600341 0.3650636543096733 0 -0.067541502003893042 0.3482616942848048 0 -0.067541502003893042 0.3482616942848048 0 -0.073191842414501496 0.33174208285196288 0 -0.085709514220790303 0.34113927750747819 0 -0.058679851530075752 0.32054224196392622 0 -0.073191842414501496 0.33174208285196288 0 -0.074915307566508993 0.31649039264194578 0 -0.054647974243728172 0.30430181459310768 0 -0.058679851530075752 0.32054224196392622 0 -0.074915307566508993 0.31649039264194578 0 -0.073191842414501496 0.33174208285196288 0 -0.074915307566508993 0.31649039264194578 0 -0.095182640889289766 0.32867897069078372 0 -0.090928135519314904 0.31087631578889069 0 -0.074915307566508993 0.31649039264194578 0 -0.095182640889289766 0.32867897069078372 0 -0.074915307566508993 0.31649039264194578 0 -0.095182640889289766 0.32867897069078372 0 -0.073191842414501496 0.33174208285196288 0 -0.085709514220790303 0.34113927750747819 0 -0.095182640889289766 0.32867897069078372 0 -0.085709514220790303 0.34113927750747819 0 -0.095182640889289766 0.32867897069078372 0 -0.099722393067727538 0.34687368244968458 0 -0.095182640889289766 0.32867897069078372 0 -0.1154499742120704 0.34086754873962172 0 -0.095182640889289766 0.32867897069078372 0 -0.1098512680755149 0.32470257897991811 0 -0.1154499742120704 0.34086754873962172 0 -0.095182640889289766 0.32867897069078372 0 -0.1154499742120704 0.34086754873962172 0 -0.099722393067727538 0.34687368244968458 0 -0.1061991548417472 0.31213959050036899 0 -0.090928135519314904 0.31087631578889069 0 -0.095182640889289766 0.32867897069078372 0 -0.1061991548417472 0.31213959050036899 0 -0.095182640889289766 0.32867897069078372 0 -0.1098512680755149 0.32470257897991811 0 -0.1061991548417472 0.31213959050036899 0 -0.115330384384618 0.31728312261503783 0 -0.1098512680755149 0.32470257897991811 0 -0.12136448477009221 0.30951812845445109 0 -0.1061991548417472 0.31213959050036899 0 -0.115330384384618 0.31728312261503783 0 -0.115330384384618 0.31728312261503783 0 -0.1098512680755149 0.32470257897991811 0 -0.12142985306419619 0.32461006626398298 0 -0.12722248981549561 0.3181430308760943 0 -0.115330384384618 0.31728312261503783 0 -0.12142985306419619 0.32461006626398298 0 -0.12722248981549561 0.3181430308760943 0 -0.12136448477009221 0.30951812845445109 0 -0.115330384384618 0.31728312261503783 0 -0.1098512680755149 0.32470257897991811 0 -0.12142985306419619 0.32461006626398298 0 -0.1154499742120704 0.34086754873962172 0 -0.13363790056006589 0.32585743918209531 0 -0.12142985306419619 0.32461006626398298 0 -0.1154499742120704 0.34086754873962172 0 -0.12523428666698541 0.37069662222368049 0 -0.1294360936135257 0.3482770307028879 0 -0.1154159689866658 0.35521970897278921 0 -0.1154499742120704 0.34086754873962172 0 -0.1154159689866658 0.35521970897278921 0 -0.099722393067727538 0.34687368244968458 0 -0.1294360936135257 0.3482770307028879 0 -0.1154499742120704 0.34086754873962172 0 -0.1154159689866658 0.35521970897278921 0 -0.12523428666698541 0.37069662222368049 0 -0.1154159689866658 0.35521970897278921 0 -0.11117961403065831 0.36839673047223442 0 -0.12523428666698541 0.37069662222368049 0 -0.11117961403065831 0.36839673047223442 0 -0.1123930043347208 0.38073562172137532 0 -0.11117961403065831 0.36839673047223442 0 -0.1008292236537022 0.36036332390371462 0 -0.09970079949094271 0.37763208900548878 0 -0.1154159689866658 0.35521970897278921 0 -0.11117961403065831 0.36839673047223442 0 -0.1008292236537022 0.36036332390371462 0 -0.085055645225370236 0.37193713089684588 0 -0.1008292236537022 0.36036332390371462 0 -0.09970079949094271 0.37763208900548878 0 -0.084100884505446297 0.3554636863979832 0 -0.1008292236537022 0.36036332390371462 0 -0.099722393067727538 0.34687368244968458 0 -0.1154159689866658 0.35521970897278921 0 -0.1008292236537022 0.36036332390371462 0 -0.099722393067727538 0.34687368244968458 0 -0.1036554482544351 0.39516830989393792 0 -0.1102807352191843 0.41378788895710661 0 -0.09259379641793411 0.40948313349934218 0 -0.1036554482544351 0.39516830989393792 0 -0.09970079949094271 0.37763208900548878 0 -0.1123930043347208 0.38073562172137532 0 -0.1036554482544351 0.39516830989393792 0 -0.09970079949094271 0.37763208900548878 0 -0.084297773186445962 0.39217279846007119 0 -0.11117961403065831 0.36839673047223442 0 -0.09970079949094271 0.37763208900548878 0 -0.1123930043347208 0.38073562172137532 0 -0.12523428666698541 0.37069662222368049 0 -0.1123930043347208 0.38073562172137532 0 -0.12103247972044499 0.39311621374447298 0 -0.1036554482544351 0.39516830989393792 0 -0.1123930043347208 0.38073562172137532 0 -0.12103247972044499 0.39311621374447298 0 -0.12523428666698541 0.37069662222368049 0 -0.12103247972044499 0.39311621374447298 0 -0.1036554482544351 0.39516830989393792 0 -0.12103247972044499 0.39311621374447298 0 -0.1102807352191843 0.41378788895710661 0 -0.12997925716256209 0.39431640422262348 0 -0.1102807352191843 0.41378788895710661 0 -0.12997925716256209 0.39431640422262348 0 -0.12103247972044499 0.39311621374447298 0 -0.1102807352191843 0.41378788895710661 0 -0.12623023605756489 0.41143854881348008 0 -0.1102807352191843 0.41378788895710661 0 -0.1242188050129694 0.42501783294758849 0 -0.12623023605756489 0.41143854881348008 0 -0.12997925716256209 0.39431640422262348 0 -0.1102807352191843 0.41378788895710661 0 -0.1102807352191843 0.41378788895710661 0 -0.1104760497445479 0.43296770510105842 0 -0.1242188050129694 0.42501783294758849 0 -0.1104760497445479 0.43296770510105842 0 -0.1242188050129694 0.42501783294758849 0 -0.1248743097581413 0.44162978393037222 0 -0.1102807352191843 0.41378788895710661 0 -0.090582213275806372 0.43325937369158968 0 -0.1102807352191843 0.41378788895710661 0 -0.1104760497445479 0.43296770510105842 0 -0.090582213275806372 0.43325937369158968 0 -0.1102807352191843 0.41378788895710661 0 -0.09259379641793411 0.40948313349934218 0 -0.090582213275806372 0.43325937369158968 0 -0.09259379641793411 0.40948313349934218 0 -0.090582213275806372 0.43325937369158968 0 -0.074152812153798875 0.41302729649400538 0 -0.090582213275806372 0.43325937369158968 0 -0.066022972602334681 0.42956105407568013 0 -0.074152812153798875 0.41302729649400538 0 -0.066022972602334681 0.42956105407568013 0 -0.074152812153798875 0.41302729649400538 0 -0.049329429094603867 0.41198700835812702 0 -0.074152812153798875 0.41302729649400538 0 -0.063154715464804681 0.39516467689365731 0 -0.084297773186445962 0.39217279846007119 0 -0.09259379641793411 0.40948313349934218 0 -0.074152812153798875 0.41302729649400538 0 -0.084297773186445962 0.39217279846007119 0 -0.1036554482544351 0.39516830989393792 0 -0.09259379641793411 0.40948313349934218 0 -0.084297773186445962 0.39217279846007119 0 -0.085055645225370236 0.37193713089684588 0 -0.09970079949094271 0.37763208900548878 0 -0.084297773186445962 0.39217279846007119 0 -0.085055645225370236 0.37193713089684588 0 -0.084297773186445962 0.39217279846007119 0 -0.071788917171084016 0.3809272333041443 0 -0.063154715464804681 0.39516467689365731 0 -0.084297773186445962 0.39217279846007119 0 -0.071788917171084016 0.3809272333041443 0 -0.063154715464804681 0.39516467689365731 0 -0.071788917171084016 0.3809272333041443 0 -0.056875823715872062 0.37631267096962301 0 -0.04149310004589906 0.37124785083274592 0 -0.056875823715872062 0.37631267096962301 0 -0.04338349465279491 0.38811939282985902 0 -0.063154715464804681 0.39516467689365731 0 -0.056875823715872062 0.37631267096962301 0 -0.04338349465279491 0.38811939282985902 0 -0.063154715464804681 0.39516467689365731 0 -0.04338349465279491 0.38811939282985902 0 -0.049329429094603867 0.41198700835812702 0 -0.04338349465279491 0.38811939282985902 0 -0.024844401122877391 0.39948633252540261 0 -0.049329429094603867 0.41198700835812702 0 -0.024169526760701381 0.37267007813580277 0 -0.04149310004589906 0.37124785083274592 0 -0.04338349465279491 0.38811939282985902 0 -0.024169526760701381 0.37267007813580277 0 -0.04338349465279491 0.38811939282985902 0 -0.024844401122877391 0.39948633252540261 0 -0.024169526760701381 0.37267007813580277 0 -0.024844401122877391 0.39948633252540261 0 -0.0045342830833226501 0.3863935686212247 0 -0.024844401122877391 0.39948633252540261 0 -0.0045342830833226501 0.3863935686212247 0 -0.0038092142255275289 0.41137928311071797 0 -0.0045342830833226501 0.3863935686212247 0 -0.0038092142255275289 0.41137928311071797 0 -0.024169526760701381 0.37267007813580277 0 -0.0045342830833226501 0.3863935686212247 0 -0.0030841453677343121 0.43636499760021141 0 -0.0038092142255275289 0.41137928311071797 0 -0.026324668085478481 0.42779129271708288 0 -0.0030841453677343121 0.43636499760021141 0 -0.0038092142255275289 0.41137928311071797 0 -0.024844401122877391 0.39948633252540261 0 -0.0038092142255275289 0.41137928311071797 0 -0.026324668085478481 0.42779129271708288 0 -0.026324668085478481 0.42779129271708288 0 -0.049329429094603867 0.41198700835812702 0 -0.049413859365407042 0.43472239834070731 0 -0.024844401122877391 0.39948633252540261 0 -0.026324668085478481 0.42779129271708288 0 -0.049329429094603867 0.41198700835812702 0 -0.074152812153798875 0.41302729649400538 0 -0.063154715464804681 0.39516467689365731 0 -0.049329429094603867 0.41198700835812702 0 -0.066022972602334681 0.42956105407568013 0 -0.049329429094603867 0.41198700835812702 0 -0.049413859365407042 0.43472239834070731 0 -0.066022972602334681 0.42956105407568013 0 -0.049413859365407042 0.43472239834070731 0 -0.0708836913324285 0.45273085842607269 0 -0.0393713920190637 0.45112048084748302 0 -0.052402143273794041 0.47435943831340011 0 -0.0708836913324285 0.45273085842607269 0 -0.049413859365407042 0.43472239834070731 0 -0.0393713920190637 0.45112048084748302 0 -0.0708836913324285 0.45273085842607269 0 -0.0393713920190637 0.45112048084748302 0 -0.02876560419008364 0.47203163756026523 0 -0.052402143273794041 0.47435943831340011 0 -0.026324668085478481 0.42779129271708288 0 -0.049413859365407042 0.43472239834070731 0 -0.0393713920190637 0.45112048084748302 0 -0.0030841453677343121 0.43636499760021141 0 -0.026324668085478481 0.42779129271708288 0 -0.01888650882967766 0.45329231687868837 0 -0.026324668085478481 0.42779129271708288 0 -0.0393713920190637 0.45112048084748302 0 -0.01888650882967766 0.45329231687868837 0 -0.0393713920190637 0.45112048084748302 0 -0.01888650882967766 0.45329231687868837 0 -0.02876560419008364 0.47203163756026523 0 -0.01888650882967766 0.45329231687868837 0 -0.01341416680576474 0.47109478045738301 0 -0.02876560419008364 0.47203163756026523 0 -0.01888650882967766 0.45329231687868837 0 -0.002359076509941094 0.46135071208970457 0 -0.01341416680576474 0.47109478045738301 0 -0.0030841453677343121 0.43636499760021141 0 -0.01888650882967766 0.45329231687868837 0 -0.002359076509941094 0.46135071208970457 0 -0.0030841453677343121 0.43636499760021141 0 -0.002359076509941094 0.46135071208970457 0 -0.0090346539348886701 0.5 0 -0.0016340076521478781 0.48633642657919801 0 -0.017460482120078509 0.48648722646036041 0 -0.0016340076521478781 0.48633642657919801 0 -0.01341416680576474 0.47109478045738301 0 -0.017460482120078509 0.48648722646036041 0 -0.002359076509941094 0.46135071208970457 0 -0.0016340076521478781 0.48633642657919801 0 -0.01341416680576474 0.47109478045738301 0 -0.002359076509941094 0.46135071208970457 0 -0.0016340076521478781 0.48633642657919801 0 -0.002359076509941094 0.46135071208970457 0 -0.0016340076521478781 0.48633642657919801 0 0.0036787250480955699 0.47408322248379448 0 -0.01341416680576474 0.47109478045738301 0 -0.02876560419008364 0.47203163756026523 0 -0.017460482120078509 0.48648722646036041 0 -0.02876560419008364 0.47203163756026523 0 -0.017460482120078509 0.48648722646036041 0 -0.038135422162237087 0.5 0 -0.0090346539348886701 0.5 0 -0.017460482120078509 0.48648722646036041 0 -0.038135422162237087 0.5 0 -0.02876560419008364 0.47203163756026523 0 -0.038135422162237087 0.5 0 -0.052402143273794041 0.47435943831340011 0 -0.038135422162237087 0.5 0 -0.052402143273794041 0.47435943831340011 0 -0.067236190389585393 0.5 0 -0.052402143273794041 0.47435943831340011 0 -0.067236190389585393 0.5 0 -0.073349005429332273 0.47921852398434828 0 -0.067236190389585393 0.5 0 -0.073349005429332273 0.47921852398434828 0 -0.096336958616933588 0.5 0 -0.073349005429332273 0.47921852398434828 0 -0.096336958616933588 0.5 0 -0.093805091172543903 0.47224368257650851 0 -0.052402143273794041 0.47435943831340011 0 -0.073349005429332273 0.47921852398434828 0 -0.0708836913324285 0.45273085842607269 0 -0.0708836913324285 0.45273085842607269 0 -0.1043361340672995 0.45358667135048331 0 -0.093805091172543903 0.47224368257650851 0 -0.090582213275806372 0.43325937369158968 0 -0.0708836913324285 0.45273085842607269 0 -0.1043361340672995 0.45358667135048331 0 -0.090582213275806372 0.43325937369158968 0 -0.066022972602334681 0.42956105407568013 0 -0.0708836913324285 0.45273085842607269 0 -0.090582213275806372 0.43325937369158968 0 -0.0708836913324285 0.45273085842607269 0 -0.073349005429332273 0.47921852398434828 0 -0.0708836913324285 0.45273085842607269 0 -0.093805091172543903 0.47224368257650851 0 -0.1043361340672995 0.45358667135048331 0 -0.12052644250191399 0.4682622397032008 0 -0.093805091172543903 0.47224368257650851 0 -0.1104760497445479 0.43296770510105842 0 -0.090582213275806372 0.43325937369158968 0 -0.1043361340672995 0.45358667135048331 0 -0.12618187852634369 0.45882241462805679 0 -0.1043361340672995 0.45358667135048331 0 -0.1248743097581413 0.44162978393037222 0 -0.1104760497445479 0.43296770510105842 0 -0.1043361340672995 0.45358667135048331 0 -0.1248743097581413 0.44162978393037222 0 -0.12618187852634369 0.45882241462805679 0 -0.1043361340672995 0.45358667135048331 0 -0.12052644250191399 0.4682622397032008 0 -0.1317912103042716 0.47600940211286807 0 -0.12052644250191399 0.4682622397032008 0 -0.11642361318749669 0.48420448820259387 0 -0.12052644250191399 0.4682622397032008 0 -0.11642361318749669 0.48420448820259387 0 -0.093805091172543903 0.47224368257650851 0 -0.12543772684428189 0.5 0 -0.11642361318749669 0.48420448820259387 0 -0.096336958616933588 0.5 0 -0.12543772684428189 0.5 0 -0.13178312884530541 0.48627570230508688 0 -0.11642361318749669 0.48420448820259387 0 -0.11642361318749669 0.48420448820259387 0 -0.096336958616933588 0.5 0 -0.093805091172543903 0.47224368257650851 0 -0.1693268494853358 0.079538523923443544 0 -0.16945340910355561 0.089496265134995978 0 -0.1618062267740645 0.07958177760614682 0 -0.16945340910355561 0.089496265134995978 0 -0.1618062267740645 0.07958177760614682 0 -0.1616157516695074 0.095139316102685473 0 -0.1618062267740645 0.07958177760614682 0 -0.1616157516695074 0.095139316102685473 0 -0.14767322655010931 0.084806545451415583 0 -0.1618062267740645 0.07958177760614682 0 -0.16640070467345031 0.07104807823334372 0 -0.15517576509654349 0.068304766057398533 0 -0.16640070467345031 0.07104807823334372 0 -0.15517576509654349 0.068304766057398533 0 -0.16451238623864939 0.061110077383343737 0 -0.16640070467345031 0.07104807823334372 0 -0.17354141001077031 0.063798093567348918 0 -0.16451238623864939 0.061110077383343737 0 -0.17157411485926041 0.074087910936242465 0 -0.16640070467345031 0.07104807823334372 0 -0.17354141001077031 0.063798093567348918 0 -0.1693268494853358 0.079538523923443544 0 -0.17157411485926041 0.074087910936242465 0 -0.16640070467345031 0.07104807823334372 0 -0.1693268494853358 0.079538523923443544 0 -0.1618062267740645 0.07958177760614682 0 -0.16640070467345031 0.07104807823334372 0 -0.17354141001077031 0.063798093567348918 0 -0.17702749526748529 0.081966948020833708 0 -0.17656426821359539 0.052679136019797047 0 -0.18185637422210199 0.067243003367259677 0 -0.17702749526748529 0.081966948020833708 0 -0.17656426821359539 0.052679136019797047 0 -0.17702749526748529 0.081966948020833708 0 -0.17656426821359539 0.052679136019797047 0 -0.17157411485926041 0.074087910936242465 0 -0.17354141001077031 0.063798093567348918 0 -0.17702749526748529 0.081966948020833708 0 -0.18185637422210199 0.067243003367259677 0 -0.1853153676200878 0.058850167416455039 0 -0.18892740292417859 0.064703221589215376 0 -0.18185637422210199 0.067243003367259677 0 -0.19050021368002351 0.072419239531055349 0 -0.18892740292417859 0.064703221589215376 0 -0.18185637422210199 0.067243003367259677 0 -0.18141962227324601 0.075216957450553817 0 -0.17702749526748529 0.081966948020833708 0 -0.18185637422210199 0.067243003367259677 0 -0.18141962227324601 0.075216957450553817 0 -0.19050021368002351 0.072419239531055349 0 -0.18141962227324601 0.075216957450553817 0 -0.1867192510276118 0.077748512173410014 0 -0.19050021368002351 0.072419239531055349 0 -0.18141962227324601 0.075216957450553817 0 -0.1867192510276118 0.077748512173410014 0 -0.1819129998543452 0.079414551687582866 0 -0.18248563084903771 0.082725789105533951 0 -0.17702749526748529 0.081966948020833708 0 -0.17749072232138041 0.1112547600218704 0 -0.1867192510276118 0.077748512173410014 0 -0.18248563084903771 0.082725789105533951 0 -0.1819129998543452 0.079414551687582866 0 -0.18141962227324601 0.075216957450553817 0 -0.1819129998543452 0.079414551687582866 0 -0.17702749526748529 0.081966948020833708 0 -0.18248563084903771 0.082725789105533951 0 -0.1819129998543452 0.079414551687582866 0 -0.17702749526748529 0.081966948020833708 0 -0.1693268494853358 0.079538523923443544 0 -0.16945340910355561 0.089496265134995978 0 -0.17702749526748529 0.081966948020833708 0 -0.1693268494853358 0.079538523923443544 0 -0.17157411485926041 0.074087910936242465 0 -0.17702749526748529 0.081966948020833708 0 -0.17702749526748529 0.081966948020833708 0 -0.17749072232138041 0.1112547600218704 0 -0.16945340910355561 0.089496265134995978 0 -0.17702749526748529 0.081966948020833708 0 -0.17749072232138041 0.1112547600218704 0 -0.17749072232138041 0.1112547600218704 0 -0.1951643137470572 0.093770439387570487 0 -0.18248563084903771 0.082725789105533951 0 -0.17749072232138041 0.1112547600218704 0 -0.1951643137470572 0.093770439387570487 0 -0.17749072232138041 0.1112547600218704 0 -0.19150979458678249 0.1243728737611647 0 -0.17789558253256721 0.1368522929207025 0 -0.17749072232138041 0.1112547600218704 0 -0.17789558253256721 0.1368522929207025 0 -0.17749072232138041 0.1112547600218704 0 -0.16113979031376621 0.12743058591966341 0 -0.17749072232138041 0.1112547600218704 0 -0.15084139672814201 0.110160429760413 0 -0.16113979031376621 0.12743058591966341 0 -0.17749072232138041 0.1112547600218704 0 -0.1616157516695074 0.095139316102685473 0 -0.15084139672814201 0.110160429760413 0 -0.16945340910355561 0.089496265134995978 0 -0.17749072232138041 0.1112547600218704 0 -0.1616157516695074 0.095139316102685473 0 -0.1616157516695074 0.095139316102685473 0 -0.15084139672814201 0.110160429760413 0 -0.14767322655010931 0.084806545451415583 0 -0.15084139672814201 0.110160429760413 0 -0.1348328660863515 0.097215266237156234 0 -0.14767322655010931 0.084806545451415583 0 -0.15084139672814201 0.110160429760413 0 -0.13137241316615089 0.11357835761918721 0 -0.14300315410871919 0.1253406317882016 0 -0.15084139672814201 0.110160429760413 0 -0.16113979031376621 0.12743058591966341 0 -0.14300315410871919 0.1253406317882016 0 -0.13137241316615089 0.11357835761918721 0 -0.14300315410871919 0.1253406317882016 0 -0.12687331202938101 0.13192737382428379 0 -0.13137241316615089 0.11357835761918721 0 -0.1348328660863515 0.097215266237156234 0 -0.1198812247159142 0.095002477965890675 0 -0.15084139672814201 0.110160429760413 0 -0.13137241316615089 0.11357835761918721 0 -0.1348328660863515 0.097215266237156234 0 -0.1348328660863515 0.097215266237156234 0 -0.12533951967512769 0.078274991835817334 0 -0.1198812247159142 0.095002477965890675 0 -0.1348328660863515 0.097215266237156234 0 -0.12533951967512769 0.078274991835817334 0 -0.14767322655010931 0.084806545451415583 0 -0.1618062267740645 0.07958177760614682 0 -0.14767322655010931 0.084806545451415583 0 -0.15517576509654349 0.068304766057398533 0 -0.14767322655010931 0.084806545451415583 0 -0.15517576509654349 0.068304766057398533 0 -0.14001017723872511 0.063978020277280875 0 -0.12533951967512769 0.078274991835817334 0 -0.14767322655010931 0.084806545451415583 0 -0.14001017723872511 0.063978020277280875 0 -0.12533951967512769 0.078274991835817334 0 -0.14001017723872511 0.063978020277280875 0 -0.1248745965026067 0.059896082918310993 0 -0.14001017723872511 0.063978020277280875 0 -0.13626681081840961 0.042829268155062397 0 -0.1248745965026067 0.059896082918310993 0 -0.13626681081840961 0.042829268155062397 0 -0.1339340902388827 0.022300844741854581 0 -0.1180188049733784 0.030804183747700629 0 -0.13626681081840961 0.042829268155062397 0 -0.1339340902388827 0.022300844741854581 0 -0.15968783393996419 0.037567277286728401 0 -0.13626681081840961 0.042829268155062397 0 -0.15351002702878311 0.053877414325468623 0 -0.15968783393996419 0.037567277286728401 0 -0.13626681081840961 0.042829268155062397 0 -0.15968783393996419 0.037567277286728401 0 -0.14001017723872511 0.063978020277280875 0 -0.13626681081840961 0.042829268155062397 0 -0.15351002702878311 0.053877414325468623 0 -0.15517576509654349 0.068304766057398533 0 -0.14001017723872511 0.063978020277280875 0 -0.15351002702878311 0.053877414325468623 0 -0.12735709500343681 0.004015926865657337 0 -0.15177498865293759 0.016606981474429749 0 -0.12735709500343681 0.004015926865657337 0 -0.1339340902388827 0.022300844741854581 0 -0.15177498865293759 0.016606981474429749 0 -0.12735709500343681 0.004015926865657337 0 -0.1339340902388827 0.022300844741854581 0 -0.11835839359799651 0.016938700943610479 0 -0.1339340902388827 0.022300844741854581 0 -0.15177498865293759 0.016606981474429749 0 -0.15968783393996419 0.037567277286728401 0 -0.1339340902388827 0.022300844741854581 0 -0.15968783393996419 0.037567277286728401 0 -0.12735709500343681 0.004015926865657337 0 -0.15177498865293759 0.016606981474429749 0 -0.14801408494475049 0.0031182785745780331 0 -0.15177498865293759 0.016606981474429749 0 -0.14801408494475049 0.0031182785745780331 0 -0.1619193683370386 0.0066468078375689294 0 -0.15773416148281841 -0.0035868741371463562 0 -0.14801408494475049 0.0031182785745780331 0 -0.1619193683370386 0.0066468078375689294 0 -0.15177498865293759 0.016606981474429749 0 -0.1619193683370386 0.0066468078375689294 0 -0.16760309597538539 0.015861310899326669 0 -0.16716832075785379 -0.0032078365625175 0 -0.1619193683370386 0.0066468078375689294 0 -0.17584419881677341 0.0071523107965592754 0 -0.1619193683370386 0.0066468078375689294 0 -0.16760309597538539 0.015861310899326669 0 -0.17584419881677341 0.0071523107965592754 0 -0.15177498865293759 0.016606981474429749 0 -0.17619288230243149 0.029198036083215671 0 -0.15177498865293759 0.016606981474429749 0 -0.17619288230243149 0.029198036083215671 0 -0.15968783393996419 0.037567277286728401 0 -0.15177498865293759 0.016606981474429749 0 -0.16760309597538539 0.015861310899326669 0 -0.17619288230243149 0.029198036083215671 0 -0.17619288230243149 0.029198036083215671 0 -0.1852069371874478 0.015311100034367831 0 -0.17584419881677341 0.0071523107965592754 0 -0.17619288230243149 0.029198036083215671 0 -0.17584419881677341 0.0071523107965592754 0 -0.16760309597538539 0.015861310899326669 0 -0.17619288230243149 0.029198036083215671 0 -0.17584419881677341 0.0071523107965592754 0 -0.17619288230243149 0.029198036083215671 0 -0.19572946351785711 0.039272048382664133 0 -0.19029700863621521 0.024089069561314659 0 -0.17619288230243149 0.029198036083215671 0 -0.1852069371874478 0.015311100034367831 0 -0.19029700863621521 0.024089069561314659 0 -0.1852069371874478 0.015311100034367831 0 -0.18717715497560061 0.0062623078557712403 0 -0.17584419881677341 0.0071523107965592754 0 -0.18154179604087481 -0.0036104187285780349 0 -0.18717715497560061 0.0062623078557712403 0 -0.17584419881677341 0.0071523107965592754 0 -0.15351002702878311 0.053877414325468623 0 -0.1659033968134131 0.050269055427132232 0 -0.15968783393996419 0.037567277286728401 0 -0.1659033968134131 0.050269055427132232 0 -0.16451238623864939 0.061110077383343737 0 -0.17656426821359539 0.052679136019797047 0 -0.17354141001077031 0.063798093567348918 0 -0.16451238623864939 0.061110077383343737 0 -0.17656426821359539 0.052679136019797047 0 -0.16451238623864939 0.061110077383343737 0 -0.17656426821359539 0.052679136019797047 0 -0.15351002702878311 0.053877414325468623 0 -0.1659033968134131 0.050269055427132232 0 -0.16451238623864939 0.061110077383343737 0 -0.15517576509654349 0.068304766057398533 0 -0.15351002702878311 0.053877414325468623 0 -0.16451238623864939 0.061110077383343737 0 -0.15968783393996419 0.037567277286728401 0 -0.1762663423330757 0.033842591165095401 0 -0.1659033968134131 0.050269055427132232 0 -0.15968783393996419 0.037567277286728401 0 -0.1764827173319595 0.047523031967639129 0 -0.17619288230243149 0.029198036083215671 0 -0.15968783393996419 0.037567277286728401 0 -0.1762663423330757 0.033842591165095401 0 -0.15968783393996419 0.037567277286728401 0 -0.1764827173319595 0.047523031967639129 0 -0.15968783393996419 0.037567277286728401 0 -0.1762663423330757 0.033842591165095401 0 -0.1764827173319595 0.047523031967639129 0 -0.17619288230243149 0.029198036083215671 0 -0.19572946351785711 0.039272048382664133 0 -0.181281627628781 0.040827380692469641 0 -0.18051660755046151 0.049914261515807259 0 -0.1764827173319595 0.047523031967639129 0 -0.17619288230243149 0.029198036083215671 0 -0.1762663423330757 0.033842591165095401 0 -0.19572946351785711 0.039272048382664133 0 -0.1762663423330757 0.033842591165095401 0 -0.181281627628781 0.040827380692469641 0 -0.19572946351785711 0.039272048382664133 0 -0.1762663423330757 0.033842591165095401 0 -0.181281627628781 0.040827380692469641 0 -0.1764827173319595 0.047523031967639129 0 -0.1762663423330757 0.033842591165095401 0 -0.1764827173319595 0.047523031967639129 0 -0.17619288230243149 0.029198036083215671 0 -0.1762663423330757 0.033842591165095401 0 -0.181281627628781 0.040827380692469641 0 -0.18051660755046151 0.049914261515807259 0 -0.19572946351785711 0.039272048382664133 0 -0.18051660755046151 0.049914261515807259 0 -0.17656426821359539 0.052679136019797047 0 -0.1853153676200878 0.058850167416455039 0 -0.18051660755046151 0.049914261515807259 0 -0.1764827173319595 0.047523031967639129 0 -0.1764827173319595 0.047523031967639129 0 -0.17656426821359539 0.052679136019797047 0 -0.1659033968134131 0.050269055427132232 0 -0.1764827173319595 0.047523031967639129 0 -0.17656426821359539 0.052679136019797047 0 -0.18051660755046151 0.049914261515807259 0 -0.1764827173319595 0.047523031967639129 0 -0.17656426821359539 0.052679136019797047 0 -0.18051660755046151 0.049914261515807259 0 -0.17656426821359539 0.052679136019797047 0 -0.18185637422210199 0.067243003367259677 0 -0.17656426821359539 0.052679136019797047 0 -0.1853153676200878 0.058850167416455039 0 -0.1853153676200878 0.058850167416455039 0 -0.19803765617450109 0.060300476042091433 0 -0.18892740292417859 0.064703221589215376 0 -0.18051660755046151 0.049914261515807259 0 -0.19803765617450109 0.060300476042091433 0 -0.1977866825790292 0.05007637869738242 0 -0.18051660755046151 0.049914261515807259 0 -0.1853153676200878 0.058850167416455039 0 -0.19803765617450109 0.060300476042091433 0 -0.18051660755046151 0.049914261515807259 0 -0.19803765617450109 0.060300476042091433 0 -0.19803765617450109 0.060300476042091433 0 -0.1977866825790292 0.05007637869738242 0 -0.2066297839190599 0.054855205218219752 0 -0.18051660755046151 0.049914261515807259 0 -0.1977866825790292 0.05007637869738242 0 -0.19572946351785711 0.039272048382664133 0 -0.18051660755046151 0.049914261515807259 0 -0.19572946351785711 0.039272048382664133 0 -0.19572946351785711 0.039272048382664133 0 -0.2098237389609823 0.029412342647955388 0 -0.1977866825790292 0.05007637869738242 0 -0.19572946351785711 0.039272048382664133 0 -0.2073344650466164 0.045256152092875389 0 -0.19572946351785711 0.039272048382664133 0 -0.2073344650466164 0.045256152092875389 0 -0.2073344650466164 0.045256152092875389 0 -0.21702036639386221 0.038769314305699548 0 -0.2098237389609823 0.029412342647955388 0 -0.19572946351785711 0.039272048382664133 0 -0.2073344650466164 0.045256152092875389 0 -0.2098237389609823 0.029412342647955388 0 -0.21702036639386221 0.038769314305699548 0 -0.2098237389609823 0.029412342647955388 0 -0.2284051488343061 0.035137669629428533 0 -0.2073344650466164 0.045256152092875389 0 -0.21702036639386221 0.038769314305699548 0 -0.22251811273354419 0.045271092852538893 0 -0.2073344650466164 0.045256152092875389 0 -0.21769334509658461 0.055951218203848879 0 -0.22251811273354419 0.045271092852538893 0 -0.21769334509658461 0.055951218203848879 0 -0.20947987249717179 0.060448397508133619 0 -0.2066297839190599 0.054855205218219752 0 -0.21769334509658461 0.055951218203848879 0 -0.20947987249717179 0.060448397508133619 0 -0.2155587047985415 0.070686690568374386 0 -0.19803765617450109 0.060300476042091433 0 -0.20947987249717179 0.060448397508133619 0 -0.2066297839190599 0.054855205218219752 0 -0.1977866825790292 0.05007637869738242 0 -0.2073344650466164 0.045256152092875389 0 -0.2066297839190599 0.054855205218219752 0 -0.2073344650466164 0.045256152092875389 0 -0.21769334509658461 0.055951218203848879 0 -0.2066297839190599 0.054855205218219752 0 -0.1989264366345522 -0.0080023544535597537 0 -0.1965234412062255 0.0098537758749781944 0 -0.20713549204565579 6.5395444916274768e-05 0 -0.19066530249761049 -0.0041303576494283751 0 -0.18717715497560061 0.0062623078557712403 0 -0.1965234412062255 0.0098537758749781944 0 -0.1852069371874478 0.015311100034367831 0 -0.18717715497560061 0.0062623078557712403 0 -0.1965234412062255 0.0098537758749781944 0 -0.1965234412062255 0.0098537758749781944 0 -0.20113962024173071 0.02227838771243261 0 -0.2107847094499361 0.011405203725301251 0 -0.19572946351785711 0.039272048382664133 0 -0.20113962024173071 0.02227838771243261 0 -0.2098237389609823 0.029412342647955388 0 -0.19572946351785711 0.039272048382664133 0 -0.20113962024173071 0.02227838771243261 0 -0.19029700863621521 0.024089069561314659 0 -0.1965234412062255 0.0098537758749781944 0 -0.20113962024173071 0.02227838771243261 0 -0.19029700863621521 0.024089069561314659 0 -0.1852069371874478 0.015311100034367831 0 -0.1965234412062255 0.0098537758749781944 0 -0.19029700863621521 0.024089069561314659 0 -0.2098237389609823 0.029412342647955388 0 -0.2107847094499361 0.011405203725301251 0 -0.22391801440410891 0.019552636913248388 0 -0.20113962024173071 0.02227838771243261 0 -0.2098237389609823 0.029412342647955388 0 -0.2107847094499361 0.011405203725301251 0 -0.2098237389609823 0.029412342647955388 0 -0.22391801440410891 0.019552636913248388 0 -0.21702438745170211 -0.0043907958627755336 0 -0.2107847094499361 0.011405203725301251 0 -0.20713549204565579 6.5395444916274768e-05 0 -0.21702438745170211 -0.0043907958627755336 0 -0.2107847094499361 0.011405203725301251 0 -0.22391801440410891 0.019552636913248388 0 -0.1965234412062255 0.0098537758749781944 0 -0.2107847094499361 0.011405203725301251 0 -0.20713549204565579 6.5395444916274768e-05 0 -0.22867745033346079 0.0038692188645070222 0 -0.22391801440410891 0.019552636913248388 0 -0.2344599051246074 0.012178015861532989 0 -0.21702438745170211 -0.0043907958627755336 0 -0.22391801440410891 0.019552636913248388 0 -0.21702438745170211 -0.0043907958627755336 0 -0.22867745033346079 0.0038692188645070222 0 -0.22391801440410891 0.019552636913248388 0 -0.22391801440410891 0.019552636913248388 0 -0.2403792472176362 0.02548084658656756 0 -0.2344599051246074 0.012178015861532989 0 -0.2098237389609823 0.029412342647955388 0 -0.22391801440410891 0.019552636913248388 0 -0.2284051488343061 0.035137669629428533 0 -0.22391801440410891 0.019552636913248388 0 -0.2403792472176362 0.02548084658656756 0 -0.2284051488343061 0.035137669629428533 0 -0.22391801440410891 0.019552636913248388 0 -0.2344599051246074 0.012178015861532989 0 -0.22391801440410891 0.019552636913248388 0 -0.2284051488343061 0.035137669629428533 0 -0.2522816967992324 0.037264740289820159 0 -0.25157722050270093 0.012682655753942951 0 -0.2403792472176362 0.02548084658656756 0 -0.25157722050270093 0.012682655753942951 0 -0.2403792472176362 0.02548084658656756 0 -0.2344599051246074 0.012178015861532989 0 -0.25267499080189931 -0.0034516002120552492 0 -0.25157722050270093 0.012682655753942951 0 -0.2401015516947359 0.00075261550232862703 0 -0.25157722050270093 0.012682655753942951 0 -0.2344599051246074 0.012178015861532989 0 -0.2401015516947359 0.00075261550232862703 0 -0.22867745033346079 0.0038692188645070222 0 -0.2344599051246074 0.012178015861532989 0 -0.2401015516947359 0.00075261550232862703 0 -0.21769334509658461 0.055951218203848879 0 -0.23255980098598539 0.056775429521547523 0 -0.2155587047985415 0.070686690568374386 0 -0.23289228326450309 0.050722702345608793 0 -0.22641588552015429 0.052180110730886013 0 -0.22251811273354419 0.045271092852538893 0 -0.23289228326450309 0.050722702345608793 0 -0.23255980098598539 0.056775429521547523 0 -0.22641588552015429 0.052180110730886013 0 -0.21769334509658461 0.055951218203848879 0 -0.23255980098598539 0.056775429521547523 0 -0.22641588552015429 0.052180110730886013 0 -0.21769334509658461 0.055951218203848879 0 -0.22641588552015429 0.052180110730886013 0 -0.22251811273354419 0.045271092852538893 0 -0.21702036639386221 0.038769314305699548 0 -0.22251811273354419 0.045271092852538893 0 -0.2284051488343061 0.035137669629428533 0 -0.23289228326450309 0.050722702345608793 0 -0.22251811273354419 0.045271092852538893 0 -0.2284051488343061 0.035137669629428533 0 -0.23289228326450309 0.050722702345608793 0 -0.2284051488343061 0.035137669629428533 0 -0.2522816967992324 0.037264740289820159 0 -0.2403792472176362 0.02548084658656756 0 -0.2284051488343061 0.035137669629428533 0 -0.2522816967992324 0.037264740289820159 0 -0.23289228326450309 0.050722702345608793 0 -0.2284051488343061 0.035137669629428533 0 -0.2522816967992324 0.037264740289820159 0 -0.23289228326450309 0.050722702345608793 0 -0.23255980098598539 0.056775429521547523 0 -0.2522816967992324 0.037264740289820159 0 -0.23255980098598539 0.056775429521547523 0 -0.2522816967992324 0.037264740289820159 0 -0.23255980098598539 0.056775429521547523 0 -0.24906194248509719 0.058488871325365822 0 -0.23255980098598539 0.056775429521547523 0 -0.24906194248509719 0.058488871325365822 0 -0.23770452364983391 0.071010308971772351 0 -0.26257114212692878 0.06573449919026883 0 -0.24906194248509719 0.058488871325365822 0 -0.23770452364983391 0.071010308971772351 0 -0.25261226255175379 0.080423606239198905 0 -0.23770452364983391 0.071010308971772351 0 -0.23158356521460469 0.085326977986282804 0 -0.25261226255175379 0.080423606239198905 0 -0.23158356521460469 0.085326977986282804 0 -0.24377998071086901 0.096378574065869249 0 -0.23158356521460469 0.085326977986282804 0 -0.21283790517273879 0.076286118753275345 0 -0.22135706029896429 0.097751395037259853 0 -0.23158356521460469 0.085326977986282804 0 -0.22135706029896429 0.097751395037259853 0 -0.24377998071086901 0.096378574065869249 0 -0.23255980098598539 0.056775429521547523 0 -0.21283790517273879 0.076286118753275345 0 -0.23770452364983391 0.071010308971772351 0 -0.23158356521460469 0.085326977986282804 0 -0.21283790517273879 0.076286118753275345 0 -0.23255980098598539 0.056775429521547523 0 -0.23770452364983391 0.071010308971772351 0 -0.21283790517273879 0.076286118753275345 0 -0.23255980098598539 0.056775429521547523 0 -0.21283790517273879 0.076286118753275345 0 -0.2155587047985415 0.070686690568374386 0 -0.23770452364983391 0.071010308971772351 0 -0.21283790517273879 0.076286118753275345 0 -0.19803765617450109 0.060300476042091433 0 -0.20947987249717179 0.060448397508133619 0 -0.2155587047985415 0.070686690568374386 0 -0.19803765617450109 0.060300476042091433 0 -0.20333782300263301 0.070680183335342567 0 -0.2155587047985415 0.070686690568374386 0 -0.19803765617450109 0.060300476042091433 0 -0.2155587047985415 0.070686690568374386 0 -0.21283790517273879 0.076286118753275345 0 -0.19766176801088831 0.079505953929404904 0 -0.20333782300263301 0.070680183335342567 0 -0.21283790517273879 0.076286118753275345 0 -0.19766176801088831 0.079505953929404904 0 -0.20333782300263301 0.070680183335342567 0 -0.21283790517273879 0.076286118753275345 0 -0.2155587047985415 0.070686690568374386 0 -0.21283790517273879 0.076286118753275345 0 -0.1951643137470572 0.093770439387570487 0 -0.22135706029896429 0.097751395037259853 0 -0.21283790517273879 0.076286118753275345 0 -0.1951643137470572 0.093770439387570487 0 -0.21283790517273879 0.076286118753275345 0 -0.19766176801088831 0.079505953929404904 0 -0.1951643137470572 0.093770439387570487 0 -0.18248563084903771 0.082725789105533951 0 -0.19766176801088831 0.079505953929404904 0 -0.1951643137470572 0.093770439387570487 0 -0.1867192510276118 0.077748512173410014 0 -0.18248563084903771 0.082725789105533951 0 -0.19766176801088831 0.079505953929404904 0 -0.18248563084903771 0.082725789105533951 0 -0.19766176801088831 0.079505953929404904 0 -0.1867192510276118 0.077748512173410014 0 -0.19766176801088831 0.079505953929404904 0 -0.19050021368002351 0.072419239531055349 0 -0.19803765617450109 0.060300476042091433 0 -0.19050021368002351 0.072419239531055349 0 -0.18892740292417859 0.064703221589215376 0 -0.19803765617450109 0.060300476042091433 0 -0.20333782300263301 0.070680183335342567 0 -0.19050021368002351 0.072419239531055349 0 -0.20333782300263301 0.070680183335342567 0 -0.19766176801088831 0.079505953929404904 0 -0.19050021368002351 0.072419239531055349 0 -0.17749072232138041 0.1112547600218704 0 -0.19150979458678249 0.1243728737611647 0 -0.1951643137470572 0.093770439387570487 0 -0.19150979458678249 0.1243728737611647 0 -0.1951643137470572 0.093770439387570487 0 -0.20994497012605751 0.11823125198409511 0 -0.1951643137470572 0.093770439387570487 0 -0.20994497012605751 0.11823125198409511 0 -0.22135706029896429 0.097751395037259853 0 -0.20994497012605751 0.11823125198409511 0 -0.2348316268224595 0.11651500804646669 0 -0.2235388627286797 0.12965651036182041 0 -0.20994497012605751 0.11823125198409511 0 -0.22135706029896429 0.097751395037259853 0 -0.2348316268224595 0.11651500804646669 0 -0.22135706029896429 0.097751395037259853 0 -0.24377998071086901 0.096378574065869249 0 -0.2348316268224595 0.11651500804646669 0 -0.25136603029008331 0.1103208693098497 0 -0.24377998071086901 0.096378574065869249 0 -0.2348316268224595 0.11651500804646669 0 -0.25922316449870308 0.12628093809151891 0 -0.25136603029008331 0.1103208693098497 0 -0.2348316268224595 0.11651500804646669 0 -0.25922316449870308 0.12628093809151891 0 -0.2348316268224595 0.11651500804646669 0 -0.2369615480924761 0.1404602413506009 0 -0.2369615480924761 0.1404602413506009 0 -0.2235388627286797 0.12965651036182041 0 -0.2124173058737257 0.14341954006611901 0 -0.2348316268224595 0.11651500804646669 0 -0.2369615480924761 0.1404602413506009 0 -0.2235388627286797 0.12965651036182041 0 -0.2369615480924761 0.1404602413506009 0 -0.22679867445049531 0.16064067306310431 0 -0.2124173058737257 0.14341954006611901 0 -0.2369615480924761 0.1404602413506009 0 -0.247018622616726 0.15992587597476091 0 -0.22679867445049531 0.16064067306310431 0 -0.25846103874104392 0.14702121199507179 0 -0.2369615480924761 0.1404602413506009 0 -0.247018622616726 0.15992587597476091 0 -0.247018622616726 0.15992587597476091 0 -0.23359887481107691 0.1809086922627815 0 -0.247018622616726 0.15992587597476091 0 -0.23359887481107691 0.1809086922627815 0 -0.22679867445049531 0.16064067306310431 0 -0.26439180367967152 0.18225540552070321 0 -0.247018622616726 0.15992587597476091 0 -0.23359887481107691 0.1809086922627815 0 -0.23359887481107691 0.1809086922627815 0 -0.20517995294037331 0.17379218369948349 0 -0.2201791270054278 0.2018915085508021 0 -0.23359887481107691 0.1809086922627815 0 -0.22679867445049531 0.16064067306310431 0 -0.20517995294037331 0.17379218369948349 0 -0.22679867445049531 0.16064067306310431 0 -0.20517995294037331 0.17379218369948349 0 -0.2124173058737257 0.14341954006611901 0 -0.20517995294037331 0.17379218369948349 0 -0.19274338499996449 0.14807478539393409 0 -0.17830044274374979 0.16244982581953471 0 -0.19150979458678249 0.1243728737611647 0 -0.19274338499996449 0.14807478539393409 0 -0.2124173058737257 0.14341954006611901 0 -0.20994497012605751 0.11823125198409511 0 -0.2235388627286797 0.12965651036182041 0 -0.2124173058737257 0.14341954006611901 0 -0.19150979458678249 0.1243728737611647 0 -0.20994497012605751 0.11823125198409511 0 -0.2124173058737257 0.14341954006611901 0 -0.20517995294037331 0.17379218369948349 0 -0.19274338499996449 0.14807478539393409 0 -0.2124173058737257 0.14341954006611901 0 -0.22371849106378741 0.2462845034026982 0 -0.23019370483249479 0.22382880503591951 0 -0.2066863838603582 0.24242880758937649 0 -0.22371849106378741 0.2462845034026982 0 -0.23951274761537589 0.2474853768326048 0 -0.23019370483249479 0.22382880503591951 0 -0.25272375818517617 0.22994970808158929 0 -0.25621817608628389 0.2460965770837312 0 -0.23951274761537589 0.2474853768326048 0 -0.25370102580463139 0.2052288024824625 0 -0.25272375818517617 0.22994970808158929 0 -0.23019370483249479 0.22382880503591951 0 -0.25272375818517617 0.22994970808158929 0 -0.23951274761537589 0.2474853768326048 0 -0.23019370483249479 0.22382880503591951 0 -0.25370102580463139 0.2052288024824625 0 -0.23359887481107691 0.1809086922627815 0 -0.2201791270054278 0.2018915085508021 0 -0.25370102580463139 0.2052288024824625 0 -0.23019370483249479 0.22382880503591951 0 -0.2201791270054278 0.2018915085508021 0 -0.23019370483249479 0.22382880503591951 0 -0.2201791270054278 0.2018915085508021 0 -0.20675937919977869 0.22287432483882261 0 -0.25370102580463139 0.2052288024824625 0 -0.23019370483249479 0.22382880503591951 0 -0.23359887481107691 0.1809086922627815 0 -0.2201791270054278 0.2018915085508021 0 -0.20517995294037331 0.17379218369948349 0 -0.2201791270054278 0.2018915085508021 0 -0.19686056424972551 0.20437535499954981 0 -0.20517995294037331 0.17379218369948349 0 -0.19686056424972551 0.20437535499954981 0 -0.17870530295493239 0.18804735871836689 0 -0.19686056424972551 0.20437535499954981 0 -0.20675937919977869 0.22287432483882261 0 -0.19122946023172571 0.22600186257262461 0 -0.19686056424972551 0.20437535499954981 0 -0.19122946023172571 0.22600186257262461 0 -0.179110163166115 0.21364489161719899 0 -0.2201791270054278 0.2018915085508021 0 -0.19686056424972551 0.20437535499954981 0 -0.20675937919977869 0.22287432483882261 0 -0.2201791270054278 0.2018915085508021 0 -0.20675937919977869 0.22287432483882261 0 -0.23019370483249479 0.22382880503591951 0 -0.2066863838603582 0.24242880758937649 0 -0.23019370483249479 0.22382880503591951 0 -0.20675937919977869 0.22287432483882261 0 -0.2066863838603582 0.24242880758937649 0 -0.20675937919977869 0.22287432483882261 0 -0.19333963139412971 0.24385714112684301 0 -0.20675937919977869 0.22287432483882261 0 -0.19122946023172571 0.22600186257262461 0 -0.19333963139412971 0.24385714112684301 0 -0.19122946023172571 0.22600186257262461 0 -0.19333963139412971 0.24385714112684301 0 -0.17951502337729761 0.2392424245160312 0 -0.20675937919977869 0.22287432483882261 0 -0.19333963139412971 0.24385714112684301 0 -0.2066863838603582 0.24242880758937649 0 -0.18259587964237009 0.2606558300825601 0 -0.19333963139412971 0.24385714112684301 0 -0.2066863838603582 0.24242880758937649 0 -0.21408768962570049 0.25938306782852782 0 -0.22371849106378741 0.2462845034026982 0 -0.2066863838603582 0.24242880758937649 0 -0.1532221513837192 0.25419418888983192 0 -0.17951502337729761 0.2392424245160312 0 -0.15110003921584569 0.22881829817408891 0 -0.18259587964237009 0.2606558300825601 0 -0.19333963139412971 0.24385714112684301 0 -0.17951502337729761 0.2392424245160312 0 -0.17951502337729761 0.2392424245160312 0 -0.1619547442009632 0.2162214427956837 0 -0.179110163166115 0.21364489161719899 0 -0.19122946023172571 0.22600186257262461 0 -0.17951502337729761 0.2392424245160312 0 -0.179110163166115 0.21364489161719899 0 -0.17951502337729761 0.2392424245160312 0 -0.179110163166115 0.21364489161719899 0 -0.17951502337729761 0.2392424245160312 0 -0.1619547442009632 0.2162214427956837 0 -0.15110003921584569 0.22881829817408891 0 -0.1619547442009632 0.2162214427956837 0 -0.179110163166115 0.21364489161719899 0 -0.17870530295493239 0.18804735871836689 0 -0.19686056424972551 0.20437535499954981 0 -0.179110163166115 0.21364489161719899 0 -0.17870530295493239 0.18804735871836689 0 -0.179110163166115 0.21364489161719899 0 -0.17870530295493239 0.18804735871836689 0 -0.1619547442009632 0.2162214427956837 0 -0.17870530295493239 0.18804735871836689 0 -0.15775407484820861 0.18727827749961631 0 -0.14804225966403101 0.20585853828705919 0 -0.15775407484820861 0.18727827749961631 0 -0.13876353146598761 0.18223131465273959 0 -0.1619547442009632 0.2162214427956837 0 -0.14804225966403101 0.20585853828705919 0 -0.15775407484820861 0.18727827749961631 0 -0.13876353146598761 0.18223131465273959 0 -0.1245765098090509 0.17966052017845999 0 -0.1190175871807343 0.20067046473278771 0 -0.14804225966403101 0.20585853828705919 0 -0.13876353146598761 0.18223131465273959 0 -0.1190175871807343 0.20067046473278771 0 -0.14804225966403101 0.20585853828705919 0 -0.13479108425045189 0.2189379304695287 0 -0.1190175871807343 0.20067046473278771 0 -0.13479108425045189 0.2189379304695287 0 -0.12594818007053379 0.2253828658525201 0 -0.1190175871807343 0.20067046473278771 0 -0.1619547442009632 0.2162214427956837 0 -0.14804225966403101 0.20585853828705919 0 -0.15110003921584569 0.22881829817408891 0 -0.14804225966403101 0.20585853828705919 0 -0.15110003921584569 0.22881829817408891 0 -0.13479108425045189 0.2189379304695287 0 -0.15110003921584569 0.22881829817408891 0 -0.13479108425045189 0.2189379304695287 0 -0.1378537507735782 0.22769286600650679 0 -0.15110003921584569 0.22881829817408891 0 -0.1378537507735782 0.22769286600650679 0 -0.13827307027013019 0.2362506378269415 0 -0.13479108425045189 0.2189379304695287 0 -0.12594818007053379 0.2253828658525201 0 -0.1378537507735782 0.22769286600650679 0 -0.12594818007053379 0.2253828658525201 0 -0.1378537507735782 0.22769286600650679 0 -0.13827307027013019 0.2362506378269415 0 -0.12594818007053379 0.2253828658525201 0 -0.13827307027013019 0.2362506378269415 0 -0.1327712538659816 0.24971188635390451 0 -0.12594818007053379 0.2253828658525201 0 -0.1327712538659816 0.24971188635390451 0 -0.1532221513837192 0.25419418888983192 0 -0.15110003921584569 0.22881829817408891 0 -0.13827307027013019 0.2362506378269415 0 -0.1532221513837192 0.25419418888983192 0 -0.13827307027013019 0.2362506378269415 0 -0.1327712538659816 0.24971188635390451 0 -0.16317411874061041 0.14897554401654969 0 -0.16113979031376621 0.12743058591966341 0 -0.1447888583061562 0.1436064118174607 0 -0.16317411874061041 0.14897554401654969 0 -0.16113979031376621 0.12743058591966341 0 -0.17789558253256721 0.1368522929207025 0 -0.17749072232138041 0.1112547600218704 0 -0.16113979031376621 0.12743058591966341 0 -0.17789558253256721 0.1368522929207025 0 -0.19150979458678249 0.1243728737611647 0 -0.19274338499996449 0.14807478539393409 0 -0.17789558253256721 0.1368522929207025 0 -0.16317411874061041 0.14897554401654969 0 -0.17789558253256721 0.1368522929207025 0 -0.17830044274374979 0.16244982581953471 0 -0.17789558253256721 0.1368522929207025 0 -0.17830044274374979 0.16244982581953471 0 -0.19274338499996449 0.14807478539393409 0 -0.17789558253256721 0.1368522929207025 0 -0.17830044274374979 0.16244982581953471 0 -0.20517995294037331 0.17379218369948349 0 -0.17870530295493239 0.18804735871836689 0 -0.17830044274374979 0.16244982581953471 0 -0.17870530295493239 0.18804735871836689 0 -0.17830044274374979 0.16244982581953471 0 -0.17870530295493239 0.18804735871836689 0 -0.17830044274374979 0.16244982581953471 0 -0.15775407484820861 0.18727827749961631 0 -0.17830044274374979 0.16244982581953471 0 -0.15775407484820861 0.18727827749961631 0 -0.15245232938168229 0.1648839185887534 0 -0.16317411874061041 0.14897554401654969 0 -0.17830044274374979 0.16244982581953471 0 -0.15245232938168229 0.1648839185887534 0 -0.15775407484820861 0.18727827749961631 0 -0.15245232938168229 0.1648839185887534 0 -0.13876353146598761 0.18223131465273959 0 -0.13876353146598761 0.18223131465273959 0 -0.12843792629854631 0.15978223771525801 0 -0.1245765098090509 0.17966052017845999 0 -0.15245232938168229 0.1648839185887534 0 -0.13876353146598761 0.18223131465273959 0 -0.12843792629854631 0.15978223771525801 0 -0.12843792629854631 0.15978223771525801 0 -0.1447888583061562 0.1436064118174607 0 -0.12843792629854631 0.15978223771525801 0 -0.1447888583061562 0.1436064118174607 0 -0.1204435081575875 0.14623213693654391 0 -0.16317411874061041 0.14897554401654969 0 -0.15245232938168229 0.1648839185887534 0 -0.1447888583061562 0.1436064118174607 0 -0.15245232938168229 0.1648839185887534 0 -0.12843792629854631 0.15978223771525801 0 -0.1447888583061562 0.1436064118174607 0 -0.16113979031376621 0.12743058591966341 0 -0.1447888583061562 0.1436064118174607 0 -0.14300315410871919 0.1253406317882016 0 -0.16113979031376621 0.12743058591966341 0 -0.1447888583061562 0.1436064118174607 0 -0.1447888583061562 0.1436064118174607 0 -0.12687331202938101 0.13192737382428379 0 -0.1204435081575875 0.14623213693654391 0 -0.1447888583061562 0.1436064118174607 0 -0.14300315410871919 0.1253406317882016 0 -0.12687331202938101 0.13192737382428379 0 -0.12687331202938101 0.13192737382428379 0 -0.1130049083687871 0.13722853083192951 0 -0.10667563132183119 0.1260080396076822 0 -0.12687331202938101 0.13192737382428379 0 -0.1130049083687871 0.13722853083192951 0 -0.1204435081575875 0.14623213693654391 0 -0.10667563132183119 0.1260080396076822 0 -0.081978849477511453 0.1384377215961772 0 -0.096577670607123245 0.1239972751083621 0 -0.10667563132183119 0.1260080396076822 0 -0.1008242758955458 0.1385116675773613 0 -0.081978849477511453 0.1384377215961772 0 -0.10667563132183119 0.1260080396076822 0 -0.081978849477511453 0.1384377215961772 0 -0.1130049083687871 0.13722853083192951 0 -0.10667563132183119 0.1260080396076822 0 -0.1008242758955458 0.1385116675773613 0 -0.1130049083687871 0.13722853083192951 0 -0.1008242758955458 0.1385116675773613 0 -0.1078791741402548 0.14587794917826699 0 -0.094422293866394627 0.1556947047027778 0 -0.094582816169344081 0.14500609667275041 0 -0.1078791741402548 0.14587794917826699 0 -0.1008242758955458 0.1385116675773613 0 -0.094582816169344081 0.14500609667275041 0 -0.1078791741402548 0.14587794917826699 0 -0.12843792629854631 0.15978223771525801 0 -0.1204435081575875 0.14623213693654391 0 -0.1073217141416921 0.15896651377475199 0 -0.1078791741402548 0.14587794917826699 0 -0.1204435081575875 0.14623213693654391 0 -0.1073217141416921 0.15896651377475199 0 -0.1130049083687871 0.13722853083192951 0 -0.1078791741402548 0.14587794917826699 0 -0.1204435081575875 0.14623213693654391 0 -0.12843792629854631 0.15978223771525801 0 -0.1245765098090509 0.17966052017845999 0 -0.1120869942909358 0.17595806361305491 0 -0.1120869942909358 0.17595806361305491 0 -0.1073217141416921 0.15896651377475199 0 -0.12843792629854631 0.15978223771525801 0 -0.1120869942909358 0.17595806361305491 0 -0.12843792629854631 0.15978223771525801 0 -0.1120869942909358 0.17595806361305491 0 -0.1073217141416921 0.15896651377475199 0 -0.1245765098090509 0.17966052017845999 0 -0.1120869942909358 0.17595806361305491 0 -0.1190175871807343 0.20067046473278771 0 -0.1120869942909358 0.17595806361305491 0 -0.1020860412129876 0.1687304780430319 0 -0.095149617161195271 0.19271405424946009 0 -0.1020860412129876 0.1687304780430319 0 -0.095149617161195271 0.19271405424946009 0 -0.1120869942909358 0.17595806361305491 0 -0.095149617161195271 0.19271405424946009 0 -0.1020860412129876 0.1687304780430319 0 -0.093279947424905002 0.17994671451597891 0 -0.095149617161195271 0.19271405424946009 0 -0.1020860412129876 0.1687304780430319 0 -0.089956478385260899 0.16811851343374709 0 -0.093279947424905002 0.17994671451597891 0 -0.094422293866394627 0.1556947047027778 0 -0.1078791741402548 0.14587794917826699 0 -0.1020860412129876 0.1687304780430319 0 -0.1078791741402548 0.14587794917826699 0 -0.1073217141416921 0.15896651377475199 0 -0.1020860412129876 0.1687304780430319 0 -0.1120869942909358 0.17595806361305491 0 -0.1073217141416921 0.15896651377475199 0 -0.1020860412129876 0.1687304780430319 0 -0.1078791741402548 0.14587794917826699 0 -0.1020860412129876 0.1687304780430319 0 -0.094422293866394627 0.1556947047027778 0 -0.1020860412129876 0.1687304780430319 0 -0.089956478385260899 0.16811851343374709 0 -0.094422293866394627 0.1556947047027778 0 -0.089956478385260899 0.16811851343374709 0 -0.084742563178951485 0.15922574422532609 0 -0.089956478385260899 0.16811851343374709 0 -0.080023232193096983 0.1657260639694961 0 -0.084742563178951485 0.15922574422532609 0 -0.089956478385260899 0.16811851343374709 0 -0.080023232193096983 0.1657260639694961 0 -0.081293191825158789 0.17801619480298669 0 -0.080023232193096983 0.1657260639694961 0 -0.084742563178951485 0.15922574422532609 0 -0.074930767296401246 0.15918989644816289 0 -0.081293191825158789 0.17801619480298669 0 -0.095149617161195271 0.19271405424946009 0 -0.073474196407973841 0.19079473501472519 0 -0.081293191825158789 0.17801619480298669 0 -0.095149617161195271 0.19271405424946009 0 -0.093279947424905002 0.17994671451597891 0 -0.081293191825158789 0.17801619480298669 0 -0.095149617161195271 0.19271405424946009 0 -0.089956478385260899 0.16811851343374709 0 -0.093279947424905002 0.17994671451597891 0 -0.081293191825158789 0.17801619480298669 0 -0.064604308801312821 0.18244611143699499 0 -0.069549912031587807 0.17131438064227461 0 -0.073474196407973841 0.19079473501472519 0 -0.081293191825158789 0.17801619480298669 0 -0.069549912031587807 0.17131438064227461 0 -0.073474196407973841 0.19079473501472519 0 -0.069549912031587807 0.17131438064227461 0 -0.073474196407973841 0.19079473501472519 0 -0.064604308801312821 0.18244611143699499 0 -0.069549912031587807 0.17131438064227461 0 -0.062041409668937363 0.1723934095439342 0 -0.084742563178951485 0.15922574422532609 0 -0.074930767296401246 0.15918989644816289 0 -0.074588176879671189 0.15080810715310269 0 -0.080023232193096983 0.1657260639694961 0 -0.074930767296401246 0.15918989644816289 0 -0.06743676648912228 0.16331833535651319 0 -0.081293191825158789 0.17801619480298669 0 -0.069549912031587807 0.17131438064227461 0 -0.06743676648912228 0.16331833535651319 0 -0.080023232193096983 0.1657260639694961 0 -0.081293191825158789 0.17801619480298669 0 -0.06743676648912228 0.16331833535651319 0 -0.081293191825158789 0.17801619480298669 0 -0.06743676648912228 0.16331833535651319 0 -0.069549912031587807 0.17131438064227461 0 -0.062031688412593149 0.16441565219234799 0 -0.062041409668937363 0.1723934095439342 0 -0.069549912031587807 0.17131438064227461 0 -0.06743676648912228 0.16331833535651319 0 -0.062031688412593149 0.16441565219234799 0 -0.06743676648912228 0.16331833535651319 0 -0.06725389334219653 0.15771987894696021 0 -0.062031688412593149 0.16441565219234799 0 -0.074930767296401246 0.15918989644816289 0 -0.06743676648912228 0.16331833535651319 0 -0.06725389334219653 0.15771987894696021 0 -0.081978849477511453 0.1384377215961772 0 -0.05728206763319247 0.1508674035846734 0 -0.06725389334219653 0.15771987894696021 0 -0.074588176879671189 0.15080810715310269 0 -0.05728206763319247 0.1508674035846734 0 -0.074588176879671189 0.15080810715310269 0 -0.081978849477511453 0.1384377215961772 0 -0.05728206763319247 0.1508674035846734 0 -0.081978849477511453 0.1384377215961772 0 -0.06070043620975589 0.134524720015781 0 -0.05728206763319247 0.1508674035846734 0 -0.074930767296401246 0.15918989644816289 0 -0.06725389334219653 0.15771987894696021 0 -0.074588176879671189 0.15080810715310269 0 -0.071786582042575819 0.1280585334591178 0 -0.081978849477511453 0.1384377215961772 0 -0.08034823769671974 0.121089655777625 0 -0.071786582042575819 0.1280585334591178 0 -0.081978849477511453 0.1384377215961772 0 -0.06070043620975589 0.134524720015781 0 -0.071786582042575819 0.1280585334591178 0 -0.06070043620975589 0.134524720015781 0 -0.06411880478631618 0.11818203644688791 0 -0.081978849477511453 0.1384377215961772 0 -0.08034823769671974 0.121089655777625 0 -0.096577670607123245 0.1239972751083621 0 -0.1008242758955458 0.1385116675773613 0 -0.094582816169344081 0.14500609667275041 0 -0.081978849477511453 0.1384377215961772 0 -0.094582816169344081 0.14500609667275041 0 -0.081978849477511453 0.1384377215961772 0 -0.0854808471676783 0.14892295327365951 0 -0.094422293866394627 0.1556947047027778 0 -0.084742563178951485 0.15922574422532609 0 -0.0854808471676783 0.14892295327365951 0 -0.094422293866394627 0.1556947047027778 0 -0.094582816169344081 0.14500609667275041 0 -0.0854808471676783 0.14892295327365951 0 -0.084742563178951485 0.15922574422532609 0 -0.074588176879671189 0.15080810715310269 0 -0.0854808471676783 0.14892295327365951 0 -0.074588176879671189 0.15080810715310269 0 -0.081978849477511453 0.1384377215961772 0 -0.0854808471676783 0.14892295327365951 0 -0.1045487088169635 0.24438495162540061 0 -0.11455994162881621 0.23631135170566109 0 -0.098826177075254387 0.23394696074010041 0 -0.10005120432924321 0.25626016583208688 0 -0.094679029848152713 0.24609146959404629 0 -0.1045487088169635 0.24438495162540061 0 -0.094679029848152713 0.24609146959404629 0 -0.1045487088169635 0.24438495162540061 0 -0.098826177075254387 0.23394696074010041 0 -0.116744543106582 0.25728181003509248 0 -0.1045487088169635 0.24438495162540061 0 -0.11455994162881621 0.23631135170566109 0 -0.116744543106582 0.25728181003509248 0 -0.1327712538659816 0.24971188635390451 0 -0.11455994162881621 0.23631135170566109 0 -0.12594818007053379 0.2253828658525201 0 -0.1327712538659816 0.24971188635390451 0 -0.11455994162881621 0.23631135170566109 0 -0.11455994162881621 0.23631135170566109 0 -0.1144435087069731 0.2232582902708152 0 -0.1063794885369051 0.22193246116811141 0 -0.12594818007053379 0.2253828658525201 0 -0.1144435087069731 0.2232582902708152 0 -0.1108864245916369 0.20940648235696879 0 -0.12594818007053379 0.2253828658525201 0 -0.11455994162881621 0.23631135170566109 0 -0.1144435087069731 0.2232582902708152 0 -0.11455994162881621 0.23631135170566109 0 -0.1063794885369051 0.22193246116811141 0 -0.098826177075254387 0.23394696074010041 0 -0.1063794885369051 0.22193246116811141 0 -0.098826177075254387 0.23394696074010041 0 -0.089950704149474564 0.21660149084549701 0 -0.1063794885369051 0.22193246116811141 0 -0.089950704149474564 0.21660149084549701 0 -0.10053720550511509 0.21148400771379949 0 -0.095149617161195271 0.19271405424946009 0 -0.089950704149474564 0.21660149084549701 0 -0.1063794885369051 0.22193246116811141 0 -0.10053720550511509 0.21148400771379949 0 -0.089950704149474564 0.21660149084549701 0 -0.10053720550511509 0.21148400771379949 0 -0.1108864245916369 0.20940648235696879 0 -0.095149617161195271 0.19271405424946009 0 -0.1063794885369051 0.22193246116811141 0 -0.10053720550511509 0.21148400771379949 0 -0.1108864245916369 0.20940648235696879 0 -0.12594818007053379 0.2253828658525201 0 -0.1190175871807343 0.20067046473278771 0 -0.12594818007053379 0.2253828658525201 0 -0.1108864245916369 0.20940648235696879 0 -0.1190175871807343 0.20067046473278771 0 -0.12594818007053379 0.2253828658525201 0 -0.1108864245916369 0.20940648235696879 0 -0.1144435087069731 0.2232582902708152 0 -0.1063794885369051 0.22193246116811141 0 -0.1108864245916369 0.20940648235696879 0 -0.1120869942909358 0.17595806361305491 0 -0.1190175871807343 0.20067046473278771 0 -0.1108864245916369 0.20940648235696879 0 -0.1190175871807343 0.20067046473278771 0 -0.10682171669235439 0.1942096232944058 0 -0.1120869942909358 0.17595806361305491 0 -0.1190175871807343 0.20067046473278771 0 -0.10682171669235439 0.1942096232944058 0 -0.1108864245916369 0.20940648235696879 0 -0.095149617161195271 0.19271405424946009 0 -0.1108864245916369 0.20940648235696879 0 -0.10682171669235439 0.1942096232944058 0 -0.095149617161195271 0.19271405424946009 0 -0.1120869942909358 0.17595806361305491 0 -0.10682171669235439 0.1942096232944058 0 -0.095149617161195271 0.19271405424946009 0 -0.095149617161195271 0.19271405424946009 0 -0.077398480784349299 0.2102750893871779 0 -0.095149617161195271 0.19271405424946009 0 -0.073474196407973841 0.19079473501472519 0 -0.077398480784349299 0.2102750893871779 0 -0.095149617161195271 0.19271405424946009 0 -0.077398480784349299 0.2102750893871779 0 -0.087241526055590657 0.20514135106535239 0 -0.073474196407973841 0.19079473501472519 0 -0.077398480784349299 0.2102750893871779 0 -0.073474196407973841 0.19079473501472519 0 -0.077398480784349299 0.2102750893871779 0 -0.068984895145132993 0.20348567813270921 0 -0.064604308801312821 0.18244611143699499 0 -0.073474196407973841 0.19079473501472519 0 -0.062951628171730722 0.19451437844324071 0 -0.073474196407973841 0.19079473501472519 0 -0.062951628171730722 0.19451437844324071 0 -0.068984895145132993 0.20348567813270921 0 -0.062951628171730722 0.19451437844324071 0 -0.068984895145132993 0.20348567813270921 0 -0.057478398324341332 0.20606456403591589 0 -0.068984895145132993 0.20348567813270921 0 -0.075683327299925024 0.21197187487555791 0 -0.057478398324341332 0.20606456403591589 0 -0.075683327299925024 0.21197187487555791 0 -0.060700713784132942 0.2267940359372384 0 -0.057478398324341332 0.20606456403591589 0 -0.075683327299925024 0.21197187487555791 0 -0.057478398324341332 0.20606456403591589 0 -0.077398480784349299 0.2102750893871779 0 -0.068984895145132993 0.20348567813270921 0 -0.075683327299925024 0.21197187487555791 0 -0.075683327299925024 0.21197187487555791 0 -0.077884159070199604 0.2126860219832131 0 -0.060700713784132942 0.2267940359372384 0 -0.075683327299925024 0.21197187487555791 0 -0.077884159070199604 0.2126860219832131 0 -0.077398480784349299 0.2102750893871779 0 -0.075683327299925024 0.21197187487555791 0 -0.077884159070199604 0.2126860219832131 0 -0.077398480784349299 0.2102750893871779 0 -0.077884159070199604 0.2126860219832131 0 -0.077398480784349299 0.2102750893871779 0 -0.075683327299925024 0.21197187487555791 0 -0.077884159070199604 0.2126860219832131 0 -0.089950704149474564 0.21660149084549701 0 -0.077884159070199604 0.2126860219832131 0 -0.087241526055590657 0.20514135106535239 0 -0.089950704149474564 0.21660149084549701 0 -0.095149617161195271 0.19271405424946009 0 -0.087241526055590657 0.20514135106535239 0 -0.089950704149474564 0.21660149084549701 0 -0.095149617161195271 0.19271405424946009 0 -0.089950704149474564 0.21660149084549701 0 -0.077398480784349299 0.2102750893871779 0 -0.077884159070199604 0.2126860219832131 0 -0.087241526055590657 0.20514135106535239 0 -0.077884159070199604 0.2126860219832131 0 -0.083666647235009842 0.24139059785004849 0 -0.089950704149474564 0.21660149084549701 0 -0.083666647235009842 0.24139059785004849 0 -0.077884159070199604 0.2126860219832131 0 -0.089950704149474564 0.21660149084549701 0 -0.083666647235009842 0.24139059785004849 0 -0.098826177075254387 0.23394696074010041 0 -0.089950704149474564 0.21660149084549701 0 -0.083666647235009842 0.24139059785004849 0 -0.077884159070199604 0.2126860219832131 0 -0.083666647235009842 0.24139059785004849 0 -0.060700713784132942 0.2267940359372384 0 -0.075683327299925024 0.21197187487555791 0 -0.060700713784132942 0.2267940359372384 0 -0.064077212627390134 0.24851538469076631 0 -0.083666647235009842 0.24139059785004849 0 -0.060700713784132942 0.2267940359372384 0 -0.086302411784292182 0.25447467192259482 0 -0.083666647235009842 0.24139059785004849 0 -0.094679029848152713 0.24609146959404629 0 -0.098826177075254387 0.23394696074010041 0 -0.083666647235009842 0.24139059785004849 0 -0.086302411784292182 0.25447467192259482 0 -0.094679029848152713 0.24609146959404629 0 -0.083666647235009842 0.24139059785004849 0 -0.03068766995985707 0.25286978792993342 0 -0.034335222642673788 0.23481172099035691 0 -0.046578861792199937 0.24361118962503389 0 -0.034335222642673788 0.23481172099035691 0 -0.046578861792199937 0.24361118962503389 0 -0.045510089746351297 0.2289623102588538 0 -0.064077212627390134 0.24851538469076631 0 -0.046578861792199937 0.24361118962503389 0 -0.055802081643016588 0.23164020743468811 0 -0.064077212627390134 0.24851538469076631 0 -0.055802081643016588 0.23164020743468811 0 -0.060700713784132942 0.2267940359372384 0 -0.064077212627390134 0.24851538469076631 0 -0.060700713784132942 0.2267940359372384 0 -0.046578861792199937 0.24361118962503389 0 -0.055802081643016588 0.23164020743468811 0 -0.045510089746351297 0.2289623102588538 0 -0.055802081643016588 0.23164020743468811 0 -0.053252725762674542 0.2222055350902031 0 -0.045510089746351297 0.2289623102588538 0 -0.055802081643016588 0.23164020743468811 0 -0.060700713784132942 0.2267940359372384 0 -0.053252725762674542 0.2222055350902031 0 -0.055802081643016588 0.23164020743468811 0 -0.060700713784132942 0.2267940359372384 0 -0.053252725762674542 0.2222055350902031 0 -0.045510089746351297 0.2289623102588538 0 -0.046772345315528908 0.21756655778431969 0 -0.045510089746351297 0.2289623102588538 0 -0.036443083940353373 0.22210497005765251 0 -0.046772345315528908 0.21756655778431969 0 -0.034335222642673788 0.23481172099035691 0 -0.045510089746351297 0.2289623102588538 0 -0.036443083940353373 0.22210497005765251 0 -0.034335222642673788 0.23481172099035691 0 -0.036443083940353373 0.22210497005765251 0 -0.024866254401544021 0.22078734426404351 0 -0.036443083940353373 0.22210497005765251 0 -0.046772345315528908 0.21756655778431969 0 -0.031637039445344017 0.19767931081015269 0 -0.046772345315528908 0.21756655778431969 0 -0.057478398324341332 0.20606456403591589 0 -0.031637039445344017 0.19767931081015269 0 -0.060700713784132942 0.2267940359372384 0 -0.053252725762674542 0.2222055350902031 0 -0.057478398324341332 0.20606456403591589 0 -0.060700713784132942 0.2267940359372384 0 -0.057478398324341332 0.20606456403591589 0 -0.053252725762674542 0.2222055350902031 0 -0.046772345315528908 0.21756655778431969 0 -0.057478398324341332 0.20606456403591589 0 -0.062951628171730722 0.19451437844324071 0 -0.057478398324341332 0.20606456403591589 0 -0.054948738746262903 0.1897910154656581 0 -0.057478398324341332 0.20606456403591589 0 -0.054948738746262903 0.1897910154656581 0 -0.031637039445344017 0.19767931081015269 0 -0.057478398324341332 0.20606456403591589 0 -0.054948738746262903 0.1897910154656581 0 -0.054948738746262903 0.1897910154656581 0 -0.031637039445344017 0.19767931081015269 0 -0.039999697082172873 0.18418677263352329 0 -0.057478398324341332 0.20606456403591589 0 -0.031637039445344017 0.19767931081015269 0 -0.031637039445344017 0.19767931081015269 0 -0.0057956805663459468 0.1892940575843915 0 -0.031637039445344017 0.19767931081015269 0 -0.0057956805663459468 0.1892940575843915 0 -0.024775833668462071 0.17590936267321361 0 -0.031637039445344017 0.19767931081015269 0 -0.0057956805663459468 0.1892940575843915 0 -0.01019634689217482 0.20814994011246479 0 -0.0057956805663459468 0.1892940575843915 0 -0.01019634689217482 0.20814994011246479 0 0.0090806704795409685 0.20996839310177981 0 -0.01019634689217482 0.20814994011246479 0 0.00014186162909880781 0.2338185852574263 0 0.0090806704795409685 0.20996839310177981 0 -0.036443083940353373 0.22210497005765251 0 -0.031637039445344017 0.19767931081015269 0 -0.024866254401544021 0.22078734426404351 0 -0.031637039445344017 0.19767931081015269 0 -0.01019634689217482 0.20814994011246479 0 -0.024866254401544021 0.22078734426404351 0 -0.034335222642673788 0.23481172099035691 0 -0.024866254401544021 0.22078734426404351 0 -0.01991034591062427 0.239405390953495 0 -0.024866254401544021 0.22078734426404351 0 0.00014186162909880781 0.2338185852574263 0 -0.024866254401544021 0.22078734426404351 0 -0.01991034591062427 0.239405390953495 0 0.00014186162909880781 0.2338185852574263 0 -0.01019634689217482 0.20814994011246479 0 -0.024866254401544021 0.22078734426404351 0 0.00014186162909880781 0.2338185852574263 0 -0.0098044441781452579 0.25473951632571468 0 0.00014186162909880781 0.2338185852574263 0 0.0073806355134042019 0.25529449578482938 0 -0.0098044441781452579 0.25473951632571468 0 -0.01991034591062427 0.239405390953495 0 0.00014186162909880781 0.2338185852574263 0 -0.03068766995985707 0.25286978792993342 0 -0.034335222642673788 0.23481172099035691 0 -0.01991034591062427 0.239405390953495 0 -0.03068766995985707 0.25286978792993342 0 -0.0098044441781452579 0.25473951632571468 0 -0.01991034591062427 0.239405390953495 0 -0.045513089216113363 0.1481501368583191 0 -0.039963318838929777 0.1583549670989208 0 -0.028048700007850699 0.14601834090005769 0 -0.045513089216113363 0.1481501368583191 0 -0.037584816749385713 0.12707105787504261 0 -0.028048700007850699 0.14601834090005769 0 -0.037584816749385713 0.12707105787504261 0 -0.028048700007850699 0.14601834090005769 0 -0.045513089216113363 0.1481501368583191 0 -0.037584816749385713 0.12707105787504261 0 -0.045513089216113363 0.1481501368583191 0 -0.037584816749385713 0.12707105787504261 0 -0.049753839012929922 0.13582205838018921 0 -0.037584816749385713 0.12707105787504261 0 -0.049753839012929922 0.13582205838018921 0 -0.051208231868337763 0.1260313133231428 0 -0.049753839012929922 0.13582205838018921 0 -0.06070043620975589 0.134524720015781 0 -0.052276118599972977 0.1457036522838337 0 -0.051208231868337763 0.1260313133231428 0 -0.06070043620975589 0.134524720015781 0 -0.06411880478631618 0.11818203644688791 0 -0.06070043620975589 0.134524720015781 0 -0.06411880478631618 0.11818203644688791 0 -0.049753839012929922 0.13582205838018921 0 -0.051208231868337763 0.1260313133231428 0 -0.06070043620975589 0.134524720015781 0 -0.06070043620975589 0.134524720015781 0 -0.052276118599972977 0.1457036522838337 0 -0.05728206763319247 0.1508674035846734 0 -0.06070043620975589 0.134524720015781 0 -0.05728206763319247 0.1508674035846734 0 -0.045513089216113363 0.1481501368583191 0 -0.049753839012929922 0.13582205838018921 0 -0.052276118599972977 0.1457036522838337 0 -0.045513089216113363 0.1481501368583191 0 -0.052276118599972977 0.1457036522838337 0 -0.053440893212920608 0.15280063427064891 0 -0.052276118599972977 0.1457036522838337 0 -0.053440893212920608 0.15280063427064891 0 -0.05728206763319247 0.1508674035846734 0 -0.053440893212920608 0.15280063427064891 0 -0.05728206763319247 0.1508674035846734 0 -0.05728206763319247 0.1508674035846734 0 -0.062031688412593149 0.16441565219234799 0 -0.053441361682841117 0.16922921584159559 0 -0.053440893212920608 0.15280063427064891 0 -0.05728206763319247 0.1508674035846734 0 -0.053441361682841117 0.16922921584159559 0 -0.045513089216113363 0.1481501368583191 0 -0.053440893212920608 0.15280063427064891 0 -0.053441361682841117 0.16922921584159559 0 -0.045513089216113363 0.1481501368583191 0 -0.053441361682841117 0.16922921584159559 0 -0.05728206763319247 0.1508674035846734 0 -0.053441361682841117 0.16922921584159559 0 -0.06725389334219653 0.15771987894696021 0 -0.05728206763319247 0.1508674035846734 0 -0.062031688412593149 0.16441565219234799 0 -0.062031688412593149 0.16441565219234799 0 -0.053441361682841117 0.16922921584159559 0 -0.062041409668937363 0.1723934095439342 0 -0.053441361682841117 0.16922921584159559 0 -0.047633738945979477 0.17108968717192211 0 -0.039963318838929777 0.1583549670989208 0 -0.052991971448818453 0.17137768000779441 0 -0.053441361682841117 0.16922921584159559 0 -0.047633738945979477 0.17108968717192211 0 -0.052991971448818453 0.17137768000779441 0 -0.053441361682841117 0.16922921584159559 0 -0.054948738746262903 0.1897910154656581 0 -0.052419079168185397 0.17351746689540021 0 -0.046888846475854867 0.17837904804597579 0 -0.062951628171730722 0.19451437844324071 0 -0.054948738746262903 0.1897910154656581 0 -0.052419079168185397 0.17351746689540021 0 -0.062951628171730722 0.19451437844324071 0 -0.052991971448818453 0.17137768000779441 0 -0.052419079168185397 0.17351746689540021 0 -0.064604308801312821 0.18244611143699499 0 -0.062951628171730722 0.19451437844324071 0 -0.053441361682841117 0.16922921584159559 0 -0.062951628171730722 0.19451437844324071 0 -0.052991971448818453 0.17137768000779441 0 -0.053441361682841117 0.16922921584159559 0 -0.054948738746262903 0.1897910154656581 0 -0.052419079168185397 0.17351746689540021 0 -0.062951628171730722 0.19451437844324071 0 -0.053441361682841117 0.16922921584159559 0 -0.064604308801312821 0.18244611143699499 0 -0.053441361682841117 0.16922921584159559 0 -0.062041409668937363 0.1723934095439342 0 -0.052991971448818453 0.17137768000779441 0 -0.047633738945979477 0.17108968717192211 0 -0.052419079168185397 0.17351746689540021 0 -0.047633738945979477 0.17108968717192211 0 -0.052419079168185397 0.17351746689540021 0 -0.046888846475854867 0.17837904804597579 0 -0.054948738746262903 0.1897910154656581 0 -0.046888846475854867 0.17837904804597579 0 -0.039999697082172873 0.18418677263352329 0 -0.031637039445344017 0.19767931081015269 0 -0.039999697082172873 0.18418677263352329 0 -0.024775833668462071 0.17590936267321361 0 -0.046888846475854867 0.17837904804597579 0 -0.039999697082172873 0.18418677263352329 0 -0.039442978436673673 0.17331029806337539 0 -0.047633738945979477 0.17108968717192211 0 -0.046888846475854867 0.17837904804597579 0 -0.039442978436673673 0.17331029806337539 0 -0.039442978436673673 0.17331029806337539 0 -0.032139483942643897 0.16694135859911591 0 -0.024775833668462071 0.17590936267321361 0 -0.039999697082172873 0.18418677263352329 0 -0.039442978436673673 0.17331029806337539 0 -0.024775833668462071 0.17590936267321361 0 -0.045513089216113363 0.1481501368583191 0 -0.053441361682841117 0.16922921584159559 0 -0.039963318838929777 0.1583549670989208 0 -0.039963318838929777 0.1583549670989208 0 -0.032139483942643897 0.16694135859911591 0 -0.02343924065842673 0.15869802647678349 0 -0.047633738945979477 0.17108968717192211 0 -0.039442978436673673 0.17331029806337539 0 -0.039963318838929777 0.1583549670989208 0 -0.039442978436673673 0.17331029806337539 0 -0.039963318838929777 0.1583549670989208 0 -0.032139483942643897 0.16694135859911591 0 -0.032139483942643897 0.16694135859911591 0 -0.02343924065842673 0.15869802647678349 0 -0.024775833668462071 0.17590936267321361 0 -0.02343924065842673 0.15869802647678349 0 -0.024775833668462071 0.17590936267321361 0 -0.0048034666842798916 0.1614245706846468 0 -0.0057956805663459468 0.1892940575843915 0 -0.024775833668462071 0.17590936267321361 0 -0.0048034666842798916 0.1614245706846468 0 -0.0048034666842798916 0.1614245706846468 0 -0.01090464080839405 0.14353955890474629 0 0.011098566836083609 0.13484946890849181 0 -0.02343924065842673 0.15869802647678349 0 -0.0048034666842798916 0.1614245706846468 0 -0.01090464080839405 0.14353955890474629 0 -0.039963318838929777 0.1583549670989208 0 -0.02343924065842673 0.15869802647678349 0 -0.028048700007850699 0.14601834090005769 0 -0.02343924065842673 0.15869802647678349 0 -0.01090464080839405 0.14353955890474629 0 -0.028048700007850699 0.14601834090005769 0 -0.037584816749385713 0.12707105787504261 0 -0.0187932077553963 0.1304023687453105 0 -0.02482114599867602 0.1199028763409456 0 -0.01090464080839405 0.14353955890474629 0 -0.028048700007850699 0.14601834090005769 0 -0.0187932077553963 0.1304023687453105 0 -0.037584816749385713 0.12707105787504261 0 -0.028048700007850699 0.14601834090005769 0 -0.0187932077553963 0.1304023687453105 0 -0.0064436606074630637 0.13109611639504981 0 -0.007175360702145514 0.1155930690216506 0 0.011098566836083609 0.13484946890849181 0 -0.01090464080839405 0.14353955890474629 0 -0.0064436606074630637 0.13109611639504981 0 0.011098566836083609 0.13484946890849181 0 -0.0187932077553963 0.1304023687453105 0 -0.0064436606074630637 0.13109611639504981 0 -0.007175360702145514 0.1155930690216506 0 -0.01090464080839405 0.14353955890474629 0 -0.0187932077553963 0.1304023687453105 0 -0.0064436606074630637 0.13109611639504981 0 -0.007175360702145514 0.1155930690216506 0 -0.0040088977147468936 0.097024336429998151 0 -0.013655752966245171 0.094180689311720855 0 -0.007175360702145514 0.1155930690216506 0 -0.0040088977147468936 0.097024336429998151 0 0.0025937760044158291 0.1064596481343341 0 -0.007175360702145514 0.1155930690216506 0 -0.013655752966245171 0.094180689311720855 0 -0.02544928824037461 0.096336669134809427 0 -0.029459919491476121 0.1011230655410132 0 -0.021580178673492881 0.1105609364200745 0 -0.037915498494119543 0.10215930426450601 0 -0.007175360702145514 0.1155930690216506 0 -0.02544928824037461 0.096336669134809427 0 -0.007175360702145514 0.1155930690216506 0 -0.02544928824037461 0.096336669134809427 0 -0.0241566231860777 0.1021061234229471 0 -0.02544928824037461 0.096336669134809427 0 -0.029459919491476121 0.1011230655410132 0 -0.035034026511796899 0.0954599165668297 0 -0.02544928824037461 0.096336669134809427 0 -0.029459919491476121 0.1011230655410132 0 -0.0241566231860777 0.1021061234229471 0 -0.02544928824037461 0.096336669134809427 0 -0.0241566231860777 0.1021061234229471 0 -0.029459919491476121 0.1011230655410132 0 -0.0241566231860777 0.1021061234229471 0 -0.021580178673492881 0.1105609364200745 0 -0.02482114599867602 0.1199028763409456 0 -0.021580178673492881 0.1105609364200745 0 -0.032585978911933711 0.11378053360982859 0 -0.007175360702145514 0.1155930690216506 0 -0.0241566231860777 0.1021061234229471 0 -0.021580178673492881 0.1105609364200745 0 -0.0187932077553963 0.1304023687453105 0 -0.007175360702145514 0.1155930690216506 0 -0.02482114599867602 0.1199028763409456 0 -0.007175360702145514 0.1155930690216506 0 -0.02482114599867602 0.1199028763409456 0 -0.021580178673492881 0.1105609364200745 0 -0.01109578586274463 0.07592966442077155 0 -0.01963881101933795 0.057650575484614511 0 -0.0089029190745683329 0.062319161291970238 0 -0.0031702267477386531 0.067180855403790804 0 -0.01109578586274463 0.07592966442077155 0 0.0065236609159091173 0.071671444604676282 0 -0.0031702267477386531 0.067180855403790804 0 -0.0089029190745683329 0.062319161291970238 0 0.00079413703044923156 0.058803151297745167 0 -0.0031702267477386531 0.067180855403790804 0 -0.01109578586274463 0.07592966442077155 0 -0.0089029190745683329 0.062319161291970238 0 -0.0040088977147468936 0.097024336429998151 0 -0.01109578586274463 0.07592966442077155 0 0.011643404763696401 0.092949868607662828 0 -0.0040088977147468936 0.097024336429998151 0 -0.013655752966245171 0.094180689311720855 0 -0.01109578586274463 0.07592966442077155 0 -0.013655752966245171 0.094180689311720855 0 -0.01109578586274463 0.07592966442077155 0 -0.02054943231121421 0.086019707551374502 0 -0.02544928824037461 0.096336669134809427 0 -0.02054943231121421 0.086019707551374502 0 -0.029642132364781061 0.077623064684345475 0 -0.02544928824037461 0.096336669134809427 0 -0.029642132364781061 0.077623064684345475 0 -0.036673455980692451 0.084509049595857907 0 -0.01109578586274463 0.07592966442077155 0 -0.02054943231121421 0.086019707551374502 0 -0.029642132364781061 0.077623064684345475 0 -0.02544928824037461 0.096336669134809427 0 -0.029642132364781061 0.077623064684345475 0 -0.013655752966245171 0.094180689311720855 0 -0.02544928824037461 0.096336669134809427 0 -0.02054943231121421 0.086019707551374502 0 -0.02544928824037461 0.096336669134809427 0 -0.036673455980692451 0.084509049595857907 0 -0.01109578586274463 0.07592966442077155 0 -0.033834976489186493 0.058909460233881362 0 -0.01109578586274463 0.07592966442077155 0 -0.029642132364781061 0.077623064684345475 0 -0.033834976489186493 0.058909460233881362 0 -0.01109578586274463 0.07592966442077155 0 -0.033834976489186493 0.058909460233881362 0 -0.01963881101933795 0.057650575484614511 0 -0.029642132364781061 0.077623064684345475 0 -0.033834976489186493 0.058909460233881362 0 -0.029642132364781061 0.077623064684345475 0 -0.036732086871232597 0.066761861307427367 0 -0.033834976489186493 0.058909460233881362 0 -0.042969512877196837 0.063698159366550891 0 -0.036732086871232597 0.066761861307427367 0 -0.038306240480512441 0.072768089837317376 0 -0.042969512877196837 0.063698159366550891 0 -0.038306240480512441 0.072768089837317376 0 -0.046136221960229658 0.070392563092827029 0 -0.042969512877196837 0.063698159366550891 0 -0.036732086871232597 0.066761861307427367 0 -0.038907572144486188 0.060810532415041758 0 -0.029642132364781061 0.077623064684345475 0 -0.036732086871232597 0.066761861307427367 0 -0.038306240480512441 0.072768089837317376 0 -0.038306240480512441 0.072768089837317376 0 -0.046136221960229658 0.070392563092827029 0 -0.043586306971417507 0.077534071189344175 0 -0.038306240480512441 0.072768089837317376 0 -0.043586306971417507 0.077534071189344175 0 -0.036673455980692451 0.084509049595857907 0 -0.043586306971417507 0.077534071189344175 0 -0.036673455980692451 0.084509049595857907 0 -0.046978765451358998 0.084182386091036676 0 -0.029642132364781061 0.077623064684345475 0 -0.038306240480512441 0.072768089837317376 0 -0.036673455980692451 0.084509049595857907 0 -0.02544928824037461 0.096336669134809427 0 -0.036673455980692451 0.084509049595857907 0 -0.035034026511796899 0.0954599165668297 0 -0.036673455980692451 0.084509049595857907 0 -0.044089979176562301 0.093675305350012283 0 -0.035034026511796899 0.0954599165668297 0 -0.036673455980692451 0.084509049595857907 0 -0.044089979176562301 0.093675305350012283 0 -0.046978765451358998 0.084182386091036676 0 -0.044089979176562301 0.093675305350012283 0 -0.057144835734191893 0.088207312209507505 0 -0.046978765451358998 0.084182386091036676 0 -0.057144835734191893 0.088207312209507505 0 -0.046978765451358998 0.084182386091036676 0 -0.053399249393930842 0.076986192110461482 0 -0.043586306971417507 0.077534071189344175 0 -0.046978765451358998 0.084182386091036676 0 -0.053399249393930842 0.076986192110461482 0 -0.053399249393930842 0.076986192110461482 0 -0.070406408885084593 0.061857930521202607 0 -0.059815066152941319 0.061788281472960463 0 -0.057144835734191893 0.088207312209507505 0 -0.053399249393930842 0.076986192110461482 0 -0.070406408885084593 0.061857930521202607 0 -0.046136221960229658 0.070392563092827029 0 -0.043586306971417507 0.077534071189344175 0 -0.053399249393930842 0.076986192110461482 0 -0.046136221960229658 0.070392563092827029 0 -0.053399249393930842 0.076986192110461482 0 -0.05257832837313995 0.068950164376806455 0 -0.053399249393930842 0.076986192110461482 0 -0.05257832837313995 0.068950164376806455 0 -0.059815066152941319 0.061788281472960463 0 -0.05257832837313995 0.068950164376806455 0 -0.052166049838275927 0.062310195238599278 0 -0.059815066152941319 0.061788281472960463 0 -0.046136221960229658 0.070392563092827029 0 -0.05257832837313995 0.068950164376806455 0 -0.052166049838275927 0.062310195238599278 0 -0.042969512877196837 0.063698159366550891 0 -0.046136221960229658 0.070392563092827029 0 -0.052166049838275927 0.062310195238599278 0 -0.021580178673492881 0.1105609364200745 0 -0.043883262583300407 0.11455669389781301 0 -0.021580178673492881 0.1105609364200745 0 -0.043883262583300407 0.11455669389781301 0 -0.032585978911933711 0.11378053360982859 0 -0.037584816749385713 0.12707105787504261 0 -0.051208231868337763 0.1260313133231428 0 -0.043883262583300407 0.11455669389781301 0 -0.037584816749385713 0.12707105787504261 0 -0.043883262583300407 0.11455669389781301 0 -0.037584816749385713 0.12707105787504261 0 -0.032585978911933711 0.11378053360982859 0 -0.037584816749385713 0.12707105787504261 0 -0.043883262583300407 0.11455669389781301 0 -0.032585978911933711 0.11378053360982859 0 -0.037584816749385713 0.12707105787504261 0 -0.02482114599867602 0.1199028763409456 0 -0.032585978911933711 0.11378053360982859 0 -0.021580178673492881 0.1105609364200745 0 -0.043883262583300407 0.11455669389781301 0 -0.037915498494119543 0.10215930426450601 0 -0.044089979176562301 0.093675305350012283 0 -0.043883262583300407 0.11455669389781301 0 -0.037915498494119543 0.10215930426450601 0 -0.044089979176562301 0.093675305350012283 0 -0.037915498494119543 0.10215930426450601 0 -0.035034026511796899 0.0954599165668297 0 -0.029459919491476121 0.1011230655410132 0 -0.037915498494119543 0.10215930426450601 0 -0.035034026511796899 0.0954599165668297 0 -0.044089979176562301 0.093675305350012283 0 -0.057144835734191893 0.088207312209507505 0 -0.043883262583300407 0.11455669389781301 0 -0.057144835734191893 0.088207312209507505 0 -0.043883262583300407 0.11455669389781301 0 -0.057144835734191893 0.088207312209507505 0 -0.043883262583300407 0.11455669389781301 0 -0.056175626513735713 0.104231459755559 0 -0.056175626513735713 0.104231459755559 0 -0.061770267295803899 0.1005995653590098 0 -0.06411880478631618 0.11818203644688791 0 -0.057144835734191893 0.088207312209507505 0 -0.056175626513735713 0.104231459755559 0 -0.061770267295803899 0.1005995653590098 0 -0.043883262583300407 0.11455669389781301 0 -0.06411880478631618 0.11818203644688791 0 -0.051208231868337763 0.1260313133231428 0 -0.043883262583300407 0.11455669389781301 0 -0.06411880478631618 0.11818203644688791 0 -0.043883262583300407 0.11455669389781301 0 -0.056175626513735713 0.104231459755559 0 -0.06411880478631618 0.11818203644688791 0 -0.071786582042575819 0.1280585334591178 0 -0.06411880478631618 0.11818203644688791 0 -0.08034823769671974 0.121089655777625 0 -0.06411880478631618 0.11818203644688791 0 -0.08034823769671974 0.121089655777625 0 -0.075381325115152609 0.106019298300689 0 -0.06411880478631618 0.11818203644688791 0 -0.08034823769671974 0.121089655777625 0 -0.08034823769671974 0.121089655777625 0 -0.096577670607123245 0.1239972751083621 0 -0.08034823769671974 0.121089655777625 0 -0.092569001324263961 0.1124699312803344 0 -0.096577670607123245 0.1239972751083621 0 -0.08034823769671974 0.121089655777625 0 -0.083967771981719092 0.1102844810624737 0 -0.092569001324263961 0.1124699312803344 0 -0.08034823769671974 0.121089655777625 0 -0.083967771981719092 0.1102844810624737 0 -0.075381325115152609 0.106019298300689 0 -0.087572523790740042 0.10155903889124659 0 -0.082071947835387321 0.094412947715560025 0 -0.09233625647768956 0.091651488650119919 0 -0.083967771981719092 0.1102844810624737 0 -0.092569001324263961 0.1124699312803344 0 -0.087572523790740042 0.10155903889124659 0 -0.083967771981719092 0.1102844810624737 0 -0.087572523790740042 0.10155903889124659 0 -0.075381325115152609 0.106019298300689 0 -0.087572523790740042 0.10155903889124659 0 -0.082071947835387321 0.094412947715560025 0 -0.075381325115152609 0.106019298300689 0 -0.06411880478631618 0.11818203644688791 0 -0.06964180214897181 0.091777453024084701 0 -0.082071947835387321 0.094412947715560025 0 -0.075381325115152609 0.106019298300689 0 -0.06964180214897181 0.091777453024084701 0 -0.06411880478631618 0.11818203644688791 0 -0.075381325115152609 0.106019298300689 0 -0.06964180214897181 0.091777453024084701 0 -0.061770267295803899 0.1005995653590098 0 -0.06411880478631618 0.11818203644688791 0 -0.06964180214897181 0.091777453024084701 0 -0.057144835734191893 0.088207312209507505 0 -0.061770267295803899 0.1005995653590098 0 -0.06964180214897181 0.091777453024084701 0 -0.06964180214897181 0.091777453024084701 0 -0.075164799511626648 0.065372869601281192 0 -0.057144835734191893 0.088207312209507505 0 -0.06964180214897181 0.091777453024084701 0 -0.068089461569968729 0.076803891339018993 0 -0.06964180214897181 0.091777453024084701 0 -0.068089461569968729 0.076803891339018993 0 -0.075164799511626648 0.065372869601281192 0 -0.057144835734191893 0.088207312209507505 0 -0.068089461569968729 0.076803891339018993 0 -0.070406408885084593 0.061857930521202607 0 -0.06964180214897181 0.091777453024084701 0 -0.075164799511626648 0.065372869601281192 0 -0.08073347634316104 0.073575546631144614 0 -0.057144835734191893 0.088207312209507505 0 -0.070406408885084593 0.061857930521202607 0 -0.068089461569968729 0.076803891339018993 0 -0.075164799511626648 0.065372869601281192 0 -0.070406408885084593 0.061857930521202607 0 -0.089923560922876636 0.068178037636278263 0 -0.08578586832533959 0.082170087930996366 0 -0.103675070998617 0.083967309240415983 0 -0.08073347634316104 0.073575546631144614 0 -0.089923560922876636 0.068178037636278263 0 -0.083186879645449088 0.059889597987781727 0 -0.075164799511626648 0.065372869601281192 0 -0.08073347634316104 0.073575546631144614 0 -0.083186879645449088 0.059889597987781727 0 -0.08073347634316104 0.073575546631144614 0 -0.089923560922876636 0.068178037636278263 0 -0.08578586832533959 0.082170087930996366 0 -0.06964180214897181 0.091777453024084701 0 -0.08073347634316104 0.073575546631144614 0 -0.08578586832533959 0.082170087930996366 0 -0.082071947835387321 0.094412947715560025 0 -0.06964180214897181 0.091777453024084701 0 -0.08578586832533959 0.082170087930996366 0 -0.082071947835387321 0.094412947715560025 0 -0.08578586832533959 0.082170087930996366 0 -0.09233625647768956 0.091651488650119919 0 -0.09233625647768956 0.091651488650119919 0 -0.103675070998617 0.083967309240415983 0 -0.10429444750695741 0.1014886749251958 0 -0.08578586832533959 0.082170087930996366 0 -0.09233625647768956 0.091651488650119919 0 -0.103675070998617 0.083967309240415983 0 -0.103675070998617 0.083967309240415983 0 -0.1198812247159142 0.095002477965890675 0 -0.10429444750695741 0.1014886749251958 0 -0.089923560922876636 0.068178037636278263 0 -0.103675070998617 0.083967309240415983 0 -0.10785209906359081 0.065371441260914459 0 -0.12533951967512769 0.078274991835817334 0 -0.103675070998617 0.083967309240415983 0 -0.10785209906359081 0.065371441260914459 0 -0.12533951967512769 0.078274991835817334 0 -0.10785209906359081 0.065371441260914459 0 -0.1248745965026067 0.059896082918310993 0 -0.12533951967512769 0.078274991835817334 0 -0.103675070998617 0.083967309240415983 0 -0.1198812247159142 0.095002477965890675 0 -0.13137241316615089 0.11357835761918721 0 -0.1198812247159142 0.095002477965890675 0 -0.10429444750695741 0.1014886749251958 0 -0.13137241316615089 0.11357835761918721 0 -0.12687331202938101 0.13192737382428379 0 -0.10667563132183119 0.1260080396076822 0 -0.13137241316615089 0.11357835761918721 0 -0.10667563132183119 0.1260080396076822 0 -0.1062978327852654 0.11550845570815239 0 -0.13137241316615089 0.11357835761918721 0 -0.1062978327852654 0.11550845570815239 0 -0.10429444750695741 0.1014886749251958 0 -0.13137241316615089 0.11357835761918721 0 -0.10667563132183119 0.1260080396076822 0 -0.10667563132183119 0.1260080396076822 0 -0.1062978327852654 0.11550845570815239 0 -0.096577670607123245 0.1239972751083621 0 -0.092569001324263961 0.1124699312803344 0 -0.1062978327852654 0.11550845570815239 0 -0.096577670607123245 0.1239972751083621 0 -0.092569001324263961 0.1124699312803344 0 -0.1062978327852654 0.11550845570815239 0 -0.10429444750695741 0.1014886749251958 0 -0.092569001324263961 0.1124699312803344 0 -0.087572523790740042 0.10155903889124659 0 -0.10429444750695741 0.1014886749251958 0 -0.087572523790740042 0.10155903889124659 0 -0.09233625647768956 0.091651488650119919 0 -0.10429444750695741 0.1014886749251958 0 -0.10370969952600501 0.019997694726909911 0 -0.098524362227562057 0.035744340183224317 0 -0.08645931971955316 0.02325136753113614 0 -0.10370969952600501 0.019997694726909911 0 -0.08645931971955316 0.02325136753113614 0 -0.091682611010439896 0.0063963380850077774 0 -0.10370969952600501 0.019997694726909911 0 -0.1180188049733784 0.030804183747700629 0 -0.098524362227562057 0.035744340183224317 0 -0.10370969952600501 0.019997694726909911 0 -0.10877227824827949 0.0075748546359299482 0 -0.091682611010439896 0.0063963380850077774 0 -0.1029392013539359 -0.0085751277431150782 0 -0.10877227824827949 0.0075748546359299482 0 -0.091682611010439896 0.0063963380850077774 0 -0.10370969952600501 0.019997694726909911 0 -0.10877227824827949 0.0075748546359299482 0 -0.11835839359799651 0.016938700943610479 0 -0.1029392013539359 -0.0085751277431150782 0 -0.12735709500343681 0.004015926865657337 0 -0.10877227824827949 0.0075748546359299482 0 -0.12735709500343681 0.004015926865657337 0 -0.10877227824827949 0.0075748546359299482 0 -0.11835839359799651 0.016938700943610479 0 -0.1339340902388827 0.022300844741854581 0 -0.11835839359799651 0.016938700943610479 0 -0.1180188049733784 0.030804183747700629 0 -0.10370969952600501 0.019997694726909911 0 -0.11835839359799651 0.016938700943610479 0 -0.1180188049733784 0.030804183747700629 0 -0.1180188049733784 0.030804183747700629 0 -0.1128457876968547 0.048091259023394652 0 -0.098524362227562057 0.035744340183224317 0 -0.13626681081840961 0.042829268155062397 0 -0.1128457876968547 0.048091259023394652 0 -0.13626681081840961 0.042829268155062397 0 -0.1180188049733784 0.030804183747700629 0 -0.1128457876968547 0.048091259023394652 0 -0.13626681081840961 0.042829268155062397 0 -0.1128457876968547 0.048091259023394652 0 -0.1248745965026067 0.059896082918310993 0 -0.10785209906359081 0.065371441260914459 0 -0.1128457876968547 0.048091259023394652 0 -0.1248745965026067 0.059896082918310993 0 -0.1128457876968547 0.048091259023394652 0 -0.089424764575299687 0.053353249891726941 0 -0.089923560922876636 0.068178037636278263 0 -0.10785209906359081 0.065371441260914459 0 -0.089424764575299687 0.053353249891726941 0 -0.10785209906359081 0.065371441260914459 0 -0.1128457876968547 0.048091259023394652 0 -0.089424764575299687 0.053353249891726941 0 -0.1128457876968547 0.048091259023394652 0 -0.098524362227562057 0.035744340183224317 0 -0.089424764575299687 0.053353249891726941 0 -0.098524362227562057 0.035744340183224317 0 -0.080687796874281473 0.038968286178477703 0 -0.08645931971955316 0.02325136753113614 0 -0.098524362227562057 0.035744340183224317 0 -0.080687796874281473 0.038968286178477703 0 -0.089424764575299687 0.053353249891726941 0 -0.080687796874281473 0.038968286178477703 0 -0.089424764575299687 0.053353249891726941 0 -0.083186879645449088 0.059889597987781727 0 -0.075164799511626648 0.065372869601281192 0 -0.080687796874281473 0.038968286178477703 0 -0.083186879645449088 0.059889597987781727 0 -0.089923560922876636 0.068178037636278263 0 -0.089424764575299687 0.053353249891726941 0 -0.083186879645449088 0.059889597987781727 0 -0.075164799511626648 0.065372869601281192 0 -0.080687796874281473 0.038968286178477703 0 -0.071303082845968715 0.053347503409362687 0 -0.075164799511626648 0.065372869601281192 0 -0.080687796874281473 0.038968286178477703 0 -0.075164799511626648 0.065372869601281192 0 -0.070406408885084593 0.061857930521202607 0 -0.071303082845968715 0.053347503409362687 0 -0.071303082845968715 0.053347503409362687 0 -0.064856269609628314 0.055117702274744398 0 -0.065400139349222536 0.045420728471107522 0 -0.070406408885084593 0.061857930521202607 0 -0.071303082845968715 0.053347503409362687 0 -0.064856269609628314 0.055117702274744398 0 -0.070406408885084593 0.061857930521202607 0 -0.064856269609628314 0.055117702274744398 0 -0.059815066152941319 0.061788281472960463 0 -0.080687796874281473 0.038968286178477703 0 -0.065400139349222536 0.045420728471107522 0 -0.063264057366842208 0.031259222641012697 0 -0.080687796874281473 0.038968286178477703 0 -0.063264057366842208 0.031259222641012697 0 -0.073460039823911166 0.024685388153665749 0 -0.080687796874281473 0.038968286178477703 0 -0.071303082845968715 0.053347503409362687 0 -0.065400139349222536 0.045420728471107522 0 -0.063264057366842208 0.031259222641012697 0 -0.073460039823911166 0.024685388153665749 0 -0.061440697951084179 0.017621877449499421 0 -0.073460039823911166 0.024685388153665749 0 -0.076769634387976737 0.01135693610240161 0 -0.061440697951084179 0.017621877449499421 0 -0.080687796874281473 0.038968286178477703 0 -0.073460039823911166 0.024685388153665749 0 -0.08645931971955316 0.02325136753113614 0 -0.073460039823911166 0.024685388153665749 0 -0.08645931971955316 0.02325136753113614 0 -0.076769634387976737 0.01135693610240161 0 -0.08645931971955316 0.02325136753113614 0 -0.091682611010439896 0.0063963380850077774 0 -0.076769634387976737 0.01135693610240161 0 -0.091682611010439896 0.0063963380850077774 0 -0.078933949510919491 0.00072378658541613432 0 -0.076769634387976737 0.01135693610240161 0 -0.086097875964997059 -0.0058870606910941042 0 -0.091682611010439896 0.0063963380850077774 0 -0.078933949510919491 0.00072378658541613432 0 -0.078933949510919491 0.00072378658541613432 0 -0.076769634387976737 0.01135693610240161 0 -0.068462160169621672 0.0025537029525893409 0 -0.068462160169621672 0.0025537029525893409 0 -0.057836245250817257 0.0062936453779614283 0 -0.061440697951084179 0.017621877449499421 0 -0.076769634387976737 0.01135693610240161 0 -0.068462160169621672 0.0025537029525893409 0 -0.061440697951084179 0.017621877449499421 0 -0.057836245250817257 0.0062936453779614283 0 -0.061440697951084179 0.017621877449499421 0 -0.042678209040760022 0.019440128409622049 0 -0.057836245250817257 0.0062936453779614283 0 -0.042678209040760022 0.019440128409622049 0 -0.044352522143416888 0.0050416822031405977 0 -0.063264057366842208 0.031259222641012697 0 -0.042678209040760022 0.019440128409622049 0 -0.05195897498334151 0.039592758420259042 0 -0.063264057366842208 0.031259222641012697 0 -0.061440697951084179 0.017621877449499421 0 -0.042678209040760022 0.019440128409622049 0 -0.042678209040760022 0.019440128409622049 0 -0.038256592764973757 0.039174794321751791 0 -0.042678209040760022 0.019440128409622049 0 -0.038256592764973757 0.039174794321751791 0 -0.027511467414372541 0.03001296694831072 0 -0.042678209040760022 0.019440128409622049 0 -0.028180513839983729 0.018098474401369 0 -0.027511467414372541 0.03001296694831072 0 -0.042678209040760022 0.019440128409622049 0 -0.032770024037711037 0.0084985419153508525 0 -0.028180513839983729 0.018098474401369 0 -0.032770024037711037 0.0084985419153508525 0 -0.03614709390981162 0.0015378833132510439 0 -0.044352522143416888 0.0050416822031405977 0 -0.029539197120254941 -0.00051038393964639519 0 -0.032770024037711037 0.0084985419153508525 0 -0.03614709390981162 0.0015378833132510439 0 -0.042678209040760022 0.019440128409622049 0 -0.032770024037711037 0.0084985419153508525 0 -0.044352522143416888 0.0050416822031405977 0 -0.042969512877196837 0.063698159366550891 0 -0.047980875447113908 0.056604040506729722 0 -0.052166049838275927 0.062310195238599278 0 -0.047980875447113908 0.056604040506729722 0 -0.052166049838275927 0.062310195238599278 0 -0.055804220694704088 0.051985500715961808 0 -0.064856269609628314 0.055117702274744398 0 -0.059815066152941319 0.061788281472960463 0 -0.055804220694704088 0.051985500715961808 0 -0.052166049838275927 0.062310195238599278 0 -0.059815066152941319 0.061788281472960463 0 -0.055804220694704088 0.051985500715961808 0 -0.064856269609628314 0.055117702274744398 0 -0.065400139349222536 0.045420728471107522 0 -0.055804220694704088 0.051985500715961808 0 -0.047980875447113908 0.056604040506729722 0 -0.055804220694704088 0.051985500715961808 0 -0.046350630683546529 0.050276175962098407 0 -0.055804220694704088 0.051985500715961808 0 -0.05195897498334151 0.039592758420259042 0 -0.046350630683546529 0.050276175962098407 0 -0.065400139349222536 0.045420728471107522 0 -0.055804220694704088 0.051985500715961808 0 -0.05195897498334151 0.039592758420259042 0 -0.065400139349222536 0.045420728471107522 0 -0.063264057366842208 0.031259222641012697 0 -0.05195897498334151 0.039592758420259042 0 -0.042678209040760022 0.019440128409622049 0 -0.05195897498334151 0.039592758420259042 0 -0.038256592764973757 0.039174794321751791 0 -0.05195897498334151 0.039592758420259042 0 -0.038256592764973757 0.039174794321751791 0 -0.046350630683546529 0.050276175962098407 0 -0.038256592764973757 0.039174794321751791 0 -0.033834976489186493 0.058909460233881362 0 -0.038256592764973757 0.039174794321751791 0 -0.038513274033404883 0.055407770980391423 0 -0.033834976489186493 0.058909460233881362 0 -0.038256592764973757 0.039174794321751791 0 -0.046350630683546529 0.050276175962098407 0 -0.038513274033404883 0.055407770980391423 0 -0.038256592764973757 0.039174794321751791 0 -0.033834976489186493 0.058909460233881362 0 -0.02879531395286377 0.050132256585483953 0 -0.046350630683546529 0.050276175962098407 0 -0.038513274033404883 0.055407770980391423 0 -0.042914570065583427 0.057802329486214707 0 -0.036732086871232597 0.066761861307427367 0 -0.033834976489186493 0.058909460233881362 0 -0.038907572144486188 0.060810532415041758 0 -0.038513274033404883 0.055407770980391423 0 -0.033834976489186493 0.058909460233881362 0 -0.038513274033404883 0.055407770980391423 0 -0.033834976489186493 0.058909460233881362 0 -0.038907572144486188 0.060810532415041758 0 -0.042969512877196837 0.063698159366550891 0 -0.038907572144486188 0.060810532415041758 0 -0.042914570065583427 0.057802329486214707 0 -0.038513274033404883 0.055407770980391423 0 -0.038907572144486188 0.060810532415041758 0 -0.042914570065583427 0.057802329486214707 0 -0.047980875447113908 0.056604040506729722 0 -0.046350630683546529 0.050276175962098407 0 -0.042914570065583427 0.057802329486214707 0 -0.042969512877196837 0.063698159366550891 0 -0.047980875447113908 0.056604040506729722 0 -0.042914570065583427 0.057802329486214707 0 -0.033834976489186493 0.058909460233881362 0 -0.01963881101933795 0.057650575484614511 0 -0.02879531395286377 0.050132256585483953 0 -0.01963881101933795 0.057650575484614511 0 -0.02879531395286377 0.050132256585483953 0 -0.02345087553795689 0.044794196301688183 0 -0.01963881101933795 0.057650575484614511 0 -0.02345087553795689 0.044794196301688183 0 -0.012175026131353321 0.050402421608982242 0 -0.02345087553795689 0.044794196301688183 0 -0.014695186475719159 0.0359408453649432 0 -0.012175026131353321 0.050402421608982242 0 -0.038256592764973757 0.039174794321751791 0 -0.02879531395286377 0.050132256585483953 0 -0.02345087553795689 0.044794196301688183 0 -0.038256592764973757 0.039174794321751791 0 -0.02345087553795689 0.044794196301688183 0 -0.027511467414372541 0.03001296694831072 0 -0.02345087553795689 0.044794196301688183 0 -0.014695186475719159 0.0359408453649432 0 -0.027511467414372541 0.03001296694831072 0 -0.014695186475719159 0.0359408453649432 0 -0.0023331541944977092 0.045311556235899067 0 0.00074240361007229996 0.028778475488121531 0 -0.014695186475719159 0.0359408453649432 0 -0.0023331541944977092 0.045311556235899067 0 -0.012175026131353321 0.050402421608982242 0 -0.0023331541944977092 0.045311556235899067 0 -0.012175026131353321 0.050402421608982242 0 0.00079413703044923156 0.058803151297745167 0 -0.012175026131353321 0.050402421608982242 0 -0.0089029190745683329 0.062319161291970238 0 0.00079413703044923156 0.058803151297745167 0 -0.01963881101933795 0.057650575484614511 0 -0.012175026131353321 0.050402421608982242 0 -0.0089029190745683329 0.062319161291970238 0 -0.021996997598287969 0.010981086364913869 0 -0.02112675760807068 0.0030512678310729521 0 -0.0083058662928979787 0.012079608812324741 0 -0.021996997598287969 0.010981086364913869 0 -0.01661374249992489 0.02103319015209278 0 -0.0083058662928979787 0.012079608812324741 0 -0.021996997598287969 0.010981086364913869 0 -0.02112675760807068 0.0030512678310729521 0 -0.02631380729169577 0.0053104208567875946 0 -0.029539197120254941 -0.00051038393964639519 0 -0.02112675760807068 0.0030512678310729521 0 -0.02631380729169577 0.0053104208567875946 0 -0.029539197120254941 -0.00051038393964639519 0 -0.032770024037711037 0.0084985419153508525 0 -0.02631380729169577 0.0053104208567875946 0 -0.032770024037711037 0.0084985419153508525 0 -0.021996997598287969 0.010981086364913869 0 -0.02631380729169577 0.0053104208567875946 0 -0.032770024037711037 0.0084985419153508525 0 -0.021996997598287969 0.010981086364913869 0 -0.028180513839983729 0.018098474401369 0 -0.028180513839983729 0.018098474401369 0 -0.027511467414372541 0.03001296694831072 0 -0.01661374249992489 0.02103319015209278 0 -0.014695186475719159 0.0359408453649432 0 -0.027511467414372541 0.03001296694831072 0 -0.01661374249992489 0.02103319015209278 0 -0.021996997598287969 0.010981086364913869 0 -0.028180513839983729 0.018098474401369 0 -0.01661374249992489 0.02103319015209278 0 -0.01661374249992489 0.02103319015209278 0 0.00074240361007229996 0.028778475488121531 0 -0.0083058662928979787 0.012079608812324741 0 0.0060294939382754481 0.01286563290641534 0 0.00074240361007229996 0.028778475488121531 0 -0.014695186475719159 0.0359408453649432 0 -0.01661374249992489 0.02103319015209278 0 0.00074240361007229996 0.028778475488121531 0 -0.0083058662928979787 0.012079608812324741 0 0.00074240361007229996 0.028778475488121531 0 -0.01661374249992489 0.02103319015209278 0 -0.0083058662928979787 0.012079608812324741 0 0.00074240361007229996 0.028778475488121531 0 -0.0072764121498596901 -0.0036325873431357339 0 -0.0083058662928979787 0.012079608812324741 0 0.0012074066645448821 -0.00065723147797176382 0 -0.0072764121498596901 -0.0036325873431357339 0 -0.013607688627124061 -0.00178224205395049 0 -0.0083058662928979787 0.012079608812324741 0 -0.017354136195868258 -0.0046192578634720229 0 -0.0083058662928979787 0.012079608812324741 0 -0.017354136195868258 -0.0046192578634720229 0 -0.013607688627124061 -0.00178224205395049 0 -0.0083058662928979787 0.012079608812324741 0 -0.0083058662928979787 0.012079608812324741 0 0.0060294939382754481 0.01286563290641534 0 0.0012074066645448821 -0.00065723147797176382 0 -0.017354136195868258 -0.0046192578634720229 0 -0.02112675760807068 0.0030512678310729521 0 -0.0083058662928979787 0.012079608812324741 0 0.0060294939382754481 0.01286563290641534 0 0.0012074066645448821 -0.00065723147797176382 0 0.01265631079038235 -0.01012693536007268 0 0.0060294939382754481 0.01286563290641534 0 0.020311547060899309 0.014329649790385431 0 0.01265631079038235 -0.01012693536007268 0 0.00074240361007229996 0.028778475488121531 0 0.015746539320639769 0.024046632949657649 0 0.022626785018342459 0.038544513255683338 0 0.0060294939382754481 0.01286563290641534 0 0.00074240361007229996 0.028778475488121531 0 0.015746539320639769 0.024046632949657649 0 0.0060294939382754481 0.01286563290641534 0 0.015746539320639769 0.024046632949657649 0 0.020311547060899309 0.014329649790385431 0 0.015746539320639769 0.024046632949657649 0 0.029022466975609298 0.02571489330768258 0 0.020311547060899309 0.014329649790385431 0 0.015746539320639769 0.024046632949657649 0 0.029022466975609298 0.02571489330768258 0 0.022626785018342459 0.038544513255683338 0 0.020311547060899309 0.014329649790385431 0 0.034885408484197772 0.0062912350017927032 0 0.01265631079038235 -0.01012693536007268 0 0.029022466975609298 0.02571489330768258 0 0.020311547060899309 0.014329649790385431 0 0.034885408484197772 0.0062912350017927032 0 0.00079413703044923156 0.058803151297745167 0 0.01366790099406239 0.052632887419703241 0 0.0065236609159091173 0.071671444604676282 0 -0.0023331541944977092 0.045311556235899067 0 0.00079413703044923156 0.058803151297745167 0 0.01366790099406239 0.052632887419703241 0 0.00074240361007229996 0.028778475488121531 0 0.01366790099406239 0.052632887419703241 0 0.022626785018342459 0.038544513255683338 0 0.00074240361007229996 0.028778475488121531 0 0.022626785018342459 0.038544513255683338 0 -0.0023331541944977092 0.045311556235899067 0 0.00074240361007229996 0.028778475488121531 0 0.01366790099406239 0.052632887419703241 0 0.00074240361007229996 0.028778475488121531 0 0.01366790099406239 0.052632887419703241 0 0.029022466975609298 0.02571489330768258 0 0.022626785018342459 0.038544513255683338 0 0.037630953216902623 0.033668105561091018 0 0.01366790099406239 0.052632887419703241 0 0.022626785018342459 0.038544513255683338 0 0.025434983742737761 0.055249644843112657 0 0.022626785018342459 0.038544513255683338 0 0.025434983742737761 0.055249644843112657 0 0.034616451435572633 0.051242168749322393 0 0.025434983742737761 0.055249644843112657 0 0.034062632092931817 0.061255223706808547 0 0.02703491536905472 0.067401080742933134 0 0.01366790099406239 0.052632887419703241 0 0.025434983742737761 0.055249644843112657 0 0.02703491536905472 0.067401080742933134 0 0.034616451435572633 0.051242168749322393 0 0.044511166426612833 0.04831055102324476 0 0.060132464308973767 0.062986029428160187 0 0.034616451435572633 0.051242168749322393 0 0.060132464308973767 0.062986029428160187 0 0.044258496001147778 0.063884183083345675 0 0.034062632092931817 0.061255223706808547 0 0.034616451435572633 0.051242168749322393 0 0.044258496001147778 0.063884183083345675 0 0.025434983742737761 0.055249644843112657 0 0.034062632092931817 0.061255223706808547 0 0.034616451435572633 0.051242168749322393 0 0.022626785018342459 0.038544513255683338 0 0.044511166426612833 0.04831055102324476 0 0.022626785018342459 0.038544513255683338 0 0.034616451435572633 0.051242168749322393 0 0.044511166426612833 0.04831055102324476 0 0.022626785018342459 0.038544513255683338 0 0.044511166426612833 0.04831055102324476 0 0.037630953216902623 0.033668105561091018 0 0.044511166426612833 0.04831055102324476 0 0.037630953216902623 0.033668105561091018 0 0.0484135161167236 0.034205204957136963 0 0.0484135161167236 0.034205204957136963 0 0.060669767880595721 0.038134724015348051 0 0.0518117103670514 0.042737821036878322 0 0.0484135161167236 0.034205204957136963 0 0.060669767880595721 0.038134724015348051 0 0.057623658326613529 0.02352368721002385 0 0.060669767880595721 0.038134724015348051 0 0.0518117103670514 0.042737821036878322 0 0.059559274975242667 0.047504887075434543 0 0.044511166426612833 0.04831055102324476 0 0.0518117103670514 0.042737821036878322 0 0.059559274975242667 0.047504887075434543 0 0.044511166426612833 0.04831055102324476 0 0.0484135161167236 0.034205204957136963 0 0.0518117103670514 0.042737821036878322 0 0.044511166426612833 0.04831055102324476 0 0.066395547834883203 0.05807658879080619 0 0.060132464308973767 0.062986029428160187 0 0.034616451435572633 0.051242168749322393 0 0.060132464308973767 0.062986029428160187 0 0.044511166426612833 0.04831055102324476 0 0.066395547834883203 0.05807658879080619 0 0.044511166426612833 0.04831055102324476 0 0.059559274975242667 0.047504887075434543 0 0.066395547834883203 0.05807658879080619 0 0.034885408484197772 0.0062912350017927032 0 0.052968053050369737 0.0090809173488315582 0 0.042517259973231587 -0.011683923625132649 0 0.034885408484197772 0.0062912350017927032 0 0.043580831547224863 0.021565365261707499 0 0.052968053050369737 0.0090809173488315582 0 0.029022466975609298 0.02571489330768258 0 0.034885408484197772 0.0062912350017927032 0 0.043580831547224863 0.021565365261707499 0 0.029022466975609298 0.02571489330768258 0 0.037630953216902623 0.033668105561091018 0 0.043580831547224863 0.021565365261707499 0 0.037630953216902623 0.033668105561091018 0 0.0484135161167236 0.034205204957136963 0 0.043580831547224863 0.021565365261707499 0 0.057623658326613529 0.02352368721002385 0 0.052968053050369737 0.0090809173488315582 0 0.071708216805815503 0.016768608491387289 0 0.043580831547224863 0.021565365261707499 0 0.057623658326613529 0.02352368721002385 0 0.052968053050369737 0.0090809173488315582 0 0.0484135161167236 0.034205204957136963 0 0.043580831547224863 0.021565365261707499 0 0.057623658326613529 0.02352368721002385 0 0.052968053050369737 0.0090809173488315582 0 0.071708216805815503 0.016768608491387289 0 0.067492943165135169 -0.0019794682467893379 0 0.083930998993742512 0.0059737405228527038 0 0.071708216805815503 0.016768608491387289 0 0.067492943165135169 -0.0019794682467893379 0 0.083930998993742512 0.0059737405228527038 0 0.098495163759696414 0.0029673617968291321 0 0.094917995650245529 0.021722354499223519 0 0.083930998993742512 0.0059737405228527038 0 0.071708216805815503 0.016768608491387289 0 0.094917995650245529 0.021722354499223519 0 0.071708216805815503 0.016768608491387289 0 0.07449934060461412 0.03258063005354956 0 0.094917995650245529 0.021722354499223519 0 0.07449934060461412 0.03258063005354956 0 0.087237150257314613 0.037926204838731957 0 0.094917995650245529 0.021722354499223519 0 0.057623658326613529 0.02352368721002385 0 0.071708216805815503 0.016768608491387289 0 0.07449934060461412 0.03258063005354956 0 0.060669767880595721 0.038134724015348051 0 0.057623658326613529 0.02352368721002385 0 0.07449934060461412 0.03258063005354956 0 0.060669767880595721 0.038134724015348051 0 0.069155187538762042 0.045022305850501279 0 0.07449934060461412 0.03258063005354956 0 0.060669767880595721 0.038134724015348051 0 0.059559274975242667 0.047504887075434543 0 0.069155187538762042 0.045022305850501279 0 0.069155187538762042 0.045022305850501279 0 0.07449934060461412 0.03258063005354956 0 0.079692196512252927 0.044953406994506007 0 0.059559274975242667 0.047504887075434543 0 0.069155187538762042 0.045022305850501279 0 0.067326156772233525 0.050603546620565112 0 0.059559274975242667 0.047504887075434543 0 0.066395547834883203 0.05807658879080619 0 0.067326156772233525 0.050603546620565112 0 0.066395547834883203 0.05807658879080619 0 0.067326156772233525 0.050603546620565112 0 0.074194616740046182 0.051810404765518438 0 0.069155187538762042 0.045022305850501279 0 0.067326156772233525 0.050603546620565112 0 0.074194616740046182 0.051810404765518438 0 0.069155187538762042 0.045022305850501279 0 0.074194616740046182 0.051810404765518438 0 0.079692196512252927 0.044953406994506007 0 0.066395547834883203 0.05807658879080619 0 0.074194616740046182 0.051810404765518438 0 0.080343143758095259 0.058335218209008277 0 0.066395547834883203 0.05807658879080619 0 0.080343143758095259 0.058335218209008277 0 0.08827992924315356 0.067842626558367619 0 0.080343143758095259 0.058335218209008277 0 0.083306510346727383 0.05351440315152866 0 0.090416084875221875 0.058235299142909973 0 0.074194616740046182 0.051810404765518438 0 0.083306510346727383 0.05351440315152866 0 0.079692196512252927 0.044953406994506007 0 0.083306510346727383 0.05351440315152866 0 0.089760373586053266 0.048866493307206167 0 0.079692196512252927 0.044953406994506007 0 0.074194616740046182 0.051810404765518438 0 0.080343143758095259 0.058335218209008277 0 0.083306510346727383 0.05351440315152866 0 0.083306510346727383 0.05351440315152866 0 0.089760373586053266 0.048866493307206167 0 0.090416084875221875 0.058235299142909973 0 0.089760373586053266 0.048866493307206167 0 0.090416084875221875 0.058235299142909973 0 0.099395501669828634 0.055681054702382278 0 0.080343143758095259 0.058335218209008277 0 0.090416084875221875 0.058235299142909973 0 0.08827992924315356 0.067842626558367619 0 0.087237150257314613 0.037926204838731957 0 0.098930039005792711 0.04227996871225087 0 0.094917995650245529 0.021722354499223519 0 0.07449934060461412 0.03258063005354956 0 0.079692196512252927 0.044953406994506007 0 0.087237150257314613 0.037926204838731957 0 0.089760373586053266 0.048866493307206167 0 0.079692196512252927 0.044953406994506007 0 0.087237150257314613 0.037926204838731957 0 0.089760373586053266 0.048866493307206167 0 0.087237150257314613 0.037926204838731957 0 0.098930039005792711 0.04227996871225087 0 0.10894092886672049 0.033503019923715648 0 0.098930039005792711 0.04227996871225087 0 0.11550376979223601 0.054551475820320147 0 0.10894092886672049 0.033503019923715648 0 0.098930039005792711 0.04227996871225087 0 0.094917995650245529 0.021722354499223519 0 0.098930039005792711 0.04227996871225087 0 0.099395501669828634 0.055681054702382278 0 0.11550376979223601 0.054551475820320147 0 0.099395501669828634 0.055681054702382278 0 0.11550376979223601 0.054551475820320147 0 0.10561354398445311 0.069921878226714862 0 0.090416084875221875 0.058235299142909973 0 0.099395501669828634 0.055681054702382278 0 0.095618088847860577 0.065038419849084594 0 0.089760373586053266 0.048866493307206167 0 0.098930039005792711 0.04227996871225087 0 0.099395501669828634 0.055681054702382278 0 0.10894092886672049 0.033503019923715648 0 0.11961069471150609 0.02296590295220987 0 0.12977361784467401 0.039215218793308727 0 0.10894092886672049 0.033503019923715648 0 0.11550376979223601 0.054551475820320147 0 0.12977361784467401 0.039215218793308727 0 0.11961069471150609 0.02296590295220987 0 0.1158546052028349 0.0064685721448778594 0 0.094917995650245529 0.021722354499223519 0 0.11961069471150609 0.02296590295220987 0 0.1158546052028349 0.0064685721448778594 0 0.13894824890776639 0.02136224913872127 0 0.1158546052028349 0.0064685721448778594 0 0.098495163759696414 0.0029673617968291321 0 0.094917995650245529 0.021722354499223519 0 0.10894092886672049 0.033503019923715648 0 0.11961069471150609 0.02296590295220987 0 0.094917995650245529 0.021722354499223519 0 0.097728221435088053 0.099184528615223033 0 0.110275064223293 0.10236359857942121 0 0.11116449005577619 0.086473750785835857 0 0.099894961061174667 0.1104201015940532 0 0.11150799601301251 0.1117412241471519 0 0.110275064223293 0.10236359857942121 0 0.097728221435088053 0.099184528615223033 0 0.099894961061174667 0.1104201015940532 0 0.110275064223293 0.10236359857942121 0 0.097728221435088053 0.099184528615223033 0 0.099894961061174667 0.1104201015940532 0 0.084925795867796111 0.1103515185161017 0 0.099894961061174667 0.1104201015940532 0 0.096984900528893664 0.1212489081817222 0 0.084925795867796111 0.1103515185161017 0 0.099894961061174667 0.1104201015940532 0 0.096984900528893664 0.1212489081817222 0 0.10712684862241641 0.1210429748963526 0 0.096984900528893664 0.1212489081817222 0 0.10712684862241641 0.1210429748963526 0 0.10589272808503949 0.13156516273042271 0 0.099894961061174667 0.1104201015940532 0 0.10712684862241641 0.1210429748963526 0 0.11150799601301251 0.1117412241471519 0 0.10712684862241641 0.1210429748963526 0 0.11150799601301251 0.1117412241471519 0 0.1187293914863337 0.1182846474287873 0 0.11150799601301251 0.1117412241471519 0 0.1187293914863337 0.1182846474287873 0 0.1197878353292403 0.1092484053650479 0 0.10712684862241641 0.1210429748963526 0 0.1187293914863337 0.1182846474287873 0 0.114987521205969 0.1268010028982309 0 0.1187293914863337 0.1182846474287873 0 0.12813823657366311 0.12049833089676459 0 0.12624189261331301 0.1140678077034443 0 0.1187293914863337 0.1182846474287873 0 0.12212988809696081 0.1249307776834532 0 0.12813823657366311 0.12049833089676459 0 0.1187293914863337 0.1182846474287873 0 0.12212988809696081 0.1249307776834532 0 0.114987521205969 0.1268010028982309 0 0.1187293914863337 0.1182846474287873 0 0.1197878353292403 0.1092484053650479 0 0.12624189261331301 0.1140678077034443 0 0.1216961693062274 0.1020981758197984 0 0.110275064223293 0.10236359857942121 0 0.11116449005577619 0.086473750785835857 0 0.1197878353292403 0.1092484053650479 0 0.1216961693062274 0.1020981758197984 0 0.1302764983332621 0.10693497851168419 0 0.1216961693062274 0.1020981758197984 0 0.11116449005577619 0.086473750785835857 0 0.13668050292917741 0.098217611464673699 0 0.1197878353292403 0.1092484053650479 0 0.1216961693062274 0.1020981758197984 0 0.110275064223293 0.10236359857942121 0 0.11150799601301251 0.1117412241471519 0 0.1197878353292403 0.1092484053650479 0 0.110275064223293 0.10236359857942121 0 0.11116449005577619 0.086473750785835857 0 0.1207366242219714 0.074251990558816788 0 0.1300820653953097 0.084166932106396392 0 0.11116449005577619 0.086473750785835857 0 0.13668050292917741 0.098217611464673699 0 0.11116449005577619 0.086473750785835857 0 0.1207366242219714 0.074251990558816788 0 0.10561354398445311 0.069921878226714862 0 0.11550376979223601 0.054551475820320147 0 0.1207366242219714 0.074251990558816788 0 0.13255022158949201 0.068763676371196639 0 0.11550376979223601 0.054551475820320147 0 0.1207366242219714 0.074251990558816788 0 0.10561354398445311 0.069921878226714862 0 0.11116449005577619 0.086473750785835857 0 0.10561354398445311 0.069921878226714862 0 0.085648477182374977 0.074729890106998029 0 0.10561354398445311 0.069921878226714862 0 0.095618088847860577 0.065038419849084594 0 0.085648477182374977 0.074729890106998029 0 0.099395501669828634 0.055681054702382278 0 0.10561354398445311 0.069921878226714862 0 0.095618088847860577 0.065038419849084594 0 0.11116449005577619 0.086473750785835857 0 0.085648477182374977 0.074729890106998029 0 0.11116449005577619 0.086473750785835857 0 0.090808031879269946 0.087622927320568048 0 0.085648477182374977 0.074729890106998029 0 0.097728221435088053 0.099184528615223033 0 0.11116449005577619 0.086473750785835857 0 0.090808031879269946 0.087622927320568048 0 0.097728221435088053 0.099184528615223033 0 0.090808031879269946 0.087622927320568048 0 0.080235742217082393 0.093435287859391092 0 0.090808031879269946 0.087622927320568048 0 0.078675001300488379 0.083882301042573534 0 0.085648477182374977 0.074729890106998029 0 0.090808031879269946 0.087622927320568048 0 0.078675001300488379 0.083882301042573534 0 0.080235742217082393 0.093435287859391092 0 0.066395547834883203 0.05807658879080619 0 0.08827992924315356 0.067842626558367619 0 0.085648477182374977 0.074729890106998029 0 0.095618088847860577 0.065038419849084594 0 0.08827992924315356 0.067842626558367619 0 0.085648477182374977 0.074729890106998029 0 0.090416084875221875 0.058235299142909973 0 0.095618088847860577 0.065038419849084594 0 0.08827992924315356 0.067842626558367619 0 0.066395547834883203 0.05807658879080619 0 0.085648477182374977 0.074729890106998029 0 0.060132464308973767 0.062986029428160187 0 0.066395547834883203 0.05807658879080619 0 0.08827992924315356 0.067842626558367619 0 0.085648477182374977 0.074729890106998029 0 0.068637102026180674 0.07792917868559901 0 0.060132464308973767 0.062986029428160187 0 0.085648477182374977 0.074729890106998029 0 0.060132464308973767 0.062986029428160187 0 0.078675001300488379 0.083882301042573534 0 0.085648477182374977 0.074729890106998029 0 0.068637102026180674 0.07792917868559901 0 0.080235742217082393 0.093435287859391092 0 0.069503799956795384 0.087722797055870286 0 0.068523875558259784 0.095111972458496966 0 0.078675001300488379 0.083882301042573534 0 0.080235742217082393 0.093435287859391092 0 0.069503799956795384 0.087722797055870286 0 0.078675001300488379 0.083882301042573534 0 0.068637102026180674 0.07792917868559901 0 0.069503799956795384 0.087722797055870286 0 0.068637102026180674 0.07792917868559901 0 0.069503799956795384 0.087722797055870286 0 0.060111091978902922 0.083782113849914977 0 0.069503799956795384 0.087722797055870286 0 0.06135777996986308 0.093915161513068182 0 0.060111091978902922 0.083782113849914977 0 0.069503799956795384 0.087722797055870286 0 0.068523875558259784 0.095111972458496966 0 0.06135777996986308 0.093915161513068182 0 0.068523875558259784 0.095111972458496966 0 0.071520258741129425 0.10189571548122769 0 0.062413973273008162 0.1018934272394761 0 0.068523875558259784 0.095111972458496966 0 0.062413973273008162 0.1018934272394761 0 0.06135777996986308 0.093915161513068182 0 0.071520258741129425 0.10189571548122769 0 0.072821304814728441 0.1108529925529516 0 0.063718101814298073 0.11016590081819259 0 0.071520258741129425 0.10189571548122769 0 0.063718101814298073 0.11016590081819259 0 0.062413973273008162 0.1018934272394761 0 0.071520258741129425 0.10189571548122769 0 0.084925795867796111 0.1103515185161017 0 0.072821304814728441 0.1108529925529516 0 0.080235742217082393 0.093435287859391092 0 0.068523875558259784 0.095111972458496966 0 0.071520258741129425 0.10189571548122769 0 0.097728221435088053 0.099184528615223033 0 0.080235742217082393 0.093435287859391092 0 0.084925795867796111 0.1103515185161017 0 0.080235742217082393 0.093435287859391092 0 0.071520258741129425 0.10189571548122769 0 0.084925795867796111 0.1103515185161017 0 0.084925795867796111 0.1103515185161017 0 0.074154959480044275 0.1204842858357125 0 0.087075880893963842 0.12621803440601359 0 0.096984900528893664 0.1212489081817222 0 0.084925795867796111 0.1103515185161017 0 0.087075880893963842 0.12621803440601359 0 0.084925795867796111 0.1103515185161017 0 0.074154959480044275 0.1204842858357125 0 0.072821304814728441 0.1108529925529516 0 0.074154959480044275 0.1204842858357125 0 0.072821304814728441 0.1108529925529516 0 0.063718101814298073 0.11016590081819259 0 0.074154959480044275 0.1204842858357125 0 0.063718101814298073 0.11016590081819259 0 0.060124536552058239 0.11864948812996751 0 0.074154959480044275 0.1204842858357125 0 0.060124536552058239 0.11864948812996751 0 0.061109117960118017 0.12720913792676911 0 0.060124536552058239 0.11864948812996751 0 0.052595679859244633 0.1236025024456274 0 0.054913207086597561 0.11271600588853189 0 0.060124536552058239 0.11864948812996751 0 0.052595679859244633 0.1236025024456274 0 0.061109117960118017 0.12720913792676911 0 0.052595679859244633 0.1236025024456274 0 0.054913207086597561 0.11271600588853189 0 0.046771683079868627 0.1089772416004138 0 0.063718101814298073 0.11016590081819259 0 0.060124536552058239 0.11864948812996751 0 0.054913207086597561 0.11271600588853189 0 0.063718101814298073 0.11016590081819259 0 0.062413973273008162 0.1018934272394761 0 0.053620768430252298 0.1031656988462608 0 0.063718101814298073 0.11016590081819259 0 0.054913207086597561 0.11271600588853189 0 0.053620768430252298 0.1031656988462608 0 0.06135777996986308 0.093915161513068182 0 0.053620768430252298 0.1031656988462608 0 0.051535176025136201 0.090416251810209708 0 0.062413973273008162 0.1018934272394761 0 0.06135777996986308 0.093915161513068182 0 0.053620768430252298 0.1031656988462608 0 0.053620768430252298 0.1031656988462608 0 0.042875633238578528 0.09739353282270094 0 0.051535176025136201 0.090416251810209708 0 0.053620768430252298 0.1031656988462608 0 0.046771683079868627 0.1089772416004138 0 0.042875633238578528 0.09739353282270094 0 0.054913207086597561 0.11271600588853189 0 0.053620768430252298 0.1031656988462608 0 0.046771683079868627 0.1089772416004138 0 0.046771683079868627 0.1089772416004138 0 0.042875633238578528 0.09739353282270094 0 0.034382595390138257 0.1099700727945534 0 0.042875633238578528 0.09739353282270094 0 0.034382595390138257 0.1099700727945534 0 0.030708755379597181 0.088685576768743155 0 0.034382595390138257 0.1099700727945534 0 0.030708755379597181 0.088685576768743155 0 0.052595679859244633 0.1236025024456274 0 0.046771683079868627 0.1089772416004138 0 0.034382595390138257 0.1099700727945534 0 0.034382595390138257 0.1099700727945534 0 0.02520709702204247 0.1232263280856261 0 0.037354296692750887 0.12718670835402709 0 0.052595679859244633 0.1236025024456274 0 0.034382595390138257 0.1099700727945534 0 0.037354296692750887 0.12718670835402709 0 0.034382595390138257 0.1099700727945534 0 0.037354296692750887 0.12718670835402709 0 0.052595679859244633 0.1236025024456274 0 0.034382595390138257 0.1099700727945534 0 0.060132464308973767 0.062986029428160187 0 0.051537231586459821 0.0703604747810012 0 0.044258496001147778 0.063884183083345675 0 0.051537231586459821 0.0703604747810012 0 0.045053238281461433 0.071665999821029613 0 0.044258496001147778 0.063884183083345675 0 0.060132464308973767 0.062986029428160187 0 0.058160070023191839 0.074213970699792686 0 0.051537231586459821 0.0703604747810012 0 0.068637102026180674 0.07792917868559901 0 0.060132464308973767 0.062986029428160187 0 0.058160070023191839 0.074213970699792686 0 0.051537231586459821 0.0703604747810012 0 0.049495561811348857 0.078896267932753172 0 0.045053238281461433 0.071665999821029613 0 0.058160070023191839 0.074213970699792686 0 0.051537231586459821 0.0703604747810012 0 0.049495561811348857 0.078896267932753172 0 0.049495561811348857 0.078896267932753172 0 0.051535176025136201 0.090416251810209708 0 0.041750220721871581 0.085344735896560275 0 0.049495561811348857 0.078896267932753172 0 0.060111091978902922 0.083782113849914977 0 0.051535176025136201 0.090416251810209708 0 0.068637102026180674 0.07792917868559901 0 0.058160070023191839 0.074213970699792686 0 0.060111091978902922 0.083782113849914977 0 0.058160070023191839 0.074213970699792686 0 0.049495561811348857 0.078896267932753172 0 0.060111091978902922 0.083782113849914977 0 0.06135777996986308 0.093915161513068182 0 0.060111091978902922 0.083782113849914977 0 0.051535176025136201 0.090416251810209708 0 0.042875633238578528 0.09739353282270094 0 0.051535176025136201 0.090416251810209708 0 0.041750220721871581 0.085344735896560275 0 0.042875633238578528 0.09739353282270094 0 0.041750220721871581 0.085344735896560275 0 0.030708755379597181 0.088685576768743155 0 0.041750220721871581 0.085344735896560275 0 0.037489048909448763 0.07466528487264068 0 0.030708755379597181 0.088685576768743155 0 0.049495561811348857 0.078896267932753172 0 0.041750220721871581 0.085344735896560275 0 0.037489048909448763 0.07466528487264068 0 0.037489048909448763 0.07466528487264068 0 0.02703491536905472 0.067401080742933134 0 0.030708755379597181 0.088685576768743155 0 0.049495561811348857 0.078896267932753172 0 0.045053238281461433 0.071665999821029613 0 0.037489048909448763 0.07466528487264068 0 0.045053238281461433 0.071665999821029613 0 0.037489048909448763 0.07466528487264068 0 0.037579666130808903 0.067774354445351542 0 0.034062632092931817 0.061255223706808547 0 0.037579666130808903 0.067774354445351542 0 0.02703491536905472 0.067401080742933134 0 0.037489048909448763 0.07466528487264068 0 0.037579666130808903 0.067774354445351542 0 0.02703491536905472 0.067401080742933134 0 0.034062632092931817 0.061255223706808547 0 0.037579666130808903 0.067774354445351542 0 0.044258496001147778 0.063884183083345675 0 0.045053238281461433 0.071665999821029613 0 0.037579666130808903 0.067774354445351542 0 0.044258496001147778 0.063884183083345675 0 0.02703491536905472 0.067401080742933134 0 0.030708755379597181 0.088685576768743155 0 0.01366790099406239 0.052632887419703241 0 0.026593398378051959 0.076487299351285121 0 0.01366790099406239 0.052632887419703241 0 0.02703491536905472 0.067401080742933134 0 0.026593398378051959 0.076487299351285121 0 0.02703491536905472 0.067401080742933134 0 0.026593398378051959 0.076487299351285121 0 0.030708755379597181 0.088685576768743155 0 0.01366790099406239 0.052632887419703241 0 0.026593398378051959 0.076487299351285121 0 0.01611389888654503 0.070322973248010373 0 0.026593398378051959 0.076487299351285121 0 0.01611389888654503 0.070322973248010373 0 0.01767063525815666 0.080500261616376856 0 0.01767063525815666 0.080500261616376856 0 0.030708755379597181 0.088685576768743155 0 0.011643404763696401 0.092949868607662828 0 0.026593398378051959 0.076487299351285121 0 0.01767063525815666 0.080500261616376856 0 0.030708755379597181 0.088685576768743155 0 0.01767063525815666 0.080500261616376856 0 0.011643404763696401 0.092949868607662828 0 0.0065236609159091173 0.071671444604676282 0 -0.01109578586274463 0.07592966442077155 0 0.011643404763696401 0.092949868607662828 0 0.0065236609159091173 0.071671444604676282 0 -0.01109578586274463 0.07592966442077155 0 0.011643404763696401 0.092949868607662828 0 0.01366790099406239 0.052632887419703241 0 0.01611389888654503 0.070322973248010373 0 0.0065236609159091173 0.071671444604676282 0 0.01611389888654503 0.070322973248010373 0 0.01767063525815666 0.080500261616376856 0 0.0065236609159091173 0.071671444604676282 0 -0.0031702267477386531 0.067180855403790804 0 0.00079413703044923156 0.058803151297745167 0 0.0065236609159091173 0.071671444604676282 0 0.034382595390138257 0.1099700727945534 0 0.02520709702204247 0.1232263280856261 0 0.01356063639681436 0.11371506303709419 0 0.02520709702204247 0.1232263280856261 0 0.01356063639681436 0.11371506303709419 0 0.011098566836083609 0.13484946890849181 0 0.034382595390138257 0.1099700727945534 0 0.011643404763696401 0.092949868607662828 0 0.01356063639681436 0.11371506303709419 0 0.034382595390138257 0.1099700727945534 0 0.011643404763696401 0.092949868607662828 0 0.034382595390138257 0.1099700727945534 0 0.030708755379597181 0.088685576768743155 0 0.011643404763696401 0.092949868607662828 0 -0.0040088977147468936 0.097024336429998151 0 0.011643404763696401 0.092949868607662828 0 0.0025937760044158291 0.1064596481343341 0 0.011643404763696401 0.092949868607662828 0 0.0025937760044158291 0.1064596481343341 0 0.01356063639681436 0.11371506303709419 0 -0.007175360702145514 0.1155930690216506 0 0.0025937760044158291 0.1064596481343341 0 0.01356063639681436 0.11371506303709419 0 -0.007175360702145514 0.1155930690216506 0 0.01356063639681436 0.11371506303709419 0 0.011098566836083609 0.13484946890849181 0 -0.007175360702145514 0.1155930690216506 0 0.011098566836083609 0.13484946890849181 0 0.02520709702204247 0.1232263280856261 0 0.011098566836083609 0.13484946890849181 0 0.028759663239593541 0.13617761485890201 0 0.02520709702204247 0.1232263280856261 0 0.028759663239593541 0.13617761485890201 0 0.037354296692750887 0.12718670835402709 0 0.011098566836083609 0.13484946890849181 0 0.029372494374312729 0.15410586879533311 0 0.013538337341477229 0.1636201682865295 0 0.011098566836083609 0.13484946890849181 0 0.028759663239593541 0.13617761485890201 0 0.029372494374312729 0.15410586879533311 0 0.011098566836083609 0.13484946890849181 0 0.029372494374312729 0.15410586879533311 0 -0.0048034666842798916 0.1614245706846468 0 0.011098566836083609 0.13484946890849181 0 0.013538337341477229 0.1636201682865295 0 -0.0057956805663459468 0.1892940575843915 0 -0.0048034666842798916 0.1614245706846468 0 0.013538337341477229 0.1636201682865295 0 -0.0057956805663459468 0.1892940575843915 0 0.013538337341477229 0.1636201682865295 0 0.020045678312652242 0.18090880435863019 0 -0.0057956805663459468 0.1892940575843915 0 0.020045678312652242 0.18090880435863019 0 0.029372494374312729 0.15410586879533311 0 0.013538337341477229 0.1636201682865295 0 0.020045678312652242 0.18090880435863019 0 0.029372494374312729 0.15410586879533311 0 0.045887037191650451 0.17252355113286891 0 0.04813315871709322 0.1541455757588851 0 0.029372494374312729 0.15410586879533311 0 0.020045678312652242 0.18090880435863019 0 0.045887037191650451 0.17252355113286891 0 0.020045678312652242 0.18090880435863019 0 0.045887037191650451 0.17252355113286891 0 0.020045678312652242 0.18090880435863019 0 0.045887037191650451 0.17252355113286891 0 0.041991232206495782 0.1919910870650737 0 0.045887037191650451 0.17252355113286891 0 0.060802696405823108 0.1787365445376432 0 0.041991232206495782 0.1919910870650737 0 0.045887037191650451 0.17252355113286891 0 0.071728396070648653 0.1641382979071076 0 0.045887037191650451 0.17252355113286891 0 0.060802696405823108 0.1787365445376432 0 0.071728396070648653 0.1641382979071076 0 0.045887037191650451 0.17252355113286891 0 0.059657673584757237 0.15824269734654939 0 0.04813315871709322 0.1541455757588851 0 0.045887037191650451 0.17252355113286891 0 0.059657673584757237 0.15824269734654939 0 0.071728396070648653 0.1641382979071076 0 0.059657673584757237 0.15824269734654939 0 0.04813315871709322 0.1541455757588851 0 0.060329678829100349 0.1474246815113264 0 0.04813315871709322 0.1541455757588851 0 0.050215372913412007 0.1458935282758238 0 0.060329678829100349 0.1474246815113264 0 0.050215372913412007 0.1458935282758238 0 0.060329678829100349 0.1474246815113264 0 0.052072656112092337 0.13760051191958289 0 0.050215372913412007 0.1458935282758238 0 0.052072656112092337 0.13760051191958289 0 0.040325997995362128 0.14440334391350099 0 0.060329678829100349 0.1474246815113264 0 0.062159468211553673 0.13737243366585769 0 0.052072656112092337 0.13760051191958289 0 0.062159468211553673 0.13737243366585769 0 0.054733357378362921 0.13083888414419281 0 0.052072656112092337 0.13760051191958289 0 0.052595679859244633 0.1236025024456274 0 0.054733357378362921 0.13083888414419281 0 0.061109117960118017 0.12720913792676911 0 0.062159468211553673 0.13737243366585769 0 0.054733357378362921 0.13083888414419281 0 0.061109117960118017 0.12720913792676911 0 0.052595679859244633 0.1236025024456274 0 0.054733357378362921 0.13083888414419281 0 0.046346625143134958 0.1312929959830558 0 0.054733357378362921 0.13083888414419281 0 0.052072656112092337 0.13760051191958289 0 0.046346625143134958 0.1312929959830558 0 0.037354296692750887 0.12718670835402709 0 0.040325997995362128 0.14440334391350099 0 0.046346625143134958 0.1312929959830558 0 0.037354296692750887 0.12718670835402709 0 0.040325997995362128 0.14440334391350099 0 0.028759663239593541 0.13617761485890201 0 0.037354296692750887 0.12718670835402709 0 0.040325997995362128 0.14440334391350099 0 0.052072656112092337 0.13760051191958289 0 0.046346625143134958 0.1312929959830558 0 0.040325997995362128 0.14440334391350099 0 0.052595679859244633 0.1236025024456274 0 0.046346625143134958 0.1312929959830558 0 0.037354296692750887 0.12718670835402709 0 0.028759663239593541 0.13617761485890201 0 0.029372494374312729 0.15410586879533311 0 0.040325997995362128 0.14440334391350099 0 0.029372494374312729 0.15410586879533311 0 0.04813315871709322 0.1541455757588851 0 0.040325997995362128 0.14440334391350099 0 0.04813315871709322 0.1541455757588851 0 0.050215372913412007 0.1458935282758238 0 0.040325997995362128 0.14440334391350099 0 0.025149977659741599 0.24684982625080901 0 0.00014186162909880781 0.2338185852574263 0 0.02177620002751179 0.22559840920251981 0 0.025149977659741599 0.24684982625080901 0 0.00014186162909880781 0.2338185852574263 0 0.025149977659741599 0.24684982625080901 0 0.00014186162909880781 0.2338185852574263 0 0.0073806355134042019 0.25529449578482938 0 0.00014186162909880781 0.2338185852574263 0 0.02177620002751179 0.22559840920251981 0 0.0090806704795409685 0.20996839310177981 0 0.025149977659741599 0.24684982625080901 0 0.02177620002751179 0.22559840920251981 0 0.039960986899899173 0.22780444499479169 0 0.02177620002751179 0.22559840920251981 0 0.0090806704795409685 0.20996839310177981 0 0.034547503469278373 0.20955079640779209 0 0.0090806704795409685 0.20996839310177981 0 0.02162293693503077 0.1981024475624624 0 0.034547503469278373 0.20955079640779209 0 -0.0057956805663459468 0.1892940575843915 0 0.0090806704795409685 0.20996839310177981 0 0.02162293693503077 0.1981024475624624 0 -0.0057956805663459468 0.1892940575843915 0 0.020045678312652242 0.18090880435863019 0 0.02162293693503077 0.1981024475624624 0 0.020045678312652242 0.18090880435863019 0 0.02162293693503077 0.1981024475624624 0 0.041991232206495782 0.1919910870650737 0 0.02162293693503077 0.1981024475624624 0 0.041991232206495782 0.1919910870650737 0 0.034547503469278373 0.20955079640779209 0 0.041991232206495782 0.1919910870650737 0 0.05849467095877426 0.1965416733816682 0 0.050764695011206777 0.20916964222725651 0 0.060802696405823108 0.1787365445376432 0 0.041991232206495782 0.1919910870650737 0 0.05849467095877426 0.1965416733816682 0 0.050764695011206777 0.20916964222725651 0 0.066981886553135278 0.20878848804672309 0 0.05849467095877426 0.1965416733816682 0 0.050764695011206777 0.20916964222725651 0 0.066981886553135278 0.20878848804672309 0 0.050764695011206777 0.20916964222725651 0 0.061514006406540499 0.23071042489022231 0 0.066981886553135278 0.20878848804672309 0 0.050764695011206777 0.20916964222725651 0 0.034547503469278373 0.20955079640779209 0 0.039960986899899173 0.22780444499479169 0 0.050764695011206777 0.20916964222725651 0 0.034547503469278373 0.20955079640779209 0 0.041991232206495782 0.1919910870650737 0 0.050764695011206777 0.20916964222725651 0 0.034547503469278373 0.20955079640779209 0 0.02177620002751179 0.22559840920251981 0 0.034547503469278373 0.20955079640779209 0 0.039960986899899173 0.22780444499479169 0 0.039960986899899173 0.22780444499479169 0 0.061514006406540499 0.23071042489022231 0 0.045472231705318063 0.24424317023843681 0 0.050764695011206777 0.20916964222725651 0 0.039960986899899173 0.22780444499479169 0 0.061514006406540499 0.23071042489022231 0 0.061514006406540499 0.23071042489022231 0 0.056046126259945157 0.25263236173372139 0 0.061514006406540499 0.23071042489022231 0 0.056046126259945157 0.25263236173372139 0 0.067905867336300579 0.25358800162702 0 0.061514006406540499 0.23071042489022231 0 0.045472231705318063 0.24424317023843681 0 0.056046126259945157 0.25263236173372139 0 0.025149977659741599 0.24684982625080901 0 0.039960986899899173 0.22780444499479169 0 0.045472231705318063 0.24424317023843681 0 0.092857250133516089 0.24175825718487831 0 0.078525547080241467 0.2465942846531784 0 0.093798877441032588 0.2579700649065903 0 0.092857250133516089 0.24175825718487831 0 0.078525547080241467 0.2465942846531784 0 0.081986142109724491 0.22560265144644431 0 0.061514006406540499 0.23071042489022231 0 0.078525547080241467 0.2465942846531784 0 0.067905867336300579 0.25358800162702 0 0.061514006406540499 0.23071042489022231 0 0.078525547080241467 0.2465942846531784 0 0.081986142109724491 0.22560265144644431 0 0.061514006406540499 0.23071042489022231 0 0.081986142109724491 0.22560265144644431 0 0.066981886553135278 0.20878848804672309 0 0.061514006406540499 0.23071042489022231 0 0.066981886553135278 0.20878848804672309 0 0.081986142109724491 0.22560265144644431 0 0.09236794217301933 0.20819183719001669 0 0.066981886553135278 0.20878848804672309 0 0.09236794217301933 0.20819183719001669 0 0.066981886553135278 0.20878848804672309 0 0.09236794217301933 0.20819183719001669 0 0.066981886553135278 0.20878848804672309 0 0.071445073857882777 0.19089458628000441 0 0.060802696405823108 0.1787365445376432 0 0.05849467095877426 0.1965416733816682 0 0.071445073857882777 0.19089458628000441 0 0.066981886553135278 0.20878848804672309 0 0.071445073857882777 0.19089458628000441 0 0.05849467095877426 0.1965416733816682 0 0.066981886553135278 0.20878848804672309 0 0.071445073857882777 0.19089458628000441 0 0.09236794217301933 0.20819183719001669 0 0.071445073857882777 0.19089458628000441 0 0.086464584236575506 0.1862285865309723 0 0.09236794217301933 0.20819183719001669 0 0.086464584236575506 0.1862285865309723 0 0.1023855527362314 0.18749689463882899 0 0.09236794217301933 0.20819183719001669 0 0.11775399779290339 0.20759518633331239 0 0.1023855527362314 0.18749689463882899 0 0.11775399779290339 0.20759518633331239 0 0.1023855527362314 0.18749689463882899 0 0.12550986450034471 0.186594373040398 0 0.09236794217301933 0.20819183719001669 0 0.11775399779290339 0.20759518633331239 0 0.09236794217301933 0.20819183719001669 0 0.11775399779290339 0.20759518633331239 0 0.10906069526472741 0.22998953009969161 0 0.092857250133516089 0.24175825718487831 0 0.081986142109724491 0.22560265144644431 0 0.10906069526472741 0.22998953009969161 0 0.081986142109724491 0.22560265144644431 0 0.09236794217301933 0.20819183719001669 0 0.10906069526472741 0.22998953009969161 0 0.11775399779290339 0.20759518633331239 0 0.10906069526472741 0.22998953009969161 0 0.1382648444377183 0.22719855966067881 0 0.10906069526472741 0.22998953009969161 0 0.12787711237058769 0.24521089126939841 0 0.1100607559553454 0.25396994184181759 0 0.092857250133516089 0.24175825718487831 0 0.10906069526472741 0.22998953009969161 0 0.1100607559553454 0.25396994184181759 0 0.081151633673542972 0.15313158297098389 0 0.083920606388658545 0.14050817004821939 0 0.0975697549496468 0.15575304468134629 0 0.081151633673542972 0.15313158297098389 0 0.083920606388658545 0.14050817004821939 0 0.071387777285217918 0.15212681924726251 0 0.074154959480044275 0.1204842858357125 0 0.087075880893963842 0.12621803440601359 0 0.083920606388658545 0.14050817004821939 0 0.087075880893963842 0.12621803440601359 0 0.083920606388658545 0.14050817004821939 0 0.097906888154765004 0.1362305538396491 0 0.062159468211553673 0.13737243366585769 0 0.061109117960118017 0.12720913792676911 0 0.083920606388658545 0.14050817004821939 0 0.074154959480044275 0.1204842858357125 0 0.061109117960118017 0.12720913792676911 0 0.083920606388658545 0.14050817004821939 0 0.061109117960118017 0.12720913792676911 0 0.083920606388658545 0.14050817004821939 0 0.062159468211553673 0.13737243366585769 0 0.083920606388658545 0.14050817004821939 0 0.069449382678632612 0.1443580261181665 0 0.060329678829100349 0.1474246815113264 0 0.062159468211553673 0.13737243366585769 0 0.069449382678632612 0.1443580261181665 0 0.060329678829100349 0.1474246815113264 0 0.069449382678632612 0.1443580261181665 0 0.071387777285217918 0.15212681924726251 0 0.083920606388658545 0.14050817004821939 0 0.069449382678632612 0.1443580261181665 0 0.071387777285217918 0.15212681924726251 0 0.059657673584757237 0.15824269734654939 0 0.060329678829100349 0.1474246815113264 0 0.071387777285217918 0.15212681924726251 0 0.059657673584757237 0.15824269734654939 0 0.071387777285217918 0.15212681924726251 0 0.071728396070648653 0.1641382979071076 0 0.081151633673542972 0.15313158297098389 0 0.071387777285217918 0.15212681924726251 0 0.071728396070648653 0.1641382979071076 0 0.071445073857882777 0.19089458628000441 0 0.075908261162629706 0.17300068451328551 0 0.086464584236575506 0.1862285865309723 0 0.060802696405823108 0.1787365445376432 0 0.071445073857882777 0.19089458628000441 0 0.075908261162629706 0.17300068451328551 0 0.071445073857882777 0.19089458628000441 0 0.075908261162629706 0.17300068451328551 0 0.060802696405823108 0.1787365445376432 0 0.071728396070648653 0.1641382979071076 0 0.075908261162629706 0.17300068451328551 0 0.086464584236575506 0.1862285865309723 0 0.090216091253114361 0.17155893003272579 0 0.1023855527362314 0.18749689463882899 0 0.075908261162629706 0.17300068451328551 0 0.086464584236575506 0.1862285865309723 0 0.090216091253114361 0.17155893003272579 0 0.081151633673542972 0.15313158297098389 0 0.071728396070648653 0.1641382979071076 0 0.0975697549496468 0.15575304468134629 0 0.071728396070648653 0.1641382979071076 0 0.090216091253114361 0.17155893003272579 0 0.0975697549496468 0.15575304468134629 0 0.071728396070648653 0.1641382979071076 0 0.075908261162629706 0.17300068451328551 0 0.090216091253114361 0.17155893003272579 0 0.071728396070648653 0.1641382979071076 0 0.0975697549496468 0.15575304468134629 0 0.090216091253114361 0.17155893003272579 0 0.1064810698159025 0.16893633516972181 0 0.0975697549496468 0.15575304468134629 0 0.1064810698159025 0.16893633516972181 0 0.1067320948171991 0.1538072021696697 0 0.0975697549496468 0.15575304468134629 0 0.090216091253114361 0.17155893003272579 0 0.1064810698159025 0.16893633516972181 0 0.1023855527362314 0.18749689463882899 0 0.1064810698159025 0.16893633516972181 0 0.12954358324573961 0.16710623429112001 0 0.12550986450034471 0.186594373040398 0 0.1064810698159025 0.16893633516972181 0 0.1023855527362314 0.18749689463882899 0 0.12550986450034471 0.186594373040398 0 0.1064810698159025 0.16893633516972181 0 0.1067320948171991 0.1538072021696697 0 0.12954358324573961 0.16710623429112001 0 0.1067320948171991 0.1538072021696697 0 0.1262856736452258 0.1537478882528979 0 0.12954358324573961 0.16710623429112001 0 0.1067320948171991 0.1538072021696697 0 0.12954358324573961 0.16710623429112001 0 0.1148569119608701 0.14824987142416859 0 0.1067320948171991 0.1538072021696697 0 0.1262856736452258 0.1537478882528979 0 0.118317888191051 0.14254191757659121 0 0.1148569119608701 0.14824987142416859 0 0.1262856736452258 0.1537478882528979 0 0.118317888191051 0.14254191757659121 0 0.12756241452120801 0.13893694775055651 0 0.1262856736452258 0.1537478882528979 0 0.1148569119608701 0.14824987142416859 0 0.1067320948171991 0.1538072021696697 0 0.1080919911900045 0.14290247769751591 0 0.118317888191051 0.14254191757659121 0 0.1148569119608701 0.14824987142416859 0 0.1080919911900045 0.14290247769751591 0 0.083920606388658545 0.14050817004821939 0 0.1067320948171991 0.1538072021696697 0 0.1067320948171991 0.1538072021696697 0 0.1080919911900045 0.14290247769751591 0 0.097906888154765004 0.1362305538396491 0 0.083920606388658545 0.14050817004821939 0 0.1067320948171991 0.1538072021696697 0 0.097906888154765004 0.1362305538396491 0 0.083920606388658545 0.14050817004821939 0 0.1067320948171991 0.1538072021696697 0 0.0975697549496468 0.15575304468134629 0 0.096984900528893664 0.1212489081817222 0 0.097906888154765004 0.1362305538396491 0 0.10589272808503949 0.13156516273042271 0 0.096984900528893664 0.1212489081817222 0 0.087075880893963842 0.12621803440601359 0 0.097906888154765004 0.1362305538396491 0 0.1080919911900045 0.14290247769751591 0 0.097906888154765004 0.1362305538396491 0 0.10589272808503949 0.13156516273042271 0 0.1080919911900045 0.14290247769751591 0 0.10589272808503949 0.13156516273042271 0 0.11327312463209829 0.13597294690712769 0 0.10712684862241641 0.1210429748963526 0 0.10589272808503949 0.13156516273042271 0 0.114987521205969 0.1268010028982309 0 0.10589272808503949 0.13156516273042271 0 0.114987521205969 0.1268010028982309 0 0.11327312463209829 0.13597294690712769 0 0.114987521205969 0.1268010028982309 0 0.11327312463209829 0.13597294690712769 0 0.1203000125167645 0.13336293759413789 0 0.118317888191051 0.14254191757659121 0 0.1080919911900045 0.14290247769751591 0 0.11327312463209829 0.13597294690712769 0 0.118317888191051 0.14254191757659121 0 0.1203000125167645 0.13336293759413789 0 0.12756241452120801 0.13893694775055651 0 0.118317888191051 0.14254191757659121 0 0.11327312463209829 0.13597294690712769 0 0.1203000125167645 0.13336293759413789 0 0.12212988809696081 0.1249307776834532 0 0.114987521205969 0.1268010028982309 0 0.1203000125167645 0.13336293759413789 0 0.12212988809696081 0.1249307776834532 0 0.1203000125167645 0.13336293759413789 0 0.12788127083107459 0.1291064789800366 0 0.12788127083107459 0.1291064789800366 0 0.13409394305489639 0.1257339851238449 0 0.12813823657366311 0.12049833089676459 0 0.12788127083107459 0.1291064789800366 0 0.13410827310584911 0.13282331674432049 0 0.13409394305489639 0.1257339851238449 0 0.12788127083107459 0.1291064789800366 0 0.12756241452120801 0.13893694775055651 0 0.13410827310584911 0.13282331674432049 0 0.1203000125167645 0.13336293759413789 0 0.12788127083107459 0.1291064789800366 0 0.12756241452120801 0.13893694775055651 0 0.13410827310584911 0.13282331674432049 0 0.14295710802469111 0.12768772724150559 0 0.13848136883728299 0.14203914735535511 0 0.12756241452120801 0.13893694775055651 0 0.13410827310584911 0.13282331674432049 0 0.13848136883728299 0.14203914735535511 0 0.13410827310584911 0.13282331674432049 0 0.13409394305489639 0.1257339851238449 0 0.14295710802469111 0.12768772724150559 0 0.14295710802469111 0.12768772724150559 0 0.15698787762036359 0.14007723406829989 0 0.15364605026385231 0.1227496740475859 0 0.14295710802469111 0.12768772724150559 0 0.13848136883728299 0.14203914735535511 0 0.15698787762036359 0.14007723406829989 0 0.13848136883728299 0.14203914735535511 0 0.1441447949138806 0.1573716891147208 0 0.15698787762036359 0.14007723406829989 0 0.1441447949138806 0.1573716891147208 0 0.1598153361361678 0.15982657838785511 0 0.15698787762036359 0.14007723406829989 0 0.13848136883728299 0.14203914735535511 0 0.1262856736452258 0.1537478882528979 0 0.1441447949138806 0.1573716891147208 0 0.12756241452120801 0.13893694775055651 0 0.13848136883728299 0.14203914735535511 0 0.1262856736452258 0.1537478882528979 0 0.1262856736452258 0.1537478882528979 0 0.12954358324573961 0.16710623429112001 0 0.1441447949138806 0.1573716891147208 0 0.12954358324573961 0.16710623429112001 0 0.12550986450034471 0.186594373040398 0 0.15375492999850379 0.1814330523327968 0 0.12954358324573961 0.16710623429112001 0 0.15375492999850379 0.1814330523327968 0 0.1441447949138806 0.1573716891147208 0 0.15375492999850379 0.1814330523327968 0 0.1441447949138806 0.1573716891147208 0 0.1598153361361678 0.15982657838785511 0 0.1598153361361678 0.15982657838785511 0 0.17205847002769489 0.1711246398383999 0 0.17247097746626519 0.1464629757798975 0 0.15375492999850379 0.1814330523327968 0 0.1598153361361678 0.15982657838785511 0 0.17205847002769489 0.1711246398383999 0 0.15375492999850379 0.1814330523327968 0 0.17205847002769489 0.1711246398383999 0 0.18411838942066619 0.18828130780555291 0 0.17205847002769489 0.1711246398383999 0 0.18411838942066619 0.18828130780555291 0 0.19050902449260759 0.164433536692701 0 0.17205847002769489 0.1711246398383999 0 0.17247097746626519 0.1464629757798975 0 0.19050902449260759 0.164433536692701 0 0.17247097746626519 0.1464629757798975 0 0.1903693880120208 0.14015559280000461 0 0.19050902449260759 0.164433536692701 0 0.17247097746626519 0.1464629757798975 0 0.18002451345814399 0.12716596121819479 0 0.1903693880120208 0.14015559280000461 0 0.17247097746626519 0.1464629757798975 0 0.18002451345814399 0.12716596121819479 0 0.16417220099380411 0.12505127510387981 0 0.15698787762036359 0.14007723406829989 0 0.16417220099380411 0.12505127510387981 0 0.15364605026385231 0.1227496740475859 0 0.17247097746626519 0.1464629757798975 0 0.15698787762036359 0.14007723406829989 0 0.16417220099380411 0.12505127510387981 0 0.1598153361361678 0.15982657838785511 0 0.17247097746626519 0.1464629757798975 0 0.15698787762036359 0.14007723406829989 0 0.14702044576598061 0.2478904659134552 0 0.1382648444377183 0.22719855966067881 0 0.15828943790025421 0.22969507774947781 0 0.14702044576598061 0.2478904659134552 0 0.12787711237058769 0.24521089126939841 0 0.1382648444377183 0.22719855966067881 0 0.10906069526472741 0.22998953009969161 0 0.12787711237058769 0.24521089126939841 0 0.1382648444377183 0.22719855966067881 0 0.1382648444377183 0.22719855966067881 0 0.14314005341278749 0.20699853547660821 0 0.15828943790025421 0.22969507774947781 0 0.14314005341278749 0.20699853547660821 0 0.16852610903267151 0.206401884619904 0 0.11775399779290339 0.20759518633331239 0 0.1382648444377183 0.22719855966067881 0 0.14314005341278749 0.20699853547660821 0 0.11775399779290339 0.20759518633331239 0 0.14314005341278749 0.20699853547660821 0 0.11775399779290339 0.20759518633331239 0 0.12550986450034471 0.186594373040398 0 0.14314005341278749 0.20699853547660821 0 0.15375492999850379 0.1814330523327968 0 0.14314005341278749 0.20699853547660821 0 0.16852610903267151 0.206401884619904 0 0.12550986450034471 0.186594373040398 0 0.15375492999850379 0.1814330523327968 0 0.14314005341278749 0.20699853547660821 0 0.15375492999850379 0.1814330523327968 0 0.18411838942066619 0.18828130780555291 0 0.16852610903267151 0.206401884619904 0 0.18411838942066619 0.18828130780555291 0 0.16852610903267151 0.206401884619904 0 0.1878214256448299 0.20672411698152671 0 0.16852610903267151 0.206401884619904 0 0.17766068788986381 0.23020170431202469 0 0.1878214256448299 0.20672411698152671 0 0.14314005341278749 0.20699853547660821 0 0.16852610903267151 0.206401884619904 0 0.15828943790025421 0.22969507774947781 0 0.16852610903267151 0.206401884619904 0 0.15828943790025421 0.22969507774947781 0 0.17766068788986381 0.23020170431202469 0 0.17766068788986381 0.23020170431202469 0 0.19353513124668931 0.22246748781277501 0 0.1878214256448299 0.20672411698152671 0 0.17766068788986381 0.23020170431202469 0 0.18692125413578081 0.24552837502103991 0 0.19379669244916639 0.23440003217329089 0 0.17766068788986381 0.23020170431202469 0 0.18692125413578081 0.24552837502103991 0 0.16774616909827719 0.2460930353984315 0 0.15828943790025421 0.22969507774947781 0 0.17766068788986381 0.23020170431202469 0 0.16774616909827719 0.2460930353984315 0 0.14702044576598061 0.2478904659134552 0 0.15828943790025421 0.22969507774947781 0 0.16774616909827719 0.2460930353984315 0 0.21557305570370441 0.24515722135805329 0 0.2029257889591993 0.24295866219667439 0 0.23007231546290949 0.2334513308517342 0 0.2029257889591993 0.24295866219667439 0 0.23007231546290949 0.2334513308517342 0 0.21557305570370441 0.24515722135805329 0 0.2029257889591993 0.24295866219667439 0 0.20107379594449931 0.25686311186437227 0 0.18692125413578081 0.24552837502103991 0 0.2029257889591993 0.24295866219667439 0 0.20107379594449931 0.25686311186437227 0 0.18692125413578081 0.24552837502103991 0 0.19379669244916639 0.23440003217329089 0 0.2029257889591993 0.24295866219667439 0 0.17766068788986381 0.23020170431202469 0 0.19379669244916639 0.23440003217329089 0 0.19353513124668931 0.22246748781277501 0 0.19379669244916639 0.23440003217329089 0 0.2029257889591993 0.24295866219667439 0 0.20920449219815451 0.22515354045629349 0 0.19379669244916639 0.23440003217329089 0 0.19353513124668931 0.22246748781277501 0 0.20920449219815451 0.22515354045629349 0 0.2029257889591993 0.24295866219667439 0 0.20920449219815451 0.22515354045629349 0 0.23007231546290949 0.2334513308517342 0 0.19353513124668931 0.22246748781277501 0 0.20920449219815451 0.22515354045629349 0 0.20732414099141369 0.20672295990195361 0 0.20920449219815451 0.22515354045629349 0 0.20732414099141369 0.20672295990195361 0 0.22783619495118521 0.20973527166224001 0 0.19353513124668931 0.22246748781277501 0 0.20732414099141369 0.20672295990195361 0 0.1878214256448299 0.20672411698152671 0 0.18411838942066619 0.18828130780555291 0 0.1878214256448299 0.20672411698152671 0 0.20343121377691101 0.18825927067945539 0 0.20732414099141369 0.20672295990195361 0 0.1878214256448299 0.20672411698152671 0 0.20343121377691101 0.18825927067945539 0 0.20732414099141369 0.20672295990195361 0 0.20343121377691101 0.18825927067945539 0 0.2219787971027708 0.18678942035429349 0 0.20732414099141369 0.20672295990195361 0 0.22783619495118521 0.20973527166224001 0 0.2219787971027708 0.18678942035429349 0 0.24528107816237801 0.1907036486386274 0 0.22783619495118521 0.20973527166224001 0 0.2219787971027708 0.18678942035429349 0 0.24528107816237801 0.1907036486386274 0 0.25242827713160498 0.21540237912569379 0 0.24528107816237801 0.1907036486386274 0 0.22783619495118521 0.20973527166224001 0 0.25242827713160498 0.21540237912569379 0 0.20920449219815451 0.22515354045629349 0 0.22783619495118521 0.20973527166224001 0 0.23007231546290949 0.2334513308517342 0 0.23007231546290949 0.2334513308517342 0 0.25242827713160498 0.21540237912569379 0 0.23007231546290949 0.2334513308517342 0 0.25511338863332461 0.22468137717712711 0 0.25242827713160498 0.21540237912569379 0 0.23007231546290949 0.2334513308517342 0 0.25511338863332461 0.22468137717712711 0 0.23007231546290949 0.2334513308517342 0 0.2457442494512444 0.24022391879071339 0 0.25511338863332461 0.22468137717712711 0 0.22783619495118521 0.20973527166224001 0 0.23007231546290949 0.2334513308517342 0 0.25242827713160498 0.21540237912569379 0 0.2457442494512444 0.24022391879071339 0 0.23628031136540401 0.25597328662156199 0 0.26221447651104962 0.2479993693513689 0 0.23007231546290949 0.2334513308517342 0 0.2457442494512444 0.24022391879071339 0 0.23628031136540401 0.25597328662156199 0 0.21557305570370441 0.24515722135805329 0 0.23007231546290949 0.2334513308517342 0 0.23628031136540401 0.25597328662156199 0 0.21557305570370441 0.24515722135805329 0 0.23007231546290949 0.2334513308517342 0 0.21023583046185859 0.14706018503428281 0 0.22521494488481819 0.12557893006429149 0 0.2001236667938262 0.1180422718546187 0 0.18002451345814399 0.12716596121819479 0 0.1903693880120208 0.14015559280000461 0 0.2001236667938262 0.1180422718546187 0 0.21023583046185859 0.14706018503428281 0 0.1903693880120208 0.14015559280000461 0 0.2001236667938262 0.1180422718546187 0 0.21023583046185859 0.14706018503428281 0 0.1903693880120208 0.14015559280000461 0 0.19050902449260759 0.164433536692701 0 0.18411838942066619 0.18828130780555291 0 0.20343121377691101 0.18825927067945539 0 0.19050902449260759 0.164433536692701 0 0.20343121377691101 0.18825927067945539 0 0.19050902449260759 0.164433536692701 0 0.20962662881846919 0.1707346457134423 0 0.20343121377691101 0.18825927067945539 0 0.20962662881846919 0.1707346457134423 0 0.2219787971027708 0.18678942035429349 0 0.21023583046185859 0.14706018503428281 0 0.20962662881846919 0.1707346457134423 0 0.2254160648188453 0.164078398330023 0 0.21023583046185859 0.14706018503428281 0 0.19050902449260759 0.164433536692701 0 0.20962662881846919 0.1707346457134423 0 0.20962662881846919 0.1707346457134423 0 0.2254160648188453 0.164078398330023 0 0.2219787971027708 0.18678942035429349 0 0.2254160648188453 0.164078398330023 0 0.2219787971027708 0.18678942035429349 0 0.23714843650665229 0.1758398884969993 0 0.24528107816237801 0.1907036486386274 0 0.2219787971027708 0.18678942035429349 0 0.23714843650665229 0.1758398884969993 0 0.24528107816237801 0.1907036486386274 0 0.23714843650665229 0.1758398884969993 0 0.25292738168467233 0.17649485219682931 0 0.2254160648188453 0.164078398330023 0 0.24653130607993951 0.16237692388552691 0 0.23688534306575301 0.1458043597726891 0 0.23714843650665229 0.1758398884969993 0 0.24653130607993951 0.16237692388552691 0 0.25292738168467233 0.17649485219682931 0 0.2254160648188453 0.164078398330023 0 0.23714843650665229 0.1758398884969993 0 0.24653130607993951 0.16237692388552691 0 0.24653130607993951 0.16237692388552691 0 0.2496536413094039 0.15044712256699261 0 0.23688534306575301 0.1458043597726891 0 0.2496536413094039 0.15044712256699261 0 0.23688534306575301 0.1458043597726891 0 0.25004344172447263 0.14019424959050239 0 0.21023583046185859 0.14706018503428281 0 0.2254160648188453 0.164078398330023 0 0.23688534306575301 0.1458043597726891 0 0.21023583046185859 0.14706018503428281 0 0.23688534306575301 0.1458043597726891 0 0.22521494488481819 0.12557893006429149 0 0.22521494488481819 0.12557893006429149 0 0.25030622297580962 0.13311558827396619 0 0.23688534306575301 0.1458043597726891 0 0.22521494488481819 0.12557893006429149 0 0.25030622297580962 0.13311558827396619 0 0.23688534306575301 0.1458043597726891 0 0.25004344172447263 0.14019424959050239 0 0.25030622297580962 0.13311558827396619 0 0.22521494488481819 0.12557893006429149 0 0.2369469616243938 0.1144798656387125 0 0.25030622297580962 0.13311558827396619 0 0.2369469616243938 0.1144798656387125 0 0.25094552198087999 0.11589449234768209 0 0.25030622297580962 0.13311558827396619 0 0.2369469616243938 0.1144798656387125 0 0.25158482098595109 0.098673396421397969 0 0.25094552198087999 0.11589449234768209 0 0.2369469616243938 0.1144798656387125 0 0.2308580048349978 0.09939168424622695 0 0.25158482098595109 0.098673396421397969 0 0.2308580048349978 0.09939168424622695 0 0.2177667053289645 0.10879872465146249 0 0.21723881235993189 0.092441087960636145 0 0.2369469616243938 0.1144798656387125 0 0.2308580048349978 0.09939168424622695 0 0.2177667053289645 0.10879872465146249 0 0.22521494488481819 0.12557893006429149 0 0.2369469616243938 0.1144798656387125 0 0.2177667053289645 0.10879872465146249 0 0.2177667053289645 0.10879872465146249 0 0.1970849337058638 0.1019164286603922 0 0.2001236667938262 0.1180422718546187 0 0.22521494488481819 0.12557893006429149 0 0.2177667053289645 0.10879872465146249 0 0.2001236667938262 0.1180422718546187 0 0.22521494488481819 0.12557893006429149 0 0.2001236667938262 0.1180422718546187 0 0.1970849337058638 0.1019164286603922 0 0.20420713705815571 0.090978010823124941 0 0.21723881235993189 0.092441087960636145 0 0.1970849337058638 0.1019164286603922 0 0.21723881235993189 0.092441087960636145 0 0.2177667053289645 0.10879872465146249 0 0.1970849337058638 0.1019164286603922 0 0.21723881235993189 0.092441087960636145 0 0.1970849337058638 0.1019164286603922 0 0.1916307843626972 0.08827444688259839 0 0.17503238870283441 0.11050561364494491 0 0.2001236667938262 0.1180422718546187 0 0.17503238870283441 0.11050561364494491 0 0.1970849337058638 0.1019164286603922 0 0.2001236667938262 0.1180422718546187 0 0.17503238870283441 0.11050561364494491 0 0.1916307843626972 0.08827444688259839 0 0.2082291800225603 0.066043280120252124 0 0.19067723801237901 0.065525043857756982 0 0.1916307843626972 0.08827444688259839 0 0.2082291800225603 0.066043280120252124 0 0.1916307843626972 0.08827444688259839 0 0.21087401780412959 0.081280079788873041 0 0.20420713705815571 0.090978010823124941 0 0.1970849337058638 0.1019164286603922 0 0.1916307843626972 0.08827444688259839 0 0.20420713705815571 0.090978010823124941 0 0.1916307843626972 0.08827444688259839 0 0.21087401780412959 0.081280079788873041 0 0.2082291800225603 0.066043280120252124 0 0.21087401780412959 0.081280079788873041 0 0.20420713705815571 0.090978010823124941 0 0.21723881235993189 0.092441087960636145 0 0.21087401780412959 0.081280079788873041 0 0.21723881235993189 0.092441087960636145 0 0.22613356481757629 0.0775902723280468 0 0.21087401780412959 0.081280079788873041 0 0.2082291800225603 0.066043280120252124 0 0.22613356481757629 0.0775902723280468 0 0.2082291800225603 0.066043280120252124 0 0.22613356481757629 0.0775902723280468 0 0.2082291800225603 0.066043280120252124 0 0.2259496113806885 0.070300708218039992 0 0.21450653174737461 0.057635669175196122 0 0.2259496113806885 0.070300708218039992 0 0.21450653174737461 0.057635669175196122 0 0.2082291800225603 0.066043280120252124 0 0.2259496113806885 0.070300708218039992 0 0.22613356481757629 0.0775902723280468 0 0.2259496113806885 0.070300708218039992 0 0.2248665156508784 0.061611733455129589 0 0.21450653174737461 0.057635669175196122 0 0.2259496113806885 0.070300708218039992 0 0.22613356481757629 0.0775902723280468 0 0.23739269101400209 0.082965747260884265 0 0.2259496113806885 0.070300708218039992 0 0.23739269101400209 0.082965747260884265 0 0.237967452106535 0.070105640596903412 0 0.2259496113806885 0.070300708218039992 0 0.23739269101400209 0.082965747260884265 0 0.2259496113806885 0.070300708218039992 0 0.2330718446673557 0.064441819436705627 0 0.2248665156508784 0.061611733455129589 0 0.2259496113806885 0.070300708218039992 0 0.2330718446673557 0.064441819436705627 0 0.237967452106535 0.070105640596903412 0 0.2308580048349978 0.09939168424622695 0 0.21723881235993189 0.092441087960636145 0 0.23739269101400209 0.082965747260884265 0 0.21723881235993189 0.092441087960636145 0 0.22613356481757629 0.0775902723280468 0 0.23739269101400209 0.082965747260884265 0 0.21723881235993189 0.092441087960636145 0 0.23739269101400209 0.082965747260884265 0 0.23739269101400209 0.082965747260884265 0 0.25158482098595109 0.098673396421397969 0 0.23739269101400209 0.082965747260884265 0 0.25243039498113262 0.075895774732197205 0 0.25158482098595109 0.098673396421397969 0 0.2308580048349978 0.09939168424622695 0 0.23739269101400209 0.082965747260884265 0 0.25158482098595109 0.098673396421397969 0 0.23739269101400209 0.082965747260884265 0 0.25243039498113262 0.075895774732197205 0 0.23934469018649959 0.064583282500140851 0 0.237967452106535 0.070105640596903412 0 0.24496427956833819 0.066036472520138348 0 0.2330718446673557 0.064441819436705627 0 0.23934469018649959 0.064583282500140851 0 0.2376257901407148 0.059976102198904507 0 0.2330718446673557 0.064441819436705627 0 0.23934469018649959 0.064583282500140851 0 0.237967452106535 0.070105640596903412 0 0.23739269101400209 0.082965747260884265 0 0.237967452106535 0.070105640596903412 0 0.24429048066179679 0.072622021298478806 0 0.24429048066179679 0.072622021298478806 0 0.24842415088314279 0.069033451464499671 0 0.25243039498113262 0.075895774732197205 0 0.23739269101400209 0.082965747260884265 0 0.24429048066179679 0.072622021298478806 0 0.25243039498113262 0.075895774732197205 0 0.24842415088314279 0.069033451464499671 0 0.24853219730195361 0.063845178725116872 0 0.25274476311700622 0.067427493409812952 0 0.237967452106535 0.070105640596903412 0 0.24429048066179679 0.072622021298478806 0 0.24496427956833819 0.066036472520138348 0 0.24429048066179679 0.072622021298478806 0 0.24842415088314279 0.069033451464499671 0 0.24496427956833819 0.066036472520138348 0 0.23934469018649959 0.064583282500140851 0 0.24496427956833819 0.066036472520138348 0 0.24309408444955441 0.062356377748052388 0 0.24496427956833819 0.066036472520138348 0 0.24602681454492631 0.062964227281045088 0 0.24309408444955441 0.062356377748052388 0 0.24496427956833819 0.066036472520138348 0 0.24602681454492631 0.062964227281045088 0 0.24853219730195361 0.063845178725116872 0 0.24842415088314279 0.069033451464499671 0 0.24496427956833819 0.066036472520138348 0 0.24853219730195361 0.063845178725116872 0 0.24751669685985911 0.059618880130872708 0 0.24309408444955441 0.062356377748052388 0 0.2376257901407148 0.059976102198904507 0 0.24751669685985911 0.059618880130872708 0 0.24426241142214139 0.049994713685017962 0 0.2310385276818335 0.053106641608170198 0 0.24751669685985911 0.059618880130872708 0 0.2376257901407148 0.059976102198904507 0 0.2310385276818335 0.053106641608170198 0 0.24751669685985911 0.059618880130872708 0 0.2310385276818335 0.053106641608170198 0 0.24853219730195361 0.063845178725116872 0 0.24751669685985911 0.059618880130872708 0 0.2530174900015254 0.0600809219264858 0 0.24602681454492631 0.062964227281045088 0 0.24853219730195361 0.063845178725116872 0 0.24751669685985911 0.059618880130872708 0 0.24602681454492631 0.062964227281045088 0 0.24751669685985911 0.059618880130872708 0 0.24309408444955441 0.062356377748052388 0 0.23934469018649959 0.064583282500140851 0 0.24309408444955441 0.062356377748052388 0 0.2376257901407148 0.059976102198904507 0 0.24426241142214139 0.049994713685017962 0 0.23928634064401511 0.040096757013566242 0 0.2310385276818335 0.053106641608170198 0 0.24751669685985911 0.059618880130872708 0 0.24426241142214139 0.049994713685017962 0 0.25102243244437311 0.053297338652025752 0 0.24426241142214139 0.049994713685017962 0 0.25174039047255609 0.044464402284776217 0 0.25102243244437311 0.053297338652025752 0 0.23928634064401511 0.040096757013566242 0 0.2320502206633881 0.021165953515508481 0 0.25044211127373811 0.032849993626191502 0 0.23928634064401511 0.040096757013566242 0 0.25044211127373811 0.032849993626191502 0 0.25174039047255609 0.044464402284776217 0 0.24426241142214139 0.049994713685017962 0 0.23928634064401511 0.040096757013566242 0 0.25174039047255609 0.044464402284776217 0 0.22618438235043381 0.038998837361733103 0 0.2320502206633881 0.021165953515508481 0 0.20963369093729961 0.03941564640516447 0 0.23928634064401511 0.040096757013566242 0 0.22618438235043381 0.038998837361733103 0 0.2320502206633881 0.021165953515508481 0 0.22618438235043381 0.038998837361733103 0 0.2310385276818335 0.053106641608170198 0 0.21456035850380811 0.046594403085467223 0 0.23928634064401511 0.040096757013566242 0 0.22618438235043381 0.038998837361733103 0 0.2310385276818335 0.053106641608170198 0 0.2310385276818335 0.053106641608170198 0 0.21456035850380811 0.046594403085467223 0 0.2248665156508784 0.061611733455129589 0 0.2310385276818335 0.053106641608170198 0 0.21456035850380811 0.046594403085467223 0 0.2248665156508784 0.061611733455129589 0 0.21456035850380811 0.046594403085467223 0 0.2330718446673557 0.064441819436705627 0 0.2248665156508784 0.061611733455129589 0 0.23150027442910881 0.059501590197602497 0 0.2248665156508784 0.061611733455129589 0 0.23150027442910881 0.059501590197602497 0 0.2310385276818335 0.053106641608170198 0 0.2330718446673557 0.064441819436705627 0 0.2376257901407148 0.059976102198904507 0 0.23150027442910881 0.059501590197602497 0 0.2376257901407148 0.059976102198904507 0 0.23150027442910881 0.059501590197602497 0 0.2310385276818335 0.053106641608170198 0 0.2320502206633881 0.021165953515508481 0 0.22999165343287109 0.0038227322559807589 0 0.25446675038947358 0.0029162606258486688 0 0.2320502206633881 0.021165953515508481 0 0.2600935707136679 0.019574361616358959 0 0.25446675038947358 0.0029162606258486688 0 0.22999165343287109 0.0038227322559807589 0 0.25446675038947358 0.0029162606258486688 0 0.24138147174972829 -0.0061427828714447699 0 0.2320502206633881 0.021165953515508481 0 0.25446675038947358 0.0029162606258486688 0 0.2320502206633881 0.021165953515508481 0 0.2600935707136679 0.019574361616358959 0 0.25044211127373811 0.032849993626191502 0 0.2320502206633881 0.021165953515508481 0 0.20963369093729961 0.03941564640516447 0 0.22999165343287109 0.0038227322559807589 0 0.21340461703840111 0.0096506044731711187 0 0.21351355446813719 -0.0021103410187178909 0 0.2320502206633881 0.021165953515508481 0 0.22999165343287109 0.0038227322559807589 0 0.21340461703840111 0.0096506044731711187 0 0.21340461703840111 0.0096506044731711187 0 0.1998105265397013 0.00335350757378736 0 0.21351355446813719 -0.0021103410187178909 0 0.21340461703840111 0.0096506044731711187 0 0.20371525389429951 0.01279949030761077 0 0.2082588668535221 0.02245160931237615 0 0.21340461703840111 0.0096506044731711187 0 0.20371525389429951 0.01279949030761077 0 0.1998105265397013 0.00335350757378736 0 0.2320502206633881 0.021165953515508481 0 0.2082588668535221 0.02245160931237615 0 0.20963369093729961 0.03941564640516447 0 0.2320502206633881 0.021165953515508481 0 0.21340461703840111 0.0096506044731711187 0 0.2082588668535221 0.02245160931237615 0 0.2082588668535221 0.02245160931237615 0 0.19338700514557339 0.015742239871108451 0 0.20963369093729961 0.03941564640516447 0 0.19338700514557339 0.015742239871108451 0 0.1989601287501698 0.040429129743079398 0 0.18048502430789731 0.01998114488410483 0 0.1989601287501698 0.040429129743079398 0 0.18048502430789731 0.01998114488410483 0 0.19338700514557339 0.015742239871108451 0 0.20963369093729961 0.03941564640516447 0 0.20371525389429951 0.01279949030761077 0 0.2082588668535221 0.02245160931237615 0 0.19338700514557339 0.015742239871108451 0 0.19338700514557339 0.015742239871108451 0 0.1998105265397013 0.00335350757378736 0 0.17714031935384769 -0.0079311666629475405 0 0.20371525389429951 0.01279949030761077 0 0.19338700514557339 0.015742239871108451 0 0.1998105265397013 0.00335350757378736 0 0.21450653174737461 0.057635669175196122 0 0.2029561920580818 0.044851916216142339 0 0.21450653174737461 0.057635669175196122 0 0.2029561920580818 0.044851916216142339 0 0.2021088015620611 0.053433964061651712 0 0.21450653174737461 0.057635669175196122 0 0.21456035850380811 0.046594403085467223 0 0.2029561920580818 0.044851916216142339 0 0.2082291800225603 0.066043280120252124 0 0.21450653174737461 0.057635669175196122 0 0.2021088015620611 0.053433964061651712 0 0.2248665156508784 0.061611733455129589 0 0.21450653174737461 0.057635669175196122 0 0.21456035850380811 0.046594403085467223 0 0.2082291800225603 0.066043280120252124 0 0.21450653174737461 0.057635669175196122 0 0.22618438235043381 0.038998837361733103 0 0.21456035850380811 0.046594403085467223 0 0.20963369093729961 0.03941564640516447 0 0.21456035850380811 0.046594403085467223 0 0.20963369093729961 0.03941564640516447 0 0.21456035850380811 0.046594403085467223 0 0.20530753189452691 0.042937648913457381 0 0.2029561920580818 0.044851916216142339 0 0.20963369093729961 0.03941564640516447 0 0.20530753189452691 0.042937648913457381 0 0.1989601287501698 0.040429129743079398 0 0.21456035850380811 0.046594403085467223 0 0.20530753189452691 0.042937648913457381 0 0.21456035850380811 0.046594403085467223 0 0.20963369093729961 0.03941564640516447 0 0.20530753189452691 0.042937648913457381 0 0.20963369093729961 0.03941564640516447 0 0.20530753189452691 0.042937648913457381 0 0.20530753189452691 0.042937648913457381 0 0.2029561920580818 0.044851916216142339 0 0.1989601287501698 0.040429129743079398 0 0.1774654858828027 0.031934360706524292 0 0.2029561920580818 0.044851916216142339 0 0.1989601287501698 0.040429129743079398 0 0.19971656766465989 0.047489351670260083 0 0.1989601287501698 0.040429129743079398 0 0.19133087755196571 0.045131483978966998 0 0.19971656766465989 0.047489351670260083 0 0.2029561920580818 0.044851916216142339 0 0.19971656766465989 0.047489351670260083 0 0.19338700514557339 0.015742239871108451 0 0.20963369093729961 0.03941564640516447 0 0.1989601287501698 0.040429129743079398 0 0.1989601287501698 0.040429129743079398 0 0.19133087755196571 0.045131483978966998 0 0.18298678422305309 0.040980100737508622 0 0.20530753189452691 0.042937648913457381 0 0.2029561920580818 0.044851916216142339 0 0.1989601287501698 0.040429129743079398 0 0.20530753189452691 0.042937648913457381 0 0.1989601287501698 0.040429129743079398 0 0.2029561920580818 0.044851916216142339 0 0.1989601287501698 0.040429129743079398 0 0.2082291800225603 0.066043280120252124 0 0.18513553631762919 0.051149603126408108 0 0.2021088015620611 0.053433964061651712 0 0.19971656766465989 0.047489351670260083 0 0.18513553631762919 0.051149603126408108 0 0.2082291800225603 0.066043280120252124 0 0.2021088015620611 0.053433964061651712 0 0.18513553631762919 0.051149603126408108 0 0.19067723801237901 0.065525043857756982 0 0.2082291800225603 0.066043280120252124 0 0.18513553631762919 0.051149603126408108 0 0.19133087755196571 0.045131483978966998 0 0.19971656766465989 0.047489351670260083 0 0.18513553631762919 0.051149603126408108 0 0.2029561920580818 0.044851916216142339 0 0.2021088015620611 0.053433964061651712 0 0.19971656766465989 0.047489351670260083 0 0.17734631865053521 0.060730067185729229 0 0.18513553631762919 0.051149603126408108 0 0.16725106424272049 0.052894846580172288 0 0.19067723801237901 0.065525043857756982 0 0.17734631865053521 0.060730067185729229 0 0.18513553631762919 0.051149603126408108 0 0.18298678422305309 0.040980100737508622 0 0.1774654858828027 0.031934360706524292 0 0.1620418926126978 0.036255926132564682 0 0.19133087755196571 0.045131483978966998 0 0.18513553631762919 0.051149603126408108 0 0.18298678422305309 0.040980100737508622 0 0.18513553631762919 0.051149603126408108 0 0.18298678422305309 0.040980100737508622 0 0.1620418926126978 0.036255926132564682 0 0.1989601287501698 0.040429129743079398 0 0.18298678422305309 0.040980100737508622 0 0.1774654858828027 0.031934360706524292 0 0.18513553631762919 0.051149603126408108 0 0.1620418926126978 0.036255926132564682 0 0.1620418926126978 0.036255926132564682 0 0.16725106424272049 0.052894846580172288 0 0.15541952745182569 0.04677658384696623 0 0.18513553631762919 0.051149603126408108 0 0.1620418926126978 0.036255926132564682 0 0.16725106424272049 0.052894846580172288 0 0.16725106424272049 0.052894846580172288 0 0.15507694825043991 0.057889849327421902 0 0.15541952745182569 0.04677658384696623 0 0.16725106424272049 0.052894846580172288 0 0.15507694825043991 0.057889849327421902 0 0.1653937448538241 0.067538194789913991 0 0.17734631865053521 0.060730067185729229 0 0.16725106424272049 0.052894846580172288 0 0.1653937448538241 0.067538194789913991 0 0.18048502430789731 0.01998114488410483 0 0.1657030786406338 0.0084270166623369204 0 0.17714031935384769 -0.0079311666629475405 0 0.19338700514557339 0.015742239871108451 0 0.17714031935384769 -0.0079311666629475405 0 0.19338700514557339 0.015742239871108451 0 0.18048502430789731 0.01998114488410483 0 0.17714031935384769 -0.0079311666629475405 0 0.1989601287501698 0.040429129743079398 0 0.1774654858828027 0.031934360706524292 0 0.18048502430789731 0.01998114488410483 0 0.1774654858828027 0.031934360706524292 0 0.18048502430789731 0.01998114488410483 0 0.16935520337559401 0.020657770454092759 0 0.1774654858828027 0.031934360706524292 0 0.15597084301543529 0.02343959166996953 0 0.1774654858828027 0.031934360706524292 0 0.1620418926126978 0.036255926132564682 0 0.15597084301543529 0.02343959166996953 0 0.1774654858828027 0.031934360706524292 0 0.16935520337559401 0.020657770454092759 0 0.15597084301543529 0.02343959166996953 0 0.16935520337559401 0.020657770454092759 0 0.1657030786406338 0.0084270166623369204 0 0.15597084301543529 0.02343959166996953 0 0.18048502430789731 0.01998114488410483 0 0.16935520337559401 0.020657770454092759 0 0.1657030786406338 0.0084270166623369204 0 0.1657030786406338 0.0084270166623369204 0 0.14883794818754281 0.01110572894874149 0 0.15480995508657039 -0.001084596553268768 0 0.1657030786406338 0.0084270166623369204 0 0.14883794818754281 0.01110572894874149 0 0.15597084301543529 0.02343959166996953 0 0.14883794818754281 0.01110572894874149 0 0.13464870039648349 0.00080453217212592717 0 0.15480995508657039 -0.001084596553268768 0 0.14883794818754281 0.01110572894874149 0 0.13894824890776639 0.02136224913872127 0 0.13464870039648349 0.00080453217212592717 0 0.1620418926126978 0.036255926132564682 0 0.13894824890776639 0.02136224913872127 0 0.14883794818754281 0.01110572894874149 0 0.15597084301543529 0.02343959166996953 0 0.13894824890776639 0.02136224913872127 0 0.1620418926126978 0.036255926132564682 0 0.15597084301543529 0.02343959166996953 0 0.13894824890776639 0.02136224913872127 0 0.11961069471150609 0.02296590295220987 0 0.13894824890776639 0.02136224913872127 0 0.12977361784467401 0.039215218793308727 0 0.1158546052028349 0.0064685721448778594 0 0.13894824890776639 0.02136224913872127 0 0.1158546052028349 0.0064685721448778594 0 0.13894824890776639 0.02136224913872127 0 0.13464870039648349 0.00080453217212592717 0 0.14278372382386809 0.048416123664777412 0 0.1428601767931531 0.062084067640591357 0 0.15507694825043991 0.057889849327421902 0 0.14278372382386809 0.048416123664777412 0 0.15507694825043991 0.057889849327421902 0 0.15541952745182569 0.04677658384696623 0 0.1620418926126978 0.036255926132564682 0 0.13894824890776639 0.02136224913872127 0 0.14579340212816641 0.038405220315267663 0 0.1620418926126978 0.036255926132564682 0 0.15541952745182569 0.04677658384696623 0 0.14579340212816641 0.038405220315267663 0 0.14278372382386809 0.048416123664777412 0 0.15541952745182569 0.04677658384696623 0 0.14579340212816641 0.038405220315267663 0 0.14278372382386809 0.048416123664777412 0 0.14579340212816641 0.038405220315267663 0 0.12977361784467401 0.039215218793308727 0 0.13894824890776639 0.02136224913872127 0 0.14579340212816641 0.038405220315267663 0 0.12977361784467401 0.039215218793308727 0 0.11550376979223601 0.054551475820320147 0 0.12977361784467401 0.039215218793308727 0 0.1326943019686847 0.054606112458038862 0 0.11550376979223601 0.054551475820320147 0 0.1326943019686847 0.054606112458038862 0 0.13255022158949201 0.068763676371196639 0 0.14278372382386809 0.048416123664777412 0 0.12977361784467401 0.039215218793308727 0 0.1326943019686847 0.054606112458038862 0 0.14278372382386809 0.048416123664777412 0 0.1428601767931531 0.062084067640591357 0 0.1326943019686847 0.054606112458038862 0 0.1428601767931531 0.062084067640591357 0 0.1326943019686847 0.054606112458038862 0 0.13255022158949201 0.068763676371196639 0 0.1207366242219714 0.074251990558816788 0 0.13255022158949201 0.068763676371196639 0 0.13578085374332971 0.077614708003019631 0 0.13255022158949201 0.068763676371196639 0 0.13578085374332971 0.077614708003019631 0 0.1430759120552613 0.073085192731263071 0 0.1428601767931531 0.062084067640591357 0 0.13255022158949201 0.068763676371196639 0 0.1430759120552613 0.073085192731263071 0 0.1428601767931531 0.062084067640591357 0 0.1430759120552613 0.073085192731263071 0 0.15260580868734391 0.069203578475014266 0 0.1430759120552613 0.073085192731263071 0 0.14969883640752091 0.076610515579137797 0 0.14563192422462459 0.083183778073064013 0 0.13578085374332971 0.077614708003019631 0 0.1430759120552613 0.073085192731263071 0 0.14563192422462459 0.083183778073064013 0 0.1430759120552613 0.073085192731263071 0 0.14969883640752091 0.076610515579137797 0 0.15260580868734391 0.069203578475014266 0 0.14969883640752091 0.076610515579137797 0 0.15260580868734391 0.069203578475014266 0 0.15677919641446331 0.080277826610221981 0 0.1428601767931531 0.062084067640591357 0 0.15507694825043991 0.057889849327421902 0 0.15260580868734391 0.069203578475014266 0 0.1506819444987289 0.088437751930635633 0 0.14868901735932749 0.09586058707093438 0 0.157853861938485 0.092527754269896317 0 0.1506819444987289 0.088437751930635633 0 0.15677919641446331 0.080277826610221981 0 0.157853861938485 0.092527754269896317 0 0.14969883640752091 0.076610515579137797 0 0.14563192422462459 0.083183778073064013 0 0.15677919641446331 0.080277826610221981 0 0.1506819444987289 0.088437751930635633 0 0.14563192422462459 0.083183778073064013 0 0.15677919641446331 0.080277826610221981 0 0.14563192422462459 0.083183778073064013 0 0.1444557225567443 0.090338813629061501 0 0.13888671887288589 0.088270852986767859 0 0.1506819444987289 0.088437751930635633 0 0.14563192422462459 0.083183778073064013 0 0.1444557225567443 0.090338813629061501 0 0.1444557225567443 0.090338813629061501 0 0.14209274384079601 0.094639397504520467 0 0.14868901735932749 0.09586058707093438 0 0.1506819444987289 0.088437751930635633 0 0.1444557225567443 0.090338813629061501 0 0.14868901735932749 0.09586058707093438 0 0.1444557225567443 0.090338813629061501 0 0.13888671887288589 0.088270852986767859 0 0.14209274384079601 0.094639397504520467 0 0.13888671887288589 0.088270852986767859 0 0.13668050292917741 0.098217611464673699 0 0.14209274384079601 0.094639397504520467 0 0.13888671887288589 0.088270852986767859 0 0.1300820653953097 0.084166932106396392 0 0.13668050292917741 0.098217611464673699 0 0.11116449005577619 0.086473750785835857 0 0.1300820653953097 0.084166932106396392 0 0.13668050292917741 0.098217611464673699 0 0.13578085374332971 0.077614708003019631 0 0.13888671887288589 0.088270852986767859 0 0.1300820653953097 0.084166932106396392 0 0.13578085374332971 0.077614708003019631 0 0.14563192422462459 0.083183778073064013 0 0.13888671887288589 0.088270852986767859 0 0.1207366242219714 0.074251990558816788 0 0.13578085374332971 0.077614708003019631 0 0.1300820653953097 0.084166932106396392 0 0.1216961693062274 0.1020981758197984 0 0.1302764983332621 0.10693497851168419 0 0.13668050292917741 0.098217611464673699 0 0.1302764983332621 0.10693497851168419 0 0.13758713408363871 0.1043360441680015 0 0.13668050292917741 0.098217611464673699 0 0.1302764983332621 0.10693497851168419 0 0.1360833458267342 0.1084620534226548 0 0.13758713408363871 0.1043360441680015 0 0.1360833458267342 0.1084620534226548 0 0.13758713408363871 0.1043360441680015 0 0.14314356584317489 0.10755645506983 0 0.13758713408363871 0.1043360441680015 0 0.13668050292917741 0.098217611464673699 0 0.14175175748584509 0.1005091223711649 0 0.13668050292917741 0.098217611464673699 0 0.14209274384079601 0.094639397504520467 0 0.14175175748584509 0.1005091223711649 0 0.12813823657366311 0.12049833089676459 0 0.13246275659848361 0.1130811342378658 0 0.13708322035591489 0.118794437000363 0 0.12212988809696081 0.1249307776834532 0 0.12788127083107459 0.1291064789800366 0 0.12813823657366311 0.12049833089676459 0 0.1197878353292403 0.1092484053650479 0 0.1302764983332621 0.10693497851168419 0 0.12624189261331301 0.1140678077034443 0 0.12813823657366311 0.12049833089676459 0 0.12624189261331301 0.1140678077034443 0 0.13246275659848361 0.1130811342378658 0 0.1302764983332621 0.10693497851168419 0 0.12624189261331301 0.1140678077034443 0 0.13246275659848361 0.1130811342378658 0 0.138866780176991 0.11235807520418389 0 0.13708322035591489 0.118794437000363 0 0.14572099158606311 0.1154247658161887 0 0.1360833458267342 0.1084620534226548 0 0.13246275659848361 0.1130811342378658 0 0.138866780176991 0.11235807520418389 0 0.1302764983332621 0.10693497851168419 0 0.1360833458267342 0.1084620534226548 0 0.13246275659848361 0.1130811342378658 0 0.1360833458267342 0.1084620534226548 0 0.138866780176991 0.11235807520418389 0 0.14314356584317489 0.10755645506983 0 0.13246275659848361 0.1130811342378658 0 0.138866780176991 0.11235807520418389 0 0.13708322035591489 0.118794437000363 0 0.13409394305489639 0.1257339851238449 0 0.14295710802469111 0.12768772724150559 0 0.13708322035591489 0.118794437000363 0 0.13409394305489639 0.1257339851238449 0 0.12813823657366311 0.12049833089676459 0 0.13708322035591489 0.118794437000363 0 0.14572099158606311 0.1154247658161887 0 0.15364605026385231 0.1227496740475859 0 0.15839207309433961 0.10550736800805539 0 0.14295710802469111 0.12768772724150559 0 0.13708322035591489 0.118794437000363 0 0.14572099158606311 0.1154247658161887 0 0.14295710802469111 0.12768772724150559 0 0.14572099158606311 0.1154247658161887 0 0.15364605026385231 0.1227496740475859 0 0.138866780176991 0.11235807520418389 0 0.14572099158606311 0.1154247658161887 0 0.14314356584317489 0.10755645506983 0 0.14572099158606311 0.1154247658161887 0 0.14314356584317489 0.10755645506983 0 0.15839207309433961 0.10550736800805539 0 0.14175175748584509 0.1005091223711649 0 0.15839207309433961 0.10550736800805539 0 0.14175175748584509 0.1005091223711649 0 0.14314356584317489 0.10755645506983 0 0.15839207309433961 0.10550736800805539 0 0.14175175748584509 0.1005091223711649 0 0.14868901735932749 0.09586058707093438 0 0.15839207309433961 0.10550736800805539 0 0.14209274384079601 0.094639397504520467 0 0.14175175748584509 0.1005091223711649 0 0.14868901735932749 0.09586058707093438 0 0.13758713408363871 0.1043360441680015 0 0.14175175748584509 0.1005091223711649 0 0.14314356584317489 0.10755645506983 0 0.14868901735932749 0.09586058707093438 0 0.15839207309433961 0.10550736800805539 0 0.157853861938485 0.092527754269896317 0 0.15839207309433961 0.10550736800805539 0 0.17503238870283441 0.11050561364494491 0 0.15839207309433961 0.10550736800805539 0 0.1705578526620479 0.095927182961129481 0 0.157853861938485 0.092527754269896317 0 0.15839207309433961 0.10550736800805539 0 0.1705578526620479 0.095927182961129481 0 0.17503238870283441 0.11050561364494491 0 0.16417220099380411 0.12505127510387981 0 0.15839207309433961 0.10550736800805539 0 0.17503238870283441 0.11050561364494491 0 0.16417220099380411 0.12505127510387981 0 0.15364605026385231 0.1227496740475859 0 0.15839207309433961 0.10550736800805539 0 0.16417220099380411 0.12505127510387981 0 0.17503238870283441 0.11050561364494491 0 0.18002451345814399 0.12716596121819479 0 0.16417220099380411 0.12505127510387981 0 0.17503238870283441 0.11050561364494491 0 0.18002451345814399 0.12716596121819479 0 0.2001236667938262 0.1180422718546187 0 0.17503238870283441 0.11050561364494491 0 0.1916307843626972 0.08827444688259839 0 0.1705578526620479 0.095927182961129481 0 0.17503238870283441 0.11050561364494491 0 0.1916307843626972 0.08827444688259839 0 0.17503238870283441 0.11050561364494491 0 0.1916307843626972 0.08827444688259839 0 0.17935943521264269 0.07135827912697662 0 0.16988015521188329 0.08282073200015258 0 0.1916307843626972 0.08827444688259839 0 0.1705578526620479 0.095927182961129481 0 0.16988015521188329 0.08282073200015258 0 0.19067723801237901 0.065525043857756982 0 0.1916307843626972 0.08827444688259839 0 0.17935943521264269 0.07135827912697662 0 0.19067723801237901 0.065525043857756982 0 0.17734631865053521 0.060730067185729229 0 0.17935943521264269 0.07135827912697662 0 0.17734631865053521 0.060730067185729229 0 0.17935943521264269 0.07135827912697662 0 0.1653937448538241 0.067538194789913991 0 0.17935943521264269 0.07135827912697662 0 0.1653937448538241 0.067538194789913991 0 0.16988015521188329 0.08282073200015258 0 0.15507694825043991 0.057889849327421902 0 0.15260580868734391 0.069203578475014266 0 0.1653937448538241 0.067538194789913991 0 0.15260580868734391 0.069203578475014266 0 0.1653937448538241 0.067538194789913991 0 0.15677919641446331 0.080277826610221981 0 0.1653937448538241 0.067538194789913991 0 0.15677919641446331 0.080277826610221981 0 0.16988015521188329 0.08282073200015258 0 0.15677919641446331 0.080277826610221981 0 0.157853861938485 0.092527754269896317 0 0.16988015521188329 0.08282073200015258 0 0.1705578526620479 0.095927182961129481 0 0.157853861938485 0.092527754269896317 0 0.16988015521188329 0.08282073200015258 0 0.099456207782380623 0.4822659283708195 0 0.1141892196830592 0.48396198267476093 0 0.11304725129434449 0.46767028325629811 0 0.099456207782380623 0.4822659283708195 0 0.11304725129434449 0.46767028325629811 0 0.096803680563272876 0.46646214520586099 0 0.099456207782380623 0.4822659283708195 0 0.10782601469385079 0.5 0 0.078267650747156567 0.50000000000000133 0 0.099456207782380623 0.4822659283708195 0 0.10782601469385079 0.5 0 0.1141892196830592 0.48396198267476093 0 0.10782601469385079 0.5 0 0.1249193769550877 0.49369376296818718 0 0.1141892196830592 0.48396198267476093 0 0.1249193769550877 0.49369376296818718 0 0.1141892196830592 0.48396198267476093 0 0.12569724768963239 0.47617993877849962 0 0.10782601469385079 0.5 0 0.1249193769550877 0.49369376296818718 0 0.13738437864054501 0.5 0 0.1141892196830592 0.48396198267476093 0 0.11304725129434449 0.46767028325629811 0 0.12569724768963239 0.47617993877849962 0 0.11304725129434449 0.46767028325629811 0 0.1267882431275838 0.46370707134437261 0 0.12569724768963239 0.47617993877849962 0 0.11304725129434449 0.46767028325629811 0 0.1221607865463437 0.4507156547582637 0 0.1004821270038239 0.44949914822431608 0 0.11304725129434449 0.46767028325629811 0 0.1221607865463437 0.4507156547582637 0 0.1267882431275838 0.46370707134437261 0 0.1221607865463437 0.4507156547582637 0 0.1004821270038239 0.44949914822431608 0 0.12259086230274099 0.42947812748907283 0 0.1004821270038239 0.44949914822431608 0 0.096803680563272876 0.46646214520586099 0 0.084307548883437972 0.45862843933572522 0 0.11304725129434449 0.46767028325629811 0 0.1004821270038239 0.44949914822431608 0 0.096803680563272876 0.46646214520586099 0 0.084307548883437972 0.45862843933572522 0 0.070120974899159305 0.46867166915081548 0 0.08254081050968877 0.47642281665818748 0 0.096803680563272876 0.46646214520586099 0 0.084307548883437972 0.45862843933572522 0 0.08254081050968877 0.47642281665818748 0 0.084307548883437972 0.45862843933572522 0 0.083205653112744402 0.44008551456546158 0 0.070599818540594342 0.45171728711773013 0 0.1004821270038239 0.44949914822431608 0 0.084307548883437972 0.45862843933572522 0 0.083205653112744402 0.44008551456546158 0 0.1004821270038239 0.44949914822431608 0 0.083205653112744402 0.44008551456546158 0 0.095892719888732866 0.42453745382262881 0 0.070599818540594342 0.45171728711773013 0 0.057347956450285731 0.44480695268810438 0 0.068330088192809502 0.43602814955066621 0 0.083205653112744402 0.44008551456546158 0 0.070599818540594342 0.45171728711773013 0 0.068330088192809502 0.43602814955066621 0 0.070599818540594342 0.45171728711773013 0 0.070120974899159305 0.46867166915081548 0 0.05832870883015126 0.45973880463956351 0 0.084307548883437972 0.45862843933572522 0 0.070599818540594342 0.45171728711773013 0 0.070120974899159305 0.46867166915081548 0 0.070120974899159305 0.46867166915081548 0 0.08254081050968877 0.47642281665818748 0 0.061557047466102868 0.48310025102256282 0 0.070120974899159305 0.46867166915081548 0 0.061557047466102868 0.48310025102256282 0 0.05832870883015126 0.45973880463956351 0 0.099456207782380623 0.4822659283708195 0 0.096803680563272876 0.46646214520586099 0 0.08254081050968877 0.47642281665818748 0 0.099456207782380623 0.4822659283708195 0 0.08254081050968877 0.47642281665818748 0 0.078267650747156567 0.50000000000000133 0 0.078267650747156567 0.50000000000000133 0 0.049166882519808157 0.5 0 0.061557047466102868 0.48310025102256282 0 0.08254081050968877 0.47642281665818748 0 0.078267650747156567 0.50000000000000133 0 0.061557047466102868 0.48310025102256282 0 0.078267650747156567 0.50000000000000133 0 0.061557047466102868 0.48310025102256282 0 0.049166882519808157 0.5 0 0.061557047466102868 0.48310025102256282 0 0.038208171894904559 0.48286056860770488 0 0.061557047466102868 0.48310025102256282 0 0.044846444185049857 0.46620050204512359 0 0.05832870883015126 0.45973880463956351 0 0.061557047466102868 0.48310025102256282 0 0.044846444185049857 0.46620050204512359 0 0.061557047466102868 0.48310025102256282 0 0.038208171894904559 0.48286056860770488 0 0.044846444185049857 0.46620050204512359 0 0.038208171894904559 0.48286056860770488 0 0.029572045059576241 0.469060477695939 0 0.044846444185049857 0.46620050204512359 0 0.049166882519808157 0.5 0 0.038208171894904559 0.48286056860770488 0 0.020066114292459799 0.5 0 0.038208171894904559 0.48286056860770488 0 0.020066114292459799 0.5 0 0.021055159894441029 0.48095839664786189 0 0.038208171894904559 0.48286056860770488 0 0.029572045059576241 0.469060477695939 0 0.021055159894441029 0.48095839664786189 0 0.029572045059576241 0.469060477695939 0 0.021055159894441029 0.48095839664786189 0 0.01561460841948897 0.46598216811131982 0 0.021055159894441029 0.48095839664786189 0 0.0030933759349822849 0.48266358315495572 0 0.01561460841948897 0.46598216811131982 0 0.0030933759349822849 0.48266358315495572 0 0.01561460841948897 0.46598216811131982 0 0.0036787250480955699 0.47408322248379448 0 0.0030933759349822849 0.48266358315495572 0 0.01561460841948897 0.46598216811131982 0 -0.0016340076521478781 0.48633642657919801 0 0.0036787250480955699 0.47408322248379448 0 0.0030933759349822849 0.48266358315495572 0 0.020066114292459799 0.5 0 0.021055159894441029 0.48095839664786189 0 0.0030933759349822849 0.48266358315495572 0 -0.0090346539348886701 0.5 0 -0.0016340076521478781 0.48633642657919801 0 0.020066114292459799 0.5 0 -0.0016340076521478781 0.48633642657919801 0 0.020066114292459799 0.5 0 0.0030933759349822849 0.48266358315495572 0 -0.0030841453677343121 0.43636499760021141 0 -0.002359076509941094 0.46135071208970457 0 0.010470448459028871 0.45111158928184719 0 -0.0030841453677343121 0.43636499760021141 0 0.010470448459028871 0.45111158928184719 0 0.017893296784651399 0.43894227458572882 0 -0.002359076509941094 0.46135071208970457 0 0.010470448459028871 0.45111158928184719 0 0.01561460841948897 0.46598216811131982 0 -0.002359076509941094 0.46135071208970457 0 0.0036787250480955699 0.47408322248379448 0 0.01561460841948897 0.46598216811131982 0 0.010470448459028871 0.45111158928184719 0 0.01561460841948897 0.46598216811131982 0 0.0281358409039968 0.44930075306768458 0 0.029572045059576241 0.469060477695939 0 0.01561460841948897 0.46598216811131982 0 0.0281358409039968 0.44930075306768458 0 0.01561460841948897 0.46598216811131982 0 0.0281358409039968 0.44930075306768458 0 0.010470448459028871 0.45111158928184719 0 0.0281358409039968 0.44930075306768458 0 0.017893296784651399 0.43894227458572882 0 0.0281358409039968 0.44930075306768458 0 0.017893296784651399 0.43894227458572882 0 0.03800042812263172 0.43615865433005307 0 0.0281358409039968 0.44930075306768458 0 0.017893296784651399 0.43894227458572882 0 0.0281358409039968 0.44930075306768458 0 0.04587361322417214 0.448769157871174 0 0.03800042812263172 0.43615865433005307 0 0.0281358409039968 0.44930075306768458 0 0.03800042812263172 0.43615865433005307 0 0.04587361322417214 0.448769157871174 0 0.049411209704934803 0.43621283219101809 0 0.03800042812263172 0.43615865433005307 0 0.029572045059576241 0.469060477695939 0 0.0281358409039968 0.44930075306768458 0 0.044846444185049857 0.46620050204512359 0 0.0281358409039968 0.44930075306768458 0 0.04587361322417214 0.448769157871174 0 0.044846444185049857 0.46620050204512359 0 0.0281358409039968 0.44930075306768458 0 0.044846444185049857 0.46620050204512359 0 0.04587361322417214 0.448769157871174 0 0.044846444185049857 0.46620050204512359 0 0.05832870883015126 0.45973880463956351 0 0.04587361322417214 0.448769157871174 0 0.057347956450285731 0.44480695268810438 0 0.049411209704934803 0.43621283219101809 0 0.04587361322417214 0.448769157871174 0 0.05832870883015126 0.45973880463956351 0 0.057347956450285731 0.44480695268810438 0 0.070599818540594342 0.45171728711773013 0 0.05832870883015126 0.45973880463956351 0 0.057347956450285731 0.44480695268810438 0 0.057347956450285731 0.44480695268810438 0 0.058238482531349368 0.43512174465279091 0 0.068330088192809502 0.43602814955066621 0 0.057347956450285731 0.44480695268810438 0 0.058238482531349368 0.43512174465279091 0 0.049411209704934803 0.43621283219101809 0 0.058238482531349368 0.43512174465279091 0 0.05412352915042095 0.42739076434297479 0 0.063786863135573219 0.4234822836218442 0 0.05412352915042095 0.42739076434297479 0 0.047865015341267358 0.42301655559242213 0 0.049411209704934803 0.43621283219101809 0 0.05412352915042095 0.42739076434297479 0 0.047865015341267358 0.42301655559242213 0 0.058238482531349368 0.43512174465279091 0 0.05412352915042095 0.42739076434297479 0 0.049411209704934803 0.43621283219101809 0 0.047865015341267358 0.42301655559242213 0 0.055388731832649349 0.41299308245440008 0 0.044385004541519633 0.40583709082877739 0 0.055388731832649349 0.41299308245440008 0 0.057103340742871267 0.4006394318358022 0 0.0691327228978319 0.40699071288372829 0 0.05412352915042095 0.42739076434297479 0 0.055388731832649349 0.41299308245440008 0 0.063786863135573219 0.4234822836218442 0 0.047865015341267358 0.42301655559242213 0 0.055388731832649349 0.41299308245440008 0 0.05412352915042095 0.42739076434297479 0 0.047865015341267358 0.42301655559242213 0 0.055388731832649349 0.41299308245440008 0 0.055388731832649349 0.41299308245440008 0 0.044385004541519633 0.40583709082877739 0 0.057103340742871267 0.4006394318358022 0 0.047865015341267358 0.42301655559242213 0 0.030398582533070099 0.41080889326869052 0 0.044385004541519633 0.40583709082877739 0 0.047865015341267358 0.42301655559242213 0 0.035686717363660143 0.42423985257235269 0 0.030398582533070099 0.41080889326869052 0 0.047865015341267358 0.42301655559242213 0 0.030398582533070099 0.41080889326869052 0 0.047865015341267358 0.42301655559242213 0 0.049411209704934803 0.43621283219101809 0 0.03800042812263172 0.43615865433005307 0 0.047865015341267358 0.42301655559242213 0 0.03800042812263172 0.43615865433005307 0 0.047865015341267358 0.42301655559242213 0 0.035686717363660143 0.42423985257235269 0 0.03800042812263172 0.43615865433005307 0 0.035686717363660143 0.42423985257235269 0 0.03800042812263172 0.43615865433005307 0 0.0264828434576714 0.42697530709824522 0 0.017893296784651399 0.43894227458572882 0 0.0264828434576714 0.42697530709824522 0 0.013451351612083251 0.42022136891186163 0 0.017893296784651399 0.43894227458572882 0 0.03800042812263172 0.43615865433005307 0 0.0264828434576714 0.42697530709824522 0 0.030398582533070099 0.41080889326869052 0 0.013451351612083251 0.42022136891186163 0 0.012932149724872831 0.39860123094495892 0 0.0264828434576714 0.42697530709824522 0 0.030398582533070099 0.41080889326869052 0 0.013451351612083251 0.42022136891186163 0 0.035686717363660143 0.42423985257235269 0 0.0264828434576714 0.42697530709824522 0 0.030398582533070099 0.41080889326869052 0 -0.0038092142255275289 0.41137928311071797 0 0.013451351612083251 0.42022136891186163 0 0.012932149724872831 0.39860123094495892 0 -0.0030841453677343121 0.43636499760021141 0 0.017893296784651399 0.43894227458572882 0 0.013451351612083251 0.42022136891186163 0 -0.0030841453677343121 0.43636499760021141 0 -0.0038092142255275289 0.41137928311071797 0 0.013451351612083251 0.42022136891186163 0 -0.0045342830833226501 0.3863935686212247 0 0.012932149724872831 0.39860123094495892 0 0.0079023355216259559 0.37348921158265391 0 0.012932149724872831 0.39860123094495892 0 0.025375843575522711 0.38021681034322929 0 0.0079023355216259559 0.37348921158265391 0 -0.0045342830833226501 0.3863935686212247 0 0.012932149724872831 0.39860123094495892 0 -0.0045342830833226501 0.3863935686212247 0 -0.0038092142255275289 0.41137928311071797 0 0.012932149724872831 0.39860123094495892 0 0.030398582533070099 0.41080889326869052 0 0.012932149724872831 0.39860123094495892 0 0.030398582533070099 0.41080889326869052 0 0.012932149724872831 0.39860123094495892 0 0.030218872497922818 0.39559608178221078 0 0.012932149724872831 0.39860123094495892 0 0.030218872497922818 0.39559608178221078 0 0.025375843575522711 0.38021681034322929 0 0.025375843575522711 0.38021681034322929 0 0.045236422390978262 0.39339421550307069 0 0.045418656597819553 0.37354288132317159 0 0.030218872497922818 0.39559608178221078 0 0.025375843575522711 0.38021681034322929 0 0.045236422390978262 0.39339421550307069 0 0.030398582533070099 0.41080889326869052 0 0.030218872497922818 0.39559608178221078 0 0.044385004541519633 0.40583709082877739 0 0.030218872497922818 0.39559608178221078 0 0.045236422390978262 0.39339421550307069 0 0.044385004541519633 0.40583709082877739 0 0.045236422390978262 0.39339421550307069 0 0.057103340742871267 0.4006394318358022 0 0.06607043693335328 0.38973814947632979 0 0.045236422390978262 0.39339421550307069 0 0.044385004541519633 0.40583709082877739 0 0.057103340742871267 0.4006394318358022 0 0.045236422390978262 0.39339421550307069 0 0.06607043693335328 0.38973814947632979 0 0.045418656597819553 0.37354288132317159 0 0.06607043693335328 0.38973814947632979 0 0.066778362586220691 0.36264744131756171 0 0.045418656597819553 0.37354288132317159 0 0.06607043693335328 0.38973814947632979 0 0.086713905658550791 0.37461406501925459 0 0.066778362586220691 0.36264744131756171 0 0.091303312773641829 0.3995757594209417 0 0.1025776524751303 0.38486691706586951 0 0.086713905658550791 0.37461406501925459 0 0.06607043693335328 0.38973814947632979 0 0.091303312773641829 0.3995757594209417 0 0.086713905658550791 0.37461406501925459 0 0.091303312773641829 0.3995757594209417 0 0.086713905658550791 0.37461406501925459 0 0.06607043693335328 0.38973814947632979 0 0.091303312773641829 0.3995757594209417 0 0.0691327228978319 0.40699071288372829 0 0.057103340742871267 0.4006394318358022 0 0.06607043693335328 0.38973814947632979 0 0.0691327228978319 0.40699071288372829 0 0.055388731832649349 0.41299308245440008 0 0.0691327228978319 0.40699071288372829 0 0.063786863135573219 0.4234822836218442 0 0.0691327228978319 0.40699071288372829 0 0.077714875811277062 0.4214876261871765 0 0.063786863135573219 0.4234822836218442 0 0.083205653112744402 0.44008551456546158 0 0.077714875811277062 0.4214876261871765 0 0.068330088192809502 0.43602814955066621 0 0.058238482531349368 0.43512174465279091 0 0.068330088192809502 0.43602814955066621 0 0.063786863135573219 0.4234822836218442 0 0.077714875811277062 0.4214876261871765 0 0.068330088192809502 0.43602814955066621 0 0.063786863135573219 0.4234822836218442 0 0.083205653112744402 0.44008551456546158 0 0.077714875811277062 0.4214876261871765 0 0.095892719888732866 0.42453745382262881 0 0.091303312773641829 0.3995757594209417 0 0.0691327228978319 0.40699071288372829 0 0.077714875811277062 0.4214876261871765 0 0.091303312773641829 0.3995757594209417 0 0.095892719888732866 0.42453745382262881 0 0.091303312773641829 0.3995757594209417 0 0.077714875811277062 0.4214876261871765 0 0.095892719888732866 0.42453745382262881 0 0.091303312773641829 0.3995757594209417 0 0.095892719888732866 0.42453745382262881 0 0.115428724103706 0.40267530492779557 0 0.1004821270038239 0.44949914822431608 0 0.095892719888732866 0.42453745382262881 0 0.12259086230274099 0.42947812748907283 0 0.1004821270038239 0.44949914822431608 0 0.095892719888732866 0.42453745382262881 0 0.095892719888732866 0.42453745382262881 0 0.12259086230274099 0.42947812748907283 0 0.115428724103706 0.40267530492779557 0 0.115428724103706 0.40267530492779557 0 0.119448870245615 0.38256434187866972 0 0.13692284990477191 0.38930777957628943 0 0.119448870245615 0.38256434187866972 0 0.1025776524751303 0.38486691706586951 0 0.1087205780393706 0.3656269003386084 0 0.115428724103706 0.40267530492779557 0 0.119448870245615 0.38256434187866972 0 0.1025776524751303 0.38486691706586951 0 0.1025776524751303 0.38486691706586951 0 0.1087205780393706 0.3656269003386084 0 0.086713905658550791 0.37461406501925459 0 0.091303312773641829 0.3995757594209417 0 0.115428724103706 0.40267530492779557 0 0.1025776524751303 0.38486691706586951 0 0.1087205780393706 0.3656269003386084 0 0.1202868522871179 0.34060046584014031 0 0.0915497208986496 0.34709204532757532 0 0.1087205780393706 0.3656269003386084 0 0.0915497208986496 0.34709204532757532 0 0.086713905658550791 0.37461406501925459 0 0.119448870245615 0.38256434187866972 0 0.1087205780393706 0.3656269003386084 0 0.13274728415341139 0.36410634055334368 0 0.1087205780393706 0.3656269003386084 0 0.1202868522871179 0.34060046584014031 0 0.13274728415341139 0.36410634055334368 0 0.1202868522871179 0.34060046584014031 0 0.1104734498024164 0.31171603628350752 0 0.14183880654046921 0.32250528078568202 0 0.1202868522871179 0.34060046584014031 0 0.1016552612267161 0.33013161519950079 0 0.1104734498024164 0.31171603628350752 0 0.1016552612267161 0.33013161519950079 0 0.081254576285268804 0.3210829637434266 0 0.1104734498024164 0.31171603628350752 0 0.1202868522871179 0.34060046584014031 0 0.1016552612267161 0.33013161519950079 0 0.0915497208986496 0.34709204532757532 0 0.081254576285268804 0.3210829637434266 0 0.072654821413094289 0.33942743407960763 0 0.0915497208986496 0.34709204532757532 0 0.1016552612267161 0.33013161519950079 0 0.081254576285268804 0.3210829637434266 0 0.0915497208986496 0.34709204532757532 0 0.081254576285268804 0.3210829637434266 0 0.06358813508901956 0.32234581427363851 0 0.071244474661197085 0.3036312559279935 0 0.081254576285268804 0.3210829637434266 0 0.06358813508901956 0.32234581427363851 0 0.072654821413094289 0.33942743407960763 0 0.06358813508901956 0.32234581427363851 0 0.072654821413094289 0.33942743407960763 0 0.055199983679349987 0.34246375673151652 0 0.072654821413094289 0.33942743407960763 0 0.066778362586220691 0.36264744131756171 0 0.055199983679349987 0.34246375673151652 0 0.072654821413094289 0.33942743407960763 0 0.0915497208986496 0.34709204532757532 0 0.066778362586220691 0.36264744131756171 0 0.0915497208986496 0.34709204532757532 0 0.086713905658550791 0.37461406501925459 0 0.066778362586220691 0.36264744131756171 0 0.066778362586220691 0.36264744131756171 0 0.044951457965310811 0.3555124197003488 0 0.045418656597819553 0.37354288132317159 0 0.066778362586220691 0.36264744131756171 0 0.044951457965310811 0.3555124197003488 0 0.055199983679349987 0.34246375673151652 0 0.044951457965310811 0.3555124197003488 0 0.021903196078839001 0.35746348141110651 0 0.035457090884324839 0.34144453771838768 0 0.044951457965310811 0.3555124197003488 0 0.035457090884324839 0.34144453771838768 0 0.055199983679349987 0.34246375673151652 0 0.044951457965310811 0.3555124197003488 0 0.045418656597819553 0.37354288132317159 0 0.021903196078839001 0.35746348141110651 0 0.025375843575522711 0.38021681034322929 0 0.021903196078839001 0.35746348141110651 0 0.0079023355216259559 0.37348921158265391 0 0.025375843575522711 0.38021681034322929 0 0.045418656597819553 0.37354288132317159 0 0.021903196078839001 0.35746348141110651 0 0.021903196078839001 0.35746348141110651 0 0.017151683724365509 0.3376665205351736 0 0.035457090884324839 0.34144453771838768 0 0.021903196078839001 0.35746348141110651 0 0.0095650341834115256 0.34490192427506011 0 0.017151683724365509 0.3376665205351736 0 0.021903196078839001 0.35746348141110651 0 0.0095650341834115256 0.34490192427506011 0 0.0061318462344260851 0.35417601161121459 0 -0.0050552824635438226 0.34569829691311771 0 0.0095650341834115256 0.34490192427506011 0 0.0061318462344260851 0.35417601161121459 0 0.021903196078839001 0.35746348141110651 0 0.0061318462344260851 0.35417601161121459 0 0.0079023355216259559 0.37348921158265391 0 -0.0052616759920083916 0.36132776784546622 0 0.0061318462344260851 0.35417601161121459 0 0.0079023355216259559 0.37348921158265391 0 0.0087281755863181168 0.33049580891976171 0 0.020410497070949891 0.30832150289807031 0 0.0056044744337335906 0.31412092038659428 0 0.0087281755863181168 0.33049580891976171 0 0.020410497070949891 0.30832150289807031 0 -0.003280447873963227 0.32161399115684158 0 0.0056044744337335906 0.31412092038659428 0 0.0087281755863181168 0.33049580891976171 0 0.0064742168078369342 0.3347740657525386 0 0.0087281755863181168 0.33049580891976171 0 -0.0050552824635438226 0.34569829691311771 0 0.0095650341834115256 0.34490192427506011 0 0.0064742168078369342 0.3347740657525386 0 0.0095650341834115256 0.34490192427506011 0 0.0064742168078369342 0.3347740657525386 0 0.017151683724365509 0.3376665205351736 0 0.0064742168078369342 0.3347740657525386 0 0.0087281755863181168 0.33049580891976171 0 0.017151683724365509 0.3376665205351736 0 0.0087281755863181168 0.33049580891976171 0 0.025353163704189718 0.33024288796319817 0 0.017151683724365509 0.3376665205351736 0 0.0087281755863181168 0.33049580891976171 0 0.025353163704189718 0.33024288796319817 0 0.025353163704189718 0.33024288796319817 0 0.017151683724365509 0.3376665205351736 0 0.035457090884324839 0.34144453771838768 0 0.0087281755863181168 0.33049580891976171 0 0.025353163704189718 0.33024288796319817 0 0.020410497070949891 0.30832150289807031 0 0.025353163704189718 0.33024288796319817 0 0.038017806832533571 0.30672300381527179 0 0.020410497070949891 0.30832150289807031 0 0.025353163704189718 0.33024288796319817 0 0.045812945845809312 0.32351293560108041 0 0.038017806832533571 0.30672300381527179 0 0.025353163704189718 0.33024288796319817 0 0.045812945845809312 0.32351293560108041 0 0.035457090884324839 0.34144453771838768 0 0.045812945845809312 0.32351293560108041 0 0.035457090884324839 0.34144453771838768 0 0.055199983679349987 0.34246375673151652 0 0.06358813508901956 0.32234581427363851 0 0.045812945845809312 0.32351293560108041 0 0.055199983679349987 0.34246375673151652 0 0.06358813508901956 0.32234581427363851 0 0.045812945845809312 0.32351293560108041 0 0.055148108477292443 0.3057593846019967 0 0.055148108477292443 0.3057593846019967 0 0.047586914097201803 0.29032131063477928 0 0.038017806832533571 0.30672300381527179 0 0.055148108477292443 0.3057593846019967 0 0.047586914097201803 0.29032131063477928 0 0.066935962560195753 0.28615893812798288 0 0.047586914097201803 0.29032131063477928 0 0.050578246113349837 0.27455429857722041 0 0.066935962560195753 0.28615893812798288 0 0.047586914097201803 0.29032131063477928 0 0.032092818555581597 0.28614719687637868 0 0.038017806832533571 0.30672300381527179 0 0.047586914097201803 0.29032131063477928 0 0.032092818555581597 0.28614719687637868 0 0.050578246113349837 0.27455429857722041 0 0.045812945845809312 0.32351293560108041 0 0.055148108477292443 0.3057593846019967 0 0.038017806832533571 0.30672300381527179 0 0.032092818555581597 0.28614719687637868 0 0.038017806832533571 0.30672300381527179 0 0.020410497070949891 0.30832150289807031 0 0.032092818555581597 0.28614719687637868 0 0.020410497070949891 0.30832150289807031 0 0.032092818555581597 0.28614719687637868 0 0.020410497070949891 0.30832150289807031 0 0.0083336089875100904 0.29343585490586271 0 0.032092818555581597 0.28614719687637868 0 0.0083336089875100904 0.29343585490586271 0 0.021382191810826279 0.2686960609189637 0 -0.0088759444352828343 0.31092800175718183 0 0.0056044744337335906 0.31412092038659428 0 0.0083336089875100904 0.29343585490586271 0 0.0056044744337335906 0.31412092038659428 0 0.020410497070949891 0.30832150289807031 0 0.0083336089875100904 0.29343585490586271 0 0.0073806355134042019 0.25529449578482938 0 3.3590645499582607e-05 0.27236849017123349 0 0.021382191810826279 0.2686960609189637 0 0.0083336089875100904 0.29343585490586271 0 3.3590645499582607e-05 0.27236849017123349 0 0.021382191810826279 0.2686960609189637 0 0.025149977659741599 0.24684982625080901 0 0.0073806355134042019 0.25529449578482938 0 0.021382191810826279 0.2686960609189637 0 0.025149977659741599 0.24684982625080901 0 0.021382191810826279 0.2686960609189637 0 0.043775140040213267 0.26397289085468728 0 0.025149977659741599 0.24684982625080901 0 0.045472231705318063 0.24424317023843681 0 0.050158093690384618 0.2598810672441918 0 0.025149977659741599 0.24684982625080901 0 0.050158093690384618 0.2598810672441918 0 0.025149977659741599 0.24684982625080901 0 0.043775140040213267 0.26397289085468728 0 0.050158093690384618 0.2598810672441918 0 0.032092818555581597 0.28614719687637868 0 0.043775140040213267 0.26397289085468728 0 0.032092818555581597 0.28614719687637868 0 0.021382191810826279 0.2686960609189637 0 0.043775140040213267 0.26397289085468728 0 0.032092818555581597 0.28614719687637868 0 0.043775140040213267 0.26397289085468728 0 0.050578246113349837 0.27455429857722041 0 0.050578246113349837 0.27455429857722041 0 0.063875668081316214 0.2678607518654692 0 0.066935962560195753 0.28615893812798288 0 0.043775140040213267 0.26397289085468728 0 0.050578246113349837 0.27455429857722041 0 0.050158093690384618 0.2598810672441918 0 0.050578246113349837 0.27455429857722041 0 0.056046126259945157 0.25263236173372139 0 0.063875668081316214 0.2678607518654692 0 0.050578246113349837 0.27455429857722041 0 0.050158093690384618 0.2598810672441918 0 0.056046126259945157 0.25263236173372139 0 0.045472231705318063 0.24424317023843681 0 0.050158093690384618 0.2598810672441918 0 0.056046126259945157 0.25263236173372139 0 0.050578246113349837 0.27455429857722041 0 0.056046126259945157 0.25263236173372139 0 0.078525547080241467 0.2465942846531784 0 0.067905867336300579 0.25358800162702 0 0.079567988853459573 0.27014218499250892 0 0.067905867336300579 0.25358800162702 0 0.079567988853459573 0.27014218499250892 0 0.063875668081316214 0.2678607518654692 0 0.056046126259945157 0.25263236173372139 0 0.067905867336300579 0.25358800162702 0 0.063875668081316214 0.2678607518654692 0 0.078525547080241467 0.2465942846531784 0 0.079567988853459573 0.27014218499250892 0 0.093798877441032588 0.2579700649065903 0 0.079567988853459573 0.27014218499250892 0 0.063875668081316214 0.2678607518654692 0 0.066935962560195753 0.28615893812798288 0 0.079567988853459573 0.27014218499250892 0 0.066935962560195753 0.28615893812798288 0 0.087430381393448858 0.29852998767476718 0 0.066935962560195753 0.28615893812798288 0 0.071244474661197085 0.3036312559279935 0 0.087430381393448858 0.29852998767476718 0 0.055148108477292443 0.3057593846019967 0 0.066935962560195753 0.28615893812798288 0 0.071244474661197085 0.3036312559279935 0 0.06358813508901956 0.32234581427363851 0 0.055148108477292443 0.3057593846019967 0 0.071244474661197085 0.3036312559279935 0 0.081254576285268804 0.3210829637434266 0 0.087430381393448858 0.29852998767476718 0 0.1104734498024164 0.31171603628350752 0 0.081254576285268804 0.3210829637434266 0 0.071244474661197085 0.3036312559279935 0 0.087430381393448858 0.29852998767476718 0 0.079567988853459573 0.27014218499250892 0 0.087430381393448858 0.29852998767476718 0 0.1079828451826004 0.27738565586056829 0 0.087430381393448858 0.29852998767476718 0 0.1104734498024164 0.31171603628350752 0 0.1079828451826004 0.27738565586056829 0 0.1104734498024164 0.31171603628350752 0 0.1079828451826004 0.27738565586056829 0 0.13401849175413849 0.29214957311260448 0 0.1079828451826004 0.27738565586056829 0 0.13401849175413849 0.29214957311260448 0 0.1100607559553454 0.25396994184181759 0 0.1079828451826004 0.27738565586056829 0 0.13366986361514199 0.26692500362740812 0 0.12787711237058769 0.24521089126939841 0 0.1100607559553454 0.25396994184181759 0 0.13366986361514199 0.26692500362740812 0 0.092857250133516089 0.24175825718487831 0 0.1100607559553454 0.25396994184181759 0 0.093798877441032588 0.2579700649065903 0 0.1100607559553454 0.25396994184181759 0 0.093798877441032588 0.2579700649065903 0 0.1079828451826004 0.27738565586056829 0 0.079567988853459573 0.27014218499250892 0 0.093798877441032588 0.2579700649065903 0 0.1079828451826004 0.27738565586056829 0 0.13366986361514199 0.26692500362740812 0 0.1558685034792309 0.28595093384994291 0 0.15959452244756481 0.26367036214955358 0 0.14702044576598061 0.2478904659134552 0 0.13366986361514199 0.26692500362740812 0 0.15959452244756481 0.26367036214955358 0 0.14702044576598061 0.2478904659134552 0 0.12787711237058769 0.24521089126939841 0 0.13366986361514199 0.26692500362740812 0 0.1079828451826004 0.27738565586056829 0 0.13366986361514199 0.26692500362740812 0 0.13401849175413849 0.29214957311260448 0 0.1104734498024164 0.31171603628350752 0 0.13401849175413849 0.29214957311260448 0 0.14183880654046921 0.32250528078568202 0 0.13401849175413849 0.29214957311260448 0 0.16005413832567669 0.30691349036464077 0 0.14183880654046921 0.32250528078568202 0 0.13401849175413849 0.29214957311260448 0 0.16005413832567669 0.30691349036464077 0 0.13401849175413849 0.29214957311260448 0 0.1558685034792309 0.28595093384994291 0 0.16005413832567669 0.30691349036464077 0 0.13366986361514199 0.26692500362740812 0 0.13401849175413849 0.29214957311260448 0 0.1558685034792309 0.28595093384994291 0 0.1558685034792309 0.28595093384994291 0 0.1700220001876428 0.28782965529906401 0 0.16005413832567669 0.30691349036464077 0 0.1558685034792309 0.28595093384994291 0 0.1700220001876428 0.28782965529906401 0 0.17370236977615991 0.27502287964280692 0 0.1700220001876428 0.28782965529906401 0 0.16005413832567669 0.30691349036464077 0 0.1764196225356903 0.29880027385689728 0 0.16005413832567669 0.30691349036464077 0 0.1764196225356903 0.29880027385689728 0 0.18686192329242929 0.31378732528256248 0 0.1764196225356903 0.29880027385689728 0 0.18674031124236579 0.30201460306836742 0 0.19086383386244751 0.2907864273273883 0 0.1764196225356903 0.29880027385689728 0 0.18674031124236579 0.30201460306836742 0 0.18686192329242929 0.31378732528256248 0 0.1700220001876428 0.28782965529906401 0 0.18013512871176271 0.28566990799825959 0 0.17370236977615991 0.27502287964280692 0 0.1700220001876428 0.28782965529906401 0 0.1764196225356903 0.29880027385689728 0 0.18013512871176271 0.28566990799825959 0 0.1764196225356903 0.29880027385689728 0 0.18013512871176271 0.28566990799825959 0 0.19086383386244751 0.2907864273273883 0 0.18013512871176271 0.28566990799825959 0 0.1896678171968729 0.27591030386514148 0 0.19086383386244751 0.2907864273273883 0 0.18251379545819379 0.26835647973838378 0 0.17370236977615991 0.27502287964280692 0 0.1896678171968729 0.27591030386514148 0 0.18013512871176271 0.28566990799825959 0 0.17370236977615991 0.27502287964280692 0 0.1896678171968729 0.27591030386514148 0 0.18251379545819379 0.26835647973838378 0 0.17370236977615991 0.27502287964280692 0 0.17699066645021869 0.2595722272450377 0 0.17370236977615991 0.27502287964280692 0 0.15959452244756481 0.26367036214955358 0 0.17699066645021869 0.2595722272450377 0 0.1558685034792309 0.28595093384994291 0 0.17370236977615991 0.27502287964280692 0 0.15959452244756481 0.26367036214955358 0 0.16774616909827719 0.2460930353984315 0 0.15959452244756481 0.26367036214955358 0 0.17699066645021869 0.2595722272450377 0 0.14702044576598061 0.2478904659134552 0 0.16774616909827719 0.2460930353984315 0 0.15959452244756481 0.26367036214955358 0 0.18692125413578081 0.24552837502103991 0 0.16774616909827719 0.2460930353984315 0 0.17699066645021869 0.2595722272450377 0 0.18692125413578081 0.24552837502103991 0 0.17699066645021869 0.2595722272450377 0 0.19242781921148469 0.26384338938458129 0 0.18251379545819379 0.26835647973838378 0 0.17699066645021869 0.2595722272450377 0 0.19242781921148469 0.26384338938458129 0 0.18692125413578081 0.24552837502103991 0 0.19242781921148469 0.26384338938458129 0 0.20107379594449931 0.25686311186437227 0 0.18692125413578081 0.24552837502103991 0 0.20107379594449931 0.25686311186437227 0 0.19242781921148469 0.26384338938458129 0 0.20107379594449931 0.25686311186437227 0 0.2008998280478862 0.26959186196165702 0 0.19242781921148469 0.26384338938458129 0 0.20107379594449931 0.25686311186437227 0 0.19242781921148469 0.26384338938458129 0 0.1896678171968729 0.27591030386514148 0 0.2008998280478862 0.26959186196165702 0 0.18251379545819379 0.26835647973838378 0 0.19242781921148469 0.26384338938458129 0 0.1896678171968729 0.27591030386514148 0 0.1896678171968729 0.27591030386514148 0 0.2008998280478862 0.26959186196165702 0 0.20354188417430641 0.281093168015905 0 0.2008998280478862 0.26959186196165702 0 0.2177878237122676 0.27024933667828532 0 0.20354188417430641 0.281093168015905 0 0.2177878237122676 0.27024933667828532 0 0.20354188417430641 0.281093168015905 0 0.2166033006779626 0.28924568688104418 0 0.21557305570370441 0.24515722135805329 0 0.20107379594449931 0.25686311186437227 0 0.2177878237122676 0.27024933667828532 0 0.20107379594449931 0.25686311186437227 0 0.2177878237122676 0.27024933667828532 0 0.20107379594449931 0.25686311186437227 0 0.2008998280478862 0.26959186196165702 0 0.2177878237122676 0.27024933667828532 0 0.21557305570370441 0.24515722135805329 0 0.20107379594449931 0.25686311186437227 0 0.21557305570370441 0.24515722135805329 0 0.2177878237122676 0.27024933667828532 0 0.23628031136540401 0.25597328662156199 0 0.2177878237122676 0.27024933667828532 0 0.23628031136540401 0.25597328662156199 0 0.23450185148003599 0.28363556149219821 0 0.2177878237122676 0.27024933667828532 0 0.23450185148003599 0.28363556149219821 0 0.2166033006779626 0.28924568688104418 0 0.2177878237122676 0.27024933667828532 0 0.23450185148003599 0.28363556149219821 0 0.23628031136540401 0.25597328662156199 0 0.23450185148003599 0.28363556149219821 0 0.25102838231212438 0.26850893423506528 0 0.23450185148003599 0.28363556149219821 0 0.25953152444998728 0.28294166139542631 0 0.25102838231212438 0.26850893423506528 0 0.23628031136540401 0.25597328662156199 0 0.25102838231212438 0.26850893423506528 0 0.26221447651104962 0.2479993693513689 0 0.2297645605960125 0.30261029929826411 0 0.25121587924780342 0.29702178630611242 0 0.2484846271056145 0.31037308609574782 0 0.2297645605960125 0.30261029929826411 0 0.23798581837376781 0.31938142953188831 0 0.2484846271056145 0.31037308609574782 0 0.2297645605960125 0.30261029929826411 0 0.25121587924780342 0.29702178630611242 0 0.23450185148003599 0.28363556149219821 0 0.2297645605960125 0.30261029929826411 0 0.25121587924780342 0.29702178630611242 0 0.23450185148003599 0.28363556149219821 0 0.25121587924780342 0.29702178630611242 0 0.23450185148003599 0.28363556149219821 0 0.25953152444998728 0.28294166139542631 0 0.25121587924780342 0.29702178630611242 0 0.23450185148003599 0.28363556149219821 0 0.2297645605960125 0.30261029929826411 0 0.2166033006779626 0.28924568688104418 0 0.2297645605960125 0.30261029929826411 0 0.20831324194422091 0.30819881229041318 0 0.2297645605960125 0.30261029929826411 0 0.20831324194422091 0.30819881229041318 0 0.21977364325038071 0.31928170538083578 0 0.20831324194422091 0.30819881229041318 0 0.2166033006779626 0.28924568688104418 0 0.20288664267638859 0.29424953150154581 0 0.2297645605960125 0.30261029929826411 0 0.20831324194422091 0.30819881229041318 0 0.2166033006779626 0.28924568688104418 0 0.20354188417430641 0.281093168015905 0 0.2166033006779626 0.28924568688104418 0 0.20288664267638859 0.29424953150154581 0 0.20354188417430641 0.281093168015905 0 0.20288664267638859 0.29424953150154581 0 0.19086383386244751 0.2907864273273883 0 0.20288664267638859 0.29424953150154581 0 0.19086383386244751 0.2907864273273883 0 0.19511095272300569 0.3019235629929784 0 0.1896678171968729 0.27591030386514148 0 0.20354188417430641 0.281093168015905 0 0.19086383386244751 0.2907864273273883 0 0.20831324194422091 0.30819881229041318 0 0.18686192329242929 0.31378732528256248 0 0.20831324194422091 0.30819881229041318 0 0.19511095272300569 0.3019235629929784 0 0.18686192329242929 0.31378732528256248 0 0.20831324194422091 0.30819881229041318 0 0.20288664267638859 0.29424953150154581 0 0.19511095272300569 0.3019235629929784 0 0.18674031124236579 0.30201460306836742 0 0.19086383386244751 0.2907864273273883 0 0.19511095272300569 0.3019235629929784 0 0.18674031124236579 0.30201460306836742 0 0.19511095272300569 0.3019235629929784 0 0.18686192329242929 0.31378732528256248 0 0.20141288137377081 0.31920030670374799 0 0.18686192329242929 0.31378732528256248 0 0.18608978489721489 0.32167740761667712 0 0.20831324194422091 0.30819881229041318 0 0.20141288137377081 0.31920030670374799 0 0.18686192329242929 0.31378732528256248 0 0.20141288137377081 0.31920030670374799 0 0.21212543146875301 0.33644132486871342 0 0.18608978489721489 0.32167740761667712 0 0.21212543146875301 0.33644132486871342 0 0.18608978489721489 0.32167740761667712 0 0.19231113454718349 0.34165597013868199 0 0.21212543146875301 0.33644132486871342 0 0.18608978489721489 0.32167740761667712 0 0.20831324194422091 0.30819881229041318 0 0.20141288137377081 0.31920030670374799 0 0.21977364325038071 0.31928170538083578 0 0.20141288137377081 0.31920030670374799 0 0.21212543146875301 0.33644132486871342 0 0.21977364325038071 0.31928170538083578 0 0.21977364325038071 0.31928170538083578 0 0.2290399257457596 0.32985805959198788 0 0.23798581837376781 0.31938142953188831 0 0.2297645605960125 0.30261029929826411 0 0.21977364325038071 0.31928170538083578 0 0.23798581837376781 0.31938142953188831 0 0.21212543146875301 0.33644132486871342 0 0.21977364325038071 0.31928170538083578 0 0.2290399257457596 0.32985805959198788 0 0.21212543146875301 0.33644132486871342 0 0.23060518033342339 0.33807106122714048 0 0.2290399257457596 0.32985805959198788 0 0.21212543146875301 0.33644132486871342 0 0.23060518033342339 0.33807106122714048 0 0.23816107804029091 0.35120524212074949 0 0.23060518033342339 0.33807106122714048 0 0.2290399257457596 0.32985805959198788 0 0.2430942860788903 0.33477961832711151 0 0.23060518033342339 0.33807106122714048 0 0.2430942860788903 0.33477961832711151 0 0.23816107804029091 0.35120524212074949 0 0.2484846271056145 0.31037308609574782 0 0.23798581837376781 0.31938142953188831 0 0.25508783524565293 0.32209220201309929 0 0.2430942860788903 0.33477961832711151 0 0.23798581837376781 0.31938142953188831 0 0.25508783524565293 0.32209220201309929 0 0.2290399257457596 0.32985805959198788 0 0.2430942860788903 0.33477961832711151 0 0.23798581837376781 0.31938142953188831 0 0.23439037865920059 0.35560025357312369 0 0.2386764282036242 0.37725286527910618 0 0.24311907173897271 0.36013203008567057 0 0.23439037865920059 0.35560025357312369 0 0.2386764282036242 0.37725286527910618 0 0.2492643002430574 0.365916522193315 0 0.24311907173897271 0.36013203008567057 0 0.2386764282036242 0.37725286527910618 0 0.2492643002430574 0.365916522193315 0 0.2386764282036242 0.37725286527910618 0 0.25383912625151372 0.37755129754335942 0 0.24311907173897271 0.36013203008567057 0 0.23816107804029091 0.35120524212074949 0 0.2641967246118288 0.36596915937278562 0 0.2430942860788903 0.33477961832711151 0 0.23816107804029091 0.35120524212074949 0 0.26173146881309822 0.35734024057335978 0 0.24311907173897271 0.36013203008567057 0 0.23816107804029091 0.35120524212074949 0 0.23439037865920059 0.35560025357312369 0 0.21212543146875301 0.33644132486871342 0 0.23816107804029091 0.35120524212074949 0 0.21848510057545151 0.35453686872473111 0 0.23816107804029091 0.35120524212074949 0 0.23439037865920059 0.35560025357312369 0 0.21848510057545151 0.35453686872473111 0 0.21212543146875301 0.33644132486871342 0 0.23816107804029091 0.35120524212074949 0 0.23439037865920059 0.35560025357312369 0 0.22513916990612379 0.36868200325308897 0 0.2386764282036242 0.37725286527910618 0 0.23439037865920059 0.35560025357312369 0 0.22513916990612379 0.36868200325308897 0 0.21848510057545151 0.35453686872473111 0 0.22513916990612379 0.36868200325308897 0 0.20931495008602691 0.36890180222237801 0 0.21961872799640589 0.38146559318592133 0 0.22513916990612379 0.36868200325308897 0 0.20931495008602691 0.36890180222237801 0 0.21848510057545151 0.35453686872473111 0 0.20931495008602691 0.36890180222237801 0 0.21848510057545151 0.35453686872473111 0 0.2018014651714847 0.35413555731190122 0 0.21212543146875301 0.33644132486871342 0 0.21848510057545151 0.35453686872473111 0 0.2018014651714847 0.35413555731190122 0 0.19231113454718349 0.34165597013868199 0 0.2018014651714847 0.35413555731190122 0 0.1832131523033072 0.3569188224833833 0 0.19231113454718349 0.34165597013868199 0 0.21212543146875301 0.33644132486871342 0 0.2018014651714847 0.35413555731190122 0 0.20931495008602691 0.36890180222237801 0 0.2018014651714847 0.35413555731190122 0 0.19217836357317111 0.36996972767433872 0 0.20931495008602691 0.36890180222237801 0 0.19217836357317111 0.36996972767433872 0 0.20289108470775991 0.38370682355227331 0 0.2018014651714847 0.35413555731190122 0 0.19217836357317111 0.36996972767433872 0 0.1832131523033072 0.3569188224833833 0 0.19217836357317111 0.36996972767433872 0 0.17197644233242751 0.37002706837148541 0 0.1832131523033072 0.3569188224833833 0 0.17197644233242751 0.37002706837148541 0 0.16866852787741549 0.35230522619665788 0 0.1832131523033072 0.3569188224833833 0 0.17197644233242751 0.37002706837148541 0 0.16866852787741549 0.35230522619665788 0 0.15186920095361911 0.35620033980905319 0 0.17197644233242751 0.37002706837148541 0 0.15186920095361911 0.35620033980905319 0 0.15185568245476189 0.37707061606136422 0 0.16866852787741549 0.35230522619665788 0 0.1579580049025659 0.33927316190663209 0 0.15186920095361911 0.35620033980905319 0 0.16866852787741549 0.35230522619665788 0 0.1832131523033072 0.3569188224833833 0 0.17832583889515771 0.33910673841273542 0 0.19231113454718349 0.34165597013868199 0 0.1832131523033072 0.3569188224833833 0 0.17832583889515771 0.33910673841273542 0 0.17832583889515771 0.33910673841273542 0 0.18608978489721489 0.32167740761667712 0 0.16647560889869609 0.32578562508456149 0 0.19231113454718349 0.34165597013868199 0 0.17832583889515771 0.33910673841273542 0 0.18608978489721489 0.32167740761667712 0 0.16005413832567669 0.30691349036464077 0 0.18608978489721489 0.32167740761667712 0 0.16005413832567669 0.30691349036464077 0 0.18686192329242929 0.31378732528256248 0 0.18608978489721489 0.32167740761667712 0 0.16005413832567669 0.30691349036464077 0 0.18608978489721489 0.32167740761667712 0 0.16647560889869609 0.32578562508456149 0 0.17832583889515771 0.33910673841273542 0 0.16647560889869609 0.32578562508456149 0 0.1579580049025659 0.33927316190663209 0 0.16866852787741549 0.35230522619665788 0 0.17832583889515771 0.33910673841273542 0 0.1579580049025659 0.33927316190663209 0 0.16647560889869609 0.32578562508456149 0 0.1579580049025659 0.33927316190663209 0 0.14183880654046921 0.32250528078568202 0 0.1579580049025659 0.33927316190663209 0 0.14183880654046921 0.32250528078568202 0 0.14054269679001921 0.34363296691054102 0 0.16005413832567669 0.30691349036464077 0 0.16647560889869609 0.32578562508456149 0 0.14183880654046921 0.32250528078568202 0 0.1202868522871179 0.34060046584014031 0 0.14183880654046921 0.32250528078568202 0 0.14054269679001921 0.34363296691054102 0 0.1202868522871179 0.34060046584014031 0 0.14054269679001921 0.34363296691054102 0 0.13274728415341139 0.36410634055334368 0 0.13274728415341139 0.36410634055334368 0 0.15186920095361911 0.35620033980905319 0 0.15185568245476189 0.37707061606136422 0 0.14054269679001921 0.34363296691054102 0 0.13274728415341139 0.36410634055334368 0 0.15186920095361911 0.35620033980905319 0 0.1579580049025659 0.33927316190663209 0 0.14054269679001921 0.34363296691054102 0 0.15186920095361911 0.35620033980905319 0 0.15352992747694119 0.40026604784697911 0 0.13692284990477191 0.38930777957628943 0 0.1397509022148696 0.40843688002483958 0 0.15352992747694119 0.40026604784697911 0 0.15185568245476189 0.37707061606136422 0 0.13692284990477191 0.38930777957628943 0 0.13274728415341139 0.36410634055334368 0 0.15185568245476189 0.37707061606136422 0 0.13692284990477191 0.38930777957628943 0 0.119448870245615 0.38256434187866972 0 0.13274728415341139 0.36410634055334368 0 0.13692284990477191 0.38930777957628943 0 0.115428724103706 0.40267530492779557 0 0.13692284990477191 0.38930777957628943 0 0.1397509022148696 0.40843688002483958 0 0.12259086230274099 0.42947812748907283 0 0.1397509022148696 0.40843688002483958 0 0.14363603346764281 0.42707530835579988 0 0.12259086230274099 0.42947812748907283 0 0.115428724103706 0.40267530492779557 0 0.1397509022148696 0.40843688002483958 0 0.12259086230274099 0.42947812748907283 0 0.14363603346764281 0.42707530835579988 0 0.13510526379757609 0.44116740875256688 0 0.14363603346764281 0.42707530835579988 0 0.16526304614212209 0.42908608809292892 0 0.1507341445198021 0.44370602134863157 0 0.14363603346764281 0.42707530835579988 0 0.15527295380072001 0.4153931176925994 0 0.16526304614212209 0.42908608809292892 0 0.14363603346764281 0.42707530835579988 0 0.1507341445198021 0.44370602134863157 0 0.13510526379757609 0.44116740875256688 0 0.1397509022148696 0.40843688002483958 0 0.14363603346764281 0.42707530835579988 0 0.15527295380072001 0.4153931176925994 0 0.15352992747694119 0.40026604784697911 0 0.1397509022148696 0.40843688002483958 0 0.15527295380072001 0.4153931176925994 0 0.15527295380072001 0.4153931176925994 0 0.1711416470664554 0.41062619466687539 0 0.16526304614212209 0.42908608809292892 0 0.15352992747694119 0.40026604784697911 0 0.15527295380072001 0.4153931176925994 0 0.1711416470664554 0.41062619466687539 0 0.16526304614212209 0.42908608809292892 0 0.1809560021812836 0.43814832633623357 0 0.16598328874466911 0.44273574664910909 0 0.16526304614212209 0.42908608809292892 0 0.18469425222239219 0.42125941149134333 0 0.1809560021812836 0.43814832633623357 0 0.1711416470664554 0.41062619466687539 0 0.16526304614212209 0.42908608809292892 0 0.18469425222239219 0.42125941149134333 0 0.1711416470664554 0.41062619466687539 0 0.18469425222239219 0.42125941149134333 0 0.1843100454414533 0.40126956181167389 0 0.1711416470664554 0.41062619466687539 0 0.1843100454414533 0.40126956181167389 0 0.16952276405911931 0.3912061138884545 0 0.1843100454414533 0.40126956181167389 0 0.16952276405911931 0.3912061138884545 0 0.18589276442329861 0.38606835492789338 0 0.15352992747694119 0.40026604784697911 0 0.1711416470664554 0.41062619466687539 0 0.16952276405911931 0.3912061138884545 0 0.15352992747694119 0.40026604784697911 0 0.15185568245476189 0.37707061606136422 0 0.16952276405911931 0.3912061138884545 0 0.17197644233242751 0.37002706837148541 0 0.15185568245476189 0.37707061606136422 0 0.16952276405911931 0.3912061138884545 0 0.17197644233242751 0.37002706837148541 0 0.16952276405911931 0.3912061138884545 0 0.18589276442329861 0.38606835492789338 0 0.19217836357317111 0.36996972767433872 0 0.17197644233242751 0.37002706837148541 0 0.18589276442329861 0.38606835492789338 0 0.18589276442329861 0.38606835492789338 0 0.20289108470775991 0.38370682355227331 0 0.19700705340585539 0.39579078134538831 0 0.19217836357317111 0.36996972767433872 0 0.18589276442329861 0.38606835492789338 0 0.20289108470775991 0.38370682355227331 0 0.19700705340585539 0.39579078134538831 0 0.21316338490038089 0.39704202397260657 0 0.19877798755638451 0.41086714246249401 0 0.1843100454414533 0.40126956181167389 0 0.19700705340585539 0.39579078134538831 0 0.19877798755638451 0.41086714246249401 0 0.1843100454414533 0.40126956181167389 0 0.18589276442329861 0.38606835492789338 0 0.19700705340585539 0.39579078134538831 0 0.20289108470775991 0.38370682355227331 0 0.19700705340585539 0.39579078134538831 0 0.21316338490038089 0.39704202397260657 0 0.20931495008602691 0.36890180222237801 0 0.20289108470775991 0.38370682355227331 0 0.21961872799640589 0.38146559318592133 0 0.20289108470775991 0.38370682355227331 0 0.21316338490038089 0.39704202397260657 0 0.21961872799640589 0.38146559318592133 0 0.22513916990612379 0.36868200325308897 0 0.21961872799640589 0.38146559318592133 0 0.2386764282036242 0.37725286527910618 0 0.21961872799640589 0.38146559318592133 0 0.22852735017452019 0.39320804083607441 0 0.2386764282036242 0.37725286527910618 0 0.21316338490038089 0.39704202397260657 0 0.21961872799640589 0.38146559318592133 0 0.22852735017452019 0.39320804083607441 0 0.21316338490038089 0.39704202397260657 0 0.22852735017452019 0.39320804083607441 0 0.22983145469658259 0.40925978250573319 0 0.21316338490038089 0.39704202397260657 0 0.22983145469658259 0.40925978250573319 0 0.22852735017452019 0.39320804083607441 0 0.2429624777480478 0.39890547698508871 0 0.22983145469658259 0.40925978250573319 0 0.2429624777480478 0.39890547698508871 0 0.2386764282036242 0.37725286527910618 0 0.22852735017452019 0.39320804083607441 0 0.2429624777480478 0.39890547698508871 0 0.2386764282036242 0.37725286527910618 0 0.2429624777480478 0.39890547698508871 0 0.2386764282036242 0.37725286527910618 0 0.25341304662754638 0.38974012394171498 0 0.2386764282036242 0.37725286527910618 0 0.25383912625151372 0.37755129754335942 0 0.25341304662754638 0.38974012394171498 0 0.24649952449278431 0.42147754103885982 0 0.22996656543308741 0.44177288309861867 0 0.24946733303660301 0.43176723098649622 0 0.24649952449278431 0.42147754103885982 0 0.22996656543308741 0.44177288309861867 0 0.24649952449278431 0.42147754103885982 0 0.22738899126970491 0.42458926785457718 0 0.22996656543308741 0.44177288309861867 0 0.24946733303660301 0.43176723098649622 0 0.24649952449278431 0.42147754103885982 0 0.2429624777480478 0.39890547698508871 0 0.24649952449278431 0.42147754103885982 0 0.24649952449278431 0.42147754103885982 0 0.22983145469658259 0.40925978250573319 0 0.22738899126970491 0.42458926785457718 0 0.24649952449278431 0.42147754103885982 0 0.22983145469658259 0.40925978250573319 0 0.2429624777480478 0.39890547698508871 0 0.24649952449278431 0.42147754103885982 0 0.22983145469658259 0.40925978250573319 0 0.21316338490038089 0.39704202397260657 0 0.22983145469658259 0.40925978250573319 0 0.21370806227123909 0.41789950377956148 0 0.22983145469658259 0.40925978250573319 0 0.22738899126970491 0.42458926785457718 0 0.21370806227123909 0.41789950377956148 0 0.22738899126970491 0.42458926785457718 0 0.21739304288862979 0.43200563017257382 0 0.22996656543308741 0.44177288309861867 0 0.22738899126970491 0.42458926785457718 0 0.21739304288862979 0.43200563017257382 0 0.21370806227123909 0.41789950377956148 0 0.21739304288862979 0.43200563017257382 0 0.1999317510848099 0.43097584272053618 0 0.2111195299095035 0.44359306409302351 0 0.21739304288862979 0.43200563017257382 0 0.21370806227123909 0.41789950377956148 0 0.1999317510848099 0.43097584272053618 0 0.21370806227123909 0.41789950377956148 0 0.19877798755638451 0.41086714246249401 0 0.1999317510848099 0.43097584272053618 0 0.21316338490038089 0.39704202397260657 0 0.21370806227123909 0.41789950377956148 0 0.19877798755638451 0.41086714246249401 0 0.18469425222239219 0.42125941149134333 0 0.19877798755638451 0.41086714246249401 0 0.1999317510848099 0.43097584272053618 0 0.18469425222239219 0.42125941149134333 0 0.1843100454414533 0.40126956181167389 0 0.19877798755638451 0.41086714246249401 0 0.18469425222239219 0.42125941149134333 0 0.1999317510848099 0.43097584272053618 0 0.1809560021812836 0.43814832633623357 0 0.1999317510848099 0.43097584272053618 0 0.19479511809318301 0.4526549487178691 0 0.2111195299095035 0.44359306409302351 0 0.1999317510848099 0.43097584272053618 0 0.19479511809318301 0.4526549487178691 0 0.1809560021812836 0.43814832633623357 0 0.19479511809318301 0.4526549487178691 0 0.213169792932182 0.46047172596691099 0 0.19211155850092579 0.47790980627879082 0 0.19479511809318301 0.4526549487178691 0 0.19211155850092579 0.47790980627879082 0 0.18348770279874721 0.46143911161818069 0 0.213169792932182 0.46047172596691099 0 0.2111195299095035 0.44359306409302351 0 0.22996656543308741 0.44177288309861867 0 0.19479511809318301 0.4526549487178691 0 0.213169792932182 0.46047172596691099 0 0.2111195299095035 0.44359306409302351 0 0.21739304288862979 0.43200563017257382 0 0.2111195299095035 0.44359306409302351 0 0.22996656543308741 0.44177288309861867 0 0.22996656543308741 0.44177288309861867 0 0.22854105436186559 0.46372788353366717 0 0.24141841662185301 0.45603819576859073 0 0.213169792932182 0.46047172596691099 0 0.22854105436186559 0.46372788353366717 0 0.221321310837439 0.47674074212904899 0 0.213169792932182 0.46047172596691099 0 0.22996656543308741 0.44177288309861867 0 0.22854105436186559 0.46372788353366717 0 0.24141841662185301 0.45603819576859073 0 0.23645949407781469 0.47608243786178739 0 0.25047151807745072 0.47036873115219768 0 0.22854105436186559 0.46372788353366717 0 0.24141841662185301 0.45603819576859073 0 0.23645949407781469 0.47608243786178739 0 0.24141841662185301 0.45603819576859073 0 0.25047151807745072 0.47036873115219768 0 0.25477099823403621 0.45804476415031298 0 0.24141841662185301 0.45603819576859073 0 0.25282491994113748 0.44831200937164878 0 0.25477099823403621 0.45804476415031298 0 0.22996656543308741 0.44177288309861867 0 0.24141841662185301 0.45603819576859073 0 0.24583280085865111 0.44361242472787987 0 0.24946733303660301 0.43176723098649622 0 0.22996656543308741 0.44177288309861867 0 0.24583280085865111 0.44361242472787987 0 0.24141841662185301 0.45603819576859073 0 0.24583280085865111 0.44361242472787987 0 0.25282491994113748 0.44831200937164878 0 0.24904418528453851 0.48634810883828161 0 0.23645949407781469 0.47608243786178739 0 0.23352830384551029 0.49999999999999978 0 0.24904418528453851 0.48634810883828161 0 0.23352830384551029 0.49999999999999978 0 0.25181722630913472 0.5 0 0.24904418528453851 0.48634810883828161 0 0.23645949407781469 0.47608243786178739 0 0.25047151807745072 0.47036873115219768 0 0.23645949407781469 0.47608243786178739 0 0.221321310837439 0.47674074212904899 0 0.23352830384551029 0.49999999999999978 0 0.22854105436186559 0.46372788353366717 0 0.23645949407781469 0.47608243786178739 0 0.221321310837439 0.47674074212904899 0 0.23352830384551029 0.49999999999999978 0 0.2128199311732181 0.48895490313939532 0 0.21702906166474581 0.5 0 0.23352830384551029 0.49999999999999978 0 0.2128199311732181 0.48895490313939532 0 0.221321310837439 0.47674074212904899 0 0.23352830384551029 0.49999999999999978 0 0.2128199311732181 0.48895490313939532 0 0.2128199311732181 0.48895490313939532 0 0.21702906166474581 0.5 0 0.20052981948398141 0.49999999999999989 0 0.213169792932182 0.46047172596691099 0 0.221321310837439 0.47674074212904899 0 0.19211155850092579 0.47790980627879082 0 0.221321310837439 0.47674074212904899 0 0.2128199311732181 0.48895490313939532 0 0.19211155850092579 0.47790980627879082 0 0.2128199311732181 0.48895490313939532 0 0.19211155850092579 0.47790980627879082 0 0.2128199311732181 0.48895490313939532 0 0.20052981948398141 0.49999999999999989 0 0.19295831529489699 0.4905304616351287 0 0.2128199311732181 0.48895490313939532 0 0.19211155850092579 0.47790980627879082 0 0.19295831529489699 0.4905304616351287 0 0.20052981948398141 0.49999999999999989 0 0.1839227339461352 0.49861489743603538 0 0.20052981948398141 0.49999999999999989 0 0.19295831529489699 0.4905304616351287 0 0.1839227339461352 0.49861489743603538 0 0.19211155850092579 0.47790980627879082 0 0.19295831529489699 0.4905304616351287 0 0.1809625144841838 0.48570342190566712 0 0.1839227339461352 0.49861489743603538 0 0.1809625144841838 0.48570342190566712 0 0.16731564840828889 0.49722979487207219 0 0.1839227339461352 0.49861489743603538 0 0.16731564840828889 0.49722979487207219 0 0.1839227339461352 0.49861489743603538 0 0.1669427425872391 0.49999999999999922 0 0.16731564840828889 0.49722979487207219 0 0.19295831529489699 0.4905304616351287 0 0.1839227339461352 0.49861489743603538 0 0.1809625144841838 0.48570342190566712 0 0.1809625144841838 0.48570342190566712 0 0.16731564840828889 0.49722979487207219 0 0.16935941711846161 0.48204725214512889 0 0.16731564840828889 0.49722979487207219 0 0.157708884996551 0.48584061526662409 0 0.14611751268168829 0.49546177892012921 0 0.16731564840828889 0.49722979487207219 0 0.14611751268168829 0.49546177892012921 0 0.1669427425872391 0.49999999999999922 0 0.16731564840828889 0.49722979487207219 0 0.14611751268168829 0.49546177892012921 0 0.1669427425872391 0.49999999999999922 0 0.16731564840828889 0.49722979487207219 0 0.16731564840828889 0.49722979487207219 0 0.16935941711846161 0.48204725214512889 0 0.16731564840828889 0.49722979487207219 0 0.157708884996551 0.48584061526662409 0 0.16935941711846161 0.48204725214512889 0 0.16382575626869561 0.4735735187060508 0 0.15802571703479451 0.46684670821381258 0 0.1531189490294651 0.47544631339495541 0 0.157708884996551 0.48584061526662409 0 0.16382575626869561 0.4735735187060508 0 0.1531189490294651 0.47544631339495541 0 0.157708884996551 0.48584061526662409 0 0.16382575626869561 0.4735735187060508 0 0.16935941711846161 0.48204725214512889 0 0.16935941711846161 0.48204725214512889 0 0.17140318582863401 0.46686470941818559 0 0.16382575626869561 0.4735735187060508 0 0.16935941711846161 0.48204725214512889 0 0.17140318582863401 0.46686470941818559 0 0.1809625144841838 0.48570342190566712 0 0.16935941711846161 0.48204725214512889 0 0.17140318582863401 0.46686470941818559 0 0.19211155850092579 0.47790980627879082 0 0.1809625144841838 0.48570342190566712 0 0.17140318582863401 0.46686470941818559 0 0.19211155850092579 0.47790980627879082 0 0.17140318582863401 0.46686470941818559 0 0.19479511809318301 0.4526549487178691 0 0.18348770279874721 0.46143911161818069 0 0.17341546959919829 0.45191605883299152 0 0.19211155850092579 0.47790980627879082 0 0.18348770279874721 0.46143911161818069 0 0.17140318582863401 0.46686470941818559 0 0.18348770279874721 0.46143911161818069 0 0.17341546959919829 0.45191605883299152 0 0.17140318582863401 0.46686470941818559 0 0.17341546959919829 0.45191605883299152 0 0.17140318582863401 0.46686470941818559 0 0.19479511809318301 0.4526549487178691 0 0.1809560021812836 0.43814832633623357 0 0.17341546959919829 0.45191605883299152 0 0.1809560021812836 0.43814832633623357 0 0.17341546959919829 0.45191605883299152 0 0.16598328874466911 0.44273574664910909 0 0.17341546959919829 0.45191605883299152 0 0.16598328874466911 0.44273574664910909 0 0.15954778128093949 0.4508222386347599 0 0.16598328874466911 0.44273574664910909 0 0.15954778128093949 0.4508222386347599 0 0.1507341445198021 0.44370602134863157 0 0.16526304614212209 0.42908608809292892 0 0.16598328874466911 0.44273574664910909 0 0.1507341445198021 0.44370602134863157 0 0.16382575626869561 0.4735735187060508 0 0.1651762257979181 0.46354347419730452 0 0.17140318582863401 0.46686470941818559 0 0.1651762257979181 0.46354347419730452 0 0.17140318582863401 0.46686470941818559 0 0.17341546959919829 0.45191605883299152 0 0.1651762257979181 0.46354347419730452 0 0.17140318582863401 0.46686470941818559 0 0.17341546959919829 0.45191605883299152 0 0.15954778128093949 0.4508222386347599 0 0.1651762257979181 0.46354347419730452 0 0.15954778128093949 0.4508222386347599 0 0.1651762257979181 0.46354347419730452 0 0.1582471669695637 0.45974252444074731 0 0.16382575626869561 0.4735735187060508 0 0.1651762257979181 0.46354347419730452 0 0.15802571703479451 0.46684670821381258 0 0.1651762257979181 0.46354347419730452 0 0.1582471669695637 0.45974252444074731 0 0.15802571703479451 0.46684670821381258 0 0.14976048710833001 0.46192771033000529 0 0.1507341445198021 0.44370602134863157 0 0.136404492151351 0.45486193181106682 0 0.1582471669695637 0.45974252444074731 0 0.15802571703479451 0.46684670821381258 0 0.14976048710833001 0.46192771033000529 0 0.15802571703479451 0.46684670821381258 0 0.14976048710833001 0.46192771033000529 0 0.1531189490294651 0.47544631339495541 0 0.15954778128093949 0.4508222386347599 0 0.1582471669695637 0.45974252444074731 0 0.14976048710833001 0.46192771033000529 0 0.14976048710833001 0.46192771033000529 0 0.136404492151351 0.45486193181106682 0 0.13663143795624749 0.46910754811773492 0 0.15954778128093949 0.4508222386347599 0 0.14976048710833001 0.46192771033000529 0 0.1507341445198021 0.44370602134863157 0 0.1507341445198021 0.44370602134863157 0 0.13510526379757609 0.44116740875256688 0 0.136404492151351 0.45486193181106682 0 0.1221607865463437 0.4507156547582637 0 0.12259086230274099 0.42947812748907283 0 0.13510526379757609 0.44116740875256688 0 0.1221607865463437 0.4507156547582637 0 0.13510526379757609 0.44116740875256688 0 0.136404492151351 0.45486193181106682 0 0.136404492151351 0.45486193181106682 0 0.1267882431275838 0.46370707134437261 0 0.13663143795624749 0.46910754811773492 0 0.1221607865463437 0.4507156547582637 0 0.136404492151351 0.45486193181106682 0 0.1267882431275838 0.46370707134437261 0 0.1267882431275838 0.46370707134437261 0 0.12569724768963239 0.47617993877849962 0 0.13663143795624749 0.46910754811773492 0 0.12569724768963239 0.47617993877849962 0 0.13663143795624749 0.46910754811773492 0 0.1364132019148096 0.48384982340983701 0 0.13663143795624749 0.46910754811773492 0 0.1364132019148096 0.48384982340983701 0 0.14361111091913481 0.47574478002545789 0 0.1249193769550877 0.49369376296818718 0 0.1364132019148096 0.48384982340983701 0 0.14611751268168829 0.49546177892012921 0 0.1249193769550877 0.49369376296818718 0 0.14611751268168829 0.49546177892012921 0 0.1249193769550877 0.49369376296818718 0 0.12569724768963239 0.47617993877849962 0 0.1364132019148096 0.48384982340983701 0 0.1249193769550877 0.49369376296818718 0 0.13738437864054501 0.5 0 0.14611751268168829 0.49546177892012921 0 0.1364132019148096 0.48384982340983701 0 0.14611751268168829 0.49546177892012921 0 0.14718343377546941 0.48347361591025501 0 0.1669427425872391 0.49999999999999922 0 0.13738437864054501 0.5 0 0.14611751268168829 0.49546177892012921 0 0.157708884996551 0.48584061526662409 0 0.14611751268168829 0.49546177892012921 0 0.14718343377546941 0.48347361591025501 0 0.157708884996551 0.48584061526662409 0 0.1531189490294651 0.47544631339495541 0 0.14718343377546941 0.48347361591025501 0 0.14976048710833001 0.46192771033000529 0 0.1531189490294651 0.47544631339495541 0 0.14361111091913481 0.47574478002545789 0 0.14976048710833001 0.46192771033000529 0 0.13663143795624749 0.46910754811773492 0 0.14361111091913481 0.47574478002545789 0 0.1364132019148096 0.48384982340983701 0 0.14361111091913481 0.47574478002545789 0 0.14718343377546941 0.48347361591025501 0 0.1531189490294651 0.47544631339495541 0 0.14361111091913481 0.47574478002545789 0 0.14718343377546941 0.48347361591025501 0 0.35832214194920592 0.47929915408112939 0 0.34611268429232461 0.46591887339206078 0 0.3375369348076922 0.4829399206954248 0 0.35832214194920592 0.47929915408112939 0 0.35850557312216419 0.5 0 0.3375369348076922 0.4829399206954248 0 0.35850557312216419 0.5 0 0.37801407526051067 0.48065415083330842 0 0.38797204790529932 0.5 0 0.35832214194920592 0.47929915408112939 0 0.35850557312216419 0.5 0 0.37801407526051067 0.48065415083330842 0 0.35832214194920592 0.47929915408112939 0 0.36980735363827261 0.46050290225189661 0 0.37801407526051067 0.48065415083330842 0 0.36980735363827261 0.46050290225189661 0 0.34502769605759259 0.44546544446971242 0 0.36959298495063608 0.43610817863788948 0 0.35832214194920592 0.47929915408112939 0 0.36980735363827261 0.46050290225189661 0 0.34611268429232461 0.46591887339206078 0 0.36980735363827261 0.46050290225189661 0 0.34502769605759259 0.44546544446971242 0 0.34611268429232461 0.46591887339206078 0 0.36980735363827261 0.46050290225189661 0 0.34611268429232461 0.46591887339206078 0 0.34611268429232461 0.46591887339206078 0 0.3317687487832644 0.45597005559148451 0 0.32241801494637662 0.47133484453222518 0 0.34502769605759259 0.44546544446971242 0 0.34611268429232461 0.46591887339206078 0 0.3317687487832644 0.45597005559148451 0 0.34611268429232461 0.46591887339206078 0 0.32241801494637662 0.47133484453222518 0 0.34502769605759259 0.44546544446971242 0 0.3317687487832644 0.45597005559148451 0 0.32480939915707069 0.44218818576869201 0 0.34502769605759259 0.44546544446971242 0 0.32480939915707069 0.44218818576869201 0 0.33523501366627878 0.43221560569608392 0 0.3107318966111981 0.4514989769174147 0 0.3227404476219688 0.42624713816244092 0 0.3317687487832644 0.45597005559148451 0 0.32480939915707069 0.44218818576869201 0 0.3107318966111981 0.4514989769174147 0 0.32480939915707069 0.44218818576869201 0 0.3107318966111981 0.4514989769174147 0 0.3227404476219688 0.42624713816244092 0 0.3317687487832644 0.45597005559148451 0 0.32241801494637662 0.47133484453222518 0 0.3107318966111981 0.4514989769174147 0 0.32241801494637662 0.47133484453222518 0 0.3375369348076922 0.4829399206954248 0 0.31372501333874958 0.48784291822244708 0 0.34611268429232461 0.46591887339206078 0 0.32241801494637662 0.47133484453222518 0 0.3375369348076922 0.4829399206954248 0 0.35850557312216419 0.5 0 0.3375369348076922 0.4829399206954248 0 0.32903909833902928 0.5 0 0.32903909833902928 0.5 0 0.31372501333874958 0.48784291822244708 0 0.29957262355589431 0.5 0 0.3375369348076922 0.4829399206954248 0 0.32903909833902928 0.5 0 0.31372501333874958 0.48784291822244708 0 0.31372501333874958 0.48784291822244708 0 0.30130976803097798 0.48891801032572652 0 0.29957262355589431 0.5 0 0.31372501333874958 0.48784291822244708 0 0.30130976803097798 0.48891801032572652 0 0.29872334560042851 0.47675081567238892 0 0.30130976803097798 0.48891801032572652 0 0.29957262355589431 0.5 0 0.28978827390519868 0.49553967616935518 0 0.32241801494637662 0.47133484453222518 0 0.29872334560042851 0.47675081567238892 0 0.32241801494637662 0.47133484453222518 0 0.31372501333874958 0.48784291822244708 0 0.29872334560042851 0.47675081567238892 0 0.29872334560042851 0.47675081567238892 0 0.28397488520641462 0.48012192141307769 0 0.28978827390519868 0.49553967616935518 0 0.29872334560042851 0.47675081567238892 0 0.28929399795500932 0.47058792179259418 0 0.29703527816799058 0.46117092995693892 0 0.29872334560042851 0.47675081567238892 0 0.28929399795500932 0.47058792179259418 0 0.28397488520641462 0.48012192141307769 0 0.29872334560042851 0.47675081567238892 0 0.28397488520641462 0.48012192141307769 0 0.28929399795500932 0.47058792179259418 0 0.28397488520641462 0.48012192141307769 0 0.27920072977811172 0.47805830749059319 0 0.28397488520641462 0.48012192141307769 0 0.28978827390519868 0.49553967616935518 0 0.27010614877275918 0.50000000000000067 0 0.29957262355589431 0.5 0 0.28978827390519868 0.49553967616935518 0 0.27010614877275918 0.50000000000000067 0 0.30130976803097798 0.48891801032572652 0 0.29872334560042851 0.47675081567238892 0 0.28978827390519868 0.49553967616935518 0 0.29872334560042851 0.47675081567238892 0 0.28978827390519868 0.49553967616935518 0 0.28397488520641462 0.48012192141307769 0 0.27010614877275918 0.50000000000000067 0 0.27920072977811172 0.47805830749059319 0 0.27010614877275918 0.50000000000000067 0 0.26909437115437917 0.48384867389528768 0 0.26130641782501518 0.49139676135406141 0 0.27010614877275918 0.50000000000000067 0 0.27920072977811172 0.47805830749059319 0 0.26909437115437917 0.48384867389528768 0 0.27010614877275918 0.50000000000000067 0 0.27920072977811172 0.47805830749059319 0 0.27920072977811172 0.47805830749059319 0 0.27306774476234302 0.47644699960251641 0 0.26909437115437917 0.48384867389528768 0 0.27920072977811172 0.47805830749059319 0 0.27306774476234302 0.47644699960251641 0 0.27643472525740193 0.46726539210963169 0 0.26824582816420722 0.47348896141386071 0 0.27306774476234302 0.47644699960251641 0 0.27643472525740193 0.46726539210963169 0 0.26824582816420722 0.47348896141386071 0 0.26909437115437917 0.48384867389528768 0 0.25993240985832161 0.47939275616227872 0 0.26824582816420722 0.47348896141386071 0 0.27306774476234302 0.47644699960251641 0 0.26909437115437917 0.48384867389528768 0 0.24904418528453851 0.48634810883828161 0 0.25993240985832161 0.47939275616227872 0 0.25047151807745072 0.47036873115219768 0 0.26824582816420722 0.47348896141386071 0 0.25993240985832161 0.47939275616227872 0 0.26165523792153211 0.46576309323832682 0 0.25993240985832161 0.47939275616227872 0 0.25047151807745072 0.47036873115219768 0 0.26165523792153211 0.46576309323832682 0 0.27010614877275918 0.50000000000000067 0 0.25181722630913472 0.5 0 0.26130641782501518 0.49139676135406141 0 0.24904418528453851 0.48634810883828161 0 0.25993240985832161 0.47939275616227872 0 0.26130641782501518 0.49139676135406141 0 0.24904418528453851 0.48634810883828161 0 0.25181722630913472 0.5 0 0.26130641782501518 0.49139676135406141 0 0.26909437115437917 0.48384867389528768 0 0.25993240985832161 0.47939275616227872 0 0.26130641782501518 0.49139676135406141 0 0.26490489917960358 0.45079530358348557 0 0.25548676926057468 0.44017180441404491 0 0.26331147225899149 0.43380076267102891 0 0.24946733303660301 0.43176723098649622 0 0.24583280085865111 0.44361242472787987 0 0.25548676926057468 0.44017180441404491 0 0.24583280085865111 0.44361242472787987 0 0.25548676926057468 0.44017180441404491 0 0.25282491994113748 0.44831200937164878 0 0.26490489917960358 0.45079530358348557 0 0.25548676926057468 0.44017180441404491 0 0.25282491994113748 0.44831200937164878 0 0.26490489917960358 0.45079530358348557 0 0.25282491994113748 0.44831200937164878 0 0.25477099823403621 0.45804476415031298 0 0.25047151807745072 0.47036873115219768 0 0.25477099823403621 0.45804476415031298 0 0.26165523792153211 0.46576309323832682 0 0.26490489917960358 0.45079530358348557 0 0.25477099823403621 0.45804476415031298 0 0.26165523792153211 0.46576309323832682 0 0.26490489917960358 0.45079530358348557 0 0.27160577401557351 0.46248804296782559 0 0.27679169795675967 0.45600994403837303 0 0.26490489917960358 0.45079530358348557 0 0.26165523792153211 0.46576309323832682 0 0.27160577401557351 0.46248804296782559 0 0.26824582816420722 0.47348896141386071 0 0.27160577401557351 0.46248804296782559 0 0.27643472525740193 0.46726539210963169 0 0.26824582816420722 0.47348896141386071 0 0.26165523792153211 0.46576309323832682 0 0.27160577401557351 0.46248804296782559 0 0.27160577401557351 0.46248804296782559 0 0.27643472525740193 0.46726539210963169 0 0.27679169795675967 0.45600994403837303 0 0.27643472525740193 0.46726539210963169 0 0.27679169795675967 0.45600994403837303 0 0.28829531078346382 0.45611661498118572 0 0.27903440424894049 0.4453257315987294 0 0.26331147225899149 0.43380076267102891 0 0.26490489917960358 0.45079530358348557 0 0.27903440424894049 0.4453257315987294 0 0.26331147225899149 0.43380076267102891 0 0.26490489917960358 0.45079530358348557 0 0.27679169795675967 0.45600994403837303 0 0.27903440424894049 0.4453257315987294 0 0.27903440424894049 0.4453257315987294 0 0.2917470315179379 0.44281751567604499 0 0.28179675760275558 0.42932557237874241 0 0.27679169795675967 0.45600994403837303 0 0.27903440424894049 0.4453257315987294 0 0.28829531078346382 0.45611661498118572 0 0.27903440424894049 0.4453257315987294 0 0.2917470315179379 0.44281751567604499 0 0.28829531078346382 0.45611661498118572 0 0.2917470315179379 0.44281751567604499 0 0.28829531078346382 0.45611661498118572 0 0.29813183988985342 0.45090032042111128 0 0.27920072977811172 0.47805830749059319 0 0.27643472525740193 0.46726539210963169 0 0.28829531078346382 0.45611661498118572 0 0.28929399795500932 0.47058792179259418 0 0.27920072977811172 0.47805830749059319 0 0.28829531078346382 0.45611661498118572 0 0.27920072977811172 0.47805830749059319 0 0.28829531078346382 0.45611661498118572 0 0.28829531078346382 0.45611661498118572 0 0.29703527816799058 0.46117092995693892 0 0.29813183988985342 0.45090032042111128 0 0.28929399795500932 0.47058792179259418 0 0.28829531078346382 0.45611661498118572 0 0.29703527816799058 0.46117092995693892 0 0.29872334560042851 0.47675081567238892 0 0.29703527816799058 0.46117092995693892 0 0.3107318966111981 0.4514989769174147 0 0.29872334560042851 0.47675081567238892 0 0.3107318966111981 0.4514989769174147 0 0.32241801494637662 0.47133484453222518 0 0.29872334560042851 0.47675081567238892 0 0.3107318966111981 0.4514989769174147 0 0.29703527816799058 0.46117092995693892 0 0.29813183988985342 0.45090032042111128 0 0.3107318966111981 0.4514989769174147 0 0.30159082278473881 0.44219288247638061 0 0.3107318966111981 0.4514989769174147 0 0.30884109342504262 0.43428586920116352 0 0.2917470315179379 0.44281751567604499 0 0.30159082278473881 0.44219288247638061 0 0.29850225247966211 0.43146173016616862 0 0.2917470315179379 0.44281751567604499 0 0.30159082278473881 0.44219288247638061 0 0.29813183988985342 0.45090032042111128 0 0.30159082278473881 0.44219288247638061 0 0.29813183988985342 0.45090032042111128 0 0.3107318966111981 0.4514989769174147 0 0.30884109342504262 0.43428586920116352 0 0.29850225247966211 0.43146173016616862 0 0.30862162828234507 0.42004495563460759 0 0.29850225247966211 0.43146173016616862 0 0.30862162828234507 0.42004495563460759 0 0.29547148538100448 0.41817397575591742 0 0.30159082278473881 0.44219288247638061 0 0.30884109342504262 0.43428586920116352 0 0.29850225247966211 0.43146173016616862 0 0.30862162828234507 0.42004495563460759 0 0.30304430461131138 0.40735012112542651 0 0.3196782615082488 0.40265332564926309 0 0.30862162828234507 0.42004495563460759 0 0.30304430461131138 0.40735012112542651 0 0.29547148538100448 0.41817397575591742 0 0.30304430461131138 0.40735012112542651 0 0.29062365375375682 0.40708788978866228 0 0.29547148538100448 0.41817397575591742 0 0.29062365375375682 0.40708788978866228 0 0.29547148538100448 0.41817397575591742 0 0.28288479604298378 0.41446876034122271 0 0.29547148538100448 0.41817397575591742 0 0.28288479604298378 0.41446876034122271 0 0.28179675760275558 0.42932557237874241 0 0.29062365375375682 0.40708788978866228 0 0.28288479604298378 0.41446876034122271 0 0.28001120465417539 0.40182109974822727 0 0.29850225247966211 0.43146173016616862 0 0.29547148538100448 0.41817397575591742 0 0.28179675760275558 0.42932557237874241 0 0.2917470315179379 0.44281751567604499 0 0.29850225247966211 0.43146173016616862 0 0.28179675760275558 0.42932557237874241 0 0.28179675760275558 0.42932557237874241 0 0.27042562322166658 0.41684269204638819 0 0.26331147225899149 0.43380076267102891 0 0.27903440424894049 0.4453257315987294 0 0.28179675760275558 0.42932557237874241 0 0.26331147225899149 0.43380076267102891 0 0.27042562322166658 0.41684269204638819 0 0.26380858941988822 0.4002294757553399 0 0.28001120465417539 0.40182109974822727 0 0.28288479604298378 0.41446876034122271 0 0.28179675760275558 0.42932557237874241 0 0.27042562322166658 0.41684269204638819 0 0.28288479604298378 0.41446876034122271 0 0.27042562322166658 0.41684269204638819 0 0.28001120465417539 0.40182109974822727 0 0.24649952449278431 0.42147754103885982 0 0.25492995388566009 0.41993008507457552 0 0.26380858941988822 0.4002294757553399 0 0.27042562322166658 0.41684269204638819 0 0.25492995388566009 0.41993008507457552 0 0.26380858941988822 0.4002294757553399 0 0.24649952449278431 0.42147754103885982 0 0.26380858941988822 0.4002294757553399 0 0.2429624777480478 0.39890547698508871 0 0.24649952449278431 0.42147754103885982 0 0.26380858941988822 0.4002294757553399 0 0.24946733303660301 0.43176723098649622 0 0.24649952449278431 0.42147754103885982 0 0.26331147225899149 0.43380076267102891 0 0.24649952449278431 0.42147754103885982 0 0.25492995388566009 0.41993008507457552 0 0.26331147225899149 0.43380076267102891 0 0.24649952449278431 0.42147754103885982 0 0.26331147225899149 0.43380076267102891 0 0.27042562322166658 0.41684269204638819 0 0.25492995388566009 0.41993008507457552 0 0.26331147225899149 0.43380076267102891 0 0.24946733303660301 0.43176723098649622 0 0.25548676926057468 0.44017180441404491 0 0.26331147225899149 0.43380076267102891 0 0.26350653962281989 0.38010735630523079 0 0.25341304662754638 0.38974012394171498 0 0.26380858941988822 0.4002294757553399 0 0.26350653962281989 0.38010735630523079 0 0.25383912625151372 0.37755129754335942 0 0.25710864090743918 0.37145542319719338 0 0.26350653962281989 0.38010735630523079 0 0.25383912625151372 0.37755129754335942 0 0.25341304662754638 0.38974012394171498 0 0.2429624777480478 0.39890547698508871 0 0.25341304662754638 0.38974012394171498 0 0.26380858941988822 0.4002294757553399 0 0.26380858941988822 0.4002294757553399 0 0.28001120465417539 0.40182109974822727 0 0.28036865154730628 0.37990086281960789 0 0.26350653962281989 0.38010735630523079 0 0.28036865154730628 0.37990086281960789 0 0.2641967246118288 0.36596915937278562 0 0.26380858941988822 0.4002294757553399 0 0.28036865154730628 0.37990086281960789 0 0.26350653962281989 0.38010735630523079 0 0.26380858941988822 0.4002294757553399 0 0.28036865154730628 0.37990086281960789 0 0.28036865154730628 0.37990086281960789 0 0.29170647807930872 0.39362549197251728 0 0.2987730087010142 0.37934426936791982 0 0.28036865154730628 0.37990086281960789 0 0.29170647807930872 0.39362549197251728 0 0.28001120465417539 0.40182109974822727 0 0.28036865154730628 0.37990086281960789 0 0.29170647807930872 0.39362549197251728 0 0.29062365375375682 0.40708788978866228 0 0.28001120465417539 0.40182109974822727 0 0.29170647807930872 0.39362549197251728 0 0.30304430461131138 0.40735012112542651 0 0.29062365375375682 0.40708788978866228 0 0.29170647807930872 0.39362549197251728 0 0.30304430461131138 0.40735012112542651 0 0.30637452063024528 0.39219955594670219 0 0.3196782615082488 0.40265332564926309 0 0.30304430461131138 0.40735012112542651 0 0.29170647807930872 0.39362549197251728 0 0.30304430461131138 0.40735012112542651 0 0.29170647807930872 0.39362549197251728 0 0.30637452063024528 0.39219955594670219 0 0.30637452063024528 0.39219955594670219 0 0.2987730087010142 0.37934426936791982 0 0.31661607539452802 0.37905951313608538 0 0.29170647807930872 0.39362549197251728 0 0.30637452063024528 0.39219955594670219 0 0.2987730087010142 0.37934426936791982 0 0.31661607539452802 0.37905951313608538 0 0.32905198958534931 0.38831461949406398 0 0.3196782615082488 0.40265332564926309 0 0.31661607539452802 0.37905951313608538 0 0.32905198958534931 0.38831461949406398 0 0.33389487655237682 0.3658352592629312 0 0.32905198958534931 0.38831461949406398 0 0.34270248502322931 0.38427053755298168 0 0.33389487655237682 0.3658352592629312 0 0.32905198958534931 0.38831461949406398 0 0.34270248502322931 0.38427053755298168 0 0.33272146632259869 0.40525883785771122 0 0.34270248502322931 0.38427053755298168 0 0.33272146632259869 0.40525883785771122 0 0.34270248502322931 0.38427053755298168 0 0.33272146632259869 0.40525883785771122 0 0.34670895149724801 0.40816004440777182 0 0.31661607539452802 0.37905951313608538 0 0.3196782615082488 0.40265332564926309 0 0.32905198958534931 0.38831461949406398 0 0.33272146632259869 0.40525883785771122 0 0.3196782615082488 0.40265332564926309 0 0.30637452063024528 0.39219955594670219 0 0.31661607539452802 0.37905951313608538 0 0.3196782615082488 0.40265332564926309 0 0.3196782615082488 0.40265332564926309 0 0.3227404476219688 0.42624713816244092 0 0.30862162828234507 0.42004495563460759 0 0.3196782615082488 0.40265332564926309 0 0.3227404476219688 0.42624713816244092 0 0.33272146632259869 0.40525883785771122 0 0.3196782615082488 0.40265332564926309 0 0.3227404476219688 0.42624713816244092 0 0.33272146632259869 0.40525883785771122 0 0.3227404476219688 0.42624713816244092 0 0.32480939915707069 0.44218818576869201 0 0.3227404476219688 0.42624713816244092 0 0.3107318966111981 0.4514989769174147 0 0.30884109342504262 0.43428586920116352 0 0.3227404476219688 0.42624713816244092 0 0.32480939915707069 0.44218818576869201 0 0.3227404476219688 0.42624713816244092 0 0.33523501366627878 0.43221560569608392 0 0.30884109342504262 0.43428586920116352 0 0.30862162828234507 0.42004495563460759 0 0.3227404476219688 0.42624713816244092 0 0.34502769605759259 0.44546544446971242 0 0.33523501366627878 0.43221560569608392 0 0.34795858503051302 0.425881111768525 0 0.3227404476219688 0.42624713816244092 0 0.33523501366627878 0.43221560569608392 0 0.33659904832278342 0.4201421825902541 0 0.33523501366627878 0.43221560569608392 0 0.33659904832278342 0.4201421825902541 0 0.34795858503051302 0.425881111768525 0 0.33272146632259869 0.40525883785771122 0 0.3227404476219688 0.42624713816244092 0 0.33659904832278342 0.4201421825902541 0 0.33272146632259869 0.40525883785771122 0 0.33659904832278342 0.4201421825902541 0 0.34670895149724801 0.40816004440777182 0 0.33659904832278342 0.4201421825902541 0 0.34670895149724801 0.40816004440777182 0 0.34795858503051302 0.425881111768525 0 0.34670895149724801 0.40816004440777182 0 0.34795858503051302 0.425881111768525 0 0.36336601300371613 0.41450991002864218 0 0.34670895149724801 0.40816004440777182 0 0.36336601300371613 0.41450991002864218 0 0.35690611128064731 0.3988976866485166 0 0.34502769605759259 0.44546544446971242 0 0.34795858503051302 0.425881111768525 0 0.36959298495063608 0.43610817863788948 0 0.34795858503051302 0.425881111768525 0 0.36959298495063608 0.43610817863788948 0 0.36336601300371613 0.41450991002864218 0 0.36959298495063608 0.43610817863788948 0 0.36336601300371613 0.41450991002864218 0 0.38530342098431941 0.41064856824057122 0 0.36336601300371613 0.41450991002864218 0 0.3736470799201031 0.39378130610698531 0 0.38530342098431941 0.41064856824057122 0 0.3736470799201031 0.39378130610698531 0 0.3601059063978746 0.38125551426405008 0 0.35690611128064731 0.3988976866485166 0 0.36336601300371613 0.41450991002864218 0 0.3736470799201031 0.39378130610698531 0 0.35690611128064731 0.3988976866485166 0 0.3736470799201031 0.39378130610698531 0 0.3601059063978746 0.38125551426405008 0 0.37414389550204002 0.36898578533419818 0 0.34270248502322931 0.38427053755298168 0 0.3601059063978746 0.38125551426405008 0 0.35690611128064731 0.3988976866485166 0 0.34270248502322931 0.38427053755298168 0 0.3601059063978746 0.38125551426405008 0 0.35268350372385993 0.36328223724825232 0 0.34270248502322931 0.38427053755298168 0 0.34670895149724801 0.40816004440777182 0 0.35690611128064731 0.3988976866485166 0 0.35268350372385993 0.36328223724825232 0 0.36266452242448938 0.34229393694352239 0 0.35030182712711511 0.35130594720886232 0 0.35268350372385993 0.36328223724825232 0 0.36266452242448938 0.34229393694352239 0 0.35030182712711511 0.35130594720886232 0 0.35146565257524442 0.34420791440797271 0 0.36266452242448938 0.34229393694352239 0 0.35030182712711511 0.35130594720886232 0 0.35146565257524442 0.34420791440797271 0 0.34269927497721508 0.34493512072036142 0 0.35030182712711511 0.35130594720886232 0 0.35268350372385993 0.36328223724825232 0 0.33389487655237682 0.3658352592629312 0 0.34270248502322931 0.38427053755298168 0 0.35268350372385993 0.36328223724825232 0 0.3601059063978746 0.38125551426405008 0 0.35268350372385993 0.36328223724825232 0 0.37414389550204002 0.36898578533419818 0 0.35268350372385993 0.36328223724825232 0 0.37414389550204002 0.36898578533419818 0 0.36300645299402812 0.35604351837507042 0 0.37414389550204002 0.36898578533419818 0 0.37228166628853332 0.35471301169251829 0 0.36300645299402812 0.35604351837507042 0 0.35268350372385993 0.36328223724825232 0 0.36300645299402812 0.35604351837507042 0 0.36266452242448938 0.34229393694352239 0 0.37228166628853332 0.35471301169251829 0 0.36300645299402812 0.35604351837507042 0 0.36840829020790361 0.34668560051738673 0 0.36300645299402812 0.35604351837507042 0 0.36840829020790361 0.34668560051738673 0 0.36266452242448938 0.34229393694352239 0 0.36840829020790361 0.34668560051738673 0 0.36266452242448938 0.34229393694352239 0 0.36587418437400321 0.34278907974668538 0 0.37228166628853332 0.35471301169251829 0 0.36840829020790361 0.34668560051738673 0 0.37486749369974542 0.34694596905823039 0 0.37486749369974542 0.34694596905823039 0 0.37256750073976291 0.34304532959464751 0 0.37670219357667811 0.34177383067972761 0 0.36840829020790361 0.34668560051738673 0 0.37486749369974542 0.34694596905823039 0 0.37256750073976291 0.34304532959464751 0 0.36124897776362869 0.33531944770056321 0 0.36266452242448938 0.34229393694352239 0 0.36411885078159001 0.32644375487552563 0 0.37256750073976291 0.34304532959464751 0 0.36916640720496519 0.34145859007673351 0 0.37369311900952262 0.33836265764115908 0 0.37256750073976291 0.34304532959464751 0 0.37369311900952262 0.33836265764115908 0 0.37670219357667811 0.34177383067972761 0 0.36266452242448938 0.34229393694352239 0 0.37014896644917339 0.316543878568457 0 0.36770298492566261 0.33637877995368609 0 0.36266452242448938 0.34229393694352239 0 0.37368960646642962 0.31911015363466272 0 0.36770298492566261 0.33637877995368609 0 0.36985494237623989 0.33311962493185521 0 0.37368960646642962 0.31911015363466272 0 0.36266452242448938 0.34229393694352239 0 0.37368960646642962 0.31911015363466272 0 0.36266452242448938 0.34229393694352239 0 0.37014896644917339 0.316543878568457 0 0.36411885078159001 0.32644375487552563 0 0.36840829020790361 0.34668560051738673 0 0.36916640720496519 0.34145859007673351 0 0.36587418437400321 0.34278907974668538 0 0.36840829020790361 0.34668560051738673 0 0.37256750073976291 0.34304532959464751 0 0.36916640720496519 0.34145859007673351 0 0.36916640720496519 0.34145859007673351 0 0.36587418437400321 0.34278907974668538 0 0.36708394454210669 0.33994961910346172 0 0.36916640720496519 0.34145859007673351 0 0.37010024416019238 0.33739894816112592 0 0.36708394454210669 0.33994961910346172 0 0.36916640720496519 0.34145859007673351 0 0.37010024416019238 0.33739894816112592 0 0.37369311900952262 0.33836265764115908 0 0.36770298492566261 0.33637877995368609 0 0.37010024416019238 0.33739894816112592 0 0.36708394454210669 0.33994961910346172 0 0.37010024416019238 0.33739894816112592 0 0.37369311900952262 0.33836265764115908 0 0.3722735272100694 0.33425106354392481 0 0.3722735272100694 0.33425106354392481 0 0.37245621682226088 0.32924087979990557 0 0.375263113682131 0.33313320718557798 0 0.37369311900952262 0.33836265764115908 0 0.3722735272100694 0.33425106354392481 0 0.375263113682131 0.33313320718557798 0 0.3722735272100694 0.33425106354392481 0 0.37245621682226088 0.32924087979990557 0 0.36985494237623989 0.33311962493185521 0 0.37245621682226088 0.32924087979990557 0 0.37577016905582622 0.32787937856968757 0 0.375263113682131 0.33313320718557798 0 0.37010024416019238 0.33739894816112592 0 0.3722735272100694 0.33425106354392481 0 0.36985494237623989 0.33311962493185521 0 0.36770298492566261 0.33637877995368609 0 0.37010024416019238 0.33739894816112592 0 0.36985494237623989 0.33311962493185521 0 0.36128237795215928 0.33126347269122047 0 0.36124897776362869 0.33531944770056321 0 0.36411885078159001 0.32644375487552563 0 0.36150631125237548 0.32912422255951068 0 0.36128237795215928 0.33126347269122047 0 0.36411885078159001 0.32644375487552563 0 0.36150631125237548 0.32912422255951068 0 0.35994194411877378 0.32646204206530971 0 0.35835984371964152 0.33045614064968309 0 0.36128237795215928 0.33126347269122047 0 0.35899626180536931 0.33430086833413269 0 0.35835984371964152 0.33045614064968309 0 0.36150631125237548 0.32912422255951068 0 0.36128237795215928 0.33126347269122047 0 0.35835984371964152 0.33045614064968309 0 0.36128237795215928 0.33126347269122047 0 0.36124897776362869 0.33531944770056321 0 0.35899626180536931 0.33430086833413269 0 0.36124897776362869 0.33531944770056321 0 0.36001134864139028 0.33778823672905661 0 0.35899626180536931 0.33430086833413269 0 0.36124897776362869 0.33531944770056321 0 0.36001134864139028 0.33778823672905661 0 0.36266452242448938 0.34229393694352239 0 0.36001134864139028 0.33778823672905661 0 0.36266452242448938 0.34229393694352239 0 0.3582225103283424 0.33883319475427592 0 0.36266452242448938 0.34229393694352239 0 0.36587418437400321 0.34278907974668538 0 0.36708394454210669 0.33994961910346172 0 0.36770298492566261 0.33637877995368609 0 0.36266452242448938 0.34229393694352239 0 0.36708394454210669 0.33994961910346172 0 0.36266452242448938 0.34229393694352239 0 0.37368960646642962 0.31911015363466272 0 0.37014896644917339 0.316543878568457 0 0.37014896644917339 0.316543878568457 0 0.36604953812300478 0.31497278055865852 0 0.36630954626425261 0.31087512405144152 0 0.37499251130121058 0.31593455150060828 0 0.37014896644917339 0.316543878568457 0 0.37695808612291098 0.31120865645681561 0 0.37499251130121058 0.31593455150060828 0 0.37368960646642962 0.31911015363466272 0 0.37014896644917339 0.316543878568457 0 0.37014896644917339 0.316543878568457 0 0.36646072203027302 0.32009490443849897 0 0.3659238024377004 0.31770243144255911 0 0.37014896644917339 0.316543878568457 0 0.3659238024377004 0.31770243144255911 0 0.36604953812300478 0.31497278055865852 0 0.37245621682226088 0.32924087979990557 0 0.36985494237623989 0.33311962493185521 0 0.37368960646642962 0.31911015363466272 0 0.37245621682226088 0.32924087979990557 0 0.37368960646642962 0.31911015363466272 0 0.37506056064123422 0.32471797871916308 0 0.37245621682226088 0.32924087979990557 0 0.37577016905582622 0.32787937856968757 0 0.37506056064123422 0.32471797871916308 0 0.37014896644917339 0.316543878568457 0 0.36411885078159001 0.32644375487552563 0 0.36646072203027302 0.32009490443849897 0 0.36411885078159001 0.32644375487552563 0 0.35994194411877378 0.32646204206530971 0 0.36132202517978662 0.32303080634539388 0 0.36150631125237548 0.32912422255951068 0 0.36411885078159001 0.32644375487552563 0 0.35994194411877378 0.32646204206530971 0 0.36132202517978662 0.32303080634539388 0 0.36348301458407639 0.32047903077872458 0 0.35962675317161102 0.31893041505789499 0 0.36411885078159001 0.32644375487552563 0 0.36132202517978662 0.32303080634539388 0 0.36348301458407639 0.32047903077872458 0 0.36411885078159001 0.32644375487552563 0 0.36348301458407639 0.32047903077872458 0 0.36646072203027302 0.32009490443849897 0 0.36348301458407639 0.32047903077872458 0 0.36646072203027302 0.32009490443849897 0 0.3659238024377004 0.31770243144255911 0 0.3659238024377004 0.31770243144255911 0 0.36344593390349789 0.31667187251247519 0 0.36604953812300478 0.31497278055865852 0 0.36348301458407639 0.32047903077872458 0 0.3659238024377004 0.31770243144255911 0 0.36344593390349789 0.31667187251247519 0 0.36348301458407639 0.32047903077872458 0 0.36344593390349789 0.31667187251247519 0 0.35962675317161102 0.31893041505789499 0 0.36344593390349789 0.31667187251247519 0 0.35962675317161102 0.31893041505789499 0 0.35878641637012221 0.31305233625990619 0 0.36344593390349789 0.31667187251247519 0 0.36331333565659901 0.31283202127524651 0 0.35878641637012221 0.31305233625990619 0 0.36331333565659901 0.31283202127524651 0 0.36604953812300478 0.31497278055865852 0 0.36630954626425261 0.31087512405144152 0 0.36344593390349789 0.31667187251247519 0 0.36331333565659901 0.31283202127524651 0 0.36604953812300478 0.31497278055865852 0 0.35878641637012221 0.31305233625990619 0 0.35512602374864599 0.31718053618965047 0 0.35090510471213721 0.31152713165908658 0 0.35512602374864599 0.31718053618965047 0 0.34983435518440159 0.31943204998396652 0 0.35090510471213721 0.31152713165908658 0 0.35962675317161102 0.31893041505789499 0 0.35878641637012221 0.31305233625990619 0 0.35512602374864599 0.31718053618965047 0 0.35962675317161102 0.31893041505789499 0 0.35512602374864599 0.31718053618965047 0 0.35673455485560862 0.32229528426682241 0 0.35512602374864599 0.31718053618965047 0 0.35673455485560862 0.32229528426682241 0 0.34983435518440159 0.31943204998396652 0 0.35673455485560862 0.32229528426682241 0 0.35060422568955008 0.32587015674736058 0 0.34983435518440159 0.31943204998396652 0 0.35994194411877378 0.32646204206530971 0 0.36132202517978662 0.32303080634539388 0 0.35673455485560862 0.32229528426682241 0 0.36132202517978662 0.32303080634539388 0 0.35962675317161102 0.31893041505789499 0 0.35673455485560862 0.32229528426682241 0 0.35994194411877378 0.32646204206530971 0 0.35673455485560862 0.32229528426682241 0 0.35627338036128769 0.32705738058013539 0 0.35994194411877378 0.32646204206530971 0 0.35627338036128769 0.32705738058013539 0 0.35835984371964152 0.33045614064968309 0 0.35627338036128769 0.32705738058013539 0 0.35060422568955008 0.32587015674736058 0 0.35398721241228231 0.33095327650953749 0 0.35673455485560862 0.32229528426682241 0 0.35627338036128769 0.32705738058013539 0 0.35060422568955008 0.32587015674736058 0 0.35060422568955008 0.32587015674736058 0 0.34514221143703899 0.32919058107390442 0 0.34284551192874652 0.32364904383841531 0 0.35060422568955008 0.32587015674736058 0 0.34983435518440159 0.31943204998396652 0 0.34284551192874652 0.32364904383841531 0 0.34983435518440159 0.31943204998396652 0 0.34480088275632298 0.31606258733578418 0 0.35090510471213721 0.31152713165908658 0 0.34983435518440159 0.31943204998396652 0 0.34480088275632298 0.31606258733578418 0 0.34284551192874652 0.32364904383841531 0 0.35146565257524442 0.34420791440797271 0 0.36266452242448938 0.34229393694352239 0 0.35562031764263757 0.34031424282986023 0 0.35302683950207769 0.33602013814058929 0 0.35562031764263757 0.34031424282986023 0 0.35672120529774148 0.33684362974708199 0 0.35202203774268331 0.33965573310897551 0 0.35302683950207769 0.33602013814058929 0 0.35562031764263757 0.34031424282986023 0 0.35146565257524442 0.34420791440797271 0 0.35202203774268331 0.33965573310897551 0 0.35562031764263757 0.34031424282986023 0 0.36266452242448938 0.34229393694352239 0 0.35562031764263757 0.34031424282986023 0 0.3582225103283424 0.33883319475427592 0 0.35562031764263757 0.34031424282986023 0 0.3582225103283424 0.33883319475427592 0 0.35672120529774148 0.33684362974708199 0 0.36001134864139028 0.33778823672905661 0 0.3582225103283424 0.33883319475427592 0 0.35672120529774148 0.33684362974708199 0 0.36001134864139028 0.33778823672905661 0 0.35672120529774148 0.33684362974708199 0 0.35899626180536931 0.33430086833413269 0 0.35899626180536931 0.33430086833413269 0 0.35641212776078268 0.33381706902087938 0 0.35835984371964152 0.33045614064968309 0 0.35672120529774148 0.33684362974708199 0 0.35899626180536931 0.33430086833413269 0 0.35641212776078268 0.33381706902087938 0 0.35627338036128769 0.32705738058013539 0 0.35835984371964152 0.33045614064968309 0 0.35398721241228231 0.33095327650953749 0 0.35641212776078268 0.33381706902087938 0 0.35835984371964152 0.33045614064968309 0 0.35398721241228231 0.33095327650953749 0 0.35302683950207769 0.33602013814058929 0 0.35641212776078268 0.33381706902087938 0 0.35398721241228231 0.33095327650953749 0 0.35302683950207769 0.33602013814058929 0 0.35398721241228231 0.33095327650953749 0 0.34924685744035389 0.33249877391857741 0 0.35302683950207769 0.33602013814058929 0 0.35672120529774148 0.33684362974708199 0 0.35641212776078268 0.33381706902087938 0 0.35302683950207769 0.33602013814058929 0 0.34924685744035389 0.33249877391857741 0 0.34788509595764172 0.33882226599831611 0 0.35060422568955008 0.32587015674736058 0 0.34924685744035389 0.33249877391857741 0 0.34514221143703899 0.32919058107390442 0 0.35060422568955008 0.32587015674736058 0 0.35398721241228231 0.33095327650953749 0 0.34924685744035389 0.33249877391857741 0 0.34924685744035389 0.33249877391857741 0 0.34514221143703899 0.32919058107390442 0 0.34474234507332802 0.33433591834825649 0 0.34924685744035389 0.33249877391857741 0 0.34474234507332802 0.33433591834825649 0 0.34788509595764172 0.33882226599831611 0 0.34474234507332802 0.33433591834825649 0 0.34788509595764172 0.33882226599831611 0 0.34057592936449049 0.33809639891542392 0 0.35146565257524442 0.34420791440797271 0 0.34788509595764172 0.33882226599831611 0 0.34269927497721508 0.34493512072036142 0 0.35202203774268331 0.33965573310897551 0 0.35302683950207769 0.33602013814058929 0 0.34788509595764172 0.33882226599831611 0 0.35146565257524442 0.34420791440797271 0 0.35202203774268331 0.33965573310897551 0 0.34788509595764172 0.33882226599831611 0 0.34057592936449049 0.33809639891542392 0 0.33318390910610529 0.34358855052096038 0 0.34269927497721508 0.34493512072036142 0 0.34788509595764172 0.33882226599831611 0 0.34057592936449049 0.33809639891542392 0 0.34269927497721508 0.34493512072036142 0 0.34474234507332802 0.33433591834825649 0 0.34057592936449049 0.33809639891542392 0 0.33946855119551672 0.33096103471374028 0 0.34514221143703899 0.32919058107390442 0 0.34474234507332802 0.33433591834825649 0 0.33946855119551672 0.33096103471374028 0 0.34057592936449049 0.33809639891542392 0 0.33946855119551672 0.33096103471374028 0 0.33283637980140879 0.33469331179832718 0 0.33946855119551672 0.33096103471374028 0 0.33283637980140879 0.33469331179832718 0 0.33464693517381472 0.32630086361949601 0 0.33283637980140879 0.33469331179832718 0 0.33464693517381472 0.32630086361949601 0 0.3250964778074269 0.32978689602061512 0 0.34057592936449049 0.33809639891542392 0 0.33283637980140879 0.33469331179832718 0 0.33318390910610529 0.34358855052096038 0 0.33283637980140879 0.33469331179832718 0 0.33318390910610529 0.34358855052096038 0 0.32611481079287369 0.33974729713420021 0 0.34480088275632298 0.31606258733578418 0 0.33769186663180051 0.31814262317354819 0 0.34192449374142192 0.30753297203612773 0 0.34480088275632298 0.31606258733578418 0 0.33769186663180051 0.31814262317354819 0 0.34284551192874652 0.32364904383841531 0 0.33946855119551672 0.33096103471374028 0 0.34284551192874652 0.32364904383841531 0 0.33464693517381472 0.32630086361949601 0 0.33769186663180051 0.31814262317354819 0 0.34284551192874652 0.32364904383841531 0 0.33464693517381472 0.32630086361949601 0 0.34514221143703899 0.32919058107390442 0 0.33946855119551672 0.33096103471374028 0 0.34284551192874652 0.32364904383841531 0 0.33769186663180051 0.31814262317354819 0 0.33464693517381472 0.32630086361949601 0 0.32994282367798861 0.32057227217232959 0 0.33464693517381472 0.32630086361949601 0 0.32994282367798861 0.32057227217232959 0 0.3250964778074269 0.32978689602061512 0 0.33769186663180051 0.31814262317354819 0 0.32994282367798861 0.32057227217232959 0 0.32867162081685902 0.31028670060733149 0 0.32176892132522322 0.32006025561378759 0 0.31440941436971798 0.31242774502049953 0 0.32867162081685902 0.31028670060733149 0 0.32994282367798861 0.32057227217232959 0 0.32176892132522322 0.32006025561378759 0 0.32867162081685902 0.31028670060733149 0 0.32176892132522322 0.32006025561378759 0 0.31484893044661 0.32778579360563193 0 0.3250964778074269 0.32978689602061512 0 0.32994282367798861 0.32057227217232959 0 0.32176892132522322 0.32006025561378759 0 0.3250964778074269 0.32978689602061512 0 0.32176892132522322 0.32006025561378759 0 0.31484893044661 0.32778579360563193 0 0.31440941436971798 0.31242774502049953 0 0.32611481079287369 0.33974729713420021 0 0.3250964778074269 0.32978689602061512 0 0.31767498628904178 0.33862919533695518 0 0.32611481079287369 0.33974729713420021 0 0.31767498628904178 0.33862919533695518 0 0.32336406622478242 0.34852958887145069 0 0.33283637980140879 0.33469331179832718 0 0.32611481079287369 0.33974729713420021 0 0.3250964778074269 0.32978689602061512 0 0.31484893044661 0.32778579360563193 0 0.31767498628904178 0.33862919533695518 0 0.30654896287530792 0.34033791233229299 0 0.31484893044661 0.32778579360563193 0 0.3250964778074269 0.32978689602061512 0 0.31767498628904178 0.33862919533695518 0 0.31767498628904178 0.33862919533695518 0 0.31315570067328902 0.3464643712977632 0 0.32336406622478242 0.34852958887145069 0 0.31315570067328902 0.3464643712977632 0 0.31355388928080707 0.35546570062290778 0 0.32336406622478242 0.34852958887145069 0 0.32336406622478242 0.34852958887145069 0 0.33442175170730049 0.35218858713626039 0 0.32437013183195901 0.3602157298059272 0 0.31355388928080707 0.35546570062290778 0 0.32336406622478242 0.34852958887145069 0 0.32437013183195901 0.3602157298059272 0 0.33318390910610529 0.34358855052096038 0 0.32611481079287369 0.33974729713420021 0 0.32336406622478242 0.34852958887145069 0 0.35030182712711511 0.35130594720886232 0 0.33442175170730049 0.35218858713626039 0 0.33389487655237682 0.3658352592629312 0 0.33318390910610529 0.34358855052096038 0 0.32336406622478242 0.34852958887145069 0 0.33442175170730049 0.35218858713626039 0 0.35030182712711511 0.35130594720886232 0 0.33442175170730049 0.35218858713626039 0 0.34269927497721508 0.34493512072036142 0 0.33318390910610529 0.34358855052096038 0 0.33442175170730049 0.35218858713626039 0 0.34269927497721508 0.34493512072036142 0 0.34270248502322931 0.38427053755298168 0 0.35268350372385993 0.36328223724825232 0 0.33389487655237682 0.3658352592629312 0 0.33442175170730049 0.35218858713626039 0 0.33389487655237682 0.3658352592629312 0 0.32437013183195901 0.3602157298059272 0 0.31661607539452802 0.37905951313608538 0 0.33389487655237682 0.3658352592629312 0 0.32437013183195901 0.3602157298059272 0 0.31661607539452802 0.37905951313608538 0 0.31355388928080707 0.35546570062290778 0 0.32437013183195901 0.3602157298059272 0 0.31661607539452802 0.37905951313608538 0 0.31355388928080707 0.35546570062290778 0 0.31661607539452802 0.37905951313608538 0 0.31355388928080707 0.35546570062290778 0 0.30541822204374358 0.36584678197342768 0 0.2987730087010142 0.37934426936791982 0 0.31661607539452802 0.37905951313608538 0 0.30541822204374358 0.36584678197342768 0 0.30541822204374358 0.36584678197342768 0 0.30393955747459928 0.35096595789874813 0 0.29215410451095353 0.36543341035917859 0 0.2987730087010142 0.37934426936791982 0 0.30541822204374358 0.36584678197342768 0 0.29215410451095353 0.36543341035917859 0 0.31315570067328902 0.3464643712977632 0 0.30393955747459928 0.35096595789874813 0 0.30654896287530792 0.34033791233229299 0 0.31315570067328902 0.3464643712977632 0 0.31355388928080707 0.35546570062290778 0 0.30393955747459928 0.35096595789874813 0 0.31355388928080707 0.35546570062290778 0 0.30541822204374358 0.36584678197342768 0 0.30393955747459928 0.35096595789874813 0 0.30393955747459928 0.35096595789874813 0 0.29215410451095353 0.36543341035917859 0 0.30393955747459928 0.35096595789874813 0 0.29720735802849829 0.34424744790442102 0 0.29027641861796738 0.35164951467646482 0 0.30393955747459928 0.35096595789874813 0 0.29720735802849829 0.34424744790442102 0 0.30654896287530792 0.34033791233229299 0 0.29720735802849829 0.34424744790442102 0 0.29027641861796738 0.35164951467646482 0 0.28998304713239348 0.34105976447064218 0 0.30393955747459928 0.35096595789874813 0 0.29027641861796738 0.35164951467646482 0 0.29215410451095353 0.36543341035917859 0 0.29027641861796738 0.35164951467646482 0 0.29215410451095353 0.36543341035917859 0 0.27920137084664282 0.3573603676334649 0 0.29027641861796738 0.35164951467646482 0 0.27920137084664282 0.3573603676334649 0 0.28068773357058369 0.34198453751068081 0 0.29027641861796738 0.35164951467646482 0 0.28068773357058369 0.34198453751068081 0 0.28998304713239348 0.34105976447064218 0 0.28036865154730628 0.37990086281960789 0 0.29215410451095353 0.36543341035917859 0 0.27920137084664282 0.3573603676334649 0 0.28036865154730628 0.37990086281960789 0 0.2987730087010142 0.37934426936791982 0 0.29215410451095353 0.36543341035917859 0 0.28036865154730628 0.37990086281960789 0 0.29215410451095353 0.36543341035917859 0 0.28036865154730628 0.37990086281960789 0 0.27920137084664282 0.3573603676334649 0 0.26173146881309822 0.35734024057335978 0 0.28036865154730628 0.37990086281960789 0 0.26173146881309822 0.35734024057335978 0 0.28036865154730628 0.37990086281960789 0 0.26173146881309822 0.35734024057335978 0 0.2641967246118288 0.36596915937278562 0 0.27920137084664282 0.3573603676334649 0 0.27030047393074008 0.3474963096498429 0 0.26173146881309822 0.35734024057335978 0 0.27920137084664282 0.3573603676334649 0 0.27030047393074008 0.3474963096498429 0 0.28068773357058369 0.34198453751068081 0 0.2430942860788903 0.33477961832711151 0 0.26173146881309822 0.35734024057335978 0 0.27030047393074008 0.3474963096498429 0 0.26173146881309822 0.35734024057335978 0 0.26240083601839698 0.33727672217147331 0 0.23816107804029091 0.35120524212074949 0 0.26173146881309822 0.35734024057335978 0 0.2641967246118288 0.36596915937278562 0 0.23816107804029091 0.35120524212074949 0 0.2641967246118288 0.36596915937278562 0 0.2492643002430574 0.365916522193315 0 0.24311907173897271 0.36013203008567057 0 0.2641967246118288 0.36596915937278562 0 0.2492643002430574 0.365916522193315 0 0.25710864090743918 0.37145542319719338 0 0.2641967246118288 0.36596915937278562 0 0.2492643002430574 0.365916522193315 0 0.25383912625151372 0.37755129754335942 0 0.25710864090743918 0.37145542319719338 0 0.26350653962281989 0.38010735630523079 0 0.25710864090743918 0.37145542319719338 0 0.2641967246118288 0.36596915937278562 0 0.2484846271056145 0.31037308609574782 0 0.25508783524565293 0.32209220201309929 0 0.26836904206483531 0.31075971332937607 0 0.25508783524565293 0.32209220201309929 0 0.26240083601839698 0.33727672217147331 0 0.26677092012209491 0.32204036282613252 0 0.25508783524565293 0.32209220201309929 0 0.26677092012209491 0.32204036282613252 0 0.26836904206483531 0.31075971332937607 0 0.2430942860788903 0.33477961832711151 0 0.25508783524565293 0.32209220201309929 0 0.26240083601839698 0.33727672217147331 0 0.2430942860788903 0.33477961832711151 0 0.26173146881309822 0.35734024057335978 0 0.26240083601839698 0.33727672217147331 0 0.26240083601839698 0.33727672217147331 0 0.27184092000699639 0.33891315949469752 0 0.27388917516664008 0.32964775149744319 0 0.26240083601839698 0.33727672217147331 0 0.27388917516664008 0.32964775149744319 0 0.26677092012209491 0.32204036282613252 0 0.27030047393074008 0.3474963096498429 0 0.26240083601839698 0.33727672217147331 0 0.27184092000699639 0.33891315949469752 0 0.27030047393074008 0.3474963096498429 0 0.27184092000699639 0.33891315949469752 0 0.28068773357058369 0.34198453751068081 0 0.27184092000699639 0.33891315949469752 0 0.28068773357058369 0.34198453751068081 0 0.27388917516664008 0.32964775149744319 0 0.28068773357058369 0.34198453751068081 0 0.27388917516664008 0.32964775149744319 0 0.28570907475377572 0.33188311037056872 0 0.27388917516664008 0.32964775149744319 0 0.26677092012209491 0.32204036282613252 0 0.28178409254690689 0.31684790712797722 0 0.27388917516664008 0.32964775149744319 0 0.28178409254690689 0.31684790712797722 0 0.28570907475377572 0.33188311037056872 0 0.26677092012209491 0.32204036282613252 0 0.28178409254690689 0.31684790712797722 0 0.26836904206483531 0.31075971332937607 0 0.28178409254690689 0.31684790712797722 0 0.29262159606390598 0.32453461147271162 0 0.29660332646403359 0.30785121346786842 0 0.28178409254690689 0.31684790712797722 0 0.29262159606390598 0.32453461147271162 0 0.28570907475377572 0.33188311037056872 0 0.28068773357058369 0.34198453751068081 0 0.28570907475377572 0.33188311037056872 0 0.28998304713239348 0.34105976447064218 0 0.29262159606390598 0.32453461147271162 0 0.28570907475377572 0.33188311037056872 0 0.29603465069114282 0.33553421189107618 0 0.29720735802849829 0.34424744790442102 0 0.29603465069114282 0.33553421189107618 0 0.28998304713239348 0.34105976447064218 0 0.28570907475377572 0.33188311037056872 0 0.29603465069114282 0.33553421189107618 0 0.28998304713239348 0.34105976447064218 0 0.29720735802849829 0.34424744790442102 0 0.29603465069114282 0.33553421189107618 0 0.30654896287530792 0.34033791233229299 0 0.29603465069114282 0.33553421189107618 0 0.30654896287530792 0.34033791233229299 0 0.30445412428221041 0.32558903425911379 0 0.29262159606390598 0.32453461147271162 0 0.29603465069114282 0.33553421189107618 0 0.30445412428221041 0.32558903425911379 0 0.31484893044661 0.32778579360563193 0 0.30654896287530792 0.34033791233229299 0 0.30445412428221041 0.32558903425911379 0 0.31767498628904178 0.33862919533695518 0 0.31315570067328902 0.3464643712977632 0 0.30654896287530792 0.34033791233229299 0 0.30445412428221041 0.32558903425911379 0 0.29660332646403359 0.30785121346786842 0 0.31440941436971798 0.31242774502049953 0 0.29262159606390598 0.32453461147271162 0 0.30445412428221041 0.32558903425911379 0 0.29660332646403359 0.30785121346786842 0 0.31484893044661 0.32778579360563193 0 0.30445412428221041 0.32558903425911379 0 0.31440941436971798 0.31242774502049953 0 0.30822946874662033 0.29998271616579031 0 0.29660332646403359 0.30785121346786842 0 0.31440941436971798 0.31242774502049953 0 0.30822946874662033 0.29998271616579031 0 0.30055108247350393 0.28416894361273021 0 0.29660332646403359 0.30785121346786842 0 0.30822946874662033 0.29998271616579031 0 0.30055108247350393 0.28416894361273021 0 0.32109763140443309 0.29547610107375327 0 0.30055108247350393 0.28416894361273021 0 0.29660332646403359 0.30785121346786842 0 0.27430616976337108 0.29100628718303567 0 0.30055108247350393 0.28416894361273021 0 0.27430616976337108 0.29100628718303567 0 0.28443506245096839 0.27205148705280008 0 0.30055108247350393 0.28416894361273021 0 0.27430616976337108 0.29100628718303567 0 0.28178409254690689 0.31684790712797722 0 0.29660332646403359 0.30785121346786842 0 0.27430616976337108 0.29100628718303567 0 0.28178409254690689 0.31684790712797722 0 0.26836904206483531 0.31075971332937607 0 0.27430616976337108 0.29100628718303567 0 0.28178409254690689 0.31684790712797722 0 0.27430616976337108 0.29100628718303567 0 0.27430616976337108 0.29100628718303567 0 0.25121587924780342 0.29702178630611242 0 0.27430616976337108 0.29100628718303567 0 0.25953152444998728 0.28294166139542631 0 0.25121587924780342 0.29702178630611242 0 0.26836904206483531 0.31075971332937607 0 0.27430616976337108 0.29100628718303567 0 0.25121587924780342 0.29702178630611242 0 0.26836904206483531 0.31075971332937607 0 0.25121587924780342 0.29702178630611242 0 0.2484846271056145 0.31037308609574782 0 0.26836904206483531 0.31075971332937607 0 0.25121587924780342 0.29702178630611242 0 0.25102838231212438 0.26850893423506528 0 0.26790857605335527 0.26889798384773289 0 0.26221447651104962 0.2479993693513689 0 0.26790857605335527 0.26889798384773289 0 0.26221447651104962 0.2479993693513689 0 0.25953152444998728 0.28294166139542631 0 0.25102838231212438 0.26850893423506528 0 0.26790857605335527 0.26889798384773289 0 0.27430616976337108 0.29100628718303567 0 0.26790857605335527 0.26889798384773289 0 0.28443506245096839 0.27205148705280008 0 0.27430616976337108 0.29100628718303567 0 0.25953152444998728 0.28294166139542631 0 0.26790857605335527 0.26889798384773289 0 0.27430616976337108 0.29100628718303567 0 0.26790857605335527 0.26889798384773289 0 0.26790857605335527 0.26889798384773289 0 0.28119448123381058 0.25405304303149878 0 0.26221447651104962 0.2479993693513689 0 0.26790857605335527 0.26889798384773289 0 0.28119448123381058 0.25405304303149878 0 0.28443506245096839 0.27205148705280008 0 0.28119448123381058 0.25405304303149878 0 0.28443506245096839 0.27205148705280008 0 0.2982150027308012 0.26213117758900317 0 0.28119448123381058 0.25405304303149878 0 0.2982150027308012 0.26213117758900317 0 0.30328699804120918 0.24394477185791469 0 0.30055108247350393 0.28416894361273021 0 0.28443506245096839 0.27205148705280008 0 0.2982150027308012 0.26213117758900317 0 0.30055108247350393 0.28416894361273021 0 0.2982150027308012 0.26213117758900317 0 0.31879452400631653 0.25919465198291952 0 0.2982150027308012 0.26213117758900317 0 0.31879452400631653 0.25919465198291952 0 0.30328699804120918 0.24394477185791469 0 0.31879452400631653 0.25919465198291952 0 0.33092809789354199 0.24744869965648561 0 0.31845456220733243 0.24449663650262579 0 0.31879452400631653 0.25919465198291952 0 0.33565265393095528 0.25675142138279861 0 0.33982225619875311 0.26765994074234428 0 0.31879452400631653 0.25919465198291952 0 0.33982225619875311 0.26765994074234428 0 0.31879452400631653 0.25919465198291952 0 0.33565265393095528 0.25675142138279861 0 0.33092809789354199 0.24744869965648561 0 0.33565265393095528 0.25675142138279861 0 0.33982225619875311 0.26765994074234428 0 0.34536281311255052 0.25941060478944128 0 0.33565265393095528 0.25675142138279861 0 0.3433555784436142 0.25004320974280247 0 0.33092809789354199 0.24744869965648561 0 0.33565265393095528 0.25675142138279861 0 0.3433555784436142 0.25004320974280247 0 0.34536281311255052 0.25941060478944128 0 0.31879452400631653 0.25919465198291952 0 0.33982225619875311 0.26765994074234428 0 0.32679599518363661 0.27733160004242491 0 0.33982225619875311 0.26765994074234428 0 0.32679599518363661 0.27733160004242491 0 0.34056182851336592 0.28206143899133118 0 0.30055108247350393 0.28416894361273021 0 0.32679599518363661 0.27733160004242491 0 0.30055108247350393 0.28416894361273021 0 0.31879452400631653 0.25919465198291952 0 0.32679599518363661 0.27733160004242491 0 0.32679599518363661 0.27733160004242491 0 0.32109763140443309 0.29547610107375327 0 0.33248404658197278 0.28876668272462419 0 0.30055108247350393 0.28416894361273021 0 0.32679599518363661 0.27733160004242491 0 0.32109763140443309 0.29547610107375327 0 0.32109763140443309 0.29547610107375327 0 0.31440941436971798 0.31242774502049953 0 0.32867162081685902 0.31028670060733149 0 0.30822946874662033 0.29998271616579031 0 0.32109763140443309 0.29547610107375327 0 0.31440941436971798 0.31242774502049953 0 0.32867162081685902 0.31028670060733149 0 0.33472549883669622 0.29791121211074773 0 0.34192449374142192 0.30753297203612773 0 0.32109763140443309 0.29547610107375327 0 0.32867162081685902 0.31028670060733149 0 0.33472549883669622 0.29791121211074773 0 0.33472549883669622 0.29791121211074773 0 0.34281583705185747 0.29966479619329672 0 0.34192449374142192 0.30753297203612773 0 0.33769186663180051 0.31814262317354819 0 0.32867162081685902 0.31028670060733149 0 0.34192449374142192 0.30753297203612773 0 0.32679599518363661 0.27733160004242491 0 0.33248404658197278 0.28876668272462419 0 0.34056182851336592 0.28206143899133118 0 0.32109763140443309 0.29547610107375327 0 0.33472549883669622 0.29791121211074773 0 0.33248404658197278 0.28876668272462419 0 0.33472549883669622 0.29791121211074773 0 0.33248404658197278 0.28876668272462419 0 0.34417327957572558 0.29277050597204329 0 0.33472549883669622 0.29791121211074773 0 0.34281583705185747 0.29966479619329672 0 0.34417327957572558 0.29277050597204329 0 0.33248404658197278 0.28876668272462419 0 0.34056182851336592 0.28206143899133118 0 0.34417327957572558 0.29277050597204329 0 0.34056182851336592 0.28206143899133118 0 0.34979868535227071 0.28728326233729501 0 0.34417327957572558 0.29277050597204329 0 0.34056182851336592 0.28206143899133118 0 0.34979868535227071 0.28728326233729501 0 0.35183199075491411 0.27966461044832719 0 0.34417327957572558 0.29277050597204329 0 0.35334053836337709 0.29410458558147129 0 0.34972900846361488 0.30172704795696642 0 0.34979868535227071 0.28728326233729501 0 0.34417327957572558 0.29277050597204329 0 0.35334053836337709 0.29410458558147129 0 0.34979868535227071 0.28728326233729501 0 0.35334053836337709 0.29410458558147129 0 0.35722235408413222 0.28831366276426512 0 0.35334053836337709 0.29410458558147129 0 0.35826071325737319 0.3003277240158499 0 0.36091512844171192 0.29433704443458902 0 0.35334053836337709 0.29410458558147129 0 0.35722235408413222 0.28831366276426512 0 0.36091512844171192 0.29433704443458902 0 0.34979868535227071 0.28728326233729501 0 0.35722235408413222 0.28831366276426512 0 0.35183199075491411 0.27966461044832719 0 0.35722235408413222 0.28831366276426512 0 0.36152496379752869 0.28359539021876212 0 0.35183199075491411 0.27966461044832719 0 0.34480088275632298 0.31606258733578418 0 0.34192449374142192 0.30753297203612773 0 0.35090510471213721 0.31152713165908658 0 0.34192449374142192 0.30753297203612773 0 0.35090510471213721 0.31152713165908658 0 0.34972900846361488 0.30172704795696642 0 0.34281583705185747 0.29966479619329672 0 0.34417327957572558 0.29277050597204329 0 0.34972900846361488 0.30172704795696642 0 0.34281583705185747 0.29966479619329672 0 0.34192449374142192 0.30753297203612773 0 0.34972900846361488 0.30172704795696642 0 0.34972900846361488 0.30172704795696642 0 0.35826071325737319 0.3003277240158499 0 0.35721607615581658 0.30656573559573969 0 0.35334053836337709 0.29410458558147129 0 0.34972900846361488 0.30172704795696642 0 0.35826071325737319 0.3003277240158499 0 0.35090510471213721 0.31152713165908658 0 0.34972900846361488 0.30172704795696642 0 0.35721607615581658 0.30656573559573969 0 0.35878641637012221 0.31305233625990619 0 0.35090510471213721 0.31152713165908658 0 0.35721607615581658 0.30656573559573969 0 0.37014896644917339 0.316543878568457 0 0.37763341047385651 0.29079382019339128 0 0.37014896644917339 0.316543878568457 0 0.37108481648816682 0.30013899891886681 0 0.36845835323010317 0.30596496181531441 0 0.37014896644917339 0.316543878568457 0 0.37763341047385651 0.29079382019339128 0 0.37695808612291098 0.31120865645681561 0 0.37014896644917339 0.316543878568457 0 0.37108481648816682 0.30013899891886681 0 0.37763341047385651 0.29079382019339128 0 0.36630954626425261 0.31087512405144152 0 0.36228941999803421 0.30896529616435242 0 0.36543096483439103 0.3064802843427199 0 0.36331333565659901 0.31283202127524651 0 0.36630954626425261 0.31087512405144152 0 0.36228941999803421 0.30896529616435242 0 0.36331333565659901 0.31283202127524651 0 0.35878641637012221 0.31305233625990619 0 0.36228941999803421 0.30896529616435242 0 0.35878641637012221 0.31305233625990619 0 0.35721607615581658 0.30656573559573969 0 0.36228941999803421 0.30896529616435242 0 0.35721607615581658 0.30656573559573969 0 0.36228941999803421 0.30896529616435242 0 0.36268018070702418 0.30398627546106088 0 0.36630954626425261 0.31087512405144152 0 0.36543096483439103 0.3064802843427199 0 0.36845835323010317 0.30596496181531441 0 0.36228941999803421 0.30896529616435242 0 0.36543096483439103 0.3064802843427199 0 0.36268018070702418 0.30398627546106088 0 0.36543096483439103 0.3064802843427199 0 0.36607900901995372 0.30349396637540749 0 0.36845835323010317 0.30596496181531441 0 0.36607900901995372 0.30349396637540749 0 0.36268018070702418 0.30398627546106088 0 0.36558719123160882 0.29969948119116269 0 0.36607900901995372 0.30349396637540749 0 0.36558719123160882 0.29969948119116269 0 0.36823835509664099 0.30133882906677939 0 0.36543096483439103 0.3064802843427199 0 0.36607900901995372 0.30349396637540749 0 0.36268018070702418 0.30398627546106088 0 0.35826071325737319 0.3003277240158499 0 0.35721607615581658 0.30656573559573969 0 0.36268018070702418 0.30398627546106088 0 0.35826071325737319 0.3003277240158499 0 0.36268018070702418 0.30398627546106088 0 0.36558719123160882 0.29969948119116269 0 0.35826071325737319 0.3003277240158499 0 0.36558719123160882 0.29969948119116269 0 0.36091512844171192 0.29433704443458902 0 0.36871223371641282 0.29817542324200702 0 0.37108481648816682 0.30013899891886681 0 0.37014933742706652 0.29575476169949788 0 0.36558719123160882 0.29969948119116269 0 0.36871223371641282 0.29817542324200702 0 0.36734652779664789 0.29411680932906442 0 0.36558719123160882 0.29969948119116269 0 0.36871223371641282 0.29817542324200702 0 0.36823835509664099 0.30133882906677939 0 0.36871223371641282 0.29817542324200702 0 0.37108481648816682 0.30013899891886681 0 0.36823835509664099 0.30133882906677939 0 0.37108481648816682 0.30013899891886681 0 0.36823835509664099 0.30133882906677939 0 0.36845835323010317 0.30596496181531441 0 0.36607900901995372 0.30349396637540749 0 0.36823835509664099 0.30133882906677939 0 0.36845835323010317 0.30596496181531441 0 0.37014896644917339 0.316543878568457 0 0.36630954626425261 0.31087512405144152 0 0.36845835323010317 0.30596496181531441 0 0.36812955944888692 0.28419813691800921 0 0.36084998839118931 0.2761252295017701 0 0.37969218042614078 0.28371066929036243 0 0.36152496379752869 0.28359539021876212 0 0.36812955944888692 0.28419813691800921 0 0.36084998839118931 0.2761252295017701 0 0.36414496955441777 0.28941104037434479 0 0.36911771796651938 0.28986917351547109 0 0.36812955944888692 0.28419813691800921 0 0.36152496379752869 0.28359539021876212 0 0.36414496955441777 0.28941104037434479 0 0.36812955944888692 0.28419813691800921 0 0.35722235408413222 0.28831366276426512 0 0.36152496379752869 0.28359539021876212 0 0.36414496955441777 0.28941104037434479 0 0.35722235408413222 0.28831366276426512 0 0.36091512844171192 0.29433704443458902 0 0.36414496955441777 0.28941104037434479 0 0.36558719123160882 0.29969948119116269 0 0.36091512844171192 0.29433704443458902 0 0.36734652779664789 0.29411680932906442 0 0.36091512844171192 0.29433704443458902 0 0.36414496955441777 0.28941104037434479 0 0.36734652779664789 0.29411680932906442 0 0.36414496955441777 0.28941104037434479 0 0.36911771796651938 0.28986917351547109 0 0.36734652779664789 0.29411680932906442 0 0.36911771796651938 0.28986917351547109 0 0.37026464520563152 0.29279186409727531 0 0.36734652779664789 0.29411680932906442 0 0.37108481648816682 0.30013899891886681 0 0.37306860395079622 0.29341917559567809 0 0.37763341047385651 0.29079382019339128 0 0.36911771796651938 0.28986917351547109 0 0.37026464520563152 0.29279186409727531 0 0.37237913536365119 0.29056320862162688 0 0.36871223371641282 0.29817542324200702 0 0.36734652779664789 0.29411680932906442 0 0.37014933742706652 0.29575476169949788 0 0.37026464520563152 0.29279186409727531 0 0.36734652779664789 0.29411680932906442 0 0.37014933742706652 0.29575476169949788 0 0.37108481648816682 0.30013899891886681 0 0.37014933742706652 0.29575476169949788 0 0.37306860395079622 0.29341917559567809 0 0.37026464520563152 0.29279186409727531 0 0.37014933742706652 0.29575476169949788 0 0.37306860395079622 0.29341917559567809 0 0.36911771796651938 0.28986917351547109 0 0.37237913536365119 0.29056320862162688 0 0.37333201972158658 0.2878654242033048 0 0.37306860395079622 0.29341917559567809 0 0.37237913536365119 0.29056320862162688 0 0.37763341047385651 0.29079382019339128 0 0.37237913536365119 0.29056320862162688 0 0.37333201972158658 0.2878654242033048 0 0.37763341047385651 0.29079382019339128 0 0.37026464520563152 0.29279186409727531 0 0.37306860395079622 0.29341917559567809 0 0.37237913536365119 0.29056320862162688 0 0.37333201972158658 0.2878654242033048 0 0.36812955944888692 0.28419813691800921 0 0.37969218042614078 0.28371066929036243 0 0.36911771796651938 0.28986917351547109 0 0.37333201972158658 0.2878654242033048 0 0.36812955944888692 0.28419813691800921 0 0.36084998839118931 0.2761252295017701 0 0.37969218042614078 0.28371066929036243 0 0.36084998839118931 0.2761252295017701 0 0.37017340450925651 0.266060206293324 0 0.3539366042426153 0.26554047293381039 0 0.36084998839118931 0.2761252295017701 0 0.38460708535355081 0.26680105137204091 0 0.36084998839118931 0.2761252295017701 0 0.37017340450925651 0.266060206293324 0 0.38460708535355081 0.26680105137204091 0 0.3539366042426153 0.26554047293381039 0 0.38129994004966872 0.25577407136566988 0 0.37169426656027921 0.24972740256563611 0 0.37017340450925651 0.266060206293324 0 0.3539366042426153 0.26554047293381039 0 0.38129994004966872 0.25577407136566988 0 0.3539366042426153 0.26554047293381039 0 0.37169426656027921 0.24972740256563611 0 0.36205361842742478 0.24882498742118489 0 0.3539366042426153 0.26554047293381039 0 0.38129994004966872 0.25577407136566988 0 0.3539366042426153 0.26554047293381039 0 0.35175757775775729 0.2532797976346674 0 0.36205361842742478 0.24882498742118489 0 0.3433555784436142 0.25004320974280247 0 0.35175757775775729 0.2532797976346674 0 0.34536281311255052 0.25941060478944128 0 0.33982225619875311 0.26765994074234428 0 0.3539366042426153 0.26554047293381039 0 0.34536281311255052 0.25941060478944128 0 0.3539366042426153 0.26554047293381039 0 0.35175757775775729 0.2532797976346674 0 0.34536281311255052 0.25941060478944128 0 0.33982225619875311 0.26765994074234428 0 0.36084998839118931 0.2761252295017701 0 0.33982225619875311 0.26765994074234428 0 0.36084998839118931 0.2761252295017701 0 0.3539366042426153 0.26554047293381039 0 0.33982225619875311 0.26765994074234428 0 0.36084998839118931 0.2761252295017701 0 0.35183199075491411 0.27966461044832719 0 0.33982225619875311 0.26765994074234428 0 0.34056182851336592 0.28206143899133118 0 0.35183199075491411 0.27966461044832719 0 0.36152496379752869 0.28359539021876212 0 0.36084998839118931 0.2761252295017701 0 0.35183199075491411 0.27966461044832719 0 0.36084998839118931 0.2761252295017701 0 0.35183199075491411 0.27966461044832719 0 0.39945440726228237 0.27350419034528239 0 0.38460708535355081 0.26680105137204091 0 0.40768566828284042 0.25774317622192677 0 0.39945440726228237 0.27350419034528239 0 0.4092682188351508 0.26816031590002881 0 0.40768566828284042 0.25774317622192677 0 0.39945440726228237 0.27350419034528239 0 0.38460708535355081 0.26680105137204091 0 0.3904751567012596 0.27530993325585928 0 0.39945440726228237 0.27350419034528239 0 0.3904751567012596 0.27530993325585928 0 0.39488150240831521 0.28173053148540511 0 0.39945440726228237 0.27350419034528239 0 0.40366985246608472 0.28285995447659418 0 0.40929088926209078 0.279020096056181 0 0.39945440726228237 0.27350419034528239 0 0.4092682188351508 0.26816031590002881 0 0.40929088926209078 0.279020096056181 0 0.39945440726228237 0.27350419034528239 0 0.39488150240831521 0.28173053148540511 0 0.40366985246608472 0.28285995447659418 0 0.38783836144724232 0.2556839199238965 0 0.38129994004966872 0.25577407136566988 0 0.40866327585672191 0.24600766979752939 0 0.38460708535355081 0.26680105137204091 0 0.40768566828284042 0.25774317622192677 0 0.38783836144724232 0.2556839199238965 0 0.40768566828284042 0.25774317622192677 0 0.40866327585672191 0.24600766979752939 0 0.38783836144724232 0.2556839199238965 0 0.38460708535355081 0.26680105137204091 0 0.40768566828284042 0.25774317622192677 0 0.38129994004966872 0.25577407136566988 0 0.40866327585672191 0.24600766979752939 0 0.38783836144724232 0.2556839199238965 0 0.38129994004966872 0.25577407136566988 0 0.38460708535355081 0.26680105137204091 0 0.38783836144724232 0.2556839199238965 0 0.38460708535355081 0.26680105137204091 0 0.38129994004966872 0.25577407136566988 0 0.37169426656027921 0.24972740256563611 0 0.38106847269238292 0.24536179082341181 0 0.37017340450925651 0.266060206293324 0 0.38129994004966872 0.25577407136566988 0 0.38460708535355081 0.26680105137204091 0 0.36084998839118931 0.2761252295017701 0 0.38460708535355081 0.26680105137204091 0 0.37969218042614078 0.28371066929036243 0 0.38460708535355081 0.26680105137204091 0 0.3904751567012596 0.27530993325585928 0 0.37969218042614078 0.28371066929036243 0 0.38460708535355081 0.26680105137204091 0 0.37969218042614078 0.28371066929036243 0 0.3904751567012596 0.27530993325585928 0 0.37969218042614078 0.28371066929036243 0 0.39488150240831521 0.28173053148540511 0 0.37969218042614078 0.28371066929036243 0 0.37763341047385651 0.29079382019339128 0 0.40259214502479168 0.29292967641552992 0 0.37763341047385651 0.29079382019339128 0 0.4027243230010164 0.30147339632314252 0 0.37969218042614078 0.28371066929036243 0 0.37763341047385651 0.29079382019339128 0 0.37333201972158658 0.2878654242033048 0 0.37969218042614078 0.28371066929036243 0 0.37763341047385651 0.29079382019339128 0 0.37763341047385651 0.29079382019339128 0 0.37695808612291098 0.31120865645681561 0 0.38599374742651271 0.30414296713942529 0 0.37763341047385651 0.29079382019339128 0 0.38599374742651271 0.30414296713942529 0 0.4027243230010164 0.30147339632314252 0 0.37695808612291098 0.31120865645681561 0 0.38599374742651271 0.30414296713942529 0 0.38754735899376969 0.31282171123814728 0 0.38599374742651271 0.30414296713942529 0 0.4027243230010164 0.30147339632314252 0 0.38754735899376969 0.31282171123814728 0 0.4027243230010164 0.30147339632314252 0 0.3956366020903157 0.32248231082130752 0 0.38754735899376969 0.31282171123814728 0 0.37969218042614078 0.28371066929036243 0 0.40259214502479168 0.29292967641552992 0 0.37969218042614078 0.28371066929036243 0 0.39488150240831521 0.28173053148540511 0 0.40259214502479168 0.29292967641552992 0 0.37763341047385651 0.29079382019339128 0 0.4027243230010164 0.30147339632314252 0 0.40259214502479168 0.29292967641552992 0 0.4027243230010164 0.30147339632314252 0 0.40259214502479168 0.29292967641552992 0 0.41139710839419091 0.29189735433941028 0 0.40259214502479168 0.29292967641552992 0 0.40366985246608472 0.28285995447659418 0 0.41139710839419091 0.29189735433941028 0 0.39488150240831521 0.28173053148540511 0 0.40259214502479168 0.29292967641552992 0 0.40366985246608472 0.28285995447659418 0 0.40366985246608472 0.28285995447659418 0 0.41139710839419091 0.29189735433941028 0 0.40929088926209078 0.279020096056181 0 0.41139710839419091 0.29189735433941028 0 0.42781523552817591 0.31215297245289481 0 0.42226183937510081 0.28327127115801121 0 0.41139710839419091 0.29189735433941028 0 0.42226183937510081 0.28327127115801121 0 0.40929088926209078 0.279020096056181 0 0.4027243230010164 0.30147339632314252 0 0.41139710839419091 0.29189735433941028 0 0.42781523552817591 0.31215297245289481 0 0.4027243230010164 0.30147339632314252 0 0.42781523552817591 0.31215297245289481 0 0.41357021602424721 0.32279281759874212 0 0.4027243230010164 0.30147339632314252 0 0.42781523552817591 0.31215297245289481 0 0.42781523552817591 0.31215297245289481 0 0.42226183937510081 0.28327127115801121 0 0.42781523552817591 0.31215297245289481 0 0.42226183937510081 0.28327127115801121 0 0.44120727567718632 0.28746005308771089 0 0.42226183937510081 0.28327127115801121 0 0.43023391716603732 0.27040224467912161 0 0.44120727567718632 0.28746005308771089 0 0.42226183937510081 0.28327127115801121 0 0.43023391716603732 0.27040224467912161 0 0.41664462513020523 0.25422696758609492 0 0.43023391716603732 0.27040224467912161 0 0.43692075095235122 0.26433370861442979 0 0.44373838257505849 0.27050131303512348 0 0.42226183937510081 0.28327127115801121 0 0.4092682188351508 0.26816031590002881 0 0.41664462513020523 0.25422696758609492 0 0.42226183937510081 0.28327127115801121 0 0.41664462513020523 0.25422696758609492 0 0.42226183937510081 0.28327127115801121 0 0.4092682188351508 0.26816031590002881 0 0.40929088926209078 0.279020096056181 0 0.40768566828284042 0.25774317622192677 0 0.41664462513020523 0.25422696758609492 0 0.40866327585672191 0.24600766979752939 0 0.40768566828284042 0.25774317622192677 0 0.41664462513020523 0.25422696758609492 0 0.4092682188351508 0.26816031590002881 0 0.40768566828284042 0.25774317622192677 0 0.41664462513020523 0.25422696758609492 0 0.42749544465446981 0.25699566217507153 0 0.45166362976964691 0.25106894999712381 0 0.43076425121212841 0.2486853010718087 0 0.41664462513020523 0.25422696758609492 0 0.42749544465446981 0.25699566217507153 0 0.43076425121212841 0.2486853010718087 0 0.43023391716603732 0.27040224467912161 0 0.41664462513020523 0.25422696758609492 0 0.42749544465446981 0.25699566217507153 0 0.41664462513020523 0.25422696758609492 0 0.43076425121212841 0.2486853010718087 0 0.42749544465446981 0.25699566217507153 0 0.43692075095235122 0.26433370861442979 0 0.44456450099631911 0.26043047377218492 0 0.43023391716603732 0.27040224467912161 0 0.42749544465446981 0.25699566217507153 0 0.43692075095235122 0.26433370861442979 0 0.42749544465446981 0.25699566217507153 0 0.45166362976964691 0.25106894999712381 0 0.42749544465446981 0.25699566217507153 0 0.44456450099631911 0.26043047377218492 0 0.45166362976964691 0.25106894999712381 0 0.43692075095235122 0.26433370861442979 0 0.44456450099631911 0.26043047377218492 0 0.44373838257505849 0.27050131303512348 0 0.44456450099631911 0.26043047377218492 0 0.44373838257505849 0.27050131303512348 0 0.45508065662597141 0.26402805921732958 0 0.44456450099631911 0.26043047377218492 0 0.45166362976964691 0.25106894999712381 0 0.45508065662597141 0.26402805921732958 0 0.44373838257505849 0.27050131303512348 0 0.45472874274978531 0.27586911806656422 0 0.44120727567718632 0.28746005308771089 0 0.43023391716603732 0.27040224467912161 0 0.44373838257505849 0.27050131303512348 0 0.44120727567718632 0.28746005308771089 0 0.44373838257505849 0.27050131303512348 0 0.45472874274978531 0.27586911806656422 0 0.45508065662597141 0.26402805921732958 0 0.45472874274978531 0.27586911806656422 0 0.46665275363318931 0.27127710252775639 0 0.46192346945889701 0.28817835066990299 0 0.45472874274978531 0.27586911806656422 0 0.46665275363318931 0.27127710252775639 0 0.45508065662597141 0.26402805921732958 0 0.45166362976964691 0.25106894999712381 0 0.46652816171208539 0.25830808769848879 0 0.47583181488482379 0.2451422378191761 0 0.45166362976964691 0.25106894999712381 0 0.45508065662597141 0.26402805921732958 0 0.46652816171208539 0.25830808769848879 0 0.46665275363318931 0.27127710252775639 0 0.45508065662597141 0.26402805921732958 0 0.46652816171208539 0.25830808769848879 0 0.46665275363318931 0.27127710252775639 0 0.46652816171208539 0.25830808769848879 0 0.48341195364679568 0.26002408893105827 0 0.46652816171208539 0.25830808769848879 0 0.48341195364679568 0.26002408893105827 0 0.47583181488482379 0.2451422378191761 0 0.46665275363318931 0.27127710252775639 0 0.48341195364679568 0.26002408893105827 0 0.48138518434246891 0.28130646820503019 0 0.46665275363318931 0.27127710252775639 0 0.48138518434246891 0.28130646820503019 0 0.46192346945889701 0.28817835066990299 0 0.5 0.26671351767664991 0 0.5 0.29421150971207138 0 0.48138518434246891 0.28130646820503019 0 0.48341195364679568 0.26002408893105827 0 0.5 0.26671351767664991 0 0.48138518434246891 0.28130646820503019 0 0.48341195364679568 0.26002408893105827 0 0.5 0.26671351767664991 0 0.50000000000000067 0.2392155256412283 0 0.5 0.29421150971207138 0 0.47556093647901088 0.30733800586058863 0 0.5 0.32170950174749302 0 0.5 0.29421150971207138 0 0.48138518434246891 0.28130646820503019 0 0.47556093647901088 0.30733800586058863 0 0.48138518434246891 0.28130646820503019 0 0.47556093647901088 0.30733800586058863 0 0.46192346945889701 0.28817835066990299 0 0.47556093647901088 0.30733800586058863 0 0.45214514511688908 0.30370412902975941 0 0.45421880844117613 0.32339126307769928 0 0.47556093647901088 0.30733800586058863 0 0.46192346945889701 0.28817835066990299 0 0.45214514511688908 0.30370412902975941 0 0.46192346945889701 0.28817835066990299 0 0.44120727567718632 0.28746005308771089 0 0.45214514511688908 0.30370412902975941 0 0.45472874274978531 0.27586911806656422 0 0.46192346945889701 0.28817835066990299 0 0.44120727567718632 0.28746005308771089 0 0.42781523552817591 0.31215297245289481 0 0.44120727567718632 0.28746005308771089 0 0.45214514511688908 0.30370412902975941 0 0.42781523552817591 0.31215297245289481 0 0.45421880844117613 0.32339126307769928 0 0.43298436918619881 0.33903622913929549 0 0.42781523552817591 0.31215297245289481 0 0.45214514511688908 0.30370412902975941 0 0.45421880844117613 0.32339126307769928 0 0.42781523552817591 0.31215297245289481 0 0.45421880844117613 0.32339126307769928 0 0.45421880844117613 0.32339126307769928 0 0.45970761232660212 0.34692044601787542 0 0.43298436918619881 0.33903622913929549 0 0.45421880844117613 0.32339126307769928 0 0.48062238135417568 0.33462955370250519 0 0.45421880844117613 0.32339126307769928 0 0.48062238135417568 0.33462955370250519 0 0.45970761232660212 0.34692044601787542 0 0.47556093647901088 0.30733800586058863 0 0.45421880844117613 0.32339126307769928 0 0.48062238135417568 0.33462955370250519 0 0.48062238135417568 0.33462955370250519 0 0.5 0.32170950174749302 0 0.5 0.34920749378291471 0 0.47556093647901088 0.30733800586058863 0 0.48062238135417568 0.33462955370250519 0 0.5 0.32170950174749302 0 0.5 0.34920749378291471 0 0.48254603458521478 0.3522402998402685 0 0.5 0.37670548581833618 0 0.48062238135417568 0.33462955370250519 0 0.5 0.34920749378291471 0 0.48254603458521478 0.3522402998402685 0 0.48254603458521478 0.3522402998402685 0 0.46972057754862501 0.36630584452178799 0 0.45970761232660212 0.34692044601787542 0 0.48062238135417568 0.33462955370250519 0 0.48254603458521478 0.3522402998402685 0 0.45970761232660212 0.34692044601787542 0 0.48254603458521478 0.3522402998402685 0 0.46972057754862501 0.36630584452178799 0 0.5 0.37670548581833618 0 0.46972057754862501 0.36630584452178799 0 0.43815350284422228 0.36591948582569622 0 0.45848938469160699 0.38276388730883248 0 0.46972057754862501 0.36630584452178799 0 0.45970761232660212 0.34692044601787542 0 0.43815350284422228 0.36591948582569622 0 0.45970761232660212 0.34692044601787542 0 0.43815350284422228 0.36591948582569622 0 0.43298436918619881 0.33903622913929549 0 0.43815350284422228 0.36591948582569622 0 0.4167242930516859 0.35972934744593471 0 0.42344095457037051 0.38268701701273461 0 0.4167242930516859 0.35972934744593471 0 0.40101385701800268 0.38518895784325291 0 0.4167242930516859 0.35972934744593471 0 0.40181680918128981 0.35947395412181382 0 0.40101385701800268 0.38518895784325291 0 0.4167242930516859 0.35972934744593471 0 0.40869055031553031 0.33881917925707022 0 0.40181680918128981 0.35947395412181382 0 0.4167242930516859 0.35972934744593471 0 0.43298436918619881 0.33903622913929549 0 0.40869055031553031 0.33881917925707022 0 0.43815350284422228 0.36591948582569622 0 0.4167242930516859 0.35972934744593471 0 0.43298436918619881 0.33903622913929549 0 0.43815350284422228 0.36591948582569622 0 0.43298436918619881 0.33903622913929549 0 0.42781523552817591 0.31215297245289481 0 0.43298436918619881 0.33903622913929549 0 0.42781523552817591 0.31215297245289481 0 0.43298436918619881 0.33903622913929549 0 0.41357021602424721 0.32279281759874212 0 0.43298436918619881 0.33903622913929549 0 0.41357021602424721 0.32279281759874212 0 0.40869055031553031 0.33881917925707022 0 0.40869055031553031 0.33881917925707022 0 0.39369601167170543 0.33564153172070438 0 0.39209274976778918 0.34814598654190299 0 0.40869055031553031 0.33881917925707022 0 0.39369601167170543 0.33564153172070438 0 0.3956366020903157 0.32248231082130752 0 0.39369601167170543 0.33564153172070438 0 0.3956366020903157 0.32248231082130752 0 0.38362385659697051 0.32926172455430031 0 0.39369601167170543 0.33564153172070438 0 0.38635485741833753 0.33883185827426582 0 0.39209274976778918 0.34814598654190299 0 0.41357021602424721 0.32279281759874212 0 0.40869055031553031 0.33881917925707022 0 0.3956366020903157 0.32248231082130752 0 0.4027243230010164 0.30147339632314252 0 0.41357021602424721 0.32279281759874212 0 0.3956366020903157 0.32248231082130752 0 0.3956366020903157 0.32248231082130752 0 0.38754735899376969 0.31282171123814728 0 0.38479800915553353 0.32074741934569512 0 0.38754735899376969 0.31282171123814728 0 0.38479800915553353 0.32074741934569512 0 0.37917338616632867 0.3168755173424983 0 0.3956366020903157 0.32248231082130752 0 0.38479800915553353 0.32074741934569512 0 0.38362385659697051 0.32926172455430031 0 0.38479800915553353 0.32074741934569512 0 0.37832625022041982 0.32264150287239662 0 0.38362385659697051 0.32926172455430031 0 0.37577016905582622 0.32787937856968757 0 0.37832625022041982 0.32264150287239662 0 0.38362385659697051 0.32926172455430031 0 0.37577016905582622 0.32787937856968757 0 0.37506056064123422 0.32471797871916308 0 0.37832625022041982 0.32264150287239662 0 0.37368960646642962 0.31911015363466272 0 0.37506056064123422 0.32471797871916308 0 0.37832625022041982 0.32264150287239662 0 0.37695808612291098 0.31120865645681561 0 0.38754735899376969 0.31282171123814728 0 0.37917338616632867 0.3168755173424983 0 0.38479800915553353 0.32074741934569512 0 0.37832625022041982 0.32264150287239662 0 0.37917338616632867 0.3168755173424983 0 0.37368960646642962 0.31911015363466272 0 0.37832625022041982 0.32264150287239662 0 0.37917338616632867 0.3168755173424983 0 0.37499251130121058 0.31593455150060828 0 0.37368960646642962 0.31911015363466272 0 0.37917338616632867 0.3168755173424983 0 0.37499251130121058 0.31593455150060828 0 0.37695808612291098 0.31120865645681561 0 0.37917338616632867 0.3168755173424983 0 0.38635485741833753 0.33883185827426582 0 0.3795813787571668 0.3363772241379393 0 0.38278029029805521 0.34473282441648212 0 0.39369601167170543 0.33564153172070438 0 0.38635485741833753 0.33883185827426582 0 0.38362385659697051 0.32926172455430031 0 0.38635485741833753 0.33883185827426582 0 0.38362385659697051 0.32926172455430031 0 0.3795813787571668 0.3363772241379393 0 0.37577016905582622 0.32787937856968757 0 0.38362385659697051 0.32926172455430031 0 0.37868435463470768 0.3315773541462857 0 0.38362385659697051 0.32926172455430031 0 0.37868435463470768 0.3315773541462857 0 0.3795813787571668 0.3363772241379393 0 0.37577016905582622 0.32787937856968757 0 0.37868435463470768 0.3315773541462857 0 0.375263113682131 0.33313320718557798 0 0.37868435463470768 0.3315773541462857 0 0.375263113682131 0.33313320718557798 0 0.3795813787571668 0.3363772241379393 0 0.37369311900952262 0.33836265764115908 0 0.3795813787571668 0.3363772241379393 0 0.37670219357667811 0.34177383067972761 0 0.3795813787571668 0.3363772241379393 0 0.37670219357667811 0.34177383067972761 0 0.38278029029805521 0.34473282441648212 0 0.37369311900952262 0.33836265764115908 0 0.375263113682131 0.33313320718557798 0 0.3795813787571668 0.3363772241379393 0 0.3809821990389497 0.35490418517770578 0 0.39056259575344082 0.36548629952090861 0 0.39209274976778918 0.34814598654190299 0 0.37486749369974542 0.34694596905823039 0 0.37670219357667811 0.34177383067972761 0 0.38278029029805521 0.34473282441648212 0 0.37486749369974542 0.34694596905823039 0 0.38278029029805521 0.34473282441648212 0 0.3809821990389497 0.35490418517770578 0 0.38278029029805521 0.34473282441648212 0 0.3809821990389497 0.35490418517770578 0 0.39209274976778918 0.34814598654190299 0 0.38635485741833753 0.33883185827426582 0 0.38278029029805521 0.34473282441648212 0 0.39209274976778918 0.34814598654190299 0 0.37228166628853332 0.35471301169251829 0 0.37486749369974542 0.34694596905823039 0 0.3809821990389497 0.35490418517770578 0 0.37414389550204002 0.36898578533419818 0 0.3809821990389497 0.35490418517770578 0 0.39056259575344082 0.36548629952090861 0 0.37414389550204002 0.36898578533419818 0 0.39056259575344082 0.36548629952090861 0 0.40101385701800268 0.38518895784325291 0 0.37414389550204002 0.36898578533419818 0 0.37228166628853332 0.35471301169251829 0 0.3809821990389497 0.35490418517770578 0 0.39056259575344082 0.36548629952090861 0 0.40181680918128981 0.35947395412181382 0 0.40101385701800268 0.38518895784325291 0 0.39056259575344082 0.36548629952090861 0 0.40181680918128981 0.35947395412181382 0 0.39209274976778918 0.34814598654190299 0 0.40869055031553031 0.33881917925707022 0 0.40181680918128981 0.35947395412181382 0 0.39209274976778918 0.34814598654190299 0 0.40101385701800268 0.38518895784325291 0 0.38530342098431941 0.41064856824057122 0 0.40101385701800268 0.38518895784325291 0 0.38530342098431941 0.41064856824057122 0 0.41521715527738928 0.40390661881175682 0 0.3736470799201031 0.39378130610698531 0 0.37414389550204002 0.36898578533419818 0 0.40101385701800268 0.38518895784325291 0 0.3736470799201031 0.39378130610698531 0 0.40101385701800268 0.38518895784325291 0 0.38530342098431941 0.41064856824057122 0 0.36959298495063608 0.43610817863788948 0 0.38530342098431941 0.41064856824057122 0 0.36959298495063608 0.43610817863788948 0 0.38530342098431941 0.41064856824057122 0 0.3889231515195431 0.43141286456833011 0 0.3889231515195431 0.43141286456833011 0 0.40362265567455102 0.42304679086704539 0 0.39942544658573009 0.43872588670818857 0 0.40362265567455102 0.42304679086704539 0 0.41248490446316177 0.43293377153942381 0 0.39942544658573009 0.43872588670818857 0 0.38530342098431941 0.41064856824057122 0 0.3889231515195431 0.43141286456833011 0 0.40362265567455102 0.42304679086704539 0 0.38530342098431941 0.41064856824057122 0 0.40362265567455102 0.42304679086704539 0 0.41521715527738928 0.40390661881175682 0 0.40362265567455102 0.42304679086704539 0 0.42233359500988371 0.42307221464191669 0 0.41521715527738928 0.40390661881175682 0 0.40362265567455102 0.42304679086704539 0 0.41248490446316177 0.43293377153942381 0 0.42233359500988371 0.42307221464191669 0 0.41248490446316177 0.43293377153942381 0 0.42233359500988371 0.42307221464191669 0 0.42326813014219627 0.43909650749986368 0 0.42233359500988371 0.42307221464191669 0 0.43681876433844857 0.43497208046478802 0 0.42326813014219627 0.43909650749986368 0 0.42233359500988371 0.42307221464191669 0 0.43681876433844857 0.43497208046478802 0 0.43655617137350622 0.42038510460191503 0 0.42233359500988371 0.42307221464191669 0 0.42830887421762198 0.41018013153495869 0 0.41521715527738928 0.40390661881175682 0 0.42233359500988371 0.42307221464191669 0 0.42830887421762198 0.41018013153495869 0 0.43655617137350622 0.42038510460191503 0 0.42830887421762198 0.41018013153495869 0 0.43655617137350622 0.42038510460191503 0 0.439625884597032 0.40642404903869822 0 0.42978568865087441 0.39901034440009059 0 0.42344095457037051 0.38268701701273461 0 0.4433226365022459 0.39280274251209668 0 0.42978568865087441 0.39901034440009059 0 0.41521715527738928 0.40390661881175682 0 0.42344095457037051 0.38268701701273461 0 0.42830887421762198 0.41018013153495869 0 0.42978568865087441 0.39901034440009059 0 0.439625884597032 0.40642404903869822 0 0.42830887421762198 0.41018013153495869 0 0.42978568865087441 0.39901034440009059 0 0.41521715527738928 0.40390661881175682 0 0.4167242930516859 0.35972934744593471 0 0.40101385701800268 0.38518895784325291 0 0.42344095457037051 0.38268701701273461 0 0.40101385701800268 0.38518895784325291 0 0.41521715527738928 0.40390661881175682 0 0.42344095457037051 0.38268701701273461 0 0.43815350284422228 0.36591948582569622 0 0.42344095457037051 0.38268701701273461 0 0.4433226365022459 0.39280274251209668 0 0.43815350284422228 0.36591948582569622 0 0.4433226365022459 0.39280274251209668 0 0.43815350284422228 0.36591948582569622 0 0.4433226365022459 0.39280274251209668 0 0.45848938469160699 0.38276388730883248 0 0.4433226365022459 0.39280274251209668 0 0.4587292321942566 0.40377894109977869 0 0.44849177016026981 0.41968599919849731 0 0.4433226365022459 0.39280274251209668 0 0.44849177016026981 0.41968599919849731 0 0.42978568865087441 0.39901034440009059 0 0.4433226365022459 0.39280274251209668 0 0.439625884597032 0.40642404903869822 0 0.4433226365022459 0.39280274251209668 0 0.4587292321942566 0.40377894109977869 0 0.45848938469160699 0.38276388730883248 0 0.4587292321942566 0.40377894109977869 0 0.45848938469160699 0.38276388730883248 0 0.47720201034463561 0.39055994944820821 0 0.46972057754862501 0.36630584452178799 0 0.45848938469160699 0.38276388730883248 0 0.47720201034463561 0.39055994944820821 0 0.46972057754862501 0.36630584452178799 0 0.47720201034463561 0.39055994944820821 0 0.5 0.37670548581833618 0 0.47720201034463561 0.39055994944820821 0 0.5 0.40420347785375749 0 0.47329291580914951 0.41490179660840648 0 0.4587292321942566 0.40377894109977869 0 0.47720201034463561 0.39055994944820821 0 0.47329291580914951 0.41490179660840648 0 0.47720201034463561 0.39055994944820821 0 0.5 0.40420347785375749 0 0.5 0.37670548581833618 0 0.48546521128148462 0.42572005307568972 0 0.49999999999999828 0.43170146988917901 0 0.48502495584706629 0.44181750450007778 0 0.49999999999999828 0.43170146988917901 0 0.48502495584706629 0.44181750450007778 0 0.5 0.40420347785375749 0 0.48546521128148462 0.42572005307568972 0 0.47329291580914951 0.41490179660840648 0 0.5 0.40420347785375749 0 0.48546521128148462 0.42572005307568972 0 0.49999999999999828 0.43170146988917901 0 0.48546521128148462 0.42572005307568972 0 0.47462076711180717 0.43403653248997731 0 0.48502495584706629 0.44181750450007778 0 0.47329291580914951 0.41490179660840648 0 0.47462076711180717 0.43403653248997731 0 0.45927084092720188 0.43580976915473651 0 0.48546521128148462 0.42572005307568972 0 0.47329291580914951 0.41490179660840648 0 0.47462076711180717 0.43403653248997731 0 0.45927084092720188 0.43580976915473651 0 0.44849177016026981 0.41968599919849731 0 0.47329291580914951 0.41490179660840648 0 0.45927084092720188 0.43580976915473651 0 0.44849177016026981 0.41968599919849731 0 0.45927084092720188 0.43580976915473651 0 0.44849177016026981 0.41968599919849731 0 0.45165089640657707 0.43611575462809582 0 0.4587292321942566 0.40377894109977869 0 0.47329291580914951 0.41490179660840648 0 0.44849177016026981 0.41968599919849731 0 0.4433226365022459 0.39280274251209668 0 0.44849177016026981 0.41968599919849731 0 0.439625884597032 0.40642404903869822 0 0.43655617137350622 0.42038510460191503 0 0.44849177016026981 0.41968599919849731 0 0.439625884597032 0.40642404903869822 0 0.44849177016026981 0.41968599919849731 0 0.439625884597032 0.40642404903869822 0 0.44849177016026981 0.41968599919849731 0 0.45165089640657707 0.43611575462809582 0 0.44386952542921521 0.4295111469185629 0 0.44849177016026981 0.41968599919849731 0 0.45165089640657707 0.43611575462809582 0 0.45165089640657707 0.43611575462809582 0 0.44386952542921521 0.4295111469185629 0 0.44519082659473158 0.43782150968735878 0 0.43655617137350622 0.42038510460191503 0 0.44849177016026981 0.41968599919849731 0 0.44386952542921521 0.4295111469185629 0 0.43681876433844857 0.43497208046478802 0 0.43655617137350622 0.42038510460191503 0 0.44386952542921521 0.4295111469185629 0 0.43681876433844857 0.43497208046478802 0 0.44386952542921521 0.4295111469185629 0 0.44519082659473158 0.43782150968735878 0 0.43681876433844857 0.43497208046478802 0 0.44519082659473158 0.43782150968735878 0 0.44362096681603608 0.44566090358066651 0 0.43681876433844857 0.43497208046478802 0 0.44362096681603608 0.44566090358066651 0 0.43343701099378978 0.44857281610427868 0 0.44362096681603608 0.44566090358066651 0 0.44110505044236059 0.45564825146568327 0 0.43343701099378978 0.44857281610427868 0 0.44362096681603608 0.44566090358066651 0 0.45255374853073171 0.45216262504332899 0 0.45221828903371142 0.44335246171580328 0 0.44362096681603608 0.44566090358066651 0 0.45255374853073171 0.45216262504332899 0 0.44110505044236059 0.45564825146568327 0 0.44519082659473158 0.43782150968735878 0 0.44362096681603608 0.44566090358066651 0 0.45221828903371142 0.44335246171580328 0 0.45165089640657707 0.43611575462809582 0 0.44519082659473158 0.43782150968735878 0 0.45221828903371142 0.44335246171580328 0 0.45255374853073171 0.45216262504332899 0 0.44518446721829791 0.46873079822848901 0 0.44110505044236059 0.45564825146568327 0 0.44518446721829791 0.46873079822848901 0 0.44110505044236059 0.45564825146568327 0 0.43072905865294731 0.46311411437165317 0 0.47284597636140308 0.45611600571247141 0 0.46302896313844299 0.47272331085799019 0 0.45255374853073171 0.45216262504332899 0 0.44518446721829791 0.46873079822848901 0 0.47004991169413368 0.45193353911097589 0 0.47004991169413368 0.45193353911097589 0 0.47284597636140308 0.45611600571247141 0 0.46302896313844299 0.47272331085799019 0 0.44518446721829791 0.46873079822848901 0 0.47004991169413368 0.45193353911097589 0 0.46302896313844299 0.47272331085799019 0 0.44518446721829791 0.46873079822848901 0 0.47004991169413368 0.45193353911097589 0 0.45927084092720188 0.43580976915473651 0 0.47004991169413368 0.45193353911097589 0 0.45927084092720188 0.43580976915473651 0 0.45930684530103161 0.44617181272829648 0 0.47004991169413368 0.45193353911097589 0 0.47462076711180717 0.43403653248997731 0 0.45927084092720188 0.43580976915473651 0 0.47004991169413368 0.45193353911097589 0 0.45255374853073171 0.45216262504332899 0 0.45930684530103161 0.44617181272829648 0 0.47004991169413368 0.45193353911097589 0 0.45927084092720188 0.43580976915473651 0 0.45221828903371142 0.44335246171580328 0 0.45930684530103161 0.44617181272829648 0 0.45927084092720188 0.43580976915473651 0 0.45165089640657707 0.43611575462809582 0 0.45221828903371142 0.44335246171580328 0 0.45255374853073171 0.45216262504332899 0 0.45221828903371142 0.44335246171580328 0 0.45930684530103161 0.44617181272829648 0 0.47462076711180717 0.43403653248997731 0 0.47004991169413368 0.45193353911097589 0 0.48502495584706629 0.44181750450007778 0 0.48189680466807888 0.45106209462173341 0 0.47450081081676521 0.45331654521044668 0 0.48502495584706629 0.44181750450007778 0 0.47004991169413368 0.45193353911097589 0 0.48502495584706629 0.44181750450007778 0 0.47004991169413368 0.45193353911097589 0 0.47450081081676521 0.45331654521044668 0 0.48502495584706629 0.44181750450007778 0 0.47284597636140308 0.45611600571247141 0 0.48050552008400071 0.46757346096286262 0 0.46302896313844299 0.47272331085799019 0 0.47004991169413368 0.45193353911097589 0 0.47284597636140308 0.45611600571247141 0 0.47004991169413368 0.45193353911097589 0 0.47450081081676521 0.45331654521044668 0 0.47284597636140308 0.45611600571247141 0 0.47450081081676521 0.45331654521044668 0 0.47284597636140308 0.45611600571247141 0 0.47951191807974908 0.45654698881850991 0 0.47450081081676521 0.45331654521044668 0 0.47284597636140308 0.45611600571247141 0 0.47284597636140308 0.45611600571247141 0 0.48050552008400071 0.46757346096286262 0 0.47284597636140308 0.45611600571247141 0 0.48050552008400071 0.46757346096286262 0 0.47951191807974908 0.45654698881850991 0 0.48189680466807888 0.45106209462173341 0 0.47951191807974908 0.45654698881850991 0 0.4878104784684959 0.4546668375850359 0 0.48050552008400071 0.46757346096286262 0 0.47951191807974908 0.45654698881850991 0 0.4878104784684959 0.4546668375850359 0 0.48189680466807888 0.45106209462173341 0 0.47450081081676521 0.45331654521044668 0 0.47951191807974908 0.45654698881850991 0 0.48050552008400071 0.46757346096286262 0 0.4878104784684959 0.4546668375850359 0 0.49999999999999928 0.46182898591187349 0 0.48050552008400071 0.46757346096286262 0 0.49999999999999928 0.46182898591187349 0 0.49999999999999828 0.43170146988917901 0 0.4878104784684959 0.4546668375850359 0 0.49999999999999928 0.46182898591187349 0 0.49999999999999828 0.43170146988917901 0 0.4878104784684959 0.4546668375850359 0 0.48502495584706629 0.44181750450007778 0 0.48189680466807888 0.45106209462173341 0 0.4878104784684959 0.4546668375850359 0 0.48502495584706629 0.44181750450007778 0 0.49999999999999928 0.46182898591187349 0 0.5 0.5 0 0.49753071700976492 0.4930404390193398 0 0.5 0.5 0 0.47501141284236448 0.48698608464618232 0 0.44690499747156931 0.4999999999999995 0 0.5 0.5 0 0.49753071700976492 0.4930404390193398 0 0.47501141284236448 0.48698608464618232 0 0.49753071700976492 0.4930404390193398 0 0.48901811854688337 0.4803069499911008 0 0.47501141284236448 0.48698608464618232 0 0.49753071700976492 0.4930404390193398 0 0.48901811854688337 0.4803069499911008 0 0.48050552008400071 0.46757346096286262 0 0.49999999999999928 0.46182898591187349 0 0.48901811854688337 0.4803069499911008 0 0.49999999999999928 0.46182898591187349 0 0.49753071700976492 0.4930404390193398 0 0.48901811854688337 0.4803069499911008 0 0.48050552008400071 0.46757346096286262 0 0.48901811854688337 0.4803069499911008 0 0.48050552008400071 0.46757346096286262 0 0.46302896313844299 0.47272331085799019 0 0.48901811854688337 0.4803069499911008 0 0.47689100365292297 0.47689745161453417 0 0.47501141284236448 0.48698608464618232 0 0.48050552008400071 0.46757346096286262 0 0.47689100365292297 0.47689745161453417 0 0.46302896313844299 0.47272331085799019 0 0.48050552008400071 0.46757346096286262 0 0.48901811854688337 0.4803069499911008 0 0.47689100365292297 0.47689745161453417 0 0.47689100365292297 0.47689745161453417 0 0.47501141284236448 0.48698608464618232 0 0.46302896313844299 0.47272331085799019 0 0.47501141284236448 0.48698608464618232 0 0.45496698030500621 0.48636165542899479 0 0.44690499747156931 0.4999999999999995 0 0.47501141284236448 0.48698608464618232 0 0.45496698030500621 0.48636165542899479 0 0.46302896313844299 0.47272331085799019 0 0.45496698030500621 0.48636165542899479 0 0.46302896313844299 0.47272331085799019 0 0.46302896313844299 0.47272331085799019 0 0.43620850627812668 0.48062654530969717 0 0.44518446721829791 0.46873079822848901 0 0.46302896313844299 0.47272331085799019 0 0.43620850627812668 0.48062654530969717 0 0.45496698030500621 0.48636165542899479 0 0.46302896313844299 0.47272331085799019 0 0.43620850627812668 0.48062654530969717 0 0.45496698030500621 0.48636165542899479 0 0.44690499747156931 0.4999999999999995 0 0.43620850627812668 0.48062654530969717 0 0.45496698030500621 0.48636165542899479 0 0.44690499747156931 0.4999999999999995 0 0.42031902274246069 0.48552805734600057 0 0.41743852268843429 0.5 0 0.43620850627812668 0.48062654530969717 0 0.44690499747156931 0.4999999999999995 0 0.41743852268843429 0.5 0 0.43620850627812668 0.48062654530969717 0 0.42031902274246069 0.48552805734600057 0 0.41743852268843429 0.5 0 0.40134209412993838 0.48520307466421098 0 0.42031902274246069 0.48552805734600057 0 0.40973563488985532 0.47579104778557152 0 0.40134209412993838 0.48520307466421098 0 0.42031902274246069 0.48552805734600057 0 0.40973563488985532 0.47579104778557152 0 0.41789473538963601 0.46705380048502582 0 0.44518446721829791 0.46873079822848901 0 0.42031902274246069 0.48552805734600057 0 0.43072905865294731 0.46311411437165317 0 0.44518446721829791 0.46873079822848901 0 0.42031902274246069 0.48552805734600057 0 0.43620850627812668 0.48062654530969717 0 0.44518446721829791 0.46873079822848901 0 0.42031902274246069 0.48552805734600057 0 0.42031902274246069 0.48552805734600057 0 0.43072905865294731 0.46311411437165317 0 0.41789473538963601 0.46705380048502582 0 0.44110505044236059 0.45564825146568327 0 0.43072905865294731 0.46311411437165317 0 0.43343701099378978 0.44857281610427868 0 0.43072905865294731 0.46311411437165317 0 0.43343701099378978 0.44857281610427868 0 0.42053980660522761 0.45341513910658388 0 0.43072905865294731 0.46311411437165317 0 0.41789473538963601 0.46705380048502582 0 0.42053980660522761 0.45341513910658388 0 0.43681876433844857 0.43497208046478802 0 0.43343701099378978 0.44857281610427868 0 0.42326813014219627 0.43909650749986368 0 0.43343701099378978 0.44857281610427868 0 0.42326813014219627 0.43909650749986368 0 0.42053980660522761 0.45341513910658388 0 0.41248490446316177 0.43293377153942381 0 0.42326813014219627 0.43909650749986368 0 0.41215324011006321 0.44426916471351768 0 0.42326813014219627 0.43909650749986368 0 0.41215324011006321 0.44426916471351768 0 0.42053980660522761 0.45341513910658388 0 0.41215324011006321 0.44426916471351768 0 0.42053980660522761 0.45341513910658388 0 0.40575666434273311 0.45838443146516472 0 0.41248490446316177 0.43293377153942381 0 0.41215324011006321 0.44426916471351768 0 0.39942544658573009 0.43872588670818857 0 0.40973563488985532 0.47579104778557152 0 0.41789473538963601 0.46705380048502582 0 0.40575666434273311 0.45838443146516472 0 0.41789473538963601 0.46705380048502582 0 0.42053980660522761 0.45341513910658388 0 0.40575666434273311 0.45838443146516472 0 0.40973563488985532 0.47579104778557152 0 0.40575666434273311 0.45838443146516472 0 0.39457326129307041 0.46924519202038539 0 0.40575666434273311 0.45838443146516472 0 0.38748492612950952 0.44892285829301931 0 0.39457326129307041 0.46924519202038539 0 0.40575666434273311 0.45838443146516472 0 0.39942544658573009 0.43872588670818857 0 0.38748492612950952 0.44892285829301931 0 0.3889231515195431 0.43141286456833011 0 0.39942544658573009 0.43872588670818857 0 0.38748492612950952 0.44892285829301931 0 0.41215324011006321 0.44426916471351768 0 0.40575666434273311 0.45838443146516472 0 0.39942544658573009 0.43872588670818857 0 0.36980735363827261 0.46050290225189661 0 0.36959298495063608 0.43610817863788948 0 0.38748492612950952 0.44892285829301931 0 0.36959298495063608 0.43610817863788948 0 0.3889231515195431 0.43141286456833011 0 0.38748492612950952 0.44892285829301931 0 0.36980735363827261 0.46050290225189661 0 0.38748492612950952 0.44892285829301931 0 0.39457326129307041 0.46924519202038539 0 0.36980735363827261 0.46050290225189661 0 0.37801407526051067 0.48065415083330842 0 0.39457326129307041 0.46924519202038539 0 0.37801407526051067 0.48065415083330842 0 0.38797204790529932 0.5 0 0.40134209412993838 0.48520307466421098 0 0.41743852268843429 0.5 0 0.38797204790529932 0.5 0 0.40134209412993838 0.48520307466421098 0 0.40973563488985532 0.47579104778557152 0 0.40134209412993838 0.48520307466421098 0 0.39457326129307041 0.46924519202038539 0 0.37801407526051067 0.48065415083330842 0 0.40134209412993838 0.48520307466421098 0 0.39457326129307041 0.46924519202038539 0 0.33471388977496319 0.083869725553476451 0 0.32003772732572838 0.080925826065863432 0 0.34163206045391592 0.099703108374672819 0 0.32003772732572838 0.080925826065863432 0 0.34163206045391592 0.099703108374672819 0 0.33471388977496319 0.083869725553476451 0 0.34163206045391592 0.099703108374672819 0 0.35085433501378249 0.086695181415402722 0 0.33471388977496319 0.083869725553476451 0 0.34209731100959018 0.06531632876058778 0 0.3490795063897344 0.076610282135673974 0 0.33471388977496319 0.083869725553476451 0 0.34209731100959018 0.06531632876058778 0 0.32721969837032222 0.069259436753723466 0 0.33471388977496319 0.083869725553476451 0 0.32721969837032222 0.069259436753723466 0 0.32003772732572838 0.080925826065863432 0 0.31518448171420999 0.065085558788002928 0 0.32721969837032222 0.069259436753723466 0 0.32003772732572838 0.080925826065863432 0 0.32003772732572838 0.080925826065863432 0 0.31657863646219547 0.093324099257994786 0 0.34163206045391592 0.099703108374672819 0 0.32003772732572838 0.080925826065863432 0 0.31657863646219547 0.093324099257994786 0 0.30227411453462139 0.089652133027170247 0 0.33471388977496319 0.083869725553476451 0 0.32003772732572838 0.080925826065863432 0 0.31657863646219547 0.093324099257994786 0 0.32025759602694659 0.1047776340902011 0 0.34163206045391592 0.099703108374672819 0 0.31657863646219547 0.093324099257994786 0 0.32025759602694659 0.1047776340902011 0 0.30640852481201453 0.1024735992044304 0 0.32025759602694659 0.1047776340902011 0 0.31114536757858358 0.11742006929579971 0 0.30640852481201453 0.1024735992044304 0 0.32606950933900308 0.1158177097477945 0 0.31114536757858358 0.11742006929579971 0 0.3195478300457561 0.1332621056988223 0 0.32025759602694659 0.1047776340902011 0 0.32606950933900308 0.1158177097477945 0 0.31114536757858358 0.11742006929579971 0 0.33761965874988609 0.1186889285033586 0 0.34163206045391592 0.099703108374672819 0 0.34956654336434939 0.1234914401014125 0 0.32606950933900308 0.1158177097477945 0 0.33761965874988609 0.1186889285033586 0 0.34163206045391592 0.099703108374672819 0 0.32606950933900308 0.1158177097477945 0 0.33761965874988609 0.1186889285033586 0 0.33436770153514289 0.13112975471366969 0 0.33761965874988609 0.1186889285033586 0 0.34956654336434939 0.1234914401014125 0 0.33436770153514289 0.13112975471366969 0 0.32025759602694659 0.1047776340902011 0 0.32606950933900308 0.1158177097477945 0 0.34163206045391592 0.099703108374672819 0 0.34163206045391592 0.099703108374672819 0 0.35755874922647762 0.098360434014750309 0 0.36322639358210312 0.11848039068348271 0 0.34163206045391592 0.099703108374672819 0 0.36322639358210312 0.11848039068348271 0 0.34163206045391592 0.099703108374672819 0 0.35755874922647762 0.098360434014750309 0 0.35085433501378249 0.086695181415402722 0 0.34163206045391592 0.099703108374672819 0 0.34956654336434939 0.1234914401014125 0 0.36322639358210312 0.11848039068348271 0 0.36322639358210312 0.11848039068348271 0 0.37045299287494049 0.09679375479102828 0 0.38005682511468147 0.12140739343396729 0 0.35755874922647762 0.098360434014750309 0 0.36322639358210312 0.11848039068348271 0 0.37045299287494049 0.09679375479102828 0 0.35755874922647762 0.098360434014750309 0 0.37045299287494049 0.09679375479102828 0 0.35979627253246887 0.087956112087811941 0 0.37045299287494049 0.09679375479102828 0 0.36986657419494789 0.075759843690150083 0 0.37682589963749002 0.081332762740894418 0 0.37045299287494049 0.09679375479102828 0 0.35979627253246887 0.087956112087811941 0 0.36084916063519962 0.072180116148089279 0 0.37045299287494049 0.09679375479102828 0 0.36084916063519962 0.072180116148089279 0 0.36986657419494789 0.075759843690150083 0 0.37045299287494049 0.09679375479102828 0 0.36084916063519962 0.072180116148089279 0 0.35755874922647762 0.098360434014750309 0 0.35979627253246887 0.087956112087811941 0 0.35085433501378249 0.086695181415402722 0 0.35979627253246887 0.087956112087811941 0 0.35560274156159061 0.081403828627082772 0 0.36084916063519962 0.072180116148089279 0 0.33471388977496319 0.083869725553476451 0 0.35085433501378249 0.086695181415402722 0 0.3490795063897344 0.076610282135673974 0 0.35979627253246887 0.087956112087811941 0 0.35560274156159061 0.081403828627082772 0 0.35085433501378249 0.086695181415402722 0 0.35560274156159061 0.081403828627082772 0 0.35085433501378249 0.086695181415402722 0 0.3490795063897344 0.076610282135673974 0 0.34209731100959018 0.06531632876058778 0 0.3490795063897344 0.076610282135673974 0 0.36084916063519962 0.072180116148089279 0 0.36448270712015302 0.068442951443566186 0 0.36084916063519962 0.072180116148089279 0 0.35124532839545858 0.047566477505150237 0 0.35560274156159061 0.081403828627082772 0 0.3490795063897344 0.076610282135673974 0 0.36084916063519962 0.072180116148089279 0 0.36448270712015302 0.068442951443566186 0 0.36084916063519962 0.072180116148089279 0 0.36986657419494789 0.075759843690150083 0 0.36986657419494789 0.075759843690150083 0 0.37596532967213542 0.069868995675824025 0 0.37682589963749002 0.081332762740894418 0 0.36448270712015302 0.068442951443566186 0 0.36986657419494789 0.075759843690150083 0 0.37084641292541748 0.06878424193773866 0 0.36986657419494789 0.075759843690150083 0 0.37084641292541748 0.06878424193773866 0 0.37596532967213542 0.069868995675824025 0 0.36448270712015302 0.068442951443566186 0 0.37084641292541748 0.06878424193773866 0 0.37307104071443398 0.061065176941414383 0 0.37084641292541748 0.06878424193773866 0 0.37307104071443398 0.061065176941414383 0 0.37596532967213542 0.069868995675824025 0 0.36448270712015302 0.068442951443566186 0 0.37307104071443398 0.061065176941414383 0 0.37146335928247548 0.04052602251159599 0 0.36448270712015302 0.068442951443566186 0 0.37146335928247548 0.04052602251159599 0 0.35124532839545858 0.047566477505150237 0 0.36448270712015302 0.068442951443566186 0 0.37146335928247548 0.04052602251159599 0 0.37146335928247548 0.04052602251159599 0 0.35572529983931911 0.032753521421585163 0 0.36312657459820519 0.022962182453169309 0 0.37146335928247548 0.04052602251159599 0 0.35572529983931911 0.032753521421585163 0 0.35124532839545858 0.047566477505150237 0 0.35572529983931911 0.032753521421585163 0 0.35124532839545858 0.047566477505150237 0 0.3321968515854315 0.028027004478648001 0 0.36084916063519962 0.072180116148089279 0 0.35124532839545858 0.047566477505150237 0 0.34209731100959018 0.06531632876058778 0 0.36084916063519962 0.072180116148089279 0 0.35124532839545858 0.047566477505150237 0 0.36312657459820519 0.022962182453169309 0 0.35936362748920009 0.0091271431172253586 0 0.37844401144479839 0.012609093579625891 0 0.35936362748920009 0.0091271431172253586 0 0.37844401144479839 0.012609093579625891 0 0.36665723294200347 -0.001883505129568449 0 0.35936362748920009 0.0091271431172253586 0 0.36665723294200347 -0.001883505129568449 0 0.35531676971978082 -0.0033532784323768001 0 0.37146335928247548 0.04052602251159599 0 0.36312657459820519 0.022962182453169309 0 0.37844401144479839 0.012609093579625891 0 0.37146335928247548 0.04052602251159599 0 0.37844401144479839 0.012609093579625891 0 0.35572529983931911 0.032753521421585163 0 0.35063657493523293 0.0197951316358141 0 0.3321968515854315 0.028027004478648001 0 0.35572529983931911 0.032753521421585163 0 0.36312657459820519 0.022962182453169309 0 0.35063657493523293 0.0197951316358141 0 0.36312657459820519 0.022962182453169309 0 0.35063657493523293 0.0197951316358141 0 0.35936362748920009 0.0091271431172253586 0 0.35936362748920009 0.0091271431172253586 0 0.33689267375143878 0.0039255003288513873 0 0.35531676971978082 -0.0033532784323768001 0 0.35063657493523293 0.0197951316358141 0 0.35936362748920009 0.0091271431172253586 0 0.33689267375143878 0.0039255003288513873 0 0.33689267375143878 0.0039255003288513873 0 0.3321968515854315 0.028027004478648001 0 0.30352242257352219 0.0039185454548519476 0 0.35063657493523293 0.0197951316358141 0 0.33689267375143878 0.0039255003288513873 0 0.3321968515854315 0.028027004478648001 0 0.3321968515854315 0.028027004478648001 0 0.32406508202711942 0.05109974460068676 0 0.30086563814790429 0.035038583275740692 0 0.34209731100959018 0.06531632876058778 0 0.32721969837032222 0.069259436753723466 0 0.32406508202711942 0.05109974460068676 0 0.34209731100959018 0.06531632876058778 0 0.35124532839545858 0.047566477505150237 0 0.32406508202711942 0.05109974460068676 0 0.35124532839545858 0.047566477505150237 0 0.3321968515854315 0.028027004478648001 0 0.32406508202711942 0.05109974460068676 0 0.31518448171420999 0.065085558788002928 0 0.32721969837032222 0.069259436753723466 0 0.32406508202711942 0.05109974460068676 0 0.31518448171420999 0.065085558788002928 0 0.32406508202711942 0.05109974460068676 0 0.29882370077581188 0.062479238108283437 0 0.32406508202711942 0.05109974460068676 0 0.29882370077581188 0.062479238108283437 0 0.30086563814790429 0.035038583275740692 0 0.32406508202711942 0.05109974460068676 0 0.30086563814790429 0.035038583275740692 0 0.30086563814790429 0.035038583275740692 0 0.28350496565293731 0.043820562147367653 0 0.27766619426868899 0.018977421950794569 0 0.29882370077581188 0.062479238108283437 0 0.30086563814790429 0.035038583275740692 0 0.28350496565293731 0.043820562147367653 0 0.29882370077581188 0.062479238108283437 0 0.28350496565293731 0.043820562147367653 0 0.28339325744793759 0.061338593161917712 0 0.3321968515854315 0.028027004478648001 0 0.30086563814790429 0.035038583275740692 0 0.30352242257352219 0.0039185454548519476 0 0.30086563814790429 0.035038583275740692 0 0.27766619426868899 0.018977421950794569 0 0.30086563814790429 0.035038583275740692 0 0.30352242257352219 0.0039185454548519476 0 0.27766619426868899 0.018977421950794569 0 0.30352242257352219 0.0039185454548519476 0 0.27766619426868899 0.018977421950794569 0 0.27708695819087842 -0.0025378708656911609 0 0.27766619426868899 0.018977421950794569 0 0.25446675038947358 0.0029162606258486688 0 0.27766619426868899 0.018977421950794569 0 0.26047117107291767 -0.0019720443344692288 0 0.27708695819087842 -0.0025378708656911609 0 0.27766619426868899 0.018977421950794569 0 0.2600935707136679 0.019574361616358959 0 0.26464981823601458 0.038183209123269009 0 0.2600935707136679 0.019574361616358959 0 0.26464981823601458 0.038183209123269009 0 0.25044211127373811 0.032849993626191502 0 0.27766619426868899 0.018977421950794569 0 0.2600935707136679 0.019574361616358959 0 0.25446675038947358 0.0029162606258486688 0 0.27766619426868899 0.018977421950794569 0 0.25446675038947358 0.0029162606258486688 0 0.26047117107291767 -0.0019720443344692288 0 0.25446675038947358 0.0029162606258486688 0 0.26047117107291767 -0.0019720443344692288 0 0.28339325744793759 0.061338593161917712 0 0.2699795556074106 0.054659435659755229 0 0.26514968559830832 0.069915803624621298 0 0.28350496565293731 0.043820562147367653 0 0.28339325744793759 0.061338593161917712 0 0.2699795556074106 0.054659435659755229 0 0.28350496565293731 0.043820562147367653 0 0.27766619426868899 0.018977421950794569 0 0.26464981823601458 0.038183209123269009 0 0.28350496565293731 0.043820562147367653 0 0.2699795556074106 0.054659435659755229 0 0.26464981823601458 0.038183209123269009 0 0.26464981823601458 0.038183209123269009 0 0.25174039047255609 0.044464402284776217 0 0.2585751734657834 0.052327775232976027 0 0.26464981823601458 0.038183209123269009 0 0.25044211127373811 0.032849993626191502 0 0.25174039047255609 0.044464402284776217 0 0.25174039047255609 0.044464402284776217 0 0.25102243244437311 0.053297338652025752 0 0.2585751734657834 0.052327775232976027 0 0.2699795556074106 0.054659435659755229 0 0.26464981823601458 0.038183209123269009 0 0.2585751734657834 0.052327775232976027 0 0.2699795556074106 0.054659435659755229 0 0.2585751734657834 0.052327775232976027 0 0.26000268679747079 0.061003988239662958 0 0.2699795556074106 0.054659435659755229 0 0.26000268679747079 0.061003988239662958 0 0.26514968559830832 0.069915803624621298 0 0.2585751734657834 0.052327775232976027 0 0.26000268679747079 0.061003988239662958 0 0.2530174900015254 0.0600809219264858 0 0.25102243244437311 0.053297338652025752 0 0.2585751734657834 0.052327775232976027 0 0.2530174900015254 0.0600809219264858 0 0.24751669685985911 0.059618880130872708 0 0.25102243244437311 0.053297338652025752 0 0.2530174900015254 0.0600809219264858 0 0.24853219730195361 0.063845178725116872 0 0.2530174900015254 0.0600809219264858 0 0.25274476311700622 0.067427493409812952 0 0.2530174900015254 0.0600809219264858 0 0.25274476311700622 0.067427493409812952 0 0.26000268679747079 0.061003988239662958 0 0.2530174900015254 0.0600809219264858 0 0.25274476311700622 0.067427493409812952 0 0.25274476311700622 0.067427493409812952 0 0.25243039498113262 0.075895774732197205 0 0.24842415088314279 0.069033451464499671 0 0.25274476311700622 0.067427493409812952 0 0.25243039498113262 0.075895774732197205 0 0.25274476311700622 0.067427493409812952 0 0.25243039498113262 0.075895774732197205 0 0.26514968559830832 0.069915803624621298 0 0.25243039498113262 0.075895774732197205 0 0.26514968559830832 0.069915803624621298 0 0.26417250328098718 0.085299079350852347 0 0.25243039498113262 0.075895774732197205 0 0.26514968559830832 0.069915803624621298 0 0.26000268679747079 0.061003988239662958 0 0.25274476311700622 0.067427493409812952 0 0.26514968559830832 0.069915803624621298 0 0.25274476311700622 0.067427493409812952 0 0.26514968559830832 0.069915803624621298 0 0.25243039498113262 0.075895774732197205 0 0.26417250328098718 0.085299079350852347 0 0.25158482098595109 0.098673396421397969 0 0.25243039498113262 0.075895774732197205 0 0.25158482098595109 0.098673396421397969 0 0.26417250328098718 0.085299079350852347 0 0.27563544099652842 0.091217529053328833 0 0.26597619666038957 0.098681263799979324 0 0.26417250328098718 0.085299079350852347 0 0.27658940398852799 0.081360569412953818 0 0.27563544099652842 0.091217529053328833 0 0.26514968559830832 0.069915803624621298 0 0.26417250328098718 0.085299079350852347 0 0.27658940398852799 0.081360569412953818 0 0.27658940398852799 0.081360569412953818 0 0.27563544099652842 0.091217529053328833 0 0.28742128170162778 0.087331448045782731 0 0.28339325744793759 0.061338593161917712 0 0.26514968559830832 0.069915803624621298 0 0.29259370646201821 0.075420814845242989 0 0.26514968559830832 0.069915803624621298 0 0.27658940398852799 0.081360569412953818 0 0.29259370646201821 0.075420814845242989 0 0.28339325744793759 0.061338593161917712 0 0.26514968559830832 0.069915803624621298 0 0.26514968559830832 0.069915803624621298 0 0.29259370646201821 0.075420814845242989 0 0.29882370077581188 0.062479238108283437 0 0.28339325744793759 0.061338593161917712 0 0.29259370646201821 0.075420814845242989 0 0.27658940398852799 0.081360569412953818 0 0.29259370646201821 0.075420814845242989 0 0.28742128170162778 0.087331448045782731 0 0.27563544099652842 0.091217529053328833 0 0.28742128170162778 0.087331448045782731 0 0.29001374252644291 0.099006193890217781 0 0.28742128170162778 0.087331448045782731 0 0.30227411453462139 0.089652133027170247 0 0.29001374252644291 0.099006193890217781 0 0.29259370646201821 0.075420814845242989 0 0.28742128170162778 0.087331448045782731 0 0.30227411453462139 0.089652133027170247 0 0.32003772732572838 0.080925826065863432 0 0.29259370646201821 0.075420814845242989 0 0.30227411453462139 0.089652133027170247 0 0.32003772732572838 0.080925826065863432 0 0.29259370646201821 0.075420814845242989 0 0.32003772732572838 0.080925826065863432 0 0.29882370077581188 0.062479238108283437 0 0.29259370646201821 0.075420814845242989 0 0.32003772732572838 0.080925826065863432 0 0.29882370077581188 0.062479238108283437 0 0.31518448171420999 0.065085558788002928 0 0.32003772732572838 0.080925826065863432 0 0.29882370077581188 0.062479238108283437 0 0.29818169174329712 0.11066146566519899 0 0.31114536757858358 0.11742006929579971 0 0.294250496481684 0.12267566802032639 0 0.31114536757858358 0.11742006929579971 0 0.294250496481684 0.12267566802032639 0 0.30313841955192899 0.13260249050964579 0 0.29818169174329712 0.11066146566519899 0 0.31114536757858358 0.11742006929579971 0 0.30640852481201453 0.1024735992044304 0 0.30227411453462139 0.089652133027170247 0 0.30640852481201453 0.1024735992044304 0 0.29001374252644291 0.099006193890217781 0 0.29818169174329712 0.11066146566519899 0 0.30640852481201453 0.1024735992044304 0 0.29001374252644291 0.099006193890217781 0 0.31657863646219547 0.093324099257994786 0 0.30227411453462139 0.089652133027170247 0 0.30640852481201453 0.1024735992044304 0 0.29818169174329712 0.11066146566519899 0 0.29001374252644291 0.099006193890217781 0 0.28729541733308872 0.1128284558108848 0 0.29001374252644291 0.099006193890217781 0 0.28729541733308872 0.1128284558108848 0 0.27577858748266387 0.1072301355245756 0 0.29818169174329712 0.11066146566519899 0 0.28729541733308872 0.1128284558108848 0 0.294250496481684 0.12267566802032639 0 0.28729541733308872 0.1128284558108848 0 0.294250496481684 0.12267566802032639 0 0.28067449336876182 0.1220521091494646 0 0.28067449336876182 0.1220521091494646 0 0.26956705708048567 0.1198361090660386 0 0.27577858748266387 0.1072301355245756 0 0.28729541733308872 0.1128284558108848 0 0.28067449336876182 0.1220521091494646 0 0.27577858748266387 0.1072301355245756 0 0.26956705708048567 0.1198361090660386 0 0.27577858748266387 0.1072301355245756 0 0.26270963055581759 0.11098617864974181 0 0.27563544099652842 0.091217529053328833 0 0.27577858748266387 0.1072301355245756 0 0.26597619666038957 0.098681263799979324 0 0.27563544099652842 0.091217529053328833 0 0.29001374252644291 0.099006193890217781 0 0.27577858748266387 0.1072301355245756 0 0.27577858748266387 0.1072301355245756 0 0.26597619666038957 0.098681263799979324 0 0.26270963055581759 0.11098617864974181 0 0.25158482098595109 0.098673396421397969 0 0.25094552198087999 0.11589449234768209 0 0.25158482098595109 0.098673396421397969 0 0.26270963055581759 0.11098617864974181 0 0.25094552198087999 0.11589449234768209 0 0.26417250328098718 0.085299079350852347 0 0.26597619666038957 0.098681263799979324 0 0.25158482098595109 0.098673396421397969 0 0.26597619666038957 0.098681263799979324 0 0.25158482098595109 0.098673396421397969 0 0.26270963055581759 0.11098617864974181 0 0.25158482098595109 0.098673396421397969 0 0.26270963055581759 0.11098617864974181 0 0.25094552198087999 0.11589449234768209 0 0.25030622297580962 0.13311558827396619 0 0.26022612795132161 0.12333036834530881 0 0.25094552198087999 0.11589449234768209 0 0.25030622297580962 0.13311558827396619 0 0.26956705708048567 0.1198361090660386 0 0.26022612795132161 0.12333036834530881 0 0.26270963055581759 0.11098617864974181 0 0.26022612795132161 0.12333036834530881 0 0.26270963055581759 0.11098617864974181 0 0.25094552198087999 0.11589449234768209 0 0.26956705708048567 0.1198361090660386 0 0.26022612795132161 0.12333036834530881 0 0.26675796828336718 0.1380571931171293 0 0.26022612795132161 0.12333036834530881 0 0.25030622297580962 0.13311558827396619 0 0.26675796828336718 0.1380571931171293 0 0.25030622297580962 0.13311558827396619 0 0.26675796828336718 0.1380571931171293 0 0.25030622297580962 0.13311558827396619 0 0.26675796828336718 0.1380571931171293 0 0.25638724149227848 0.14295410589973731 0 0.25004344172447263 0.14019424959050239 0 0.25030622297580962 0.13311558827396619 0 0.25638724149227848 0.14295410589973731 0 0.25004344172447263 0.14019424959050239 0 0.25030622297580962 0.13311558827396619 0 0.26675796828336718 0.1380571931171293 0 0.28320971359092417 0.1429987979602943 0 0.26675796828336718 0.1380571931171293 0 0.28666270206708028 0.1324408374186071 0 0.28320971359092417 0.1429987979602943 0 0.28067449336876182 0.1220521091494646 0 0.26956705708048567 0.1198361090660386 0 0.26675796828336718 0.1380571931171293 0 0.28067449336876182 0.1220521091494646 0 0.26675796828336718 0.1380571931171293 0 0.28666270206708028 0.1324408374186071 0 0.26675796828336718 0.1380571931171293 0 0.27436529468354132 0.15433220537778311 0 0.26010861073109098 0.15248373785575309 0 0.26675796828336718 0.1380571931171293 0 0.27436529468354132 0.15433220537778311 0 0.28320971359092417 0.1429987979602943 0 0.26675796828336718 0.1380571931171293 0 0.26010861073109098 0.15248373785575309 0 0.25638724149227848 0.14295410589973731 0 0.2496536413094039 0.15044712256699261 0 0.25004344172447263 0.14019424959050239 0 0.25638724149227848 0.14295410589973731 0 0.24653130607993951 0.16237692388552691 0 0.2496536413094039 0.15044712256699261 0 0.26010861073109098 0.15248373785575309 0 0.2496536413094039 0.15044712256699261 0 0.26010861073109098 0.15248373785575309 0 0.25638724149227848 0.14295410589973731 0 0.24653130607993951 0.16237692388552691 0 0.25292738168467233 0.17649485219682931 0 0.26638423851283249 0.16867758561061549 0 0.24653130607993951 0.16237692388552691 0 0.26010861073109098 0.15248373785575309 0 0.26638423851283249 0.16867758561061549 0 0.24528107816237801 0.1907036486386274 0 0.25292738168467233 0.17649485219682931 0 0.26633433714882182 0.18577592949096661 0 0.25292738168467233 0.17649485219682931 0 0.26633433714882182 0.18577592949096661 0 0.26638423851283249 0.16867758561061549 0 0.27723266788850742 0.181048228772968 0 0.26638423851283249 0.16867758561061549 0 0.28391425324491287 0.17071999404263091 0 0.26633433714882182 0.18577592949096661 0 0.27723266788850742 0.181048228772968 0 0.26638423851283249 0.16867758561061549 0 0.27436529468354132 0.15433220537778311 0 0.26010861073109098 0.15248373785575309 0 0.26638423851283249 0.16867758561061549 0 0.27436529468354132 0.15433220537778311 0 0.26638423851283249 0.16867758561061549 0 0.28391425324491287 0.17071999404263091 0 0.27436529468354132 0.15433220537778311 0 0.28391425324491287 0.17071999404263091 0 0.29097703849613438 0.15773848939083679 0 0.28391425324491287 0.17071999404263091 0 0.2931647794093819 0.16879209887591959 0 0.29097703849613438 0.15773848939083679 0 0.2931647794093819 0.16879209887591959 0 0.29097703849613438 0.15773848939083679 0 0.30040947706207388 0.16512632217721829 0 0.28391425324491287 0.17071999404263091 0 0.28743664533084129 0.187357279865842 0 0.29743995151898561 0.17866098634217961 0 0.27723266788850742 0.181048228772968 0 0.28391425324491287 0.17071999404263091 0 0.28743664533084129 0.187357279865842 0 0.28391425324491287 0.17071999404263091 0 0.2931647794093819 0.16879209887591959 0 0.29743995151898561 0.17866098634217961 0 0.28743664533084129 0.187357279865842 0 0.29743995151898561 0.17866098634217961 0 0.29971043857951379 0.19298806906372529 0 0.29743995151898561 0.17866098634217961 0 0.30929675685570829 0.1858318568065235 0 0.29971043857951379 0.19298806906372529 0 0.29743995151898561 0.17866098634217961 0 0.3101655001798202 0.17563615506282959 0 0.30040947706207388 0.16512632217721829 0 0.29743995151898561 0.17866098634217961 0 0.3101655001798202 0.17563615506282959 0 0.30929675685570829 0.1858318568065235 0 0.30040947706207388 0.16512632217721829 0 0.30453528129870422 0.15487579661148021 0 0.32848741365188411 0.1727716232507491 0 0.29097703849613438 0.15773848939083679 0 0.30040947706207388 0.16512632217721829 0 0.30453528129870422 0.15487579661148021 0 0.2931647794093819 0.16879209887591959 0 0.29743995151898561 0.17866098634217961 0 0.30040947706207388 0.16512632217721829 0 0.29097703849613438 0.15773848939083679 0 0.30453528129870422 0.15487579661148021 0 0.29618567382365713 0.14404403195872001 0 0.30453528129870422 0.15487579661148021 0 0.30873747279203018 0.14281046260302349 0 0.29618567382365713 0.14404403195872001 0 0.30453528129870422 0.15487579661148021 0 0.30873747279203018 0.14281046260302349 0 0.32007589174333823 0.14676000458717811 0 0.30873747279203018 0.14281046260302349 0 0.30313841955192899 0.13260249050964579 0 0.3195478300457561 0.1332621056988223 0 0.31114536757858358 0.11742006929579971 0 0.30313841955192899 0.13260249050964579 0 0.3195478300457561 0.1332621056988223 0 0.30873747279203018 0.14281046260302349 0 0.30313841955192899 0.13260249050964579 0 0.29618567382365713 0.14404403195872001 0 0.294250496481684 0.12267566802032639 0 0.30313841955192899 0.13260249050964579 0 0.28666270206708028 0.1324408374186071 0 0.30313841955192899 0.13260249050964579 0 0.28666270206708028 0.1324408374186071 0 0.29618567382365713 0.14404403195872001 0 0.294250496481684 0.12267566802032639 0 0.28067449336876182 0.1220521091494646 0 0.28666270206708028 0.1324408374186071 0 0.28666270206708028 0.1324408374186071 0 0.28320971359092417 0.1429987979602943 0 0.29618567382365713 0.14404403195872001 0 0.27436529468354132 0.15433220537778311 0 0.29097703849613438 0.15773848939083679 0 0.28320971359092417 0.1429987979602943 0 0.29097703849613438 0.15773848939083679 0 0.28320971359092417 0.1429987979602943 0 0.29618567382365713 0.14404403195872001 0 0.28119448123381058 0.25405304303149878 0 0.26221447651104962 0.2479993693513689 0 0.28440499104296979 0.23439140090611099 0 0.26221447651104962 0.2479993693513689 0 0.26853130556434218 0.23400660741274959 0 0.28440499104296979 0.23439140090611099 0 0.26221447651104962 0.2479993693513689 0 0.28440499104296979 0.23439140090611099 0 0.2457442494512444 0.24022391879071339 0 0.26221447651104962 0.2479993693513689 0 0.25511338863332461 0.22468137717712711 0 0.26221447651104962 0.2479993693513689 0 0.25511338863332461 0.22468137717712711 0 0.26853130556434218 0.23400660741274959 0 0.26221447651104962 0.2479993693513689 0 0.25511338863332461 0.22468137717712711 0 0.25511338863332461 0.22468137717712711 0 0.25242827713160498 0.21540237912569379 0 0.25511338863332461 0.22468137717712711 0 0.2794126892910288 0.21617120911671081 0 0.25511338863332461 0.22468137717712711 0 0.26853130556434218 0.23400660741274959 0 0.2794126892910288 0.21617120911671081 0 0.26853130556434218 0.23400660741274959 0 0.2794126892910288 0.21617120911671081 0 0.28440499104296979 0.23439140090611099 0 0.25511338863332461 0.22468137717712711 0 0.2794126892910288 0.21617120911671081 0 0.26644318031571418 0.20408753099865831 0 0.2794126892910288 0.21617120911671081 0 0.26644318031571418 0.20408753099865831 0 0.27722953884408802 0.19656269719262509 0 0.24528107816237801 0.1907036486386274 0 0.26644318031571418 0.20408753099865831 0 0.25242827713160498 0.21540237912569379 0 0.25511338863332461 0.22468137717712711 0 0.26644318031571418 0.20408753099865831 0 0.25242827713160498 0.21540237912569379 0 0.26644318031571418 0.20408753099865831 0 0.25242827713160498 0.21540237912569379 0 0.24528107816237801 0.1907036486386274 0 0.26633433714882182 0.18577592949096661 0 0.26644318031571418 0.20408753099865831 0 0.26633433714882182 0.18577592949096661 0 0.26644318031571418 0.20408753099865831 0 0.27722953884408802 0.19656269719262509 0 0.27723266788850742 0.181048228772968 0 0.28743664533084129 0.187357279865842 0 0.27722953884408802 0.19656269719262509 0 0.26633433714882182 0.18577592949096661 0 0.27723266788850742 0.181048228772968 0 0.27722953884408802 0.19656269719262509 0 0.28743664533084129 0.187357279865842 0 0.27722953884408802 0.19656269719262509 0 0.28939512316467059 0.2005252056429343 0 0.28743664533084129 0.187357279865842 0 0.28939512316467059 0.2005252056429343 0 0.29971043857951379 0.19298806906372529 0 0.30929675685570829 0.1858318568065235 0 0.29971043857951379 0.19298806906372529 0 0.31162694501442678 0.19735313208654229 0 0.29971043857951379 0.19298806906372529 0 0.31162694501442678 0.19735313208654229 0 0.30371198994873311 0.20766104105629449 0 0.28939512316467059 0.2005252056429343 0 0.29971043857951379 0.19298806906372529 0 0.30371198994873311 0.20766104105629449 0 0.2794126892910288 0.21617120911671081 0 0.30371198994873311 0.20766104105629449 0 0.2794126892910288 0.21617120911671081 0 0.30371198994873311 0.20766104105629449 0 0.30659550557489001 0.220783432460853 0 0.2794126892910288 0.21617120911671081 0 0.27722953884408802 0.19656269719262509 0 0.28939512316467059 0.2005252056429343 0 0.2794126892910288 0.21617120911671081 0 0.28939512316467059 0.2005252056429343 0 0.30371198994873311 0.20766104105629449 0 0.30659550557489001 0.220783432460853 0 0.28440499104296979 0.23439140090611099 0 0.2794126892910288 0.21617120911671081 0 0.30659550557489001 0.220783432460853 0 0.28440499104296979 0.23439140090611099 0 0.30659550557489001 0.220783432460853 0 0.30328699804120918 0.24394477185791469 0 0.28440499104296979 0.23439140090611099 0 0.30659550557489001 0.220783432460853 0 0.30328699804120918 0.24394477185791469 0 0.31607427666693672 0.2331905299380852 0 0.28119448123381058 0.25405304303149878 0 0.30328699804120918 0.24394477185791469 0 0.28440499104296979 0.23439140090611099 0 0.3433555784436142 0.25004320974280247 0 0.34183468199228573 0.23727684870966961 0 0.33092809789354199 0.24744869965648561 0 0.34183468199228573 0.23727684870966961 0 0.3288410404878227 0.2348757256337824 0 0.33092809789354199 0.24744869965648561 0 0.3288410404878227 0.2348757256337824 0 0.33092809789354199 0.24744869965648561 0 0.31845456220733243 0.24449663650262579 0 0.31879452400631653 0.25919465198291952 0 0.30328699804120918 0.24394477185791469 0 0.31845456220733243 0.24449663650262579 0 0.30328699804120918 0.24394477185791469 0 0.31845456220733243 0.24449663650262579 0 0.31607427666693672 0.2331905299380852 0 0.3288410404878227 0.2348757256337824 0 0.31845456220733243 0.24449663650262579 0 0.31607427666693672 0.2331905299380852 0 0.3288410404878227 0.2348757256337824 0 0.31607427666693672 0.2331905299380852 0 0.32372534117020862 0.22390137225637691 0 0.30659550557489001 0.220783432460853 0 0.31607427666693672 0.2331905299380852 0 0.32372534117020862 0.22390137225637691 0 0.3288410404878227 0.2348757256337824 0 0.32372534117020862 0.22390137225637691 0 0.33832986301458301 0.22348170923356889 0 0.34183468199228573 0.23727684870966961 0 0.3288410404878227 0.2348757256337824 0 0.33832986301458301 0.22348170923356889 0 0.32372534117020862 0.22390137225637691 0 0.33832986301458301 0.22348170923356889 0 0.32878602010681029 0.20717546401559489 0 0.33832986301458301 0.22348170923356889 0 0.32878602010681029 0.20717546401559489 0 0.35089693608391498 0.21212819010674691 0 0.32878602010681029 0.20717546401559489 0 0.35097653463873058 0.19356749557033681 0 0.35089693608391498 0.21212819010674691 0 0.30659550557489001 0.220783432460853 0 0.32372534117020862 0.22390137225637691 0 0.32878602010681029 0.20717546401559489 0 0.31162694501442678 0.19735313208654229 0 0.30371198994873311 0.20766104105629449 0 0.32878602010681029 0.20717546401559489 0 0.30371198994873311 0.20766104105629449 0 0.30659550557489001 0.220783432460853 0 0.32878602010681029 0.20717546401559489 0 0.30659550557489001 0.220783432460853 0 0.32878602010681029 0.20717546401559489 0 0.32878602010681029 0.20717546401559489 0 0.31972446529152482 0.19052244909679969 0 0.3336272658304279 0.18895925974375941 0 0.31162694501442678 0.19735313208654229 0 0.32878602010681029 0.20717546401559489 0 0.31972446529152482 0.19052244909679969 0 0.30929675685570829 0.1858318568065235 0 0.31162694501442678 0.19735313208654229 0 0.31972446529152482 0.19052244909679969 0 0.32878602010681029 0.20717546401559489 0 0.3336272658304279 0.18895925974375941 0 0.35097653463873058 0.19356749557033681 0 0.32878602010681029 0.20717546401559489 0 0.35097653463873058 0.19356749557033681 0 0.3336272658304279 0.18895925974375941 0 0.35097653463873058 0.19356749557033681 0 0.35656535024169428 0.1804169243242798 0 0.35097653463873058 0.19356749557033681 0 0.35896651107905142 0.20360726904620211 0 0.35089693608391498 0.21212819010674691 0 0.35097653463873058 0.19356749557033681 0 0.36405518175537521 0.19484170215684679 0 0.35896651107905142 0.20360726904620211 0 0.35097653463873058 0.19356749557033681 0 0.36405518175537521 0.19484170215684679 0 0.35656535024169428 0.1804169243242798 0 0.36405518175537521 0.19484170215684679 0 0.35656535024169428 0.1804169243242798 0 0.38464328683150451 0.18806222539781059 0 0.36405518175537521 0.19484170215684679 0 0.36923798170140371 0.20928007436804161 0 0.38464328683150451 0.18806222539781059 0 0.36405518175537521 0.19484170215684679 0 0.36923798170140371 0.20928007436804161 0 0.35896651107905142 0.20360726904620211 0 0.36923798170140371 0.20928007436804161 0 0.36132702422268731 0.21787493872225441 0 0.35896651107905142 0.20360726904620211 0 0.36923798170140371 0.20928007436804161 0 0.36132702422268731 0.21787493872225441 0 0.37292139258550783 0.22672254500020811 0 0.36132702422268731 0.21787493872225441 0 0.35896651107905142 0.20360726904620211 0 0.35089693608391498 0.21212819010674691 0 0.34183468199228573 0.23727684870966961 0 0.33832986301458301 0.22348170923356889 0 0.35524969613090918 0.22837961108452459 0 0.36132702422268731 0.21787493872225441 0 0.35089693608391498 0.21212819010674691 0 0.35524969613090918 0.22837961108452459 0 0.33832986301458301 0.22348170923356889 0 0.35089693608391498 0.21212819010674691 0 0.35524969613090918 0.22837961108452459 0 0.36132702422268731 0.21787493872225441 0 0.35524969613090918 0.22837961108452459 0 0.37292139258550783 0.22672254500020811 0 0.35524969613090918 0.22837961108452459 0 0.37292139258550783 0.22672254500020811 0 0.36587213359177301 0.2378375665458646 0 0.37292139258550783 0.22672254500020811 0 0.36587213359177301 0.2378375665458646 0 0.3757768555661396 0.240133652284411 0 0.36587213359177301 0.2378375665458646 0 0.37169426656027921 0.24972740256563611 0 0.3757768555661396 0.240133652284411 0 0.36587213359177301 0.2378375665458646 0 0.37169426656027921 0.24972740256563611 0 0.36205361842742478 0.24882498742118489 0 0.36587213359177301 0.2378375665458646 0 0.36205361842742478 0.24882498742118489 0 0.35356337405553911 0.24205426642971811 0 0.35175757775775729 0.2532797976346674 0 0.36205361842742478 0.24882498742118489 0 0.35356337405553911 0.24205426642971811 0 0.35524969613090918 0.22837961108452459 0 0.36587213359177301 0.2378375665458646 0 0.35356337405553911 0.24205426642971811 0 0.34183468199228573 0.23727684870966961 0 0.35524969613090918 0.22837961108452459 0 0.35356337405553911 0.24205426642971811 0 0.3433555784436142 0.25004320974280247 0 0.34183468199228573 0.23727684870966961 0 0.35356337405553911 0.24205426642971811 0 0.3433555784436142 0.25004320974280247 0 0.35175757775775729 0.2532797976346674 0 0.35356337405553911 0.24205426642971811 0 0.33379856680907583 0.1437068241164389 0 0.32007589174333823 0.14676000458717811 0 0.33365817402274128 0.15789089208148979 0 0.33379856680907583 0.1437068241164389 0 0.33365817402274128 0.15789089208148979 0 0.34780073530519279 0.14835628742565241 0 0.33379856680907583 0.1437068241164389 0 0.34780073530519279 0.14835628742565241 0 0.34586764947947463 0.1362539899128139 0 0.33379856680907583 0.1437068241164389 0 0.33436770153514289 0.13112975471366969 0 0.34586764947947463 0.1362539899128139 0 0.34956654336434939 0.1234914401014125 0 0.33436770153514289 0.13112975471366969 0 0.34586764947947463 0.1362539899128139 0 0.33379856680907583 0.1437068241164389 0 0.33436770153514289 0.13112975471366969 0 0.3195478300457561 0.1332621056988223 0 0.32606950933900308 0.1158177097477945 0 0.33436770153514289 0.13112975471366969 0 0.3195478300457561 0.1332621056988223 0 0.30873747279203018 0.14281046260302349 0 0.3195478300457561 0.1332621056988223 0 0.32007589174333823 0.14676000458717811 0 0.30453528129870422 0.15487579661148021 0 0.32007589174333823 0.14676000458717811 0 0.33365817402274128 0.15789089208148979 0 0.33379856680907583 0.1437068241164389 0 0.3195478300457561 0.1332621056988223 0 0.32007589174333823 0.14676000458717811 0 0.30453528129870422 0.15487579661148021 0 0.33365817402274128 0.15789089208148979 0 0.30453528129870422 0.15487579661148021 0 0.32848741365188411 0.1727716232507491 0 0.33365817402274128 0.15789089208148979 0 0.30040947706207388 0.16512632217721829 0 0.32848741365188411 0.1727716232507491 0 0.3101655001798202 0.17563615506282959 0 0.30040947706207388 0.16512632217721829 0 0.32848741365188411 0.1727716232507491 0 0.3101655001798202 0.17563615506282959 0 0.31983557186529732 0.18171103000860481 0 0.32848741365188411 0.1727716232507491 0 0.3336272658304279 0.18895925974375941 0 0.31983557186529732 0.18171103000860481 0 0.32848741365188411 0.1727716232507491 0 0.3101655001798202 0.17563615506282959 0 0.30929675685570829 0.1858318568065235 0 0.31983557186529732 0.18171103000860481 0 0.30929675685570829 0.1858318568065235 0 0.31972446529152482 0.19052244909679969 0 0.31983557186529732 0.18171103000860481 0 0.31972446529152482 0.19052244909679969 0 0.3336272658304279 0.18895925974375941 0 0.31983557186529732 0.18171103000860481 0 0.32848741365188411 0.1727716232507491 0 0.34507730906385942 0.16855187839241309 0 0.35656535024169428 0.1804169243242798 0 0.3336272658304279 0.18895925974375941 0 0.32848741365188411 0.1727716232507491 0 0.35656535024169428 0.1804169243242798 0 0.32848741365188411 0.1727716232507491 0 0.35656535024169428 0.1804169243242798 0 0.32848741365188411 0.1727716232507491 0 0.33365817402274128 0.15789089208148979 0 0.34507730906385942 0.16855187839241309 0 0.33365817402274128 0.15789089208148979 0 0.34507730906385942 0.16855187839241309 0 0.36278106674677829 0.1609059875514994 0 0.34507730906385942 0.16855187839241309 0 0.35656535024169428 0.1804169243242798 0 0.36278106674677829 0.1609059875514994 0 0.33365817402274128 0.15789089208148979 0 0.36278106674677829 0.1609059875514994 0 0.35656535024169428 0.1804169243242798 0 0.37356219856206202 0.1741215612114578 0 0.38464328683150451 0.18806222539781059 0 0.35656535024169428 0.1804169243242798 0 0.38464328683150451 0.18806222539781059 0 0.35656535024169428 0.1804169243242798 0 0.37356219856206202 0.1741215612114578 0 0.36278106674677829 0.1609059875514994 0 0.36278106674677829 0.1609059875514994 0 0.36531512046589693 0.1378839500987098 0 0.37680076681991098 0.15092733218095339 0 0.36278106674677829 0.1609059875514994 0 0.34780073530519279 0.14835628742565241 0 0.36531512046589693 0.1378839500987098 0 0.34780073530519279 0.14835628742565241 0 0.34586764947947463 0.1362539899128139 0 0.36531512046589693 0.1378839500987098 0 0.33365817402274128 0.15789089208148979 0 0.36278106674677829 0.1609059875514994 0 0.34780073530519279 0.14835628742565241 0 0.34956654336434939 0.1234914401014125 0 0.34586764947947463 0.1362539899128139 0 0.36531512046589693 0.1378839500987098 0 0.34956654336434939 0.1234914401014125 0 0.36322639358210312 0.11848039068348271 0 0.36531512046589693 0.1378839500987098 0 0.36322639358210312 0.11848039068348271 0 0.36531512046589693 0.1378839500987098 0 0.38482072671029011 0.13725767299229241 0 0.36322639358210312 0.11848039068348271 0 0.38482072671029011 0.13725767299229241 0 0.36322639358210312 0.11848039068348271 0 0.38482072671029011 0.13725767299229241 0 0.38005682511468147 0.12140739343396729 0 0.38482072671029011 0.13725767299229241 0 0.39398634319161102 0.12556361147638159 0 0.38005682511468147 0.12140739343396729 0 0.38482072671029011 0.13725767299229241 0 0.39398634319161102 0.12556361147638159 0 0.40386822996399702 0.1370092008917044 0 0.39398634319161102 0.12556361147638159 0 0.40386822996399702 0.1370092008917044 0 0.40630256149234217 0.12337914253670321 0 0.38482072671029011 0.13725767299229241 0 0.40641505983847698 0.15603495530110209 0 0.38482072671029011 0.13725767299229241 0 0.40386822996399702 0.1370092008917044 0 0.40641505983847698 0.15603495530110209 0 0.38482072671029011 0.13725767299229241 0 0.39190395947081519 0.16392108302150901 0 0.40641505983847698 0.15603495530110209 0 0.36531512046589693 0.1378839500987098 0 0.38482072671029011 0.13725767299229241 0 0.37680076681991098 0.15092733218095339 0 0.38482072671029011 0.13725767299229241 0 0.37680076681991098 0.15092733218095339 0 0.39190395947081519 0.16392108302150901 0 0.36278106674677829 0.1609059875514994 0 0.39190395947081519 0.16392108302150901 0 0.36278106674677829 0.1609059875514994 0 0.37680076681991098 0.15092733218095339 0 0.39190395947081519 0.16392108302150901 0 0.37356219856206202 0.1741215612114578 0 0.36278106674677829 0.1609059875514994 0 0.39190395947081519 0.16392108302150901 0 0.37356219856206202 0.1741215612114578 0 0.39190395947081519 0.16392108302150901 0 0.38464328683150451 0.18806222539781059 0 0.4059128807594603 0.17981630131623391 0 0.39190395947081519 0.16392108302150901 0 0.38464328683150451 0.18806222539781059 0 0.39190395947081519 0.16392108302150901 0 0.42102685219485209 0.16693617849151851 0 0.40641505983847698 0.15603495530110209 0 0.4059128807594603 0.17981630131623391 0 0.39190395947081519 0.16392108302150901 0 0.42102685219485209 0.16693617849151851 0 0.42102685219485209 0.16693617849151851 0 0.40641505983847698 0.15603495530110209 0 0.41490094777653419 0.14712571815411829 0 0.39190395947081519 0.16392108302150901 0 0.42102685219485209 0.16693617849151851 0 0.4059128807594603 0.17981630131623391 0 0.42102685219485209 0.16693617849151851 0 0.42759287120751482 0.1799189573059411 0 0.4059128807594603 0.17981630131623391 0 0.42759287120751482 0.1799189573059411 0 0.42045703890892938 0.19185412915784311 0 0.42102685219485209 0.16693617849151851 0 0.42759287120751482 0.1799189573059411 0 0.45014974491888898 0.16995127396152809 0 0.42759287120751482 0.1799189573059411 0 0.42045703890892938 0.19185412915784311 0 0.43799329450951457 0.1898848624547933 0 0.42102685219485209 0.16693617849151851 0 0.45014974491888898 0.16995127396152809 0 0.42102685219485209 0.16693617849151851 0 0.43641214087317609 0.15776157540708571 0 0.42820809332857229 0.14540676379554701 0 0.42102685219485209 0.16693617849151851 0 0.43641214087317609 0.15776157540708571 0 0.45014974491888898 0.16995127396152809 0 0.43641214087317609 0.15776157540708571 0 0.42820809332857229 0.14540676379554701 0 0.44305345270963392 0.14224085277467549 0 0.42820809332857229 0.14540676379554701 0 0.43267139290449452 0.12562392175117529 0 0.41815906511665779 0.13368892679480551 0 0.42820809332857229 0.14540676379554701 0 0.43267139290449452 0.12562392175117529 0 0.44305345270963392 0.14224085277467549 0 0.43267139290449452 0.12562392175117529 0 0.41815906511665779 0.13368892679480551 0 0.41840244549433692 0.1204435227777134 0 0.41815906511665779 0.13368892679480551 0 0.41840244549433692 0.1204435227777134 0 0.40630256149234217 0.12337914253670321 0 0.40386822996399702 0.1370092008917044 0 0.41815906511665779 0.13368892679480551 0 0.40630256149234217 0.12337914253670321 0 0.40386822996399702 0.1370092008917044 0 0.41815906511665779 0.13368892679480551 0 0.41490094777653419 0.14712571815411829 0 0.42102685219485209 0.16693617849151851 0 0.42820809332857229 0.14540676379554701 0 0.41490094777653419 0.14712571815411829 0 0.40386822996399702 0.1370092008917044 0 0.40641505983847698 0.15603495530110209 0 0.41490094777653419 0.14712571815411829 0 0.42820809332857229 0.14540676379554701 0 0.41815906511665779 0.13368892679480551 0 0.41490094777653419 0.14712571815411829 0 0.39196586341458151 0.242441409442547 0 0.40329821407583749 0.23025496453590971 0 0.40866327585672191 0.24600766979752939 0 0.38129994004966872 0.25577407136566988 0 0.39196586341458151 0.242441409442547 0 0.40866327585672191 0.24600766979752939 0 0.38129994004966872 0.25577407136566988 0 0.39196586341458151 0.242441409442547 0 0.38106847269238292 0.24536179082341181 0 0.37169426656027921 0.24972740256563611 0 0.38106847269238292 0.24536179082341181 0 0.3757768555661396 0.240133652284411 0 0.37292139258550783 0.22672254500020811 0 0.3757768555661396 0.240133652284411 0 0.38460543787124563 0.238732418458795 0 0.38106847269238292 0.24536179082341181 0 0.3757768555661396 0.240133652284411 0 0.38460543787124563 0.238732418458795 0 0.39196586341458151 0.242441409442547 0 0.38106847269238292 0.24536179082341181 0 0.38460543787124563 0.238732418458795 0 0.39196586341458151 0.242441409442547 0 0.38460543787124563 0.238732418458795 0 0.38844350160088592 0.2284985707660753 0 0.37292139258550783 0.22672254500020811 0 0.38460543787124563 0.238732418458795 0 0.38844350160088592 0.2284985707660753 0 0.37292139258550783 0.22672254500020811 0 0.38844350160088592 0.2284985707660753 0 0.38369130631537601 0.21297307403445409 0 0.38844350160088592 0.2284985707660753 0 0.39679964264504158 0.21937630878092959 0 0.38369130631537601 0.21297307403445409 0 0.38844350160088592 0.2284985707660753 0 0.39679964264504158 0.21937630878092959 0 0.40329821407583749 0.23025496453590971 0 0.39196586341458151 0.242441409442547 0 0.38844350160088592 0.2284985707660753 0 0.40329821407583749 0.23025496453590971 0 0.39679964264504158 0.21937630878092959 0 0.40329821407583749 0.23025496453590971 0 0.41066806580544729 0.2160617609406458 0 0.39598296716959969 0.20626700748070109 0 0.40513352984814438 0.19492560706685999 0 0.41066806580544729 0.2160617609406458 0 0.39679964264504158 0.21937630878092959 0 0.39598296716959969 0.20626700748070109 0 0.41066806580544729 0.2160617609406458 0 0.39679964264504158 0.21937630878092959 0 0.39598296716959969 0.20626700748070109 0 0.38369130631537601 0.21297307403445409 0 0.36923798170140371 0.20928007436804161 0 0.37292139258550783 0.22672254500020811 0 0.38369130631537601 0.21297307403445409 0 0.36923798170140371 0.20928007436804161 0 0.38369130631537601 0.21297307403445409 0 0.38464328683150451 0.18806222539781059 0 0.39598296716959969 0.20626700748070109 0 0.38369130631537601 0.21297307403445409 0 0.38464328683150451 0.18806222539781059 0 0.39598296716959969 0.20626700748070109 0 0.38464328683150451 0.18806222539781059 0 0.40513352984814438 0.19492560706685999 0 0.4059128807594603 0.17981630131623391 0 0.38464328683150451 0.18806222539781059 0 0.40513352984814438 0.19492560706685999 0 0.40513352984814438 0.19492560706685999 0 0.42045703890892938 0.19185412915784311 0 0.42444067869502011 0.20693424997503959 0 0.4059128807594603 0.17981630131623391 0 0.40513352984814438 0.19492560706685999 0 0.42045703890892938 0.19185412915784311 0 0.42045703890892938 0.19185412915784311 0 0.42444067869502011 0.20693424997503959 0 0.43799329450951457 0.1898848624547933 0 0.42444067869502011 0.20693424997503959 0 0.44184419378540352 0.2076794424592901 0 0.43799329450951457 0.1898848624547933 0 0.42444067869502011 0.20693424997503959 0 0.4302098735549707 0.2206458244329694 0 0.44184419378540352 0.2076794424592901 0 0.42444067869502011 0.20693424997503959 0 0.41066806580544729 0.2160617609406458 0 0.4302098735549707 0.2206458244329694 0 0.40513352984814438 0.19492560706685999 0 0.42444067869502011 0.20693424997503959 0 0.41066806580544729 0.2160617609406458 0 0.41066806580544729 0.2160617609406458 0 0.41777320819135039 0.22984229758728861 0 0.4302098735549707 0.2206458244329694 0 0.40329821407583749 0.23025496453590971 0 0.41066806580544729 0.2160617609406458 0 0.41777320819135039 0.22984229758728861 0 0.4302098735549707 0.2206458244329694 0 0.43602661166377499 0.2362412682293889 0 0.44584438813649652 0.2203436080528294 0 0.41777320819135039 0.22984229758728861 0 0.4302098735549707 0.2206458244329694 0 0.43602661166377499 0.2362412682293889 0 0.43602661166377499 0.2362412682293889 0 0.43076425121212841 0.2486853010718087 0 0.40866327585672191 0.24600766979752939 0 0.43602661166377499 0.2362412682293889 0 0.40866327585672191 0.24600766979752939 0 0.41777320819135039 0.22984229758728861 0 0.43602661166377499 0.2362412682293889 0 0.40866327585672191 0.24600766979752939 0 0.41664462513020523 0.25422696758609492 0 0.43076425121212841 0.2486853010718087 0 0.40866327585672191 0.24600766979752939 0 0.40329821407583749 0.23025496453590971 0 0.41777320819135039 0.22984229758728861 0 0.40866327585672191 0.24600766979752939 0 0.45166362976964691 0.25106894999712381 0 0.45384283414141641 0.23962742592169059 0 0.47583181488482379 0.2451422378191761 0 0.45166362976964691 0.25106894999712381 0 0.47583181488482379 0.2451422378191761 0 0.45384283414141641 0.23962742592169059 0 0.47692141707070451 0.23056955077157251 0 0.45166362976964691 0.25106894999712381 0 0.43076425121212841 0.2486853010718087 0 0.45384283414141641 0.23962742592169059 0 0.43602661166377499 0.2362412682293889 0 0.43076425121212841 0.2486853010718087 0 0.45384283414141641 0.23962742592169059 0 0.43076425121212841 0.2486853010718087 0 0.45384283414141641 0.23962742592169059 0 0.43602661166377499 0.2362412682293889 0 0.46338994747082818 0.22647486666124839 0 0.43602661166377499 0.2362412682293889 0 0.44584438813649652 0.2203436080528294 0 0.46338994747082818 0.22647486666124839 0 0.43602661166377499 0.2362412682293889 0 0.45384283414141641 0.23962742592169059 0 0.46338994747082818 0.22647486666124839 0 0.44584438813649652 0.2203436080528294 0 0.46338994747082818 0.22647486666124839 0 0.4574246187180494 0.20998202225832771 0 0.45384283414141641 0.23962742592169059 0 0.46338994747082818 0.22647486666124839 0 0.47692141707070451 0.23056955077157251 0 0.46338994747082818 0.22647486666124839 0 0.4574246187180494 0.20998202225832771 0 0.47311107537994651 0.21060674662752529 0 0.4574246187180494 0.20998202225832771 0 0.46861366351278472 0.19789432193598561 0 0.47311107537994651 0.21060674662752529 0 0.44584438813649652 0.2203436080528294 0 0.4574246187180494 0.20998202225832771 0 0.44184419378540352 0.2076794424592901 0 0.4302098735549707 0.2206458244329694 0 0.44584438813649652 0.2203436080528294 0 0.44184419378540352 0.2076794424592901 0 0.4574246187180494 0.20998202225832771 0 0.44184419378540352 0.2076794424592901 0 0.45120510308892831 0.19507838461398491 0 0.44184419378540352 0.2076794424592901 0 0.43799329450951457 0.1898848624547933 0 0.45120510308892831 0.19507838461398491 0 0.4574246187180494 0.20998202225832771 0 0.45120510308892831 0.19507838461398491 0 0.46861366351278472 0.19789432193598561 0 0.45120510308892831 0.19507838461398491 0 0.46861366351278472 0.19789432193598561 0 0.45014974491888898 0.16995127396152809 0 0.46861366351278472 0.19789432193598561 0 0.48377650321145821 0.20030440734603891 0 0.47890777313388699 0.17818810929941131 0 0.46861366351278472 0.19789432193598561 0 0.48377650321145821 0.20030440734603891 0 0.47311107537994651 0.21060674662752529 0 0.48377650321145821 0.20030440734603891 0 0.5 0.19442179120654851 0 0.47890777313388699 0.17818810929941131 0 0.48377650321145821 0.20030440734603891 0 0.5 0.19442179120654851 0 0.49075328327788142 0.2167084650931079 0 0.5 0.19442179120654851 0 0.49075328327788142 0.2167084650931079 0 0.49999999999999339 0.2215116756214566 0 0.48377650321145821 0.20030440734603891 0 0.49075328327788142 0.2167084650931079 0 0.47311107537994651 0.21060674662752529 0 0.46338994747082818 0.22647486666124839 0 0.49075328327788142 0.2167084650931079 0 0.47311107537994651 0.21060674662752529 0 0.46338994747082818 0.22647486666124839 0 0.49075328327788142 0.2167084650931079 0 0.46338994747082818 0.22647486666124839 0 0.49075328327788142 0.2167084650931079 0 0.47692141707070451 0.23056955077157251 0 0.47692141707070451 0.23056955077157251 0 0.49999999999999339 0.2215116756214566 0 0.50000000000000067 0.2392155256412283 0 0.49075328327788142 0.2167084650931079 0 0.47692141707070451 0.23056955077157251 0 0.49999999999999339 0.2215116756214566 0 0.47692141707070451 0.23056955077157251 0 0.49999999999999339 0.2215116756214566 0 0.50000000000000067 0.2392155256412283 0 0.47583181488482379 0.2451422378191761 0 0.48341195364679568 0.26002408893105827 0 0.50000000000000067 0.2392155256412283 0 0.47583181488482379 0.2451422378191761 0 0.47692141707070451 0.23056955077157251 0 0.50000000000000067 0.2392155256412283 0 0.47583181488482379 0.2451422378191761 0 0.45384283414141641 0.23962742592169059 0 0.47692141707070451 0.23056955077157251 0 0.47583181488482379 0.2451422378191761 0 0.46053260521531592 0.14091734283165991 0 0.45014974491888898 0.16995127396152809 0 0.47759274938693741 0.15337993901402261 0 0.46053260521531592 0.14091734283165991 0 0.47596637305353268 0.1236489788231635 0 0.45094723062946279 0.12208098845927939 0 0.46053260521531592 0.14091734283165991 0 0.44305345270963392 0.14224085277467549 0 0.45094723062946279 0.12208098845927939 0 0.43267139290449452 0.12562392175117529 0 0.44305345270963392 0.14224085277467549 0 0.45094723062946279 0.12208098845927939 0 0.46053260521531592 0.14091734283165991 0 0.44305345270963392 0.14224085277467549 0 0.45014974491888898 0.16995127396152809 0 0.43641214087317609 0.15776157540708571 0 0.44305345270963392 0.14224085277467549 0 0.45014974491888898 0.16995127396152809 0 0.42759287120751482 0.1799189573059411 0 0.43799329450951457 0.1898848624547933 0 0.45014974491888898 0.16995127396152809 0 0.43799329450951457 0.1898848624547933 0 0.45120510308892831 0.19507838461398491 0 0.45014974491888898 0.16995127396152809 0 0.46861366351278472 0.19789432193598561 0 0.45014974491888898 0.16995127396152809 0 0.47890777313388699 0.17818810929941131 0 0.45014974491888898 0.16995127396152809 0 0.47890777313388699 0.17818810929941131 0 0.47759274938693741 0.15337993901402261 0 0.5 0.19442179120654851 0 0.47890777313388699 0.17818810929941131 0 0.5 0.16733190679164031 0 0.47890777313388699 0.17818810929941131 0 0.5 0.16733190679164031 0 0.47759274938693741 0.15337993901402261 0 0.5 0.16733190679164031 0 0.47759274938693741 0.15337993901402261 0 0.5 0.14024202237673219 0 0.46053260521531592 0.14091734283165991 0 0.47759274938693741 0.15337993901402261 0 0.47596637305353268 0.1236489788231635 0 0.5 0.14024202237673219 0 0.5 0.11315213796182411 0 0.47596637305353268 0.1236489788231635 0 0.47759274938693741 0.15337993901402261 0 0.5 0.14024202237673219 0 0.47596637305353268 0.1236489788231635 0 0.5 0.11315213796182411 0 0.48146508414057748 0.097867616362435003 0 0.47596637305353268 0.1236489788231635 0 0.5 0.11315213796182411 0 0.48146508414057748 0.097867616362435003 0 0.5 0.08606225354691599 0 0.48146508414057748 0.097867616362435003 0 0.46684480345772023 0.083704774648097419 0 0.46085076100455152 0.1051260388446932 0 0.48146508414057748 0.097867616362435003 0 0.47596637305353268 0.1236489788231635 0 0.46085076100455152 0.1051260388446932 0 0.5 0.08606225354691599 0 0.48297411160829701 0.071419164250366693 0 0.5 0.058972369132007867 0 0.48146508414057748 0.097867616362435003 0 0.5 0.08606225354691599 0 0.48297411160829701 0.071419164250366693 0 0.48146508414057748 0.097867616362435003 0 0.48297411160829701 0.071419164250366693 0 0.46684480345772023 0.083704774648097419 0 0.48297411160829701 0.071419164250366693 0 0.46368779630991369 0.062884433647911922 0 0.46684480345772023 0.083704774648097419 0 0.46368779630991369 0.062884433647911922 0 0.4455316944648699 0.078385408113317706 0 0.46368779630991369 0.062884433647911922 0 0.46684480345772023 0.083704774648097419 0 0.4455316944648699 0.078385408113317706 0 0.46684480345772023 0.083704774648097419 0 0.4455316944648699 0.078385408113317706 0 0.46085076100455152 0.1051260388446932 0 0.4455316944648699 0.078385408113317706 0 0.46085076100455152 0.1051260388446932 0 0.43655847815144871 0.087567909291679069 0 0.4455316944648699 0.078385408113317706 0 0.43655847815144871 0.087567909291679069 0 0.43300293116684879 0.070359854062556224 0 0.4455316944648699 0.078385408113317706 0 0.43300293116684879 0.070359854062556224 0 0.44432728466234178 0.059795406129610977 0 0.46368779630991369 0.062884433647911922 0 0.4455316944648699 0.078385408113317706 0 0.44432728466234178 0.059795406129610977 0 0.47596637305353268 0.1236489788231635 0 0.46085076100455152 0.1051260388446932 0 0.45094723062946279 0.12208098845927939 0 0.46085076100455152 0.1051260388446932 0 0.43655847815144871 0.087567909291679069 0 0.46085076100455152 0.1051260388446932 0 0.43845481143497073 0.110031162788742 0 0.43302597451412722 0.09911942802672713 0 0.46085076100455152 0.1051260388446932 0 0.43302597451412722 0.09911942802672713 0 0.43655847815144871 0.087567909291679069 0 0.43267139290449452 0.12562392175117529 0 0.45094723062946279 0.12208098845927939 0 0.43845481143497073 0.110031162788742 0 0.46085076100455152 0.1051260388446932 0 0.45094723062946279 0.12208098845927939 0 0.43845481143497073 0.110031162788742 0 0.43267139290449452 0.12562392175117529 0 0.43845481143497073 0.110031162788742 0 0.42512360996164289 0.1101942667169049 0 0.43267139290449452 0.12562392175117529 0 0.42512360996164289 0.1101942667169049 0 0.41840244549433692 0.1204435227777134 0 0.42512360996164289 0.1101942667169049 0 0.41840244549433692 0.1204435227777134 0 0.41145911669595331 0.1096997076075869 0 0.41840244549433692 0.1204435227777134 0 0.41145911669595331 0.1096997076075869 0 0.40630256149234217 0.12337914253670321 0 0.41145911669595331 0.1096997076075869 0 0.41782870111656589 0.098086010242617663 0 0.40188519574572068 0.098349840232826835 0 0.41782870111656589 0.098086010242617663 0 0.41132824907511162 0.087668761689670915 0 0.40188519574572068 0.098349840232826835 0 0.42512360996164289 0.1101942667169049 0 0.41145911669595331 0.1096997076075869 0 0.41782870111656589 0.098086010242617663 0 0.41782870111656589 0.098086010242617663 0 0.43302597451412722 0.09911942802672713 0 0.42198136315300161 0.08812274721924529 0 0.42512360996164289 0.1101942667169049 0 0.41782870111656589 0.098086010242617663 0 0.43302597451412722 0.09911942802672713 0 0.43845481143497073 0.110031162788742 0 0.42512360996164289 0.1101942667169049 0 0.43302597451412722 0.09911942802672713 0 0.43655847815144871 0.087567909291679069 0 0.42198136315300161 0.08812274721924529 0 0.41226619529834591 0.070009779738664735 0 0.43655847815144871 0.087567909291679069 0 0.41226619529834591 0.070009779738664735 0 0.43302597451412722 0.09911942802672713 0 0.43655847815144871 0.087567909291679069 0 0.42198136315300161 0.08812274721924529 0 0.43300293116684879 0.070359854062556224 0 0.41226619529834591 0.070009779738664735 0 0.42739758089851382 0.054541393999090262 0 0.43655847815144871 0.087567909291679069 0 0.43300293116684879 0.070359854062556224 0 0.41226619529834591 0.070009779738664735 0 0.42198136315300161 0.08812274721924529 0 0.41226619529834591 0.070009779738664735 0 0.41132824907511162 0.087668761689670915 0 0.41226619529834591 0.070009779738664735 0 0.41132824907511162 0.087668761689670915 0 0.39992923875424519 0.082621500021195282 0 0.41782870111656589 0.098086010242617663 0 0.42198136315300161 0.08812274721924529 0 0.41132824907511162 0.087668761689670915 0 0.41132824907511162 0.087668761689670915 0 0.39992923875424519 0.082621500021195282 0 0.40188519574572068 0.098349840232826835 0 0.39992923875424519 0.082621500021195282 0 0.38759228221014619 0.095233220303727467 0 0.40188519574572068 0.098349840232826835 0 0.39992923875424519 0.082621500021195282 0 0.38759228221014619 0.095233220303727467 0 0.41226619529834591 0.070009779738664735 0 0.39707386889515511 0.070908779594843374 0 0.39683376059791597 0.058855427163935138 0 0.41226619529834591 0.070009779738664735 0 0.39683376059791597 0.058855427163935138 0 0.41226619529834591 0.070009779738664735 0 0.39992923875424519 0.082621500021195282 0 0.41226619529834591 0.070009779738664735 0 0.39992923875424519 0.082621500021195282 0 0.39707386889515511 0.070908779594843374 0 0.39992923875424519 0.082621500021195282 0 0.39707386889515511 0.070908779594843374 0 0.38583977896057609 0.075316135258006081 0 0.39707386889515511 0.070908779594843374 0 0.38282045226763678 0.060547433734587333 0 0.39683376059791597 0.058855427163935138 0 0.39707386889515511 0.070908779594843374 0 0.38583977896057609 0.075316135258006081 0 0.38282045226763678 0.060547433734587333 0 0.38583977896057609 0.075316135258006081 0 0.37596532967213542 0.069868995675824025 0 0.37682589963749002 0.081332762740894418 0 0.37307104071443398 0.061065176941414383 0 0.37596532967213542 0.069868995675824025 0 0.38282045226763678 0.060547433734587333 0 0.38583977896057609 0.075316135258006081 0 0.37596532967213542 0.069868995675824025 0 0.38282045226763678 0.060547433734587333 0 0.39992923875424519 0.082621500021195282 0 0.38412803848747967 0.086259474622970303 0 0.38759228221014619 0.095233220303727467 0 0.39992923875424519 0.082621500021195282 0 0.38583977896057609 0.075316135258006081 0 0.38412803848747967 0.086259474622970303 0 0.37045299287494049 0.09679375479102828 0 0.38412803848747967 0.086259474622970303 0 0.38759228221014619 0.095233220303727467 0 0.38583977896057609 0.075316135258006081 0 0.38412803848747967 0.086259474622970303 0 0.37682589963749002 0.081332762740894418 0 0.37045299287494049 0.09679375479102828 0 0.38412803848747967 0.086259474622970303 0 0.37682589963749002 0.081332762740894418 0 0.37045299287494049 0.09679375479102828 0 0.38005682511468147 0.12140739343396729 0 0.37045299287494049 0.09679375479102828 0 0.38759228221014619 0.095233220303727467 0 0.38890959528695412 0.1083938038889192 0 0.37045299287494049 0.09679375479102828 0 0.38890959528695412 0.1083938038889192 0 0.38005682511468147 0.12140739343396729 0 0.39398634319161102 0.12556361147638159 0 0.38890959528695412 0.1083938038889192 0 0.38005682511468147 0.12140739343396729 0 0.39398634319161102 0.12556361147638159 0 0.38890959528695412 0.1083938038889192 0 0.39948393258462489 0.11301500309558379 0 0.39398634319161102 0.12556361147638159 0 0.40630256149234217 0.12337914253670321 0 0.39948393258462489 0.11301500309558379 0 0.41145911669595331 0.1096997076075869 0 0.40630256149234217 0.12337914253670321 0 0.39948393258462489 0.11301500309558379 0 0.41145911669595331 0.1096997076075869 0 0.39948393258462489 0.11301500309558379 0 0.40188519574572068 0.098349840232826835 0 0.38759228221014619 0.095233220303727467 0 0.38890959528695412 0.1083938038889192 0 0.40188519574572068 0.098349840232826835 0 0.38890959528695412 0.1083938038889192 0 0.39948393258462489 0.11301500309558379 0 0.40188519574572068 0.098349840232826835 0 0.3912475249538237 0.025882868266216091 0 0.40325323122183843 0.024352223252143548 0 0.39536881189699241 0.01378873843063998 0 0.3912475249538237 0.025882868266216091 0 0.40325323122183843 0.024352223252143548 0 0.39805180056669343 0.032772735105760037 0 0.40325323122183843 0.024352223252143548 0 0.39805180056669343 0.032772735105760037 0 0.40655765028286611 0.035582104639029083 0 0.40325323122183843 0.024352223252143548 0 0.39536881189699241 0.01378873843063998 0 0.40720094273855439 0.01372602960598159 0 0.40060323373222451 0.0042547197705496897 0 0.39536881189699241 0.01378873843063998 0 0.40720094273855439 0.01372602960598159 0 0.40060323373222451 0.0042547197705496897 0 0.41081432206005303 0.0037114498956348132 0 0.4046584776842293 -0.0050702490882302163 0 0.40060323373222451 0.0042547197705496897 0 0.41081432206005303 0.0037114498956348132 0 0.40720094273855439 0.01372602960598159 0 0.40060323373222451 0.0042547197705496897 0 0.39025836247721268 0.0036292771787240202 0 0.39531848553630572 -0.0042569273994520467 0 0.40060323373222451 0.0042547197705496897 0 0.39536881189699241 0.01378873843063998 0 0.39025836247721268 0.0036292771787240202 0 0.37844401144479839 0.012609093579625891 0 0.38356146703633898 -0.0078565650350033434 0 0.37844401144479839 0.012609093579625891 0 0.39025836247721268 0.0036292771787240202 0 0.38356146703633898 -0.0078565650350033434 0 0.39536881189699241 0.01378873843063998 0 0.37844401144479839 0.012609093579625891 0 0.39025836247721268 0.0036292771787240202 0 0.3912475249538237 0.025882868266216091 0 0.37844401144479839 0.012609093579625891 0 0.38063223185621792 0.036578263657106522 0 0.37844401144479839 0.012609093579625891 0 0.38063223185621792 0.036578263657106522 0 0.37146335928247548 0.04052602251159599 0 0.37844401144479839 0.012609093579625891 0 0.38063223185621792 0.036578263657106522 0 0.3912475249538237 0.025882868266216091 0 0.39536881189699241 0.01378873843063998 0 0.37844401144479839 0.012609093579625891 0 0.37146335928247548 0.04052602251159599 0 0.38063223185621792 0.036578263657106522 0 0.38282045226763678 0.060547433734587333 0 0.3912475249538237 0.025882868266216091 0 0.38063223185621792 0.036578263657106522 0 0.3908528121234538 0.035995570554822158 0 0.38063223185621792 0.036578263657106522 0 0.38791705742610771 0.044539104287684539 0 0.3908528121234538 0.035995570554822158 0 0.38791705742610771 0.044539104287684539 0 0.38282045226763678 0.060547433734587333 0 0.39079668350586277 0.051215399393808793 0 0.37307104071443398 0.061065176941414383 0 0.37146335928247548 0.04052602251159599 0 0.38282045226763678 0.060547433734587333 0 0.38063223185621792 0.036578263657106522 0 0.38791705742610771 0.044539104287684539 0 0.38282045226763678 0.060547433734587333 0 0.38063223185621792 0.036578263657106522 0 0.38282045226763678 0.060547433734587333 0 0.38282045226763678 0.060547433734587333 0 0.39683376059791597 0.058855427163935138 0 0.39079668350586277 0.051215399393808793 0 0.41226619529834591 0.070009779738664735 0 0.39683376059791597 0.058855427163935138 0 0.40948896714378957 0.05055434744181983 0 0.39683376059791597 0.058855427163935138 0 0.39079668350586277 0.051215399393808793 0 0.39674782008621368 0.04348041067995833 0 0.39683376059791597 0.058855427163935138 0 0.39674782008621368 0.04348041067995833 0 0.40948896714378957 0.05055434744181983 0 0.3908528121234538 0.035995570554822158 0 0.39805180056669343 0.032772735105760037 0 0.39674782008621368 0.04348041067995833 0 0.3912475249538237 0.025882868266216091 0 0.3908528121234538 0.035995570554822158 0 0.39805180056669343 0.032772735105760037 0 0.38791705742610771 0.044539104287684539 0 0.3908528121234538 0.035995570554822158 0 0.39674782008621368 0.04348041067995833 0 0.38791705742610771 0.044539104287684539 0 0.39079668350586277 0.051215399393808793 0 0.39674782008621368 0.04348041067995833 0 0.39674782008621368 0.04348041067995833 0 0.40655765028286611 0.035582104639029083 0 0.40948896714378957 0.05055434744181983 0 0.39805180056669343 0.032772735105760037 0 0.39674782008621368 0.04348041067995833 0 0.40655765028286611 0.035582104639029083 0 0.40655765028286611 0.035582104639029083 0 0.41713079569888262 0.040856968430241461 0 0.41557099838193923 0.024039796491718179 0 0.41713079569888262 0.040856968430241461 0 0.42755741698364552 0.032815777208855347 0 0.41557099838193923 0.024039796491718179 0 0.40655765028286611 0.035582104639029083 0 0.41713079569888262 0.040856968430241461 0 0.40948896714378957 0.05055434744181983 0 0.41226619529834591 0.070009779738664735 0 0.40948896714378957 0.05055434744181983 0 0.42739758089851382 0.054541393999090262 0 0.41713079569888262 0.040856968430241461 0 0.40948896714378957 0.05055434744181983 0 0.42739758089851382 0.054541393999090262 0 0.41226619529834591 0.070009779738664735 0 0.42739758089851382 0.054541393999090262 0 0.43300293116684879 0.070359854062556224 0 0.42739758089851382 0.054541393999090262 0 0.44432728466234178 0.059795406129610977 0 0.41713079569888262 0.040856968430241461 0 0.42739758089851382 0.054541393999090262 0 0.42755741698364552 0.032815777208855347 0 0.42739758089851382 0.054541393999090262 0 0.42755741698364552 0.032815777208855347 0 0.44252896649868317 0.039073008259517338 0 0.42739758089851382 0.054541393999090262 0 0.44252896649868317 0.039073008259517338 0 0.42755741698364552 0.032815777208855347 0 0.4358194844604939 0.024219735287320941 0 0.44252896649868317 0.039073008259517338 0 0.42755741698364552 0.032815777208855347 0 0.41557099838193923 0.024039796491718179 0 0.4265644217351573 0.014684511896395219 0 0.4358194844604939 0.024219735287320941 0 0.4265644217351573 0.014684511896395219 0 0.44548351627008242 0.01642882659412407 0 0.42755741698364552 0.032815777208855347 0 0.4358194844604939 0.024219735287320941 0 0.4265644217351573 0.014684511896395219 0 0.41557099838193923 0.024039796491718179 0 0.4165272652869268 0.01155925859927168 0 0.4265644217351573 0.014684511896395219 0 0.41557099838193923 0.024039796491718179 0 0.40720094273855439 0.01372602960598159 0 0.4165272652869268 0.01155925859927168 0 0.40325323122183843 0.024352223252143548 0 0.41557099838193923 0.024039796491718179 0 0.40720094273855439 0.01372602960598159 0 0.40325323122183843 0.024352223252143548 0 0.40655765028286611 0.035582104639029083 0 0.41557099838193923 0.024039796491718179 0 0.41081432206005303 0.0037114498956348132 0 0.40720094273855439 0.01372602960598159 0 0.4165272652869268 0.01155925859927168 0 0.4165272652869268 0.01155925859927168 0 0.42248564151892998 0.0016345051066286029 0 0.4265644217351573 0.014684511896395219 0 0.41081432206005303 0.0037114498956348132 0 0.4165272652869268 0.01155925859927168 0 0.42248564151892998 0.0016345051066286029 0 0.42248564151892998 0.0016345051066286029 0 0.4265644217351573 0.014684511896395219 0 0.4382820622288856 -0.0014159552958160841 0 0.4265644217351573 0.014684511896395219 0 0.44548351627008242 0.01642882659412407 0 0.4382820622288856 -0.0014159552958160841 0 0.45100246047295739 0.0046664116742636159 0 0.44548351627008242 0.01642882659412407 0 0.4382820622288856 -0.0014159552958160841 0 0.45100246047295739 0.0046664116742636159 0 0.44548351627008242 0.01642882659412407 0 0.4580470330794123 0.0188547641718908 0 0.4358194844604939 0.024219735287320941 0 0.4514029071021442 0.02821869916314456 0 0.44548351627008242 0.01642882659412407 0 0.4358194844604939 0.024219735287320941 0 0.4514029071021442 0.02821869916314456 0 0.44252896649868317 0.039073008259517338 0 0.4514029071021442 0.02821869916314456 0 0.44548351627008242 0.01642882659412407 0 0.4580470330794123 0.0188547641718908 0 0.4514029071021442 0.02821869916314456 0 0.4580470330794123 0.0188547641718908 0 0.46553563141862692 0.027383902935855992 0 0.4580470330794123 0.0188547641718908 0 0.46553563141862692 0.027383902935855992 0 0.471035018561343 0.01684384088441979 0 0.4580470330794123 0.0188547641718908 0 0.4620271672997433 0.0081957990277541914 0 0.471035018561343 0.01684384088441979 0 0.4620271672997433 0.0081957990277541914 0 0.47207727543944228 0.0077163925679632076 0 0.45540766643685782 -0.0078732224449345398 0 0.4620271672997433 0.0081957990277541914 0 0.47207727543944228 0.0077163925679632076 0 0.471035018561343 0.01684384088441979 0 0.45100246047295739 0.0046664116742636159 0 0.4620271672997433 0.0081957990277541914 0 0.45540766643685782 -0.0078732224449345398 0 0.45100246047295739 0.0046664116742636159 0 0.4580470330794123 0.0188547641718908 0 0.4620271672997433 0.0081957990277541914 0 0.42739758089851382 0.054541393999090262 0 0.44432728466234178 0.059795406129610977 0 0.44252896649868317 0.039073008259517338 0 0.44432728466234178 0.059795406129610977 0 0.44252896649868317 0.039073008259517338 0 0.46100281088556699 0.043351957730158222 0 0.4514029071021442 0.02821869916314456 0 0.44252896649868317 0.039073008259517338 0 0.46100281088556699 0.043351957730158222 0 0.4514029071021442 0.02821869916314456 0 0.46553563141862692 0.027383902935855992 0 0.46100281088556699 0.043351957730158222 0 0.46553563141862692 0.027383902935855992 0 0.46100281088556699 0.043351957730158222 0 0.4764725540003833 0.035303178421407518 0 0.46368779630991369 0.062884433647911922 0 0.44432728466234178 0.059795406129610977 0 0.46100281088556699 0.043351957730158222 0 0.48297411160829701 0.071419164250366693 0 0.46368779630991369 0.062884433647911922 0 0.48184389815495748 0.047383459182506117 0 0.46368779630991369 0.062884433647911922 0 0.46100281088556699 0.043351957730158222 0 0.48184389815495748 0.047383459182506117 0 0.46368779630991369 0.062884433647911922 0 0.48184389815495748 0.047383459182506117 0 0.46100281088556699 0.043351957730158222 0 0.48184389815495748 0.047383459182506117 0 0.4764725540003833 0.035303178421407518 0 0.48184389815495748 0.047383459182506117 0 0.50000000000000089 0.031882484717099757 0 0.48184389815495748 0.047383459182506117 0 0.50000000000000089 0.031882484717099757 0 0.5 0.058972369132007867 0 0.48184389815495748 0.047383459182506117 0 0.4764725540003833 0.035303178421407518 0 0.50000000000000089 0.031882484717099757 0 0.48297411160829701 0.071419164250366693 0 0.48184389815495748 0.047383459182506117 0 0.5 0.058972369132007867 0 0.48173822001607031 0.002441982684480838 0 0.47207727543944228 0.0077163925679632076 0 0.45540766643685782 -0.0078732224449345398 0 0.48073089036299149 0.01447516008145705 0 0.48088876464914698 0.0066420825236524483 0 0.47207727543944228 0.0077163925679632076 0 0.48088876464914698 0.0066420825236524483 0 0.48173822001607031 0.002441982684480838 0 0.48944624590280772 0.014576472087587141 0 0.48073089036299149 0.01447516008145705 0 0.48088876464914698 0.0066420825236524483 0 0.48944624590280772 0.014576472087587141 0 0.48088876464914698 0.0066420825236524483 0 0.48173822001607031 0.002441982684480838 0 0.47207727543944228 0.0077163925679632076 0 0.48088876464914698 0.0066420825236524483 0 0.48173822001607031 0.002441982684480838 0 0.48073089036299149 0.01447516008145705 0 0.47207727543944228 0.0077163925679632076 0 0.471035018561343 0.01684384088441979 0 0.46553563141862692 0.027383902935855992 0 0.471035018561343 0.01684384088441979 0 0.48098968552297122 0.023479159592672289 0 0.46553563141862692 0.027383902935855992 0 0.4764725540003833 0.035303178421407518 0 0.48098968552297122 0.023479159592672289 0 0.48073089036299149 0.01447516008145705 0 0.471035018561343 0.01684384088441979 0 0.48098968552297122 0.023479159592672289 0 0.48073089036299149 0.01447516008145705 0 0.48098968552297122 0.023479159592672289 0 0.48944624590280772 0.014576472087587141 0 0.50000000000000089 0.031882484717099757 0 0.50000000000000044 0.0095961811708810997 0 0.48944624590280772 0.014576472087587141 0 0.4764725540003833 0.035303178421407518 0 0.50000000000000089 0.031882484717099757 0 0.48098968552297122 0.023479159592672289 0 0.50000000000000089 0.031882484717099757 0 0.48098968552297122 0.023479159592672289 0 0.48944624590280772 0.014576472087587141 0 0.48173822001607031 0.002441982684480838 0 0.50000000000000044 0.0095961811708810997 0 0.48944624590280772 0.014576472087587141 0 0.48173822001607031 0.002441982684480838 0 0.50000000000000044 0.0095961811708810997 0 0.48173822001607031 0.002441982684480838 0 0.50000000000000044 0.0095961811708810997 0 0.5 -0.01553848795347695 0 0.48173822001607031 0.002441982684480838 0 0.5 -0.01553848795347695 0 0.48723509010938909 -0.024737082977995831 0 0.48173822001607031 0.002441982684480838 0 0.48723509010938909 -0.024737082977995831 0 0.48173822001607031 0.002441982684480838 0 0.46944239540012012 -0.021901386132034111 0 0.45540766643685782 -0.0078732224449345398 0 0.48173822001607031 0.002441982684480838 0 0.46944239540012012 -0.021901386132034111 0 0.48723509010938909 -0.024737082977995831 0 0.46944239540012012 -0.021901386132034111 0 0.48723509010938909 -0.024737082977995831 0 0.47311684284700922 -0.039980301183512167 0 0.5 -0.01553848795347695 0 0.48723509010938909 -0.024737082977995831 0 0.5 -0.040673157077835087 0 0.48723509010938909 -0.024737082977995831 0 0.49273196020270971 -0.051916148640471983 0 0.48034048547664182 -0.050194577481915269 0 0.48723509010938909 -0.024737082977995831 0 0.49273196020270971 -0.051916148640471983 0 0.48723509010938909 -0.024737082977995831 0 0.5 -0.040673157077835087 0 0.49273196020270971 -0.051916148640471983 0 0.5 -0.040673157077835087 0 0.49273196020270971 -0.051916148640471983 0 0.5 -0.065807826202193331 0 0.49273196020270971 -0.051916148640471983 0 0.48384360039889979 -0.062204599920787272 0 0.48034048547664182 -0.050194577481915269 0 0.48034048547664182 -0.050194577481915269 0 0.47035120232490191 -0.060528185902064997 0 0.47311684284700922 -0.039980301183512167 0 0.47035120232490191 -0.060528185902064997 0 0.47311684284700922 -0.039980301183512167 0 0.48384360039889979 -0.062204599920787272 0 0.48034048547664182 -0.050194577481915269 0 0.47035120232490191 -0.060528185902064997 0 0.48723509010938909 -0.024737082977995831 0 0.48034048547664182 -0.050194577481915269 0 0.47311684284700922 -0.039980301183512167 0 0.46944239540012012 -0.021901386132034111 0 0.47311684284700922 -0.039980301183512167 0 0.44971415759127392 -0.039358306738208573 0 0.47035120232490191 -0.060528185902064997 0 0.47311684284700922 -0.039980301183512167 0 0.44971415759127392 -0.039358306738208573 0 0.47035120232490191 -0.060528185902064997 0 0.44971415759127392 -0.039358306738208573 0 0.47035120232490191 -0.060528185902064997 0 0.43963483674523918 -0.055334607978488382 0 0.44971415759127392 -0.039358306738208573 0 0.43963483674523918 -0.055334607978488382 0 0.44971415759127392 -0.039358306738208573 0 0.42419530264354072 -0.042652000491910397 0 0.46944239540012012 -0.021901386132034111 0 0.44971415759127392 -0.039358306738208573 0 0.45540766643685782 -0.0078732224449345398 0 0.44971415759127392 -0.039358306738208573 0 0.42907711285764621 -0.01818842757435184 0 0.44971415759127392 -0.039358306738208573 0 0.45540766643685782 -0.0078732224449345398 0 0.42907711285764621 -0.01818842757435184 0 0.45540766643685782 -0.0078732224449345398 0 0.42907711285764621 -0.01818842757435184 0 0.45100246047295739 0.0046664116742636159 0 0.4382820622288856 -0.0014159552958160841 0 0.45540766643685782 -0.0078732224449345398 0 0.4382820622288856 -0.0014159552958160841 0 0.45540766643685782 -0.0078732224449345398 0 0.42907711285764621 -0.01818842757435184 0 0.48173822001607031 0.002441982684480838 0 0.45540766643685782 -0.0078732224449345398 0 0.47129126618897188 -0.1223351355815797 0 0.47148248434309947 -0.114916285604633 0 0.48087269318342413 -0.1216818802472065 0 0.47148248434309947 -0.114916285604633 0 0.48087269318342413 -0.1216818802472065 0 0.47838814501791832 -0.1066654575105275 0 0.48087269318342413 -0.1216818802472065 0 0.48924328608656842 -0.1141618265083332 0 0.47838814501791832 -0.1066654575105275 0 0.5 -0.1122204549214597 0 0.48924328608656842 -0.1141618265083332 0 0.5 -0.13349841451636779 0 0.48087269318342413 -0.1216818802472065 0 0.48924328608656842 -0.1141618265083332 0 0.5 -0.13349841451636779 0 0.5 -0.1122204549214597 0 0.48924328608656842 -0.1141618265083332 0 0.48827073793524339 -0.097774102912636218 0 0.48924328608656842 -0.1141618265083332 0 0.48827073793524339 -0.097774102912636218 0 0.47838814501791832 -0.1066654575105275 0 0.5 -0.1122204549214597 0 0.48827073793524339 -0.097774102912636218 0 0.50000000000000266 -0.090942495326551576 0 0.47652975213937199 -0.091635549067057065 0 0.46683976751390588 -0.086617099886465918 0 0.46456669494636288 -0.10350535152343909 0 0.48827073793524339 -0.097774102912636218 0 0.47838814501791832 -0.1066654575105275 0 0.47652975213937199 -0.091635549067057065 0 0.47148248434309947 -0.114916285604633 0 0.47838814501791832 -0.1066654575105275 0 0.46456669494636288 -0.10350535152343909 0 0.47838814501791832 -0.1066654575105275 0 0.47652975213937199 -0.091635549067057065 0 0.46456669494636288 -0.10350535152343909 0 0.48827073793524339 -0.097774102912636218 0 0.47652975213937199 -0.091635549067057065 0 0.48517560116245317 -0.075735340614307423 0 0.47652975213937199 -0.091635549067057065 0 0.48517560116245317 -0.075735340614307423 0 0.46683976751390588 -0.086617099886465918 0 0.47652975213937199 -0.091635549067057065 0 0.46683976751390588 -0.086617099886465918 0 0.50000000000000266 -0.090942495326551576 0 0.49822883029603021 -0.079095214302948247 0 0.5 -0.065807826202193331 0 0.48827073793524339 -0.097774102912636218 0 0.50000000000000266 -0.090942495326551576 0 0.48517560116245317 -0.075735340614307423 0 0.50000000000000266 -0.090942495326551576 0 0.48517560116245317 -0.075735340614307423 0 0.50000000000000266 -0.090942495326551576 0 0.49822883029603021 -0.079095214302948247 0 0.48517560116245317 -0.075735340614307423 0 0.49273196020270971 -0.051916148640471983 0 0.49822883029603021 -0.079095214302948247 0 0.48384360039889979 -0.062204599920787272 0 0.49822883029603021 -0.079095214302948247 0 0.48517560116245317 -0.075735340614307423 0 0.49273196020270971 -0.051916148640471983 0 0.48384360039889979 -0.062204599920787272 0 0.49822883029603021 -0.079095214302948247 0 0.49273196020270971 -0.051916148640471983 0 0.49822883029603021 -0.079095214302948247 0 0.5 -0.065807826202193331 0 0.47035120232490191 -0.060528185902064997 0 0.48517560116245317 -0.075735340614307423 0 0.47035120232490191 -0.060528185902064997 0 0.48517560116245317 -0.075735340614307423 0 0.46683976751390588 -0.086617099886465918 0 0.48384360039889979 -0.062204599920787272 0 0.47035120232490191 -0.060528185902064997 0 0.48517560116245317 -0.075735340614307423 0 0.47035120232490191 -0.060528185902064997 0 0.46683976751390588 -0.086617099886465918 0 0.47035120232490191 -0.060528185902064997 0 0.44249197108241189 -0.074007360679063244 0 0.46683976751390588 -0.086617099886465918 0 0.47035120232490191 -0.060528185902064997 0 0.43963483674523918 -0.055334607978488382 0 0.44249197108241189 -0.074007360679063244 0 0.44249197108241189 -0.074007360679063244 0 0.46683976751390588 -0.086617099886465918 0 0.4490662803509099 -0.094083529251462475 0 0.44249197108241189 -0.074007360679063244 0 0.4490662803509099 -0.094083529251462475 0 0.42834270349958448 -0.099226311759436261 0 0.44249197108241189 -0.074007360679063244 0 0.46683976751390588 -0.086617099886465918 0 0.46683976751390588 -0.086617099886465918 0 0.46456669494636288 -0.10350535152343909 0 0.4490662803509099 -0.094083529251462475 0 0.46683976751390588 -0.086617099886465918 0 0.46456669494636288 -0.10350535152343909 0 0.46456669494636288 -0.10350535152343909 0 0.4490662803509099 -0.094083529251462475 0 0.44386094964032902 -0.11054798122052439 0 0.4490662803509099 -0.094083529251462475 0 0.44386094964032902 -0.11054798122052439 0 0.42834270349958448 -0.099226311759436261 0 0.44386094964032902 -0.11054798122052439 0 0.46257396642688631 -0.12529077885077469 0 0.45239247298790419 -0.125419693033265 0 0.44386094964032902 -0.11054798122052439 0 0.42916935431308728 -0.1205456085246996 0 0.4435038969132965 -0.12540022695152131 0 0.44386094964032902 -0.11054798122052439 0 0.45239247298790419 -0.125419693033265 0 0.4435038969132965 -0.12540022695152131 0 0.44386094964032902 -0.11054798122052439 0 0.46229362237882032 -0.1203936031604123 0 0.46257396642688631 -0.12529077885077469 0 0.46456669494636288 -0.10350535152343909 0 0.46229362237882032 -0.1203936031604123 0 0.46456669494636288 -0.10350535152343909 0 0.44386094964032902 -0.11054798122052439 0 0.46229362237882032 -0.1203936031604123 0 0.44386094964032902 -0.11054798122052439 0 0.46257396642688631 -0.12529077885077469 0 0.47148248434309947 -0.114916285604633 0 0.46456669494636288 -0.10350535152343909 0 0.46229362237882032 -0.1203936031604123 0 0.47129126618897188 -0.1223351355815797 0 0.46229362237882032 -0.1203936031604123 0 0.46257396642688631 -0.12529077885077469 0 0.47129126618897188 -0.1223351355815797 0 0.47148248434309947 -0.114916285604633 0 0.46229362237882032 -0.1203936031604123 0 0.44386094964032902 -0.11054798122052439 0 0.42916935431308728 -0.1205456085246996 0 0.42834270349958448 -0.099226311759436261 0 0.41143930547928681 -0.11934523636421419 0 0.42916935431308728 -0.1205456085246996 0 0.42834270349958448 -0.099226311759436261 0 0.41143930547928681 -0.11934523636421419 0 0.40555832972599831 -0.095826118330896617 0 0.41143930547928681 -0.11934523636421419 0 0.42834270349958448 -0.099226311759436261 0 0.40555832972599831 -0.095826118330896617 0 0.42834270349958448 -0.099226311759436261 0 0.41884290658632428 -0.080552882507727325 0 0.40555832972599831 -0.095826118330896617 0 0.41884290658632428 -0.080552882507727325 0 0.39967735397270959 -0.072307000297579083 0 0.40555832972599831 -0.095826118330896617 0 0.44249197108241189 -0.074007360679063244 0 0.42834270349958448 -0.099226311759436261 0 0.41884290658632428 -0.080552882507727325 0 0.44249197108241189 -0.074007360679063244 0 0.41814417465091752 -0.061397621471661459 0 0.43963483674523918 -0.055334607978488382 0 0.44249197108241189 -0.074007360679063244 0 0.41814417465091752 -0.061397621471661459 0 0.44249197108241189 -0.074007360679063244 0 0.41884290658632428 -0.080552882507727325 0 0.41814417465091752 -0.061397621471661459 0 0.41884290658632428 -0.080552882507727325 0 0.39967735397270959 -0.072307000297579083 0 0.41814417465091752 -0.061397621471661459 0 0.39967735397270959 -0.072307000297579083 0 0.38669795957132042 -0.057310603286660967 0 0.37240766699872252 -0.068318548019290964 0 0.39967735397270959 -0.072307000297579083 0 0.37781097748786241 -0.089314889372882261 0 0.37240766699872252 -0.068318548019290964 0 0.39967735397270959 -0.072307000297579083 0 0.37781097748786241 -0.089314889372882261 0 0.40555832972599831 -0.095826118330896617 0 0.39967735397270959 -0.072307000297579083 0 0.40555832972599831 -0.095826118330896617 0 0.40555832972599831 -0.095826118330896617 0 0.38953803654933628 -0.10754997095337659 0 0.39823574772599779 -0.11763079726210079 0 0.37781097748786241 -0.089314889372882261 0 0.40555832972599831 -0.095826118330896617 0 0.38953803654933628 -0.10754997095337659 0 0.37781097748786241 -0.089314889372882261 0 0.38953803654933628 -0.10754997095337659 0 0.37644505785585192 -0.1058120404938334 0 0.38953803654933628 -0.10754997095337659 0 0.37644505785585192 -0.1058120404938334 0 0.37720890243704291 -0.12310924361699779 0 0.38953803654933628 -0.10754997095337659 0 0.37720890243704291 -0.12310924361699779 0 0.38918813321375051 -0.12739880168557821 0 0.38953803654933628 -0.10754997095337659 0 0.39823574772599779 -0.11763079726210079 0 0.38918813321375051 -0.12739880168557821 0 0.41143930547928681 -0.11934523636421419 0 0.39823574772599779 -0.11763079726210079 0 0.40257569972698831 -0.13396225485532559 0 0.41143930547928681 -0.11934523636421419 0 0.40555832972599831 -0.095826118330896617 0 0.39823574772599779 -0.11763079726210079 0 0.42011428296152808 -0.02169968792975261 0 0.41401194260749391 -0.028450411104576211 0 0.41343304557213612 -0.018371446868227208 0 0.42011428296152808 -0.02169968792975261 0 0.41343304557213612 -0.018371446868227208 0 0.41928481904255338 -0.01548900553927589 0 0.42011428296152808 -0.02169968792975261 0 0.41928481904255338 -0.01548900553927589 0 0.42542521438275183 -0.0144422395697206 0 0.42011428296152808 -0.02169968792975261 0 0.41401194260749391 -0.028450411104576211 0 0.42742255973229643 -0.030069766767760062 0 0.41401194260749391 -0.028450411104576211 0 0.40522076275047969 -0.019933987949522329 0 0.40044964155059998 -0.029094842751199331 0 0.41401194260749391 -0.028450411104576211 0 0.41343304557213612 -0.018371446868227208 0 0.40522076275047969 -0.019933987949522329 0 0.41343304557213612 -0.018371446868227208 0 0.40806592415966281 -0.01253819616599721 0 0.40522076275047969 -0.019933987949522329 0 0.40806592415966281 -0.01253819616599721 0 0.4135204533098043 -0.0054466611181140526 0 0.41498054603746559 -0.011947546426581419 0 0.41343304557213612 -0.018371446868227208 0 0.40806592415966281 -0.01253819616599721 0 0.41498054603746559 -0.011947546426581419 0 0.41081432206005303 0.0037114498956348132 0 0.4135204533098043 -0.0054466611181140526 0 0.4046584776842293 -0.0050702490882302163 0 0.40806592415966281 -0.01253819616599721 0 0.4135204533098043 -0.0054466611181140526 0 0.4046584776842293 -0.0050702490882302163 0 0.41081432206005303 0.0037114498956348132 0 0.42248564151892998 0.0016345051066286029 0 0.4135204533098043 -0.0054466611181140526 0 0.42248564151892998 0.0016345051066286029 0 0.4135204533098043 -0.0054466611181140526 0 0.42119781252485211 -0.0083000839364812864 0 0.41343304557213612 -0.018371446868227208 0 0.41498054603746559 -0.011947546426581419 0 0.41928481904255338 -0.01548900553927589 0 0.4135204533098043 -0.0054466611181140526 0 0.41498054603746559 -0.011947546426581419 0 0.42119781252485211 -0.0083000839364812864 0 0.41498054603746559 -0.011947546426581419 0 0.42119781252485211 -0.0083000839364812864 0 0.41928481904255338 -0.01548900553927589 0 0.42542521438275183 -0.0144422395697206 0 0.42820760236351979 -0.0076976995852137747 0 0.42907711285764621 -0.01818842757435184 0 0.4382820622288856 -0.0014159552958160841 0 0.42820760236351979 -0.0076976995852137747 0 0.42907711285764621 -0.01818842757435184 0 0.42119781252485211 -0.0083000839364812864 0 0.41928481904255338 -0.01548900553927589 0 0.42542521438275183 -0.0144422395697206 0 0.42248564151892998 0.0016345051066286029 0 0.4382820622288856 -0.0014159552958160841 0 0.42820760236351979 -0.0076976995852137747 0 0.42119781252485211 -0.0083000839364812864 0 0.42542521438275183 -0.0144422395697206 0 0.42820760236351979 -0.0076976995852137747 0 0.42248564151892998 0.0016345051066286029 0 0.42119781252485211 -0.0083000839364812864 0 0.42820760236351979 -0.0076976995852137747 0 0.44971415759127392 -0.039358306738208573 0 0.42907711285764621 -0.01818842757435184 0 0.42742255973229643 -0.030069766767760062 0 0.42011428296152808 -0.02169968792975261 0 0.42907711285764621 -0.01818842757435184 0 0.42742255973229643 -0.030069766767760062 0 0.42011428296152808 -0.02169968792975261 0 0.42542521438275183 -0.0144422395697206 0 0.42907711285764621 -0.01818842757435184 0 0.42011428296152808 -0.02169968792975261 0 0.42907711285764621 -0.01818842757435184 0 0.42542521438275183 -0.0144422395697206 0 0.42907711285764621 -0.01818842757435184 0 0.44971415759127392 -0.039358306738208573 0 0.42742255973229643 -0.030069766767760062 0 0.42419530264354072 -0.042652000491910397 0 0.41401194260749391 -0.028450411104576211 0 0.42742255973229643 -0.030069766767760062 0 0.42419530264354072 -0.042652000491910397 0 0.43963483674523918 -0.055334607978488382 0 0.42419530264354072 -0.042652000491910397 0 0.41814417465091752 -0.061397621471661459 0 0.41814417465091752 -0.061397621471661459 0 0.41107184061272262 -0.047596707948501772 0 0.39379637821942232 -0.04878788226426127 0 0.42419530264354072 -0.042652000491910397 0 0.41814417465091752 -0.061397621471661459 0 0.41107184061272262 -0.047596707948501772 0 0.41401194260749391 -0.028450411104576211 0 0.42419530264354072 -0.042652000491910397 0 0.40815150693701141 -0.037549327566173699 0 0.42419530264354072 -0.042652000491910397 0 0.41107184061272262 -0.047596707948501772 0 0.40815150693701141 -0.037549327566173699 0 0.41401194260749391 -0.028450411104576211 0 0.40815150693701141 -0.037549327566173699 0 0.40044964155059998 -0.029094842751199331 0 0.41107184061272262 -0.047596707948501772 0 0.40815150693701141 -0.037549327566173699 0 0.39379637821942232 -0.04878788226426127 0 0.40815150693701141 -0.037549327566173699 0 0.39379637821942232 -0.04878788226426127 0 0.40044964155059998 -0.029094842751199331 0 0.39379637821942232 -0.04878788226426127 0 0.38867892262788012 -0.028322223649632432 0 0.39379637821942232 -0.04878788226426127 0 0.38867892262788012 -0.028322223649632432 0 0.40044964155059998 -0.029094842751199331 0 0.39967735397270959 -0.072307000297579083 0 0.39379637821942232 -0.04878788226426127 0 0.38669795957132042 -0.057310603286660967 0 0.41814417465091752 -0.061397621471661459 0 0.39379637821942232 -0.04878788226426127 0 0.39967735397270959 -0.072307000297579083 0 0.39379637821942232 -0.04878788226426127 0 0.39967735397270959 -0.072307000297579083 0 0.41814417465091752 -0.061397621471661459 0 0.39379637821942232 -0.04878788226426127 0 0.39379637821942232 -0.04878788226426127 0 0.38896036142985008 -0.046283306103098283 0 0.38669795957132042 -0.057310603286660967 0 0.37839056082150663 -0.050608978831784571 0 0.37240766699872252 -0.068318548019290964 0 0.38669795957132042 -0.057310603286660967 0 0.37839056082150663 -0.050608978831784571 0 0.38896036142985008 -0.046283306103098283 0 0.39379637821942232 -0.04878788226426127 0 0.38669795957132042 -0.057310603286660967 0 0.38896036142985008 -0.046283306103098283 0 0.39379637821942232 -0.04878788226426127 0 0.38896036142985008 -0.046283306103098283 0 0.38867892262788012 -0.028322223649632432 0 0.3834615598562825 -0.037386722635115492 0 0.38896036142985008 -0.046283306103098283 0 0.38867892262788012 -0.028322223649632432 0 0.37839056082150663 -0.050608978831784571 0 0.3834615598562825 -0.037386722635115492 0 0.38896036142985008 -0.046283306103098283 0 0.37839056082150663 -0.050608978831784571 0 0.3834615598562825 -0.037386722635115492 0 0.37356965880113402 -0.040783236975350308 0 0.38867892262788012 -0.028322223649632432 0 0.38356146703633898 -0.0078565650350033434 0 0.3834615598562825 -0.037386722635115492 0 0.37600683512296651 -0.014087071697862221 0 0.37356965880113402 -0.040783236975350308 0 0.3834615598562825 -0.037386722635115492 0 0.38867892262788012 -0.028322223649632432 0 0.37600683512296651 -0.014087071697862221 0 0.38867892262788012 -0.028322223649632432 0 0.37600683512296651 -0.014087071697862221 0 0.38356146703633898 -0.0078565650350033434 0 0.38867892262788012 -0.028322223649632432 0 0.39658225960386179 -0.014459285545308009 0 0.38356146703633898 -0.0078565650350033434 0 0.38867892262788012 -0.028322223649632432 0 0.40044964155059998 -0.029094842751199331 0 0.39658225960386179 -0.014459285545308009 0 0.40522076275047969 -0.019933987949522329 0 0.40044964155059998 -0.029094842751199331 0 0.39658225960386179 -0.014459285545308009 0 0.40806592415966281 -0.01253819616599721 0 0.40522076275047969 -0.019933987949522329 0 0.39658225960386179 -0.014459285545308009 0 0.40060323373222451 0.0042547197705496897 0 0.4046584776842293 -0.0050702490882302163 0 0.39531848553630572 -0.0042569273994520467 0 0.40806592415966281 -0.01253819616599721 0 0.4046584776842293 -0.0050702490882302163 0 0.39658225960386179 -0.014459285545308009 0 0.4046584776842293 -0.0050702490882302163 0 0.39658225960386179 -0.014459285545308009 0 0.39531848553630572 -0.0042569273994520467 0 0.39658225960386179 -0.014459285545308009 0 0.39531848553630572 -0.0042569273994520467 0 0.38356146703633898 -0.0078565650350033434 0 0.39025836247721268 0.0036292771787240202 0 0.39531848553630572 -0.0042569273994520467 0 0.38356146703633898 -0.0078565650350033434 0 0.37844401144479839 0.012609093579625891 0 0.37600683512296651 -0.014087071697862221 0 0.37844401144479839 0.012609093579625891 0 0.37600683512296651 -0.014087071697862221 0 0.38356146703633898 -0.0078565650350033434 0 0.37600683512296651 -0.014087071697862221 0 0.36665723294200347 -0.001883505129568449 0 0.35850646790810559 -0.01395473468271459 0 0.37844401144479839 0.012609093579625891 0 0.37600683512296651 -0.014087071697862221 0 0.36665723294200347 -0.001883505129568449 0 0.36665723294200347 -0.001883505129568449 0 0.35531676971978082 -0.0033532784323768001 0 0.35850646790810559 -0.01395473468271459 0 0.37600683512296651 -0.014087071697862221 0 0.37356965880113402 -0.040783236975350308 0 0.37600683512296651 -0.014087071697862221 0 0.36404947753274258 -0.026706798856440471 0 0.35850646790810559 -0.01395473468271459 0 0.37600683512296651 -0.014087071697862221 0 0.36404947753274258 -0.026706798856440471 0 0.37356965880113402 -0.040783236975350308 0 0.34748556133762742 -0.02738266599094942 0 0.35850646790810559 -0.01395473468271459 0 0.34370628527030811 -0.0115647124322744 0 0.36404947753274258 -0.026706798856440471 0 0.34748556133762742 -0.02738266599094942 0 0.35850646790810559 -0.01395473468271459 0 0.36404947753274258 -0.026706798856440471 0 0.34748556133762742 -0.02738266599094942 0 0.36012817770438982 -0.039413746555128387 0 0.33689267375143878 0.0039255003288513873 0 0.35531676971978082 -0.0033532784323768001 0 0.34370628527030811 -0.0115647124322744 0 0.35531676971978082 -0.0033532784323768001 0 0.35850646790810559 -0.01395473468271459 0 0.34370628527030811 -0.0115647124322744 0 0.33689267375143878 0.0039255003288513873 0 0.34370628527030811 -0.0115647124322744 0 0.32469666258817742 -0.019557632270551 0 0.33689267375143878 0.0039255003288513873 0 0.30352242257352219 0.0039185454548519476 0 0.32469666258817742 -0.019557632270551 0 0.34748556133762742 -0.02738266599094942 0 0.34370628527030811 -0.0115647124322744 0 0.32469666258817742 -0.019557632270551 0 0.34748556133762742 -0.02738266599094942 0 0.32469666258817742 -0.019557632270551 0 0.33457477032001748 -0.043965109755099818 0 0.31326255248553708 -0.043768501277314603 0 0.32924913997341337 -0.063603686862235317 0 0.31014365419524398 -0.06072536978512106 0 0.31326255248553708 -0.043768501277314603 0 0.32924913997341337 -0.063603686862235317 0 0.31326255248553708 -0.043768501277314603 0 0.33457477032001748 -0.043965109755099818 0 0.32924913997341337 -0.063603686862235317 0 0.32469666258817742 -0.019557632270551 0 0.31326255248553708 -0.043768501277314603 0 0.33457477032001748 -0.043965109755099818 0 0.33457477032001748 -0.043965109755099818 0 0.34313363496153881 -0.061193084728204693 0 0.35029003257871461 -0.048624574981710279 0 0.33457477032001748 -0.043965109755099818 0 0.34313363496153881 -0.061193084728204693 0 0.32924913997341337 -0.063603686862235317 0 0.35029003257871461 -0.048624574981710279 0 0.36524615827173029 -0.053571455971191423 0 0.35631850447425872 -0.066333179594821989 0 0.34313363496153881 -0.061193084728204693 0 0.35029003257871461 -0.048624574981710279 0 0.35631850447425872 -0.066333179594821989 0 0.35029003257871461 -0.048624574981710279 0 0.36012817770438982 -0.039413746555128387 0 0.36524615827173029 -0.053571455971191423 0 0.34748556133762742 -0.02738266599094942 0 0.33457477032001748 -0.043965109755099818 0 0.35029003257871461 -0.048624574981710279 0 0.34748556133762742 -0.02738266599094942 0 0.35029003257871461 -0.048624574981710279 0 0.36012817770438982 -0.039413746555128387 0 0.36404947753274258 -0.026706798856440471 0 0.36012817770438982 -0.039413746555128387 0 0.37356965880113402 -0.040783236975350308 0 0.36012817770438982 -0.039413746555128387 0 0.37356965880113402 -0.040783236975350308 0 0.36524615827173029 -0.053571455971191423 0 0.37839056082150663 -0.050608978831784571 0 0.36524615827173029 -0.053571455971191423 0 0.37240766699872252 -0.068318548019290964 0 0.37839056082150663 -0.050608978831784571 0 0.37356965880113402 -0.040783236975350308 0 0.36524615827173029 -0.053571455971191423 0 0.36524615827173029 -0.053571455971191423 0 0.37240766699872252 -0.068318548019290964 0 0.35631850447425872 -0.066333179594821989 0 0.37240766699872252 -0.068318548019290964 0 0.36259903827425999 -0.08213590949324566 0 0.35631850447425872 -0.066333179594821989 0 0.37781097748786241 -0.089314889372882261 0 0.37240766699872252 -0.068318548019290964 0 0.36259903827425999 -0.08213590949324566 0 0.37781097748786241 -0.089314889372882261 0 0.36259903827425999 -0.08213590949324566 0 0.3612223149491664 -0.1032740580320769 0 0.34523572746128989 -0.083438872447156087 0 0.3612223149491664 -0.1032740580320769 0 0.36259903827425999 -0.08213590949324566 0 0.34523572746128989 -0.083438872447156087 0 0.3612223149491664 -0.1032740580320769 0 0.34313363496153881 -0.061193084728204693 0 0.34523572746128989 -0.083438872447156087 0 0.35631850447425872 -0.066333179594821989 0 0.36259903827425999 -0.08213590949324566 0 0.34523572746128989 -0.083438872447156087 0 0.35631850447425872 -0.066333179594821989 0 0.37720890243704291 -0.12310924361699779 0 0.36253108037134668 -0.1248744885805331 0 0.3612223149491664 -0.1032740580320769 0 0.37644505785585192 -0.1058120404938334 0 0.37720890243704291 -0.12310924361699779 0 0.3612223149491664 -0.1032740580320769 0 0.37720890243704291 -0.12310924361699779 0 0.3612223149491664 -0.1032740580320769 0 0.37781097748786241 -0.089314889372882261 0 0.37644505785585192 -0.1058120404938334 0 0.3612223149491664 -0.1032740580320769 0 0.34523572746128989 -0.083438872447156087 0 0.3612223149491664 -0.1032740580320769 0 0.33932087337301742 -0.1007066993955318 0 0.3612223149491664 -0.1032740580320769 0 0.34941185211170689 -0.1127717253903176 0 0.33932087337301742 -0.1007066993955318 0 0.36253108037134668 -0.1248744885805331 0 0.33587402752894302 -0.122350175475488 0 0.36253108037134668 -0.1248744885805331 0 0.34941185211170689 -0.1127717253903176 0 0.33587402752894302 -0.122350175475488 0 0.36253108037134668 -0.1248744885805331 0 0.3612223149491664 -0.1032740580320769 0 0.34941185211170689 -0.1127717253903176 0 0.34941185211170689 -0.1127717253903176 0 0.33587402752894302 -0.122350175475488 0 0.33932087337301742 -0.1007066993955318 0 0.33587402752894302 -0.122350175475488 0 0.33932087337301742 -0.1007066993955318 0 0.31943204723016899 -0.10139701157958859 0 0.33932087337301742 -0.1007066993955318 0 0.31943204723016899 -0.10139701157958859 0 0.32474927095682959 -0.081008353448563344 0 0.33587402752894302 -0.122350175475488 0 0.31943204723016899 -0.10139701157958859 0 0.3092169746865393 -0.1198258623704429 0 0.33587402752894302 -0.122350175475488 0 0.3092169746865393 -0.1198258623704429 0 0.34523572746128989 -0.083438872447156087 0 0.32924913997341337 -0.063603686862235317 0 0.32474927095682959 -0.081008353448563344 0 0.34523572746128989 -0.083438872447156087 0 0.32924913997341337 -0.063603686862235317 0 0.34313363496153881 -0.061193084728204693 0 0.34523572746128989 -0.083438872447156087 0 0.32924913997341337 -0.063603686862235317 0 0.34523572746128989 -0.083438872447156087 0 0.33932087337301742 -0.1007066993955318 0 0.32474927095682959 -0.081008353448563344 0 0.31943204723016899 -0.10139701157958859 0 0.32474927095682959 -0.081008353448563344 0 0.31117343018006932 -0.08835554327446378 0 0.32474927095682959 -0.081008353448563344 0 0.30201438303726968 -0.075929904193525521 0 0.32474927095682959 -0.081008353448563344 0 0.30201438303726968 -0.075929904193525521 0 0.31117343018006932 -0.08835554327446378 0 0.32924913997341337 -0.063603686862235317 0 0.32474927095682959 -0.081008353448563344 0 0.31014365419524398 -0.06072536978512106 0 0.32474927095682959 -0.081008353448563344 0 0.30201438303726968 -0.075929904193525521 0 0.31014365419524398 -0.06072536978512106 0 0.30201438303726968 -0.075929904193525521 0 0.31014365419524398 -0.06072536978512106 0 0.29222542489931519 -0.060978945333093171 0 0.31117343018006932 -0.08835554327446378 0 0.29442961060618023 -0.089764156713605506 0 0.30306705175182019 -0.101009202806625 0 0.30201438303726968 -0.075929904193525521 0 0.31117343018006932 -0.08835554327446378 0 0.29442961060618023 -0.089764156713605506 0 0.29442961060618023 -0.089764156713605506 0 0.28691460331806928 -0.079185378374353493 0 0.27734124638624891 -0.089737863242296378 0 0.30201438303726968 -0.075929904193525521 0 0.29442961060618023 -0.089764156713605506 0 0.28691460331806928 -0.079185378374353493 0 0.30201438303726968 -0.075929904193525521 0 0.27927949511770961 -0.070851454938488739 0 0.29222542489931519 -0.060978945333093171 0 0.30201438303726968 -0.075929904193525521 0 0.27927949511770961 -0.070851454938488739 0 0.30201438303726968 -0.075929904193525521 0 0.28691460331806928 -0.079185378374353493 0 0.27927949511770961 -0.070851454938488739 0 0.28691460331806928 -0.079185378374353493 0 0.27927949511770961 -0.070851454938488739 0 0.27809334201771629 -0.079209584513290715 0 0.28691460331806928 -0.079185378374353493 0 0.27927949511770961 -0.070851454938488739 0 0.27927949511770961 -0.070851454938488739 0 0.27868582307562201 -0.055886184139343542 0 0.29222542489931519 -0.060978945333093171 0 0.31943204723016899 -0.10139701157958859 0 0.3092169746865393 -0.1198258623704429 0 0.30306705175182019 -0.101009202806625 0 0.3092169746865393 -0.1198258623704429 0 0.30306705175182019 -0.101009202806625 0 0.28879183359809052 -0.10393054527906551 0 0.31943204723016899 -0.10139701157958859 0 0.31117343018006932 -0.08835554327446378 0 0.30306705175182019 -0.101009202806625 0 0.28879183359809052 -0.10393054527906551 0 0.28255992184413548 -0.11730154926539781 0 0.27267591943638608 -0.1048970298088977 0 0.29442961060618023 -0.089764156713605506 0 0.28879183359809052 -0.10393054527906551 0 0.27734124638624891 -0.089737863242296378 0 0.29442961060618023 -0.089764156713605506 0 0.30306705175182019 -0.101009202806625 0 0.28879183359809052 -0.10393054527906551 0 0.3092169746865393 -0.1198258623704429 0 0.28255992184413548 -0.11730154926539781 0 0.3092169746865393 -0.1198258623704429 0 0.28879183359809052 -0.10393054527906551 0 0.28255992184413548 -0.11730154926539781 0 0.3092169746865393 -0.1198258623704429 0 0.28255992184413548 -0.11730154926539781 0 0.28721398294742878 -0.13035474923543569 0 0.28255992184413548 -0.11730154926539781 0 0.26776517015272971 -0.1222840496799191 0 0.28721398294742878 -0.13035474923543569 0 0.28255992184413548 -0.11730154926539781 0 0.26776517015272971 -0.1222840496799191 0 0.27267591943638608 -0.1048970298088977 0 0.26776517015272971 -0.1222840496799191 0 0.27267591943638608 -0.1048970298088977 0 0.26047800574605201 -0.11084537767631369 0 0.28879183359809052 -0.10393054527906551 0 0.27267591943638608 -0.1048970298088977 0 0.27734124638624891 -0.089737863242296378 0 0.27267591943638608 -0.1048970298088977 0 0.27734124638624891 -0.089737863242296378 0 0.26256105175446781 -0.092679464148907056 0 0.25771864553297669 -0.099620140202181948 0 0.26047800574605201 -0.11084537767631369 0 0.24375228786211539 -0.116580291014256 0 0.27267591943638608 -0.1048970298088977 0 0.25771864553297669 -0.099620140202181948 0 0.26256105175446781 -0.092679464148907056 0 0.25771864553297669 -0.099620140202181948 0 0.25304747237378489 -0.090741332181114118 0 0.24292322406264641 -0.096552741650977186 0 0.25771864553297669 -0.099620140202181948 0 0.26256105175446781 -0.092679464148907056 0 0.25304747237378489 -0.090741332181114118 0 0.27267591943638608 -0.1048970298088977 0 0.25771864553297669 -0.099620140202181948 0 0.26047800574605201 -0.11084537767631369 0 0.26776517015272971 -0.1222840496799191 0 0.26153006621115998 -0.13421007507225571 0 0.24375228786211539 -0.116580291014256 0 0.26776517015272971 -0.1222840496799191 0 0.24375228786211539 -0.116580291014256 0 0.26776517015272971 -0.1222840496799191 0 0.26047800574605201 -0.11084537767631369 0 0.24375228786211539 -0.116580291014256 0 0.27927949511770961 -0.070851454938488739 0 0.25811154610651499 -0.066123023671663908 0 0.26329678137076351 -0.053405898285071182 0 0.27927949511770961 -0.070851454938488739 0 0.25811154610651499 -0.066123023671663908 0 0.26883802324883782 -0.077063641498024305 0 0.27927949511770961 -0.070851454938488739 0 0.25811154610651499 -0.066123023671663908 0 0.26883802324883782 -0.077063641498024305 0 0.27927949511770961 -0.070851454938488739 0 0.27809334201771629 -0.079209584513290715 0 0.26883802324883782 -0.077063641498024305 0 0.27809334201771629 -0.079209584513290715 0 0.27734124638624891 -0.089737863242296378 0 0.26883802324883782 -0.077063641498024305 0 0.27734124638624891 -0.089737863242296378 0 0.25202197504294188 -0.078400955310045109 0 0.28691460331806928 -0.079185378374353493 0 0.27809334201771629 -0.079209584513290715 0 0.27734124638624891 -0.089737863242296378 0 0.27734124638624891 -0.089737863242296378 0 0.26256105175446781 -0.092679464148907056 0 0.25202197504294188 -0.078400955310045109 0 0.27734124638624891 -0.089737863242296378 0 0.25202197504294188 -0.078400955310045109 0 0.26256105175446781 -0.092679464148907056 0 0.25304747237378489 -0.090741332181114118 0 0.25202197504294188 -0.078400955310045109 0 0.25304747237378489 -0.090741332181114118 0 0.25202197504294188 -0.078400955310045109 0 0.24624903761231479 -0.086847438891893419 0 0.26883802324883782 -0.077063641498024305 0 0.25202197504294188 -0.078400955310045109 0 0.25811154610651499 -0.066123023671663908 0 0.25811154610651499 -0.066123023671663908 0 0.26329678137076351 -0.053405898285071182 0 0.24870160087168189 -0.052882304334001928 0 0.26329678137076351 -0.053405898285071182 0 0.24870160087168189 -0.052882304334001928 0 0.24731406762381819 -0.035960341631652723 0 0.27927949511770961 -0.070851454938488739 0 0.26329678137076351 -0.053405898285071182 0 0.27868582307562201 -0.055886184139343542 0 0.27927949511770961 -0.070851454938488739 0 0.26329678137076351 -0.053405898285071182 0 0.26329678137076351 -0.053405898285071182 0 0.27868582307562201 -0.055886184139343542 0 0.27337213238318842 -0.044040078526876879 0 0.27868582307562201 -0.055886184139343542 0 0.27337213238318842 -0.044040078526876879 0 0.28525528160713332 -0.050154543613187753 0 0.26329678137076351 -0.053405898285071182 0 0.27337213238318842 -0.044040078526876879 0 0.26311483972878968 -0.036713614733010089 0 0.27337213238318842 -0.044040078526876879 0 0.27217486102646721 -0.027861542379398439 0 0.28494473946257981 -0.034556038004921102 0 0.27337213238318842 -0.044040078526876879 0 0.26311483972878968 -0.036713614733010089 0 0.27217486102646721 -0.027861542379398439 0 0.27337213238318842 -0.044040078526876879 0 0.28525528160713332 -0.050154543613187753 0 0.28494473946257981 -0.034556038004921102 0 0.26311483972878968 -0.036713614733010089 0 0.25941635623971138 -0.02230021284205122 0 0.24731406762381819 -0.035960341631652723 0 0.26329678137076351 -0.053405898285071182 0 0.24731406762381819 -0.035960341631652723 0 0.26329678137076351 -0.053405898285071182 0 0.26311483972878968 -0.036713614733010089 0 0.24731406762381819 -0.035960341631652723 0 0.25941635623971138 -0.02230021284205122 0 0.24731406762381819 -0.035960341631652723 0 0.2482857443068576 -0.021714794414400052 0 0.25941635623971138 -0.02230021284205122 0 0.25508119948702751 -0.010083838205662381 0 0.2482857443068576 -0.021714794414400052 0 0.26311483972878968 -0.036713614733010089 0 0.25941635623971138 -0.02230021284205122 0 0.27217486102646721 -0.027861542379398439 0 0.2541426920980116 -0.0036136263454906951 0 0.25508119948702751 -0.010083838205662381 0 0.24138147174972829 -0.0061427828714447699 0 0.2541426920980116 -0.0036136263454906951 0 0.25508119948702751 -0.010083838205662381 0 0.26047117107291767 -0.0019720443344692288 0 0.25446675038947358 0.0029162606258486688 0 0.2541426920980116 -0.0036136263454906951 0 0.26047117107291767 -0.0019720443344692288 0 0.25941635623971138 -0.02230021284205122 0 0.25508119948702751 -0.010083838205662381 0 0.26474460583379889 -0.01023883548432745 0 0.25941635623971138 -0.02230021284205122 0 0.26474460583379889 -0.01023883548432745 0 0.27166734417845928 -0.01430021117376327 0 0.25508119948702751 -0.010083838205662381 0 0.26474460583379889 -0.01023883548432745 0 0.26047117107291767 -0.0019720443344692288 0 0.26474460583379889 -0.01023883548432745 0 0.26047117107291767 -0.0019720443344692288 0 0.27708695819087842 -0.0025378708656911609 0 0.26474460583379889 -0.01023883548432745 0 0.27166734417845928 -0.01430021117376327 0 0.27708695819087842 -0.0025378708656911609 0 0.27166734417845928 -0.01430021117376327 0 0.27708695819087842 -0.0025378708656911609 0 0.28469269166600031 -0.01545933141113482 0 0.27217486102646721 -0.027861542379398439 0 0.28469269166600031 -0.01545933141113482 0 0.28494473946257981 -0.034556038004921102 0 0.25941635623971138 -0.02230021284205122 0 0.27166734417845928 -0.01430021117376327 0 0.27217486102646721 -0.027861542379398439 0 0.27166734417845928 -0.01430021117376327 0 0.27217486102646721 -0.027861542379398439 0 0.28469269166600031 -0.01545933141113482 0 0.28469269166600031 -0.01545933141113482 0 0.29727596499766062 -0.023933315692393788 0 0.28494473946257981 -0.034556038004921102 0 0.30352242257352219 0.0039185454548519476 0 0.28469269166600031 -0.01545933141113482 0 0.29727596499766062 -0.023933315692393788 0 0.30352242257352219 0.0039185454548519476 0 0.27708695819087842 -0.0025378708656911609 0 0.28469269166600031 -0.01545933141113482 0 0.30352242257352219 0.0039185454548519476 0 0.32469666258817742 -0.019557632270551 0 0.29727596499766062 -0.023933315692393788 0 0.32469666258817742 -0.019557632270551 0 0.31326255248553708 -0.043768501277314603 0 0.29727596499766062 -0.023933315692393788 0 0.31326255248553708 -0.043768501277314603 0 0.29727596499766062 -0.023933315692393788 0 0.2968975050950291 -0.045887416406534938 0 0.31326255248553708 -0.043768501277314603 0 0.29727596499766062 -0.023933315692393788 0 0.31326255248553708 -0.043768501277314603 0 0.2968975050950291 -0.045887416406534938 0 0.31014365419524398 -0.06072536978512106 0 0.2968975050950291 -0.045887416406534938 0 0.31014365419524398 -0.06072536978512106 0 0.29222542489931519 -0.060978945333093171 0 0.2968975050950291 -0.045887416406534938 0 0.29222542489931519 -0.060978945333093171 0 0.28525528160713332 -0.050154543613187753 0 0.27868582307562201 -0.055886184139343542 0 0.29222542489931519 -0.060978945333093171 0 0.28525528160713332 -0.050154543613187753 0 0.2968975050950291 -0.045887416406534938 0 0.28525528160713332 -0.050154543613187753 0 0.28494473946257981 -0.034556038004921102 0 0.29727596499766062 -0.023933315692393788 0 0.2968975050950291 -0.045887416406534938 0 0.28494473946257981 -0.034556038004921102 0 0.29579617193404978 -0.19432558104056491 0 0.30588539897632072 -0.22256652654210629 0 0.2776594049058328 -0.2175861504380624 0 0.29579617193404978 -0.19432558104056491 0 0.2776594049058328 -0.2175861504380624 0 0.2764107852420567 -0.19644220614923899 0 0.29579617193404978 -0.19432558104056491 0 0.2764107852420567 -0.19644220614923899 0 0.2792899687438003 -0.18116405860585089 0 0.29579617193404978 -0.19432558104056491 0 0.31045946319455608 -0.20263901644370941 0 0.31057073564158039 -0.17760626025882659 0 0.29579617193404978 -0.19432558104056491 0 0.30588539897632072 -0.22256652654210629 0 0.31045946319455608 -0.20263901644370941 0 0.30588539897632072 -0.22256652654210629 0 0.32020032842118662 -0.2136972324735969 0 0.29579617193404978 -0.19432558104056491 0 0.31045946319455608 -0.20263901644370941 0 0.30588539897632072 -0.22256652654210629 0 0.29681701546221179 -0.23419681124085551 0 0.31597462601859122 -0.25080747204364812 0 0.30111904597271899 -0.2536098058489899 0 0.30588539897632072 -0.22256652654210629 0 0.29681701546221179 -0.23419681124085551 0 0.31597462601859122 -0.25080747204364812 0 0.30588539897632072 -0.22256652654210629 0 0.31597462601859122 -0.25080747204364812 0 0.29681701546221179 -0.23419681124085551 0 0.31597462601859122 -0.25080747204364812 0 0.29681701546221179 -0.23419681124085551 0 0.30111904597271899 -0.2536098058489899 0 0.28456511698073272 -0.25518130134833977 0 0.29681701546221179 -0.23419681124085551 0 0.27830026498091959 -0.23745462562099759 0 0.28456511698073272 -0.25518130134833977 0 0.30588539897632072 -0.22256652654210629 0 0.29681701546221179 -0.23419681124085551 0 0.2776594049058328 -0.2175861504380624 0 0.29681701546221179 -0.23419681124085551 0 0.27830026498091959 -0.23745462562099759 0 0.2776594049058328 -0.2175861504380624 0 0.29681701546221179 -0.23419681124085551 0 0.2776594049058328 -0.2175861504380624 0 0.26584409390649738 -0.23415831621220631 0 0.27830026498091959 -0.23745462562099759 0 0.2776594049058328 -0.2175861504380624 0 0.26584409390649738 -0.23415831621220631 0 0.25658827463044448 -0.2222138965281123 0 0.2776594049058328 -0.2175861504380624 0 0.27830026498091959 -0.23745462562099759 0 0.28456511698073272 -0.25518130134833977 0 0.26629969424128969 -0.25192769388052821 0 0.26584409390649738 -0.23415831621220631 0 0.27830026498091959 -0.23745462562099759 0 0.26629969424128969 -0.25192769388052821 0 0.26584409390649738 -0.23415831621220631 0 0.25037283077400019 -0.2416092145933311 0 0.26629969424128969 -0.25192769388052821 0 0.25037283077400019 -0.2416092145933311 0 0.25658827463044448 -0.2222138965281123 0 0.2446094219978813 -0.2276121794933563 0 0.26584409390649738 -0.23415831621220631 0 0.25037283077400019 -0.2416092145933311 0 0.25658827463044448 -0.2222138965281123 0 0.25658827463044448 -0.2222138965281123 0 0.2776594049058328 -0.2175861504380624 0 0.25850179434945381 -0.20097548963526929 0 0.25658827463044448 -0.2222138965281123 0 0.25850179434945381 -0.20097548963526929 0 0.23907695871134879 -0.21289681242661959 0 0.2776594049058328 -0.2175861504380624 0 0.25850179434945381 -0.20097548963526929 0 0.2776594049058328 -0.2175861504380624 0 0.2764107852420567 -0.19644220614923899 0 0.25850179434945381 -0.20097548963526929 0 0.2764107852420567 -0.19644220614923899 0 0.25850179434945381 -0.20097548963526929 0 0.26539786460737957 -0.18100391429238191 0 0.25850179434945381 -0.20097548963526929 0 0.26539786460737957 -0.18100391429238191 0 0.23934418379307471 -0.18436482883247621 0 0.26539786460737957 -0.18100391429238191 0 0.25449645062408999 -0.16331052089379791 0 0.23934418379307471 -0.18436482883247621 0 0.26539786460737957 -0.18100391429238191 0 0.25449645062408999 -0.16331052089379791 0 0.27043371620885309 -0.16438603764101259 0 0.25449645062408999 -0.16331052089379791 0 0.27043371620885309 -0.16438603764101259 0 0.2633734196266177 -0.15149826902969399 0 0.27043371620885309 -0.16438603764101259 0 0.2792899687438003 -0.18116405860585089 0 0.28570694489177878 -0.1660846355390232 0 0.27043371620885309 -0.16438603764101259 0 0.27930784456020519 -0.15183985913025491 0 0.28570694489177878 -0.1660846355390232 0 0.26539786460737957 -0.18100391429238191 0 0.27043371620885309 -0.16438603764101259 0 0.2792899687438003 -0.18116405860585089 0 0.2764107852420567 -0.19644220614923899 0 0.26539786460737957 -0.18100391429238191 0 0.2792899687438003 -0.18116405860585089 0 0.26153006621115998 -0.13421007507225571 0 0.24375228786211539 -0.116580291014256 0 0.24955680073527009 -0.143898101237383 0 0.26153006621115998 -0.13421007507225571 0 0.24375228786211539 -0.116580291014256 0 0.25449645062408999 -0.16331052089379791 0 0.2633734196266177 -0.15149826902969399 0 0.24955680073527009 -0.143898101237383 0 0.26153006621115998 -0.13421007507225571 0 0.2633734196266177 -0.15149826902969399 0 0.24955680073527009 -0.143898101237383 0 0.27043371620885309 -0.16438603764101259 0 0.2633734196266177 -0.15149826902969399 0 0.27930784456020519 -0.15183985913025491 0 0.27561771784950778 -0.13784369003748159 0 0.28570694489177878 -0.1660846355390232 0 0.26153006621115998 -0.13421007507225571 0 0.27930784456020519 -0.15183985913025491 0 0.27561771784950778 -0.13784369003748159 0 0.27930784456020519 -0.15183985913025491 0 0.27561771784950778 -0.13784369003748159 0 0.28570694489177878 -0.1660846355390232 0 0.26153006621115998 -0.13421007507225571 0 0.2633734196266177 -0.15149826902969399 0 0.27930784456020519 -0.15183985913025491 0 0.26153006621115998 -0.13421007507225571 0 0.27930784456020519 -0.15183985913025491 0 0.26776517015272971 -0.1222840496799191 0 0.27561771784950778 -0.13784369003748159 0 0.28721398294742878 -0.13035474923543569 0 0.26776517015272971 -0.1222840496799191 0 0.26153006621115998 -0.13421007507225571 0 0.27561771784950778 -0.13784369003748159 0 0.27561771784950778 -0.13784369003748159 0 0.28721398294742878 -0.13035474923543569 0 0.28891568690104508 -0.14625428249578579 0 0.28721398294742878 -0.13035474923543569 0 0.28891568690104508 -0.14625428249578579 0 0.29920842625061578 -0.1386190615635868 0 0.28891568690104508 -0.14625428249578579 0 0.29920842625061578 -0.1386190615635868 0 0.29789574789403661 -0.15876522012859751 0 0.27561771784950778 -0.13784369003748159 0 0.28891568690104508 -0.14625428249578579 0 0.28570694489177878 -0.1660846355390232 0 0.30985117626407932 -0.1486491484402036 0 0.29920842625061578 -0.1386190615635868 0 0.29789574789403661 -0.15876522012859751 0 0.30985117626407932 -0.1486491484402036 0 0.29789574789403661 -0.15876522012859751 0 0.3134799250960158 -0.16133035304856411 0 0.30985117626407932 -0.1486491484402036 0 0.29920842625061578 -0.1386190615635868 0 0.31980994510895661 -0.13408045692276491 0 0.3092169746865393 -0.1198258623704429 0 0.28721398294742878 -0.13035474923543569 0 0.29920842625061578 -0.1386190615635868 0 0.3092169746865393 -0.1198258623704429 0 0.29920842625061578 -0.1386190615635868 0 0.31980994510895661 -0.13408045692276491 0 0.29579617193404978 -0.19432558104056491 0 0.2792899687438003 -0.18116405860585089 0 0.28570694489177878 -0.1660846355390232 0 0.29579617193404978 -0.19432558104056491 0 0.28570694489177878 -0.1660846355390232 0 0.29579617193404978 -0.19432558104056491 0 0.28570694489177878 -0.1660846355390232 0 0.29784246694311001 -0.17248502473641619 0 0.28891568690104508 -0.14625428249578579 0 0.28570694489177878 -0.1660846355390232 0 0.29789574789403661 -0.15876522012859751 0 0.28570694489177878 -0.1660846355390232 0 0.29789574789403661 -0.15876522012859751 0 0.29784246694311001 -0.17248502473641619 0 0.29789574789403661 -0.15876522012859751 0 0.31057073564158039 -0.17760626025882659 0 0.3134799250960158 -0.16133035304856411 0 0.29789574789403661 -0.15876522012859751 0 0.31057073564158039 -0.17760626025882659 0 0.29784246694311001 -0.17248502473641619 0 0.29789574789403661 -0.15876522012859751 0 0.31057073564158039 -0.17760626025882659 0 0.29579617193404978 -0.19432558104056491 0 0.31057073564158039 -0.17760626025882659 0 0.29784246694311001 -0.17248502473641619 0 0.31057073564158039 -0.17760626025882659 0 0.33117051957001492 -0.16690810347740409 0 0.33960500058918919 -0.18923554211963439 0 0.31057073564158039 -0.17760626025882659 0 0.32324572338912438 -0.19644730038905581 0 0.3134799250960158 -0.16133035304856411 0 0.33117051957001492 -0.16690810347740409 0 0.32297156368297691 -0.15191279281852399 0 0.31057073564158039 -0.17760626025882659 0 0.3134799250960158 -0.16133035304856411 0 0.33117051957001492 -0.16690810347740409 0 0.33117051957001492 -0.16690810347740409 0 0.34312821131240068 -0.1490342399984359 0 0.35150112372442083 -0.17432517416681301 0 0.33117051957001492 -0.16690810347740409 0 0.35150112372442083 -0.17432517416681301 0 0.33960500058918919 -0.18923554211963439 0 0.33587402752894302 -0.122350175475488 0 0.3092169746865393 -0.1198258623704429 0 0.31980994510895661 -0.13408045692276491 0 0.30985117626407932 -0.1486491484402036 0 0.31980994510895661 -0.13408045692276491 0 0.32297156368297691 -0.15191279281852399 0 0.30985117626407932 -0.1486491484402036 0 0.3134799250960158 -0.16133035304856411 0 0.32297156368297691 -0.15191279281852399 0 0.33117051957001492 -0.16690810347740409 0 0.32297156368297691 -0.15191279281852399 0 0.34312821131240068 -0.1490342399984359 0 0.31980994510895661 -0.13408045692276491 0 0.32297156368297691 -0.15191279281852399 0 0.34312821131240068 -0.1490342399984359 0 0.33587402752894302 -0.122350175475488 0 0.31980994510895661 -0.13408045692276491 0 0.34312821131240068 -0.1490342399984359 0 0.36253108037134668 -0.1248744885805331 0 0.33587402752894302 -0.122350175475488 0 0.3555623608711499 -0.1359942506039106 0 0.33587402752894302 -0.122350175475488 0 0.34312821131240068 -0.1490342399984359 0 0.3555623608711499 -0.1359942506039106 0 0.34312821131240068 -0.1490342399984359 0 0.3555623608711499 -0.1359942506039106 0 0.36858459771950869 -0.15733985743645959 0 0.3555623608711499 -0.1359942506039106 0 0.36652086356581781 -0.12946943863695781 0 0.36858459771950869 -0.15733985743645959 0 0.36652086356581781 -0.12946943863695781 0 0.36858459771950869 -0.15733985743645959 0 0.36652086356581781 -0.12946943863695781 0 0.36858459771950869 -0.15733985743645959 0 0.3787995421462832 -0.1425544525875144 0 0.36652086356581781 -0.12946943863695781 0 0.37808333446084269 -0.1309391893982525 0 0.3787995421462832 -0.1425544525875144 0 0.36253108037134668 -0.1248744885805331 0 0.36652086356581781 -0.12946943863695781 0 0.37808333446084269 -0.1309391893982525 0 0.36253108037134668 -0.1248744885805331 0 0.3555623608711499 -0.1359942506039106 0 0.36652086356581781 -0.12946943863695781 0 0.35150112372442083 -0.17432517416681301 0 0.37064833187319962 -0.1852102762359614 0 0.35587008128221181 -0.19822302573298239 0 0.35150112372442083 -0.17432517416681301 0 0.35587008128221181 -0.19822302573298239 0 0.33960500058918919 -0.18923554211963439 0 0.34312821131240068 -0.1490342399984359 0 0.35150112372442083 -0.17432517416681301 0 0.36858459771950869 -0.15733985743645959 0 0.36858459771950869 -0.15733985743645959 0 0.37064833187319962 -0.1852102762359614 0 0.35150112372442083 -0.17432517416681301 0 0.36858459771950869 -0.15733985743645959 0 0.37064833187319962 -0.1852102762359614 0 0.36858459771950869 -0.15733985743645959 0 0.37064833187319962 -0.1852102762359614 0 0.3834788620725188 -0.17954848884060079 0 0.37064833187319962 -0.1852102762359614 0 0.37271206602689039 -0.21308069503546309 0 0.38139900114097952 -0.20469292352659629 0 0.37064833187319962 -0.1852102762359614 0 0.37271206602689039 -0.21308069503546309 0 0.37064833187319962 -0.1852102762359614 0 0.37271206602689039 -0.21308069503546309 0 0.35587008128221181 -0.19822302573298239 0 0.37271206602689039 -0.21308069503546309 0 0.35603419272415182 -0.2169366224123114 0 0.35587008128221181 -0.19822302573298239 0 0.35603419272415182 -0.2169366224123114 0 0.35587008128221181 -0.19822302573298239 0 0.33592071113666833 -0.21528834051928489 0 0.35587008128221181 -0.19822302573298239 0 0.33960500058918919 -0.18923554211963439 0 0.33592071113666833 -0.21528834051928489 0 0.33960500058918919 -0.18923554211963439 0 0.33592071113666833 -0.21528834051928489 0 0.32324572338912438 -0.19644730038905581 0 0.33592071113666833 -0.21528834051928489 0 0.32324572338912438 -0.19644730038905581 0 0.33592071113666833 -0.21528834051928489 0 0.32020032842118662 -0.2136972324735969 0 0.32324572338912438 -0.19644730038905581 0 0.31045946319455608 -0.20263901644370941 0 0.32020032842118662 -0.2136972324735969 0 0.32324572338912438 -0.19644730038905581 0 0.31057073564158039 -0.17760626025882659 0 0.33960500058918919 -0.18923554211963439 0 0.32324572338912438 -0.19644730038905581 0 0.31045946319455608 -0.20263901644370941 0 0.31057073564158039 -0.17760626025882659 0 0.32324572338912438 -0.19644730038905581 0 0.32549034540926353 -0.23154497847382799 0 0.33517615116993849 -0.24743488902137309 0 0.31597462601859122 -0.25080747204364812 0 0.30588539897632072 -0.22256652654210629 0 0.32549034540926353 -0.23154497847382799 0 0.31597462601859122 -0.25080747204364812 0 0.30588539897632072 -0.22256652654210629 0 0.32020032842118662 -0.2136972324735969 0 0.32549034540926353 -0.23154497847382799 0 0.33592071113666833 -0.21528834051928489 0 0.32020032842118662 -0.2136972324735969 0 0.32549034540926353 -0.23154497847382799 0 0.33592071113666833 -0.21528834051928489 0 0.32549034540926353 -0.23154497847382799 0 0.34859569888421221 -0.23412938064951411 0 0.33592071113666833 -0.21528834051928489 0 0.34859569888421221 -0.23412938064951411 0 0.32549034540926353 -0.23154497847382799 0 0.33517615116993849 -0.24743488902137309 0 0.34859569888421221 -0.23412938064951411 0 0.33517615116993849 -0.24743488902137309 0 0.34859569888421221 -0.23412938064951411 0 0.35185333732921159 -0.25428502110151557 0 0.34859569888421221 -0.23412938064951411 0 0.36075586336603621 -0.2426037127049111 0 0.35185333732921159 -0.25428502110151557 0 0.34859569888421221 -0.23412938064951411 0 0.36291464790978972 -0.22902601310760301 0 0.36075586336603621 -0.2426037127049111 0 0.35603419272415182 -0.2169366224123114 0 0.34859569888421221 -0.23412938064951411 0 0.36291464790978972 -0.22902601310760301 0 0.35603419272415182 -0.2169366224123114 0 0.33592071113666833 -0.21528834051928489 0 0.34859569888421221 -0.23412938064951411 0 0.37271206602689039 -0.21308069503546309 0 0.35603419272415182 -0.2169366224123114 0 0.36291464790978972 -0.22902601310760301 0 0.37271206602689039 -0.21308069503546309 0 0.37477580018058132 -0.24095111383496479 0 0.37555308153547928 -0.22286467051027881 0 0.37271206602689039 -0.21308069503546309 0 0.37477580018058132 -0.24095111383496479 0 0.37271206602689039 -0.21308069503546309 0 0.36291464790978972 -0.22902601310760301 0 0.37477580018058132 -0.24095111383496479 0 0.36075586336603621 -0.2426037127049111 0 0.37477580018058132 -0.24095111383496479 0 0.36563983252638571 -0.25462703483095822 0 0.36291464790978972 -0.22902601310760301 0 0.36075586336603621 -0.2426037127049111 0 0.37477580018058132 -0.24095111383496479 0 0.37477580018058132 -0.24095111383496479 0 0.39321551516580561 -0.23618023300957031 0 0.38725375881062551 -0.25185160038302579 0 0.39321551516580561 -0.23618023300957031 0 0.41087794879613182 -0.2494957955088617 0 0.40741230325918792 -0.23450562481703699 0 0.39321551516580561 -0.23618023300957031 0 0.41087794879613182 -0.2494957955088617 0 0.39321551516580561 -0.23618023300957031 0 0.38725375881062551 -0.25185160038302579 0 0.39640803358832022 -0.25154779433757402 0 0.39321551516580561 -0.23618023300957031 0 0.41087794879613182 -0.2494957955088617 0 0.39640803358832022 -0.25154779433757402 0 0.4055308246994358 -0.22407667781788709 0 0.39424069285124719 -0.22310079746779379 0 0.40434357831770951 -0.21487406561090469 0 0.4055308246994358 -0.22407667781788709 0 0.39424069285124719 -0.22310079746779379 0 0.40741230325918792 -0.23450562481703699 0 0.39321551516580561 -0.23618023300957031 0 0.39424069285124719 -0.22310079746779379 0 0.40741230325918792 -0.23450562481703699 0 0.37477580018058132 -0.24095111383496479 0 0.39321551516580561 -0.23618023300957031 0 0.37555308153547928 -0.22286467051027881 0 0.39424069285124719 -0.22310079746779379 0 0.37555308153547928 -0.22286467051027881 0 0.38300691860546521 -0.21527996176244341 0 0.39321551516580561 -0.23618023300957031 0 0.37555308153547928 -0.22286467051027881 0 0.39321551516580561 -0.23618023300957031 0 0.39424069285124719 -0.22310079746779379 0 0.37555308153547928 -0.22286467051027881 0 0.37271206602689039 -0.21308069503546309 0 0.37555308153547928 -0.22286467051027881 0 0.38300691860546521 -0.21527996176244341 0 0.37271206602689039 -0.21308069503546309 0 0.38139900114097952 -0.20469292352659629 0 0.38300691860546521 -0.21527996176244341 0 0.38139900114097952 -0.20469292352659629 0 0.39078770323730427 -0.19674260859680251 0 0.39112975147272949 -0.2126607222720846 0 0.38139900114097952 -0.20469292352659629 0 0.38300691860546521 -0.21527996176244341 0 0.39112975147272949 -0.2126607222720846 0 0.39424069285124719 -0.22310079746779379 0 0.38300691860546521 -0.21527996176244341 0 0.39112975147272949 -0.2126607222720846 0 0.37064833187319962 -0.1852102762359614 0 0.38139900114097952 -0.20469292352659629 0 0.39078770323730427 -0.19674260859680251 0 0.39078770323730427 -0.19674260859680251 0 0.40475141021500721 -0.1910589369573561 0 0.39510197637232292 -0.1839605883432579 0 0.39078770323730427 -0.19674260859680251 0 0.40426546228868082 -0.20108352786525729 0 0.397631623829106 -0.20634023108626229 0 0.39078770323730427 -0.19674260859680251 0 0.40426546228868082 -0.20108352786525729 0 0.40475141021500721 -0.1910589369573561 0 0.39078770323730427 -0.19674260859680251 0 0.39112975147272949 -0.2126607222720846 0 0.397631623829106 -0.20634023108626229 0 0.39112975147272949 -0.2126607222720846 0 0.397631623829106 -0.20634023108626229 0 0.40434357831770951 -0.21487406561090469 0 0.39424069285124719 -0.22310079746779379 0 0.39112975147272949 -0.2126607222720846 0 0.40434357831770951 -0.21487406561090469 0 0.40426546228868082 -0.20108352786525729 0 0.397631623829106 -0.20634023108626229 0 0.40434357831770951 -0.21487406561090469 0 0.40434357831770951 -0.21487406561090469 0 0.41713092845542321 -0.20900944133272009 0 0.41612672436959858 -0.22382622337581301 0 0.40426546228868082 -0.20108352786525729 0 0.40434357831770951 -0.21487406561090469 0 0.41713092845542321 -0.20900944133272009 0 0.41713092845542321 -0.20900944133272009 0 0.42330136258736267 -0.2174116668913772 0 0.41612672436959858 -0.22382622337581301 0 0.40475141021500721 -0.1910589369573561 0 0.41487892771890261 -0.19826025474908979 0 0.4146572714410397 -0.186958864794112 0 0.40426546228868082 -0.20108352786525729 0 0.41713092845542321 -0.20900944133272009 0 0.41487892771890261 -0.19826025474908979 0 0.40426546228868082 -0.20108352786525729 0 0.40475141021500721 -0.1910589369573561 0 0.41487892771890261 -0.19826025474908979 0 0.41713092845542321 -0.20900944133272009 0 0.41487892771890261 -0.19826025474908979 0 0.42701217502226602 -0.19751647228806199 0 0.41487892771890261 -0.19826025474908979 0 0.42053294087941678 -0.1923617771039739 0 0.42701217502226602 -0.19751647228806199 0 0.42053294087941678 -0.1923617771039739 0 0.4146572714410397 -0.186958864794112 0 0.42558338933545942 -0.1867115165846317 0 0.41487892771890261 -0.19826025474908979 0 0.42053294087941678 -0.1923617771039739 0 0.4146572714410397 -0.186958864794112 0 0.42701217502226602 -0.19751647228806199 0 0.43844209377108118 -0.18689286854296691 0 0.44355474576021348 -0.2050869029196882 0 0.42053294087941678 -0.1923617771039739 0 0.42701217502226602 -0.19751647228806199 0 0.42558338933545942 -0.1867115165846317 0 0.42701217502226602 -0.19751647228806199 0 0.42558338933545942 -0.1867115165846317 0 0.43844209377108118 -0.18689286854296691 0 0.42701217502226602 -0.19751647228806199 0 0.43006687167525981 -0.21185300334864521 0 0.44355474576021348 -0.2050869029196882 0 0.41713092845542321 -0.20900944133272009 0 0.42330136258736267 -0.2174116668913772 0 0.43006687167525981 -0.21185300334864521 0 0.42330136258736267 -0.2174116668913772 0 0.43006687167525981 -0.21185300334864521 0 0.42988092584916948 -0.2249579995083304 0 0.41713092845542321 -0.20900944133272009 0 0.42701217502226602 -0.19751647228806199 0 0.43006687167525981 -0.21185300334864521 0 0.43006687167525981 -0.21185300334864521 0 0.42988092584916948 -0.2249579995083304 0 0.44009267276725389 -0.2176624614444449 0 0.42330136258736267 -0.2174116668913772 0 0.42988092584916948 -0.2249579995083304 0 0.41612672436959858 -0.22382622337581301 0 0.42988092584916948 -0.2249579995083304 0 0.43458399188612801 -0.2397076170126072 0 0.42159465327244361 -0.23640953485310751 0 0.42988092584916948 -0.2249579995083304 0 0.42159465327244361 -0.23640953485310751 0 0.41612672436959858 -0.22382622337581301 0 0.42988092584916948 -0.2249579995083304 0 0.43458399188612801 -0.2397076170126072 0 0.44416109061426973 -0.22983272991065171 0 0.43458399188612801 -0.2397076170126072 0 0.42656562700980838 -0.24831468624349931 0 0.4372088962240912 -0.25169219704383999 0 0.43458399188612801 -0.2397076170126072 0 0.42656562700980838 -0.24831468624349931 0 0.42159465327244361 -0.23640953485310751 0 0.42656562700980838 -0.24831468624349931 0 0.42159465327244361 -0.23640953485310751 0 0.41087794879613182 -0.2494957955088617 0 0.42159465327244361 -0.23640953485310751 0 0.41087794879613182 -0.2494957955088617 0 0.40741230325918792 -0.23450562481703699 0 0.4055308246994358 -0.22407667781788709 0 0.40741230325918792 -0.23450562481703699 0 0.41612672436959858 -0.22382622337581301 0 0.4055308246994358 -0.22407667781788709 0 0.40434357831770951 -0.21487406561090469 0 0.41612672436959858 -0.22382622337581301 0 0.42159465327244361 -0.23640953485310751 0 0.40741230325918792 -0.23450562481703699 0 0.41612672436959858 -0.22382622337581301 0 0.39823574772599779 -0.11763079726210079 0 0.40257569972698831 -0.13396225485532559 0 0.38918813321375051 -0.12739880168557821 0 0.40257569972698831 -0.13396225485532559 0 0.38918813321375051 -0.12739880168557821 0 0.39017348084279901 -0.13955387731924049 0 0.38918813321375051 -0.12739880168557821 0 0.37808333446084269 -0.1309391893982525 0 0.39017348084279901 -0.13955387731924049 0 0.37720890243704291 -0.12310924361699779 0 0.36253108037134668 -0.1248744885805331 0 0.38918813321375051 -0.12739880168557821 0 0.36253108037134668 -0.1248744885805331 0 0.38918813321375051 -0.12739880168557821 0 0.37808333446084269 -0.1309391893982525 0 0.36253108037134668 -0.1248744885805331 0 0.38918813321375051 -0.12739880168557821 0 0.37808333446084269 -0.1309391893982525 0 0.39017348084279901 -0.13955387731924049 0 0.3787995421462832 -0.1425544525875144 0 0.36858459771950869 -0.15733985743645959 0 0.3787995421462832 -0.1425544525875144 0 0.38535727780346091 -0.1527557998392445 0 0.39017348084279901 -0.13955387731924049 0 0.3787995421462832 -0.1425544525875144 0 0.38535727780346091 -0.1527557998392445 0 0.40257569972698831 -0.13396225485532559 0 0.39822107621443897 -0.1501202070538992 0 0.41732028123257531 -0.14286435439753159 0 0.40257569972698831 -0.13396225485532559 0 0.39017348084279901 -0.13955387731924049 0 0.39822107621443897 -0.1501202070538992 0 0.39017348084279901 -0.13955387731924049 0 0.38535727780346091 -0.1527557998392445 0 0.39822107621443897 -0.1501202070538992 0 0.39822107621443897 -0.1501202070538992 0 0.39107178753907162 -0.16851380255406381 0 0.40713652226246821 -0.16744863749245631 0 0.39107178753907162 -0.16851380255406381 0 0.40713652226246821 -0.16744863749245631 0 0.38535727780346091 -0.1527557998392445 0 0.39822107621443897 -0.1501202070538992 0 0.39107178753907162 -0.16851380255406381 0 0.39107178753907162 -0.16851380255406381 0 0.40460499843718001 -0.17902112385493851 0 0.40713652226246821 -0.16744863749245631 0 0.36858459771950869 -0.15733985743645959 0 0.38535727780346091 -0.1527557998392445 0 0.39107178753907162 -0.16851380255406381 0 0.36858459771950869 -0.15733985743645959 0 0.39107178753907162 -0.16851380255406381 0 0.3834788620725188 -0.17954848884060079 0 0.39107178753907162 -0.16851380255406381 0 0.3834788620725188 -0.17954848884060079 0 0.39510197637232292 -0.1839605883432579 0 0.39078770323730427 -0.19674260859680251 0 0.3834788620725188 -0.17954848884060079 0 0.39510197637232292 -0.1839605883432579 0 0.37064833187319962 -0.1852102762359614 0 0.39078770323730427 -0.19674260859680251 0 0.3834788620725188 -0.17954848884060079 0 0.39107178753907162 -0.16851380255406381 0 0.39510197637232292 -0.1839605883432579 0 0.40460499843718001 -0.17902112385493851 0 0.40475141021500721 -0.1910589369573561 0 0.39510197637232292 -0.1839605883432579 0 0.40460499843718001 -0.17902112385493851 0 0.40475141021500721 -0.1910589369573561 0 0.40460499843718001 -0.17902112385493851 0 0.4146572714410397 -0.186958864794112 0 0.40460499843718001 -0.17902112385493851 0 0.41491102279317088 -0.17618591298838529 0 0.4146572714410397 -0.186958864794112 0 0.40460499843718001 -0.17902112385493851 0 0.41491102279317088 -0.17618591298838529 0 0.40713652226246821 -0.16744863749245631 0 0.41491102279317088 -0.17618591298838529 0 0.42527009306055918 -0.1746571334479238 0 0.4232012569858648 -0.16638347243084889 0 0.41491102279317088 -0.17618591298838529 0 0.42095079563492938 -0.18072636251124541 0 0.42527009306055918 -0.1746571334479238 0 0.41491102279317088 -0.17618591298838529 0 0.42095079563492938 -0.18072636251124541 0 0.4146572714410397 -0.186958864794112 0 0.42095079563492938 -0.18072636251124541 0 0.4146572714410397 -0.186958864794112 0 0.42558338933545942 -0.1867115165846317 0 0.43180268423531071 -0.1802632517690351 0 0.42527009306055918 -0.1746571334479238 0 0.44880083799057491 -0.164686103644653 0 0.42095079563492938 -0.18072636251124541 0 0.42558338933545942 -0.1867115165846317 0 0.43180268423531071 -0.1802632517690351 0 0.42558338933545942 -0.1867115165846317 0 0.43180268423531071 -0.1802632517690351 0 0.43844209377108118 -0.18689286854296691 0 0.42095079563492938 -0.18072636251124541 0 0.43180268423531071 -0.1802632517690351 0 0.42527009306055918 -0.1746571334479238 0 0.42527009306055918 -0.1746571334479238 0 0.4232012569858648 -0.16638347243084889 0 0.44880083799057491 -0.164686103644653 0 0.4232012569858648 -0.16638347243084889 0 0.43334283997313311 -0.15135273030925811 0 0.44880083799057491 -0.164686103644653 0 0.4232012569858648 -0.16638347243084889 0 0.44880083799057491 -0.164686103644653 0 0.42527009306055918 -0.1746571334479238 0 0.4232012569858648 -0.16638347243084889 0 0.4232012569858648 -0.16638347243084889 0 0.40713652226246821 -0.16744863749245631 0 0.41732028123257531 -0.14286435439753159 0 0.41491102279317088 -0.17618591298838529 0 0.4232012569858648 -0.16638347243084889 0 0.40713652226246821 -0.16744863749245631 0 0.4232012569858648 -0.16638347243084889 0 0.40713652226246821 -0.16744863749245631 0 0.4232012569858648 -0.16638347243084889 0 0.41732028123257531 -0.14286435439753159 0 0.39822107621443897 -0.1501202070538992 0 0.40713652226246821 -0.16744863749245631 0 0.41732028123257531 -0.14286435439753159 0 0.41732028123257531 -0.14286435439753159 0 0.43334283997313311 -0.15135273030925811 0 0.43763345530417341 -0.13584027725706749 0 0.4232012569858648 -0.16638347243084889 0 0.41732028123257531 -0.14286435439753159 0 0.43334283997313311 -0.15135273030925811 0 0.42916935431308728 -0.1205456085246996 0 0.41732028123257531 -0.14286435439753159 0 0.43763345530417341 -0.13584027725706749 0 0.42916935431308728 -0.1205456085246996 0 0.4435038969132965 -0.12540022695152131 0 0.43763345530417341 -0.13584027725706749 0 0.41143930547928681 -0.11934523636421419 0 0.42916935431308728 -0.1205456085246996 0 0.41732028123257531 -0.14286435439753159 0 0.41143930547928681 -0.11934523636421419 0 0.40257569972698831 -0.13396225485532559 0 0.41732028123257531 -0.14286435439753159 0 0.41143930547928681 -0.11934523636421419 0 0.41732028123257531 -0.14286435439753159 0 0.46257396642688631 -0.12529077885077469 0 0.46381730130484328 -0.1363472541609663 0 0.4585659370706795 -0.1308283620105129 0 0.46381730130484328 -0.1363472541609663 0 0.4585659370706795 -0.1308283620105129 0 0.45274550479158487 -0.1345999168850856 0 0.46381730130484328 -0.1363472541609663 0 0.45274550479158487 -0.1345999168850856 0 0.46138481906560302 -0.14686228775601681 0 0.46257396642688631 -0.12529077885077469 0 0.4585659370706795 -0.1308283620105129 0 0.45239247298790419 -0.125419693033265 0 0.4585659370706795 -0.1308283620105129 0 0.45239247298790419 -0.125419693033265 0 0.45274550479158487 -0.1345999168850856 0 0.45239247298790419 -0.125419693033265 0 0.4435038969132965 -0.12540022695152131 0 0.45274550479158487 -0.1345999168850856 0 0.4435038969132965 -0.12540022695152131 0 0.43763345530417341 -0.13584027725706749 0 0.45274550479158487 -0.1345999168850856 0 0.43763345530417341 -0.13584027725706749 0 0.45274550479158487 -0.1345999168850856 0 0.44678149142501389 -0.1466682631704162 0 0.43334283997313311 -0.15135273030925811 0 0.44678149142501389 -0.1466682631704162 0 0.44880083799057491 -0.164686103644653 0 0.44678149142501389 -0.1466682631704162 0 0.46138481906560302 -0.14686228775601681 0 0.44880083799057491 -0.164686103644653 0 0.43334283997313311 -0.15135273030925811 0 0.43763345530417341 -0.13584027725706749 0 0.44678149142501389 -0.1466682631704162 0 0.45274550479158487 -0.1345999168850856 0 0.44678149142501389 -0.1466682631704162 0 0.46138481906560302 -0.14686228775601681 0 0.46138481906560302 -0.14686228775601681 0 0.44880083799057491 -0.164686103644653 0 0.47440041899528501 -0.16298873485845719 0 0.44880083799057491 -0.164686103644653 0 0.46834799031954211 -0.17915452781490099 0 0.47440041899528501 -0.16298873485845719 0 0.44880083799057491 -0.164686103644653 0 0.47440041899528501 -0.16298873485845719 0 0.43180268423531071 -0.1802632517690351 0 0.44880083799057491 -0.164686103644653 0 0.43844209377108118 -0.18689286854296691 0 0.44880083799057491 -0.164686103644653 0 0.43844209377108118 -0.18689286854296691 0 0.45508032593701309 -0.1914137801830845 0 0.44880083799057491 -0.164686103644653 0 0.46834799031954211 -0.17915452781490099 0 0.45508032593701309 -0.1914137801830845 0 0.46834799031954211 -0.17915452781490099 0 0.48419704391512092 -0.17843144908975531 0 0.47440041899528501 -0.16298873485845719 0 0.46834799031954211 -0.17915452781490099 0 0.48419704391512092 -0.17843144908975531 0 0.47823681026078202 -0.19812675643970101 0 0.48419704391512092 -0.17843144908975531 0 0.49999999999999523 -0.16129136607226169 0 0.5 -0.1905958602634561 0 0.49999999999999523 -0.16129136607226169 0 0.47440041899528501 -0.16298873485845719 0 0.50000000000000067 -0.1547763741112759 0 0.48419704391512092 -0.17843144908975531 0 0.49999999999999523 -0.16129136607226169 0 0.47440041899528501 -0.16298873485845719 0 0.49999999999999523 -0.16129136607226169 0 0.47440041899528501 -0.16298873485845719 0 0.46138481906560302 -0.14686228775601681 0 0.47440041899528501 -0.16298873485845719 0 0.48128698321344371 -0.14003357648102521 0 0.46381730130484328 -0.1363472541609663 0 0.46138481906560302 -0.14686228775601681 0 0.48128698321344371 -0.14003357648102521 0 0.50000000000000067 -0.1547763741112759 0 0.48128698321344371 -0.14003357648102521 0 0.50000000000000067 -0.1547763741112759 0 0.5 -0.13349841451636779 0 0.48128698321344371 -0.14003357648102521 0 0.47440041899528501 -0.16298873485845719 0 0.50000000000000067 -0.1547763741112759 0 0.48128698321344371 -0.14003357648102521 0 0.48087269318342413 -0.1216818802472065 0 0.5 -0.13349841451636779 0 0.48128698321344371 -0.14003357648102521 0 0.46257396642688631 -0.12529077885077469 0 0.48128698321344371 -0.14003357648102521 0 0.46257396642688631 -0.12529077885077469 0 0.46381730130484328 -0.1363472541609663 0 0.48128698321344371 -0.14003357648102521 0 0.47129126618897188 -0.1223351355815797 0 0.48087269318342413 -0.1216818802472065 0 0.48128698321344371 -0.14003357648102521 0 0.47129126618897188 -0.1223351355815797 0 0.46257396642688631 -0.12529077885077469 0 0.48128698321344371 -0.14003357648102521 0 0.46029750420545162 -0.23134667767863379 0 0.45079963313025367 -0.219495204315066 0 0.46126535540865482 -0.21094244298034759 0 0.46029750420545162 -0.23134667767863379 0 0.46126535540865482 -0.21094244298034759 0 0.47937109712497578 -0.22608105856418539 0 0.46029750420545162 -0.23134667767863379 0 0.44856132313442931 -0.24393079079591279 0 0.47387431588802909 -0.25499376211151131 0 0.46029750420545162 -0.23134667767863379 0 0.44856132313442931 -0.24393079079591279 0 0.44416109061426973 -0.22983272991065171 0 0.43458399188612801 -0.2397076170126072 0 0.44856132313442931 -0.24393079079591279 0 0.4372088962240912 -0.25169219704383999 0 0.43458399188612801 -0.2397076170126072 0 0.44856132313442931 -0.24393079079591279 0 0.44416109061426973 -0.22983272991065171 0 0.46029750420545162 -0.23134667767863379 0 0.44416109061426973 -0.22983272991065171 0 0.45079963313025367 -0.219495204315066 0 0.44416109061426973 -0.22983272991065171 0 0.45079963313025367 -0.219495204315066 0 0.44009267276725389 -0.2176624614444449 0 0.42988092584916948 -0.2249579995083304 0 0.44416109061426973 -0.22983272991065171 0 0.44009267276725389 -0.2176624614444449 0 0.45079963313025367 -0.219495204315066 0 0.44355474576021348 -0.2050869029196882 0 0.46126535540865482 -0.21094244298034759 0 0.43006687167525981 -0.21185300334864521 0 0.44009267276725389 -0.2176624614444449 0 0.44355474576021348 -0.2050869029196882 0 0.45079963313025367 -0.219495204315066 0 0.44009267276725389 -0.2176624614444449 0 0.44355474576021348 -0.2050869029196882 0 0.43844209377108118 -0.18689286854296691 0 0.44355474576021348 -0.2050869029196882 0 0.45508032593701309 -0.1914137801830845 0 0.46834799031954211 -0.17915452781490099 0 0.45508032593701309 -0.1914137801830845 0 0.47823681026078202 -0.19812675643970101 0 0.44355474576021348 -0.2050869029196882 0 0.45508032593701309 -0.1914137801830845 0 0.46126535540865482 -0.21094244298034759 0 0.45508032593701309 -0.1914137801830845 0 0.46126535540865482 -0.21094244298034759 0 0.47823681026078202 -0.19812675643970101 0 0.46126535540865482 -0.21094244298034759 0 0.47823681026078202 -0.19812675643970101 0 0.47937109712497578 -0.22608105856418539 0 0.48419704391512092 -0.17843144908975531 0 0.47823681026078202 -0.19812675643970101 0 0.5 -0.1905958602634561 0 0.47823681026078202 -0.19812675643970101 0 0.5 -0.1905958602634561 0 0.5 -0.21990035445465039 0 0.47823681026078202 -0.19812675643970101 0 0.5 -0.21990035445465039 0 0.47937109712497578 -0.22608105856418539 0 0.5 -0.21990035445465039 0 0.47937109712497578 -0.22608105856418539 0 0.50000000000000444 -0.24920484864584491 0 0.46029750420545162 -0.23134667767863379 0 0.47937109712497578 -0.22608105856418539 0 0.47387431588802909 -0.25499376211151131 0 0.47937109712497578 -0.22608105856418539 0 0.50000000000000444 -0.24920484864584491 0 0.47387431588802909 -0.25499376211151131 0 0.50000000000000444 -0.24920484864584491 0 0.4915669900217115 -0.25615479242606781 0 0.5 -0.27170772691138367 0 0.50000000000000444 -0.24920484864584491 0 0.4915669900217115 -0.25615479242606781 0 0.47387431588802909 -0.25499376211151131 0 0.50000000000000444 -0.24920484864584491 0 0.47387431588802909 -0.25499376211151131 0 0.4915669900217115 -0.25615479242606781 0 0.48280749151585822 -0.27129304150170008 0 0.47954864786353962 -0.26301133191085868 0 0.4915669900217115 -0.25615479242606781 0 0.5 -0.27170772691138367 0 0.48280749151585822 -0.27129304150170008 0 0.5 -0.27170772691138367 0 0.48280749151585822 -0.27129304150170008 0 0.48951500520952212 -0.28458010338455908 0 0.48280749151585822 -0.27129304150170008 0 0.47474596181800061 -0.28621450290334632 0 0.48951500520952212 -0.28458010338455908 0 0.48280749151585822 -0.27129304150170008 0 0.47416229901770612 -0.26612875971404459 0 0.47954864786353962 -0.26301133191085868 0 0.48280749151585822 -0.27129304150170008 0 0.47416229901770612 -0.26612875971404459 0 0.47052118473631321 -0.27447720361836658 0 0.47416229901770612 -0.26612875971404459 0 0.47052118473631321 -0.27447720361836658 0 0.46319689217890331 -0.26835660325056299 0 0.48280749151585822 -0.27129304150170008 0 0.47052118473631321 -0.27447720361836658 0 0.47474596181800061 -0.28621450290334632 0 0.4915669900217115 -0.25615479242606781 0 0.46965781089888248 -0.25846873400162218 0 0.4915669900217115 -0.25615479242606781 0 0.47387431588802909 -0.25499376211151131 0 0.46965781089888248 -0.25846873400162218 0 0.4915669900217115 -0.25615479242606781 0 0.47954864786353962 -0.26301133191085868 0 0.46965781089888248 -0.25846873400162218 0 0.47416229901770612 -0.26612875971404459 0 0.47954864786353962 -0.26301133191085868 0 0.46965781089888248 -0.25846873400162218 0 0.47416229901770612 -0.26612875971404459 0 0.46965781089888248 -0.25846873400162218 0 0.46319689217890331 -0.26835660325056299 0 0.46965781089888248 -0.25846873400162218 0 0.46319689217890331 -0.26835660325056299 0 0.4477486317760534 -0.26078267557717671 0 0.44856132313442931 -0.24393079079591279 0 0.47387431588802909 -0.25499376211151131 0 0.4477486317760534 -0.26078267557717671 0 0.47387431588802909 -0.25499376211151131 0 0.4477486317760534 -0.26078267557717671 0 0.46965781089888248 -0.25846873400162218 0 0.4477486317760534 -0.26078267557717671 0 0.47387431588802909 -0.25499376211151131 0 0.46965781089888248 -0.25846873400162218 0 0.4477486317760534 -0.26078267557717671 0 0.47052118473631321 -0.27447720361836658 0 0.45389453446556111 -0.28192564334160541 0 0.47474596181800061 -0.28621450290334632 0 0.47052118473631321 -0.27447720361836658 0 0.46319689217890331 -0.26835660325056299 0 0.45389453446556111 -0.28192564334160541 0 0.46319689217890331 -0.26835660325056299 0 0.4477486317760534 -0.26078267557717671 0 0.45389453446556111 -0.28192564334160541 0 0.45389453446556111 -0.28192564334160541 0 0.430823863629894 -0.26453285558412298 0 0.45389453446556111 -0.28192564334160541 0 0.430823863629894 -0.26453285558412298 0 0.43570592202634773 -0.28205449164250063 0 0.4477486317760534 -0.26078267557717671 0 0.45389453446556111 -0.28192564334160541 0 0.430823863629894 -0.26453285558412298 0 0.4477486317760534 -0.26078267557717671 0 0.42854038242645709 -0.26281135800815408 0 0.44856132313442931 -0.24393079079591279 0 0.4477486317760534 -0.26078267557717671 0 0.4372088962240912 -0.25169219704383999 0 0.4477486317760534 -0.26078267557717671 0 0.42854038242645709 -0.26281135800815408 0 0.4372088962240912 -0.25169219704383999 0 0.4477486317760534 -0.26078267557717671 0 0.430823863629894 -0.26453285558412298 0 0.44815314542162782 -0.30273998798419938 0 0.44271266904340639 -0.31513600928105973 0 0.43092107089682352 -0.30573631325696571 0 0.44815314542162782 -0.30273998798419938 0 0.43874415768382158 -0.29310671547163403 0 0.43092107089682352 -0.30573631325696571 0 0.43874415768382158 -0.29310671547163403 0 0.45389453446556111 -0.28192564334160541 0 0.43570592202634773 -0.28205449164250063 0 0.44815314542162782 -0.30273998798419938 0 0.43874415768382158 -0.29310671547163403 0 0.45389453446556111 -0.28192564334160541 0 0.45389453446556111 -0.28192564334160541 0 0.46668010371271101 -0.29937682325086112 0 0.47474596181800061 -0.28621450290334632 0 0.44815314542162782 -0.30273998798419938 0 0.45389453446556111 -0.28192564334160541 0 0.46668010371271101 -0.29937682325086112 0 0.46668010371271101 -0.29937682325086112 0 0.45907432653114449 -0.32014896664993769 0 0.44815314542162782 -0.30273998798419938 0 0.46668010371271101 -0.29937682325086112 0 0.45907432653114449 -0.32014896664993769 0 0.46668010371271101 -0.29937682325086112 0 0.48375110351916628 -0.30725513966339157 0 0.45907432653114449 -0.32014896664993769 0 0.46668010371271101 -0.29937682325086112 0 0.48375110351916628 -0.30725513966339157 0 0.47474596181800061 -0.28621450290334632 0 0.48375110351916628 -0.30725513966339157 0 0.47474596181800061 -0.28621450290334632 0 0.48951500520952212 -0.28458010338455908 0 0.48375110351916628 -0.30725513966339157 0 0.5 -0.29421060517692271 0 0.48951500520952212 -0.28458010338455908 0 0.5 -0.27170772691138367 0 0.5 -0.29421060517692271 0 0.48951500520952212 -0.28458010338455908 0 0.48375110351916628 -0.30725513966339157 0 0.5 -0.29421060517692271 0 0.49999999999999972 -0.31671348344246159 0 0.48375110351916628 -0.30725513966339157 0 0.49999999999999972 -0.31671348344246159 0 0.48658745812515303 -0.32591538654610069 0 0.49999999999999972 -0.31671348344246159 0 0.49107839048707969 -0.33844651150006611 0 0.49999999999999972 -0.31671348344246159 0 0.48658745812515303 -0.32591538654610069 0 0.49107839048707969 -0.33844651150006611 0 0.49999999999999972 -0.31671348344246159 0 0.5 -0.34354646621870782 0 0.49107839048707969 -0.33844651150006611 0 0.48658745812515303 -0.32591538654610069 0 0.49107839048707969 -0.33844651150006611 0 0.48013111160135669 -0.33592777501669763 0 0.48658745812515303 -0.32591538654610069 0 0.48013111160135669 -0.33592777501669763 0 0.47588582758327369 -0.32632043512378739 0 0.48013111160135669 -0.33592777501669763 0 0.46883970942210401 -0.33989811375075968 0 0.47588582758327369 -0.32632043512378739 0 0.48375110351916628 -0.30725513966339157 0 0.48658745812515303 -0.32591538654610069 0 0.47588582758327369 -0.32632043512378739 0 0.48375110351916628 -0.30725513966339157 0 0.47588582758327369 -0.32632043512378739 0 0.45907432653114449 -0.32014896664993769 0 0.5 -0.37037944899495368 0 0.48466784746851571 -0.3739080713738358 0 0.48215678097416009 -0.36017953955767068 0 0.5 -0.34354646621870782 0 0.49107839048707969 -0.33844651150006611 0 0.48215678097416009 -0.36017953955767068 0 0.49107839048707969 -0.33844651150006611 0 0.48013111160135669 -0.33592777501669763 0 0.48215678097416009 -0.36017953955767068 0 0.5 -0.34354646621870782 0 0.5 -0.37037944899495368 0 0.48215678097416009 -0.36017953955767068 0 0.49107839048707969 -0.33844651150006611 0 0.48215678097416009 -0.36017953955767068 0 0.48013111160135669 -0.33592777501669763 0 0.46883970942210401 -0.33989811375075968 0 0.48215678097416009 -0.36017953955767068 0 0.46883970942210401 -0.33989811375075968 0 0.48215678097416009 -0.36017953955767068 0 0.46166172922915721 -0.35810144835948332 0 0.48215678097416009 -0.36017953955767068 0 0.47323517146124039 -0.38191256761527542 0 0.48215678097416009 -0.36017953955767068 0 0.4671179630262795 -0.37324494563770522 0 0.47323517146124039 -0.38191256761527542 0 0.48466784746851571 -0.3739080713738358 0 0.48215678097416009 -0.36017953955767068 0 0.47323517146124039 -0.38191256761527542 0 0.48215678097416009 -0.36017953955767068 0 0.4671179630262795 -0.37324494563770522 0 0.46166172922915721 -0.35810144835948332 0 0.45652460043480969 -0.37267172771365881 0 0.46166172922915721 -0.35810144835948332 0 0.44386277216801179 -0.36169325344809122 0 0.45652460043480969 -0.37267172771365881 0 0.4671179630262795 -0.37324494563770522 0 0.46166172922915721 -0.35810144835948332 0 0.46883970942210401 -0.33989811375075968 0 0.46166172922915721 -0.35810144835948332 0 0.45146854934957792 -0.34092111004901438 0 0.43963091224731599 -0.34751792105314822 0 0.44386277216801179 -0.36169325344809122 0 0.45146854934957792 -0.34092111004901438 0 0.44386277216801179 -0.36169325344809122 0 0.45146854934957792 -0.34092111004901438 0 0.46166172922915721 -0.35810144835948332 0 0.44386277216801179 -0.36169325344809122 0 0.45146854934957792 -0.34092111004901438 0 0.44386277216801179 -0.36169325344809122 0 0.43376943787959182 -0.36708850497004442 0 0.43808065797110041 -0.37748478958974491 0 0.45652460043480969 -0.37267172771365881 0 0.44386277216801179 -0.36169325344809122 0 0.44783900322824399 -0.38008781189722518 0 0.44386277216801179 -0.36169325344809122 0 0.43808065797110041 -0.37748478958974491 0 0.44386277216801179 -0.36169325344809122 0 0.43808065797110041 -0.37748478958974491 0 0.44783900322824399 -0.38008781189722518 0 0.45652460043480969 -0.37267172771365881 0 0.44386277216801179 -0.36169325344809122 0 0.46883970942210401 -0.33989811375075968 0 0.45907432653114449 -0.32014896664993769 0 0.45146854934957792 -0.34092111004901438 0 0.45907432653114449 -0.32014896664993769 0 0.45146854934957792 -0.34092111004901438 0 0.46883970942210401 -0.33989811375075968 0 0.47588582758327369 -0.32632043512378739 0 0.45907432653114449 -0.32014896664993769 0 0.43963091224731599 -0.34751792105314822 0 0.45146854934957792 -0.34092111004901438 0 0.43565299676263758 -0.3352386806192425 0 0.45146854934957792 -0.34092111004901438 0 0.44493724809618768 -0.32603283426431229 0 0.43565299676263758 -0.3352386806192425 0 0.45907432653114449 -0.32014896664993769 0 0.45146854934957792 -0.34092111004901438 0 0.44493724809618768 -0.32603283426431229 0 0.45907432653114449 -0.32014896664993769 0 0.44493724809618768 -0.32603283426431229 0 0.44271266904340639 -0.31513600928105973 0 0.44493724809618768 -0.32603283426431229 0 0.44271266904340639 -0.31513600928105973 0 0.43047755427124879 -0.32102194424988317 0 0.44815314542162782 -0.30273998798419938 0 0.45907432653114449 -0.32014896664993769 0 0.44271266904340639 -0.31513600928105973 0 0.44271266904340639 -0.31513600928105973 0 0.43047755427124879 -0.32102194424988317 0 0.43092107089682352 -0.30573631325696571 0 0.43047755427124879 -0.32102194424988317 0 0.41919911313656122 -0.31385112706466711 0 0.41739686236043672 -0.32199345155319897 0 0.43047755427124879 -0.32102194424988317 0 0.41919911313656122 -0.31385112706466711 0 0.43092107089682352 -0.30573631325696571 0 0.43047755427124879 -0.32102194424988317 0 0.42053718701310799 -0.32957674384091618 0 0.41739686236043672 -0.32199345155319897 0 0.44493724809618768 -0.32603283426431229 0 0.43047755427124879 -0.32102194424988317 0 0.43565299676263758 -0.3352386806192425 0 0.43565299676263758 -0.3352386806192425 0 0.42053718701310799 -0.32957674384091618 0 0.4250793590774925 -0.34540704162396091 0 0.43963091224731599 -0.34751792105314822 0 0.43565299676263758 -0.3352386806192425 0 0.4250793590774925 -0.34540704162396091 0 0.43047755427124879 -0.32102194424988317 0 0.43565299676263758 -0.3352386806192425 0 0.42053718701310799 -0.32957674384091618 0 0.4062959459869725 -0.32912082979983148 0 0.4250793590774925 -0.34540704162396091 0 0.41055923831377589 -0.34398547157316572 0 0.42053718701310799 -0.32957674384091618 0 0.4062959459869725 -0.32912082979983148 0 0.4250793590774925 -0.34540704162396091 0 0.4062959459869725 -0.32912082979983148 0 0.4250793590774925 -0.34540704162396091 0 0.42053718701310799 -0.32957674384091618 0 0.4062959459869725 -0.32912082979983148 0 0.40802480504278882 -0.32457497099322458 0 0.4062959459869725 -0.32912082979983148 0 0.40802480504278882 -0.32457497099322458 0 0.4062959459869725 -0.32912082979983148 0 0.40802480504278882 -0.32457497099322458 0 0.40572459905769331 -0.31910551143285631 0 0.40802480504278882 -0.32457497099322458 0 0.4119015194344513 -0.31818912214386269 0 0.41739686236043672 -0.32199345155319897 0 0.40802480504278882 -0.32457497099322458 0 0.4119015194344513 -0.31818912214386269 0 0.40572459905769331 -0.31910551143285631 0 0.4119015194344513 -0.31818912214386269 0 0.41919911313656122 -0.31385112706466711 0 0.40916221757477672 -0.31142054967536659 0 0.4119015194344513 -0.31818912214386269 0 0.40572459905769331 -0.31910551143285631 0 0.40916221757477672 -0.31142054967536659 0 0.4119015194344513 -0.31818912214386269 0 0.41919911313656122 -0.31385112706466711 0 0.41739686236043672 -0.32199345155319897 0 0.42053718701310799 -0.32957674384091618 0 0.40802480504278882 -0.32457497099322458 0 0.41739686236043672 -0.32199345155319897 0 0.44386277216801179 -0.36169325344809122 0 0.43376943787959182 -0.36708850497004442 0 0.42728564025893462 -0.35958684797927032 0 0.42489657602010461 -0.37065940299189432 0 0.43376943787959182 -0.36708850497004442 0 0.43808065797110041 -0.37748478958974491 0 0.42489657602010461 -0.37065940299189432 0 0.43376943787959182 -0.36708850497004442 0 0.42728564025893462 -0.35958684797927032 0 0.44386277216801179 -0.36169325344809122 0 0.4250793590774925 -0.34540704162396091 0 0.43963091224731599 -0.34751792105314822 0 0.44386277216801179 -0.36169325344809122 0 0.4250793590774925 -0.34540704162396091 0 0.44386277216801179 -0.36169325344809122 0 0.42728564025893462 -0.35958684797927032 0 0.4250793590774925 -0.34540704162396091 0 0.42728564025893462 -0.35958684797927032 0 0.4250793590774925 -0.34540704162396091 0 0.41069622259092692 -0.35617360609135817 0 0.4250793590774925 -0.34540704162396091 0 0.41055923831377589 -0.34398547157316572 0 0.41069622259092692 -0.35617360609135817 0 0.41055923831377589 -0.34398547157316572 0 0.41069622259092692 -0.35617360609135817 0 0.40016542559971202 -0.34524040877751239 0 0.42489657602010461 -0.37065940299189432 0 0.42728564025893462 -0.35958684797927032 0 0.41069622259092692 -0.35617360609135817 0 0.42489657602010461 -0.37065940299189432 0 0.41069622259092692 -0.35617360609135817 0 0.4070765621089808 -0.37107032214525337 0 0.42489657602010461 -0.37065940299189432 0 0.41069622259092692 -0.35617360609135817 0 0.39585190457779329 -0.37201308858561799 0 0.3940349052124521 -0.36135998775519362 0 0.38601585554704992 -0.38244526212700758 0 0.41069622259092692 -0.35617360609135817 0 0.4070765621089808 -0.37107032214525337 0 0.3940349052124521 -0.36135998775519362 0 0.4070765621089808 -0.37107032214525337 0 0.39585190457779329 -0.37201308858561799 0 0.3940349052124521 -0.36135998775519362 0 0.39585190457779329 -0.37201308858561799 0 0.3940349052124521 -0.36135998775519362 0 0.3940349052124521 -0.36135998775519362 0 0.40016542559971202 -0.34524040877751239 0 0.38974443050024338 -0.33620485529262373 0 0.3940349052124521 -0.36135998775519362 0 0.38974443050024338 -0.33620485529262373 0 0.3940349052124521 -0.36135998775519362 0 0.40016542559971202 -0.34524040877751239 0 0.41069622259092692 -0.35617360609135817 0 0.3940349052124521 -0.36135998775519362 0 0.40016542559971202 -0.34524040877751239 0 0.3940349052124521 -0.36135998775519362 0 0.38974443050024338 -0.33620485529262373 0 0.37368731816096312 -0.34897020548070451 0 0.3940349052124521 -0.36135998775519362 0 0.38601585554704992 -0.38244526212700758 0 0.3940349052124521 -0.36135998775519362 0 0.38601585554704992 -0.38244526212700758 0 0.3689120952668708 -0.37284951495870189 0 0.3940349052124521 -0.36135998775519362 0 0.3689120952668708 -0.37284951495870189 0 0.37368731816096312 -0.34897020548070451 0 0.4062959459869725 -0.32912082979983148 0 0.40572459905769331 -0.31910551143285631 0 0.39816778062817881 -0.31191488097197773 0 0.4062959459869725 -0.32912082979983148 0 0.38974443050024338 -0.33620485529262373 0 0.38545395578803499 -0.31104972283005378 0 0.4062959459869725 -0.32912082979983148 0 0.38545395578803499 -0.31104972283005378 0 0.4062959459869725 -0.32912082979983148 0 0.38545395578803499 -0.31104972283005378 0 0.39816778062817881 -0.31191488097197773 0 0.40572459905769331 -0.31910551143285631 0 0.39816778062817881 -0.31191488097197773 0 0.40916221757477672 -0.31142054967536659 0 0.4062959459869725 -0.32912082979983148 0 0.40016542559971202 -0.34524040877751239 0 0.38974443050024338 -0.33620485529262373 0 0.4062959459869725 -0.32912082979983148 0 0.40016542559971202 -0.34524040877751239 0 0.4062959459869725 -0.32912082979983148 0 0.41055923831377589 -0.34398547157316572 0 0.40016542559971202 -0.34524040877751239 0 0.38974443050024338 -0.33620485529262373 0 0.36945761595668469 -0.32738841673247931 0 0.37368731816096312 -0.34897020548070451 0 0.38974443050024338 -0.33620485529262373 0 0.38545395578803499 -0.31104972283005378 0 0.36945761595668469 -0.32738841673247931 0 0.38974443050024338 -0.33620485529262373 0 0.38545395578803499 -0.31104972283005378 0 0.38545395578803499 -0.31104972283005378 0 0.38245755150739558 -0.29348174920317632 0 0.37101427446782781 -0.29852975601036341 0 0.38545395578803499 -0.31104972283005378 0 0.38245755150739558 -0.29348174920317632 0 0.38545395578803499 -0.31104972283005378 0 0.37101427446782781 -0.29852975601036341 0 0.38545395578803499 -0.31104972283005378 0 0.39567659353887108 -0.29306988619604551 0 0.38245755150739558 -0.29348174920317632 0 0.39816778062817881 -0.31191488097197773 0 0.40563314249086863 -0.30155395497769039 0 0.39567659353887108 -0.29306988619604551 0 0.38545395578803499 -0.31104972283005378 0 0.39816778062817881 -0.31191488097197773 0 0.39567659353887108 -0.29306988619604551 0 0.39816778062817881 -0.31191488097197773 0 0.40563314249086863 -0.30155395497769039 0 0.40916221757477672 -0.31142054967536659 0 0.39567659353887108 -0.29306988619604551 0 0.40514250542832608 -0.27022331558021301 0 0.41160024963212011 -0.28933460066763711 0 0.40563314249086863 -0.30155395497769039 0 0.39567659353887108 -0.29306988619604551 0 0.41160024963212011 -0.28933460066763711 0 0.38245755150739558 -0.29348174920317632 0 0.37946114722675722 -0.27591377557629859 0 0.39567659353887108 -0.29306988619604551 0 0.38245755150739558 -0.29348174920317632 0 0.37946114722675722 -0.27591377557629859 0 0.38245755150739558 -0.29348174920317632 0 0.37795999762798671 -0.28395322059410122 0 0.37946114722675722 -0.27591377557629859 0 0.37519981906117678 -0.29055939022370142 0 0.38245755150739558 -0.29348174920317632 0 0.37101427446782781 -0.29852975601036341 0 0.37519981906117678 -0.29055939022370142 0 0.38245755150739558 -0.29348174920317632 0 0.37795999762798671 -0.28395322059410122 0 0.37795999762798671 -0.28395322059410122 0 0.37946114722675722 -0.27591377557629859 0 0.37739853904771847 -0.27637080706343392 0 0.37739853904771847 -0.27637080706343392 0 0.37683953433427181 -0.26882153263446662 0 0.37273728942595791 -0.27740364396778311 0 0.37795999762798671 -0.28395322059410122 0 0.37739853904771847 -0.27637080706343392 0 0.37273728942595791 -0.27740364396778311 0 0.37946114722675722 -0.27591377557629859 0 0.38774772661347989 -0.26664574742688191 0 0.3964002279028962 -0.26984905957103239 0 0.37946114722675722 -0.27591377557629859 0 0.3964002279028962 -0.26984905957103239 0 0.37795999762798671 -0.28395322059410122 0 0.37739853904771847 -0.27637080706343392 0 0.37739853904771847 -0.27637080706343392 0 0.37273728942595791 -0.27740364396778311 0 0.37946114722675722 -0.27591377557629859 0 0.37739853904771847 -0.27637080706343392 0 0.37683953433427181 -0.26882153263446662 0 0.37946114722675722 -0.27591377557629859 0 0.37739853904771847 -0.27637080706343392 0 0.37946114722675722 -0.27591377557629859 0 0.37843581040967561 -0.26746760801825881 0 0.38284686623937531 -0.26497045393317709 0 0.37946114722675722 -0.27591377557629859 0 0.37683953433427181 -0.26882153263446662 0 0.37843581040967561 -0.26746760801825881 0 0.37739853904771847 -0.27637080706343392 0 0.37683953433427181 -0.26882153263446662 0 0.37683953433427181 -0.26882153263446662 0 0.37843581040967561 -0.26746760801825881 0 0.37946114722675722 -0.27591377557629859 0 0.38774772661347989 -0.26664574742688191 0 0.38284686623937531 -0.26497045393317709 0 0.37477580018058132 -0.24095111383496479 0 0.37683953433427181 -0.26882153263446662 0 0.38107906364546162 -0.25934379353391329 0 0.37477580018058132 -0.24095111383496479 0 0.37683953433427181 -0.26882153263446662 0 0.37477580018058132 -0.24095111383496479 0 0.38107906364546162 -0.25934379353391329 0 0.38725375881062551 -0.25185160038302579 0 0.37843581040967561 -0.26746760801825881 0 0.38107906364546162 -0.25934379353391329 0 0.38284686623937531 -0.26497045393317709 0 0.37683953433427181 -0.26882153263446662 0 0.37843581040967561 -0.26746760801825881 0 0.38107906364546162 -0.25934379353391329 0 0.38107906364546162 -0.25934379353391329 0 0.38632261189823958 -0.26200045239958702 0 0.38284686623937531 -0.26497045393317709 0 0.38774772661347989 -0.26664574742688191 0 0.38632261189823958 -0.26200045239958702 0 0.38284686623937531 -0.26497045393317709 0 0.38774772661347989 -0.26664574742688191 0 0.38955528694719099 -0.2630172622662057 0 0.39295554709344072 -0.26445586107842978 0 0.38774772661347989 -0.26664574742688191 0 0.38632261189823958 -0.26200045239958702 0 0.38955528694719099 -0.2630172622662057 0 0.38632261189823958 -0.26200045239958702 0 0.38955528694719099 -0.2630172622662057 0 0.39119526218360401 -0.25896698815992442 0 0.38632261189823958 -0.26200045239958702 0 0.38725375881062551 -0.25185160038302579 0 0.39119526218360401 -0.25896698815992442 0 0.38107906364546162 -0.25934379353391329 0 0.38632261189823958 -0.26200045239958702 0 0.38725375881062551 -0.25185160038302579 0 0.40314688718896508 -0.2619981766022052 0 0.39707581272688741 -0.26613449373937459 0 0.41345304600685079 -0.26440480953867462 0 0.39707581272688741 -0.26613449373937459 0 0.41345304600685079 -0.26440480953867462 0 0.38725375881062551 -0.25185160038302579 0 0.39640803358832022 -0.25154779433757402 0 0.39119526218360401 -0.25896698815992442 0 0.39640803358832022 -0.25154779433757402 0 0.39702034872720737 -0.26014738253762237 0 0.39119526218360401 -0.25896698815992442 0 0.39702034872720737 -0.26014738253762237 0 0.39119526218360401 -0.25896698815992442 0 0.39295554709344072 -0.26445586107842978 0 0.38955528694719099 -0.2630172622662057 0 0.39119526218360401 -0.25896698815992442 0 0.39295554709344072 -0.26445586107842978 0 0.39702034872720737 -0.26014738253762237 0 0.39295554709344072 -0.26445586107842978 0 0.39707581272688741 -0.26613449373937459 0 0.39702034872720737 -0.26014738253762237 0 0.40314688718896508 -0.2619981766022052 0 0.39707581272688741 -0.26613449373937459 0 0.40314688718896508 -0.2619981766022052 0 0.40257909468765629 -0.25704117102420471 0 0.40998094690083942 -0.2590606397541646 0 0.39702034872720737 -0.26014738253762237 0 0.40314688718896508 -0.2619981766022052 0 0.40257909468765629 -0.25704117102420471 0 0.39640803358832022 -0.25154779433757402 0 0.39702034872720737 -0.26014738253762237 0 0.40257909468765629 -0.25704117102420471 0 0.41087794879613182 -0.2494957955088617 0 0.39640803358832022 -0.25154779433757402 0 0.40257909468765629 -0.25704117102420471 0 0.40514250542832608 -0.27022331558021301 0 0.3964002279028962 -0.26984905957103239 0 0.41345304600685079 -0.26440480953867462 0 0.37946114722675722 -0.27591377557629859 0 0.40514250542832608 -0.27022331558021301 0 0.3964002279028962 -0.26984905957103239 0 0.39707581272688741 -0.26613449373937459 0 0.3964002279028962 -0.26984905957103239 0 0.41345304600685079 -0.26440480953867462 0 0.37946114722675722 -0.27591377557629859 0 0.40514250542832608 -0.27022331558021301 0 0.3964002279028962 -0.26984905957103239 0 0.41345304600685079 -0.26440480953867462 0 0.39567659353887108 -0.29306988619604551 0 0.37946114722675722 -0.27591377557629859 0 0.40514250542832608 -0.27022331558021301 0 0.38774772661347989 -0.26664574742688191 0 0.39295554709344072 -0.26445586107842978 0 0.3964002279028962 -0.26984905957103239 0 0.39295554709344072 -0.26445586107842978 0 0.39707581272688741 -0.26613449373937459 0 0.3964002279028962 -0.26984905957103239 0 0.40514250542832608 -0.27022331558021301 0 0.41345304600685079 -0.26440480953867462 0 0.430823863629894 -0.26453285558412298 0 0.40514250542832608 -0.27022331558021301 0 0.430823863629894 -0.26453285558412298 0 0.40514250542832608 -0.27022331558021301 0 0.42166373126508722 -0.27984448092147479 0 0.41160024963212011 -0.28933460066763711 0 0.40514250542832608 -0.27022331558021301 0 0.42166373126508722 -0.27984448092147479 0 0.430823863629894 -0.26453285558412298 0 0.41087794879613182 -0.2494957955088617 0 0.41984775782459283 -0.2623632460968765 0 0.42854038242645709 -0.26281135800815408 0 0.41087794879613182 -0.2494957955088617 0 0.42854038242645709 -0.26281135800815408 0 0.41087794879613182 -0.2494957955088617 0 0.40257909468765629 -0.25704117102420471 0 0.40998094690083942 -0.2590606397541646 0 0.41087794879613182 -0.2494957955088617 0 0.40998094690083942 -0.2590606397541646 0 0.41984775782459283 -0.2623632460968765 0 0.40314688718896508 -0.2619981766022052 0 0.40998094690083942 -0.2590606397541646 0 0.41345304600685079 -0.26440480953867462 0 0.41345304600685079 -0.26440480953867462 0 0.41984775782459283 -0.2623632460968765 0 0.42854038242645709 -0.26281135800815408 0 0.40998094690083942 -0.2590606397541646 0 0.41345304600685079 -0.26440480953867462 0 0.41984775782459283 -0.2623632460968765 0 0.41345304600685079 -0.26440480953867462 0 0.42854038242645709 -0.26281135800815408 0 0.41345304600685079 -0.26440480953867462 0 0.41984775782459283 -0.2623632460968765 0 0.42656562700980838 -0.24831468624349931 0 0.41087794879613182 -0.2494957955088617 0 0.42854038242645709 -0.26281135800815408 0 0.4477486317760534 -0.26078267557717671 0 0.42854038242645709 -0.26281135800815408 0 0.430823863629894 -0.26453285558412298 0 0.41345304600685079 -0.26440480953867462 0 0.42854038242645709 -0.26281135800815408 0 0.430823863629894 -0.26453285558412298 0 0.42854038242645709 -0.26281135800815408 0 0.430823863629894 -0.26453285558412298 0 0.42656562700980838 -0.24831468624349931 0 0.42854038242645709 -0.26281135800815408 0 0.4372088962240912 -0.25169219704383999 0 0.42166373126508722 -0.27984448092147479 0 0.430823863629894 -0.26453285558412298 0 0.43570592202634773 -0.28205449164250063 0 0.42166373126508722 -0.27984448092147479 0 0.43570592202634773 -0.28205449164250063 0 0.42504611560874761 -0.29307714113289868 0 0.43874415768382158 -0.29310671547163403 0 0.43570592202634773 -0.28205449164250063 0 0.42504611560874761 -0.29307714113289868 0 0.43874415768382158 -0.29310671547163403 0 0.42504611560874761 -0.29307714113289868 0 0.43092107089682352 -0.30573631325696571 0 0.41919911313656122 -0.31385112706466711 0 0.43092107089682352 -0.30573631325696571 0 0.41692698488998292 -0.30249561446253759 0 0.42504611560874761 -0.29307714113289868 0 0.43092107089682352 -0.30573631325696571 0 0.41692698488998292 -0.30249561446253759 0 0.41919911313656122 -0.31385112706466711 0 0.41692698488998292 -0.30249561446253759 0 0.40916221757477672 -0.31142054967536659 0 0.40563314249086863 -0.30155395497769039 0 0.41692698488998292 -0.30249561446253759 0 0.40916221757477672 -0.31142054967536659 0 0.40563314249086863 -0.30155395497769039 0 0.41692698488998292 -0.30249561446253759 0 0.41160024963212011 -0.28933460066763711 0 0.42166373126508722 -0.27984448092147479 0 0.42504611560874761 -0.29307714113289868 0 0.41160024963212011 -0.28933460066763711 0 0.42504611560874761 -0.29307714113289868 0 0.41692698488998292 -0.30249561446253759 0 0.41160024963212011 -0.28933460066763711 0 0.5 -0.5 0 0.47532784176218862 -0.47257481327436679 0 0.43264288253940292 -0.48275234633568048 0 0.5 -0.5 0 0.41749257905485199 -0.50000000000000033 0 0.43264288253940292 -0.48275234633568048 0 0.47532784176218862 -0.47257481327436679 0 0.44779318602395363 -0.46550469267136052 0 0.43264288253940292 -0.48275234633568048 0 0.44779318602395363 -0.46550469267136052 0 0.43264288253940292 -0.48275234633568048 0 0.5 -0.5 0 0.47532784176218862 -0.47257481327436679 0 0.49999999999999828 -0.44642064777577001 0 0.47532784176218862 -0.47257481327436679 0 0.47918453573141367 -0.4495963838019249 0 0.46294348950850428 -0.44825703900704061 0 0.47532784176218862 -0.47257481327436679 0 0.49999999999999828 -0.44642064777577001 0 0.47918453573141367 -0.4495963838019249 0 0.49999999999999828 -0.44642064777577001 0 0.47846681165496419 -0.4311330351505217 0 0.49999999999999828 -0.44642064777577001 0 0.47918453573141367 -0.4495963838019249 0 0.47846681165496419 -0.4311330351505217 0 0.47918453573141367 -0.4495963838019249 0 0.46294348950850428 -0.44825703900704061 0 0.47846681165496419 -0.4311330351505217 0 0.46294348950850428 -0.44825703900704061 0 0.44442683605218691 -0.44583817528272968 0 0.45721208074107311 -0.43281318479414382 0 0.46294348950850428 -0.44825703900704061 0 0.44779318602395363 -0.46550469267136052 0 0.47532784176218862 -0.47257481327436679 0 0.46294348950850428 -0.44825703900704061 0 0.44779318602395363 -0.46550469267136052 0 0.44779318602395363 -0.46550469267136052 0 0.44442683605218691 -0.44583817528272968 0 0.43057418754349119 -0.46211781715143319 0 0.46294348950850428 -0.44825703900704061 0 0.44779318602395363 -0.46550469267136052 0 0.44442683605218691 -0.44583817528272968 0 0.44442683605218691 -0.44583817528272968 0 0.44324354583686831 -0.42153379012121539 0 0.45721208074107311 -0.43281318479414382 0 0.44442683605218691 -0.44583817528272968 0 0.44324354583686831 -0.42153379012121539 0 0.42653452723640378 -0.44279137365393179 0 0.44324354583686831 -0.42153379012121539 0 0.45693362330993059 -0.41584542252527262 0 0.45721208074107311 -0.43281318479414382 0 0.45693362330993059 -0.41584542252527262 0 0.4354004349648965 -0.40055780990002432 0 0.44324354583686831 -0.42153379012121539 0 0.45693362330993059 -0.41584542252527262 0 0.4354004349648965 -0.40055780990002432 0 0.45693362330993059 -0.41584542252527262 0 0.46461049463358839 -0.41117161714406408 0 0.47846681165496419 -0.4311330351505217 0 0.45693362330993059 -0.41584542252527262 0 0.46461049463358839 -0.41117161714406408 0 0.45329728287846061 -0.39963099679296588 0 0.46294348950850428 -0.44825703900704061 0 0.45721208074107311 -0.43281318479414382 0 0.47846681165496419 -0.4311330351505217 0 0.45693362330993059 -0.41584542252527262 0 0.45721208074107311 -0.43281318479414382 0 0.47846681165496419 -0.4311330351505217 0 0.45693362330993059 -0.41584542252527262 0 0.47846681165496419 -0.4311330351505217 0 0.49999999999999828 -0.44642064777577001 0 0.47846681165496419 -0.4311330351505217 0 0.5 -0.42181653977348488 0 0.5 -0.42181653977348488 0 0.48394518954555588 -0.41195106762427058 0 0.49999999999999789 -0.3972124317711998 0 0.47846681165496419 -0.4311330351505217 0 0.5 -0.42181653977348488 0 0.48394518954555588 -0.41195106762427058 0 0.46461049463358839 -0.41117161714406408 0 0.47846681165496419 -0.4311330351505217 0 0.48394518954555588 -0.41195106762427058 0 0.46461049463358839 -0.41117161714406408 0 0.48394518954555588 -0.41195106762427058 0 0.47664864143922919 -0.39842171428208217 0 0.47664864143922919 -0.39842171428208217 0 0.47975395238035062 -0.3854291032725421 0 0.46812846895096999 -0.38912968091376021 0 0.47664864143922919 -0.39842171428208217 0 0.49999999999999789 -0.3972124317711998 0 0.48779058149940679 -0.38751051868815611 0 0.48394518954555588 -0.41195106762427058 0 0.47664864143922919 -0.39842171428208217 0 0.49999999999999789 -0.3972124317711998 0 0.47664864143922919 -0.39842171428208217 0 0.49999999999999789 -0.3972124317711998 0 0.5 -0.37037944899495368 0 0.49999999999999789 -0.3972124317711998 0 0.48779058149940679 -0.38751051868815611 0 0.5 -0.37037944899495368 0 0.48466784746851571 -0.3739080713738358 0 0.48779058149940679 -0.38751051868815611 0 0.48466784746851571 -0.3739080713738358 0 0.47975395238035062 -0.3854291032725421 0 0.47323517146124039 -0.38191256761527542 0 0.48466784746851571 -0.3739080713738358 0 0.48779058149940679 -0.38751051868815611 0 0.47975395238035062 -0.3854291032725421 0 0.47664864143922919 -0.39842171428208217 0 0.48779058149940679 -0.38751051868815611 0 0.47975395238035062 -0.3854291032725421 0 0.47975395238035062 -0.3854291032725421 0 0.47323517146124039 -0.38191256761527542 0 0.46812846895096999 -0.38912968091376021 0 0.46918642870160698 -0.38365020197922722 0 0.47323517146124039 -0.38191256761527542 0 0.46812846895096999 -0.38912968091376021 0 0.4671179630262795 -0.37324494563770522 0 0.46918642870160698 -0.38365020197922722 0 0.47323517146124039 -0.38191256761527542 0 0.45652460043480969 -0.37267172771365881 0 0.4671179630262795 -0.37324494563770522 0 0.46918642870160698 -0.38365020197922722 0 0.45652460043480969 -0.37267172771365881 0 0.46918642870160698 -0.38365020197922722 0 0.45652460043480969 -0.37267172771365881 0 0.45606522570456098 -0.38599652494351028 0 0.44783900322824399 -0.38008781189722518 0 0.45652460043480969 -0.37267172771365881 0 0.46918642870160698 -0.38365020197922722 0 0.45606522570456098 -0.38599652494351028 0 0.46918642870160698 -0.38365020197922722 0 0.45606522570456098 -0.38599652494351028 0 0.46812846895096999 -0.38912968091376021 0 0.46461049463358839 -0.41117161714406408 0 0.47664864143922919 -0.39842171428208217 0 0.45329728287846061 -0.39963099679296588 0 0.47664864143922919 -0.39842171428208217 0 0.45329728287846061 -0.39963099679296588 0 0.47664864143922919 -0.39842171428208217 0 0.46812846895096999 -0.38912968091376021 0 0.45329728287846061 -0.39963099679296588 0 0.46461049463358839 -0.41117161714406408 0 0.45329728287846061 -0.39963099679296588 0 0.45606522570456098 -0.38599652494351028 0 0.46812846895096999 -0.38912968091376021 0 0.45329728287846061 -0.39963099679296588 0 0.45693362330993059 -0.41584542252527262 0 0.45329728287846061 -0.39963099679296588 0 0.4354004349648965 -0.40055780990002432 0 0.45329728287846061 -0.39963099679296588 0 0.4354004349648965 -0.40055780990002432 0 0.45329728287846061 -0.39963099679296588 0 0.4390969294492823 -0.3851451998924304 0 0.4354004349648965 -0.40055780990002432 0 0.45329728287846061 -0.39963099679296588 0 0.4390969294492823 -0.3851451998924304 0 0.45606522570456098 -0.38599652494351028 0 0.4390969294492823 -0.3851451998924304 0 0.44783900322824399 -0.38008781189722518 0 0.45606522570456098 -0.38599652494351028 0 0.45329728287846061 -0.39963099679296588 0 0.4390969294492823 -0.3851451998924304 0 0.4390969294492823 -0.3851451998924304 0 0.43808065797110041 -0.37748478958974491 0 0.44783900322824399 -0.38008781189722518 0 0.42782015831496062 -0.38505662608606978 0 0.4354004349648965 -0.40055780990002432 0 0.41188669282555868 -0.38386409155992901 0 0.42489657602010461 -0.37065940299189432 0 0.4390969294492823 -0.3851451998924304 0 0.42782015831496062 -0.38505662608606978 0 0.42489657602010461 -0.37065940299189432 0 0.4390969294492823 -0.3851451998924304 0 0.43808065797110041 -0.37748478958974491 0 0.42489657602010461 -0.37065940299189432 0 0.4390969294492823 -0.3851451998924304 0 0.4390969294492823 -0.3851451998924304 0 0.42782015831496062 -0.38505662608606978 0 0.4354004349648965 -0.40055780990002432 0 0.4354004349648965 -0.40055780990002432 0 0.41188669282555868 -0.38386409155992901 0 0.4354004349648965 -0.40055780990002432 0 0.40669862042327182 -0.40204417319942209 0 0.4354004349648965 -0.40055780990002432 0 0.40669862042327182 -0.40204417319942209 0 0.41188669282555868 -0.38386409155992901 0 0.42489657602010461 -0.37065940299189432 0 0.42782015831496062 -0.38505662608606978 0 0.41188669282555868 -0.38386409155992901 0 0.42489657602010461 -0.37065940299189432 0 0.4070765621089808 -0.37107032214525337 0 0.41188669282555868 -0.38386409155992901 0 0.4070765621089808 -0.37107032214525337 0 0.39585190457779329 -0.37201308858561799 0 0.39886607975096749 -0.38470810625682389 0 0.40669862042327182 -0.40204417319942209 0 0.41188669282555868 -0.38386409155992901 0 0.39886607975096749 -0.38470810625682389 0 0.4070765621089808 -0.37107032214525337 0 0.41188669282555868 -0.38386409155992901 0 0.39886607975096749 -0.38470810625682389 0 0.39585190457779329 -0.37201308858561799 0 0.39886607975096749 -0.38470810625682389 0 0.38601585554704992 -0.38244526212700758 0 0.39886607975096749 -0.38470810625682389 0 0.38601585554704992 -0.38244526212700758 0 0.37799680588164719 -0.40353053649882148 0 0.38601585554704992 -0.38244526212700758 0 0.37799680588164719 -0.40353053649882148 0 0.38601585554704992 -0.38244526212700758 0 0.37799680588164719 -0.40353053649882148 0 0.36816388811638329 -0.39545065246060412 0 0.37799680588164719 -0.40353053649882148 0 0.37635446215448021 -0.40784891206015261 0 0.37799680588164719 -0.40353053649882148 0 0.37505152225636262 -0.40368306209891941 0 0.37635446215448021 -0.40784891206015261 0 0.37799680588164719 -0.40353053649882148 0 0.37505152225636262 -0.40368306209891941 0 0.40669862042327182 -0.40204417319942209 0 0.39886607975096749 -0.38470810625682389 0 0.37799680588164719 -0.40353053649882148 0 0.40669862042327182 -0.40204417319942209 0 0.37799680588164719 -0.40353053649882148 0 0.40669862042327182 -0.40204417319942209 0 0.38553791301154328 -0.41840677215457472 0 0.40567792500840172 -0.4277251834563135 0 0.40669862042327182 -0.40204417319942209 0 0.37799680588164719 -0.40353053649882148 0 0.38553791301154328 -0.41840677215457472 0 0.38553791301154328 -0.41840677215457472 0 0.36905142820508552 -0.42917232846767789 0 0.37241381966677689 -0.417360225696081 0 0.38553791301154328 -0.41840677215457472 0 0.37635446215448021 -0.40784891206015261 0 0.37241381966677689 -0.417360225696081 0 0.37799680588164719 -0.40353053649882148 0 0.38553791301154328 -0.41840677215457472 0 0.37635446215448021 -0.40784891206015261 0 0.38553791301154328 -0.41840677215457472 0 0.38807715457860831 -0.4388905332329941 0 0.36905142820508552 -0.42917232846767789 0 0.38553791301154328 -0.41840677215457472 0 0.40567792500840172 -0.4277251834563135 0 0.38807715457860831 -0.4388905332329941 0 0.40567792500840172 -0.4277251834563135 0 0.42351101069396863 -0.41893046606618117 0 0.42653452723640378 -0.44279137365393179 0 0.4354004349648965 -0.40055780990002432 0 0.40669862042327182 -0.40204417319942209 0 0.42351101069396863 -0.41893046606618117 0 0.40669862042327182 -0.40204417319942209 0 0.40567792500840172 -0.4277251834563135 0 0.42351101069396863 -0.41893046606618117 0 0.44324354583686831 -0.42153379012121539 0 0.4354004349648965 -0.40055780990002432 0 0.42351101069396863 -0.41893046606618117 0 0.44324354583686831 -0.42153379012121539 0 0.42653452723640378 -0.44279137365393179 0 0.44324354583686831 -0.42153379012121539 0 0.42351101069396863 -0.41893046606618117 0 0.42653452723640378 -0.44279137365393179 0 0.44442683605218691 -0.44583817528272968 0 0.42653452723640378 -0.44279137365393179 0 0.43057418754349119 -0.46211781715143319 0 0.42653452723640378 -0.44279137365393179 0 0.43057418754349119 -0.46211781715143319 0 0.40982550863593931 -0.46404895718664829 0 0.42653452723640378 -0.44279137365393179 0 0.40982550863593931 -0.46404895718664829 0 0.42653452723640378 -0.44279137365393179 0 0.40982550863593931 -0.46404895718664829 0 0.4036378289262339 -0.44671034290208689 0 0.40567792500840172 -0.4277251834563135 0 0.42653452723640378 -0.44279137365393179 0 0.4036378289262339 -0.44671034290208689 0 0.40567792500840172 -0.4277251834563135 0 0.4036378289262339 -0.44671034290208689 0 0.38807715457860831 -0.4388905332329941 0 0.4036378289262339 -0.44671034290208689 0 0.38807715457860831 -0.4388905332329941 0 0.38807402917181633 -0.46009566698054732 0 0.38807715457860831 -0.4388905332329941 0 0.3733961412993268 -0.45022493016754961 0 0.36905142820508552 -0.42917232846767789 0 0.38807715457860831 -0.4388905332329941 0 0.38807402917181633 -0.46009566698054732 0 0.3733961412993268 -0.45022493016754961 0 0.38807402917181633 -0.46009566698054732 0 0.36593927904035028 -0.47432204071884282 0 0.3733961412993268 -0.45022493016754961 0 0.40982550863593931 -0.46404895718664829 0 0.4036378289262339 -0.44671034290208689 0 0.38807402917181633 -0.46009566698054732 0 0.40982550863593931 -0.46404895718664829 0 0.39311649003547477 -0.48530654071936469 0 0.40982550863593931 -0.46404895718664829 0 0.38807402917181633 -0.46009566698054732 0 0.39311649003547477 -0.48530654071936469 0 0.38807402917181633 -0.46009566698054732 0 0.39311649003547477 -0.48530654071936469 0 0.36593927904035028 -0.47432204071884282 0 0.37603974257992701 -0.49999999999999978 0 0.39311649003547477 -0.48530654071936469 0 0.36593927904035028 -0.47432204071884282 0 0.37603974257992701 -0.49999999999999978 0 0.39676616081738958 -0.5 0 0.39311649003547477 -0.48530654071936469 0 0.39676616081738958 -0.5 0 0.39311649003547477 -0.48530654071936469 0 0.41749257905485199 -0.50000000000000033 0 0.40982550863593931 -0.46404895718664829 0 0.41749257905485199 -0.50000000000000033 0 0.43264288253940292 -0.48275234633568048 0 0.40982550863593931 -0.46404895718664829 0 0.39311649003547477 -0.48530654071936469 0 0.41749257905485199 -0.50000000000000033 0 0.43057418754349119 -0.46211781715143319 0 0.40982550863593931 -0.46404895718664829 0 0.43264288253940292 -0.48275234633568048 0 0.44779318602395363 -0.46550469267136052 0 0.43057418754349119 -0.46211781715143319 0 0.43264288253940292 -0.48275234633568048 0 0.41749257905485199 -0.50000000000000033 0 0.43264288253940292 -0.48275234633568048 0 0.32215468257820618 -0.5 0 0.33760568703239408 -0.47417818032706111 0 0.31005432530219129 -0.48106067464861729 0 0.33760568703239408 -0.47417818032706111 0 0.3189449745883719 -0.46117016543644002 0 0.31005432530219129 -0.48106067464861729 0 0.32215468257820618 -0.5 0 0.33760568703239408 -0.47417818032706111 0 0.34909721257906662 -0.5 0 0.37603974257992701 -0.49999999999999978 0 0.34909721257906662 -0.5 0 0.36593927904035028 -0.47432204071884282 0 0.37603974257992701 -0.49999999999999978 0 0.36593927904035028 -0.47432204071884282 0 0.33760568703239408 -0.47417818032706111 0 0.34909721257906662 -0.5 0 0.36593927904035028 -0.47432204071884282 0 0.33760568703239408 -0.47417818032706111 0 0.36593927904035028 -0.47432204071884282 0 0.35583881550077368 -0.44864408143768569 0 0.36593927904035028 -0.47432204071884282 0 0.35583881550077368 -0.44864408143768569 0 0.36593927904035028 -0.47432204071884282 0 0.3733961412993268 -0.45022493016754961 0 0.35583881550077368 -0.44864408143768569 0 0.3733961412993268 -0.45022493016754961 0 0.35583881550077368 -0.44864408143768569 0 0.36905142820508552 -0.42917232846767789 0 0.35583881550077368 -0.44864408143768569 0 0.33540415989768779 -0.44905252560006492 0 0.34573835196119679 -0.42296612215652868 0 0.33760568703239408 -0.47417818032706111 0 0.35583881550077368 -0.44864408143768569 0 0.33540415989768779 -0.44905252560006492 0 0.33760568703239408 -0.47417818032706111 0 0.33540415989768779 -0.44905252560006492 0 0.3189449745883719 -0.46117016543644002 0 0.33540415989768779 -0.44905252560006492 0 0.3189449745883719 -0.46117016543644002 0 0.32126124445813709 -0.43429719032362252 0 0.3189449745883719 -0.46117016543644002 0 0.32126124445813709 -0.43429719032362252 0 0.30480654487456732 -0.44641521679941309 0 0.32126124445813709 -0.43429719032362252 0 0.3193156137706864 -0.40941365839269389 0 0.29937418247959258 -0.41817563384508599 0 0.3193156137706864 -0.40941365839269389 0 0.34573835196119679 -0.42296612215652868 0 0.33563788842162012 -0.39728816287537172 0 0.34573835196119679 -0.42296612215652868 0 0.33563788842162012 -0.39728816287537172 0 0.33540415989768779 -0.44905252560006492 0 0.32126124445813709 -0.43429719032362252 0 0.34573835196119679 -0.42296612215652868 0 0.32126124445813709 -0.43429719032362252 0 0.3193156137706864 -0.40941365839269389 0 0.34573835196119679 -0.42296612215652868 0 0.35583881550077368 -0.44864408143768569 0 0.34573835196119679 -0.42296612215652868 0 0.36905142820508552 -0.42917232846767789 0 0.35583881550077368 -0.44864408143768569 0 0.34573835196119679 -0.42296612215652868 0 0.36905142820508552 -0.42917232846767789 0 0.37241381966677689 -0.417360225696081 0 0.36195200988480669 -0.41065981681110758 0 0.36990343230398692 -0.40830781576793279 0 0.37241381966677689 -0.417360225696081 0 0.36195200988480669 -0.41065981681110758 0 0.37635446215448021 -0.40784891206015261 0 0.36990343230398692 -0.40830781576793279 0 0.37241381966677689 -0.417360225696081 0 0.37505152225636262 -0.40368306209891941 0 0.37635446215448021 -0.40784891206015261 0 0.36990343230398692 -0.40830781576793279 0 0.36990343230398692 -0.40830781576793279 0 0.36195200988480669 -0.41065981681110758 0 0.36876771314038492 -0.40452533678464098 0 0.34573835196119679 -0.42296612215652868 0 0.36195200988480669 -0.41065981681110758 0 0.35211107663302149 -0.40015425695529971 0 0.34573835196119679 -0.42296612215652868 0 0.36905142820508552 -0.42917232846767789 0 0.36195200988480669 -0.41065981681110758 0 0.34573835196119679 -0.42296612215652868 0 0.35211107663302149 -0.40015425695529971 0 0.33563788842162012 -0.39728816287537172 0 0.35211107663302149 -0.40015425695529971 0 0.35352794608594401 -0.38791341326287138 0 0.33563788842162012 -0.39728816287537172 0 0.35211107663302149 -0.40015425695529971 0 0.36816388811638329 -0.39545065246060412 0 0.35352794608594401 -0.38791341326287138 0 0.36195200988480669 -0.41065981681110758 0 0.36816388811638329 -0.39545065246060412 0 0.36876771314038492 -0.40452533678464098 0 0.36195200988480669 -0.41065981681110758 0 0.35211107663302149 -0.40015425695529971 0 0.36816388811638329 -0.39545065246060412 0 0.37505152225636262 -0.40368306209891941 0 0.36816388811638329 -0.39545065246060412 0 0.36876771314038492 -0.40452533678464098 0 0.37799680588164719 -0.40353053649882148 0 0.37505152225636262 -0.40368306209891941 0 0.36816388811638329 -0.39545065246060412 0 0.37505152225636262 -0.40368306209891941 0 0.36990343230398692 -0.40830781576793279 0 0.36876771314038492 -0.40452533678464098 0 0.38601585554704992 -0.38244526212700758 0 0.36816388811638329 -0.39545065246060412 0 0.3689120952668708 -0.37284951495870189 0 0.36816388811638329 -0.39545065246060412 0 0.35352794608594401 -0.38791341326287138 0 0.3689120952668708 -0.37284951495870189 0 0.35352794608594401 -0.38791341326287138 0 0.33563788842162012 -0.39728816287537172 0 0.34467783115022588 -0.37252705130409253 0 0.35352794608594401 -0.38791341326287138 0 0.3689120952668708 -0.37284951495870189 0 0.34467783115022588 -0.37252705130409253 0 0.33563788842162012 -0.39728816287537172 0 0.3255374248820434 -0.37161020359421471 0 0.33563788842162012 -0.39728816287537172 0 0.34467783115022588 -0.37252705130409253 0 0.3255374248820434 -0.37161020359421471 0 0.3193156137706864 -0.40941365839269389 0 0.33563788842162012 -0.39728816287537172 0 0.30534853388527528 -0.38930881101125692 0 0.33563788842162012 -0.39728816287537172 0 0.30534853388527528 -0.38930881101125692 0 0.3255374248820434 -0.37161020359421471 0 0.30534853388527528 -0.38930881101125692 0 0.3255374248820434 -0.37161020359421471 0 0.30525369772634148 -0.37164386163485291 0 0.30534853388527528 -0.38930881101125692 0 0.28783989868818821 -0.37644057584389279 0 0.30525369772634148 -0.37164386163485291 0 0.3193156137706864 -0.40941365839269389 0 0.30534853388527528 -0.38930881101125692 0 0.29937418247959258 -0.41817563384508599 0 0.30534853388527528 -0.38930881101125692 0 0.28922044672054198 -0.39637746652331562 0 0.29937418247959258 -0.41817563384508599 0 0.28922044672054198 -0.39637746652331562 0 0.27510086349567708 -0.39798721671617321 0 0.28320928432356041 -0.41012407252970262 0 0.28922044672054198 -0.39637746652331562 0 0.28783989868818821 -0.37644057584389279 0 0.27924907625512951 -0.38731579260330862 0 0.30534853388527528 -0.38930881101125692 0 0.28922044672054198 -0.39637746652331562 0 0.28783989868818821 -0.37644057584389279 0 0.30534853388527528 -0.38930881101125692 0 0.28783989868818821 -0.37644057584389279 0 0.28783989868818821 -0.37644057584389279 0 0.27447250226623809 -0.37821124143188289 0 0.27924907625512951 -0.38731579260330862 0 0.27447250226623809 -0.37821124143188289 0 0.27924907625512951 -0.38731579260330862 0 0.26961167010500181 -0.38756246250127813 0 0.27447250226623809 -0.37821124143188289 0 0.26961167010500181 -0.38756246250127813 0 0.26423397132697279 -0.37890457124200982 0 0.26961167010500181 -0.38756246250127813 0 0.26423397132697279 -0.37890457124200982 0 0.25687819372407023 -0.38903915957053298 0 0.26423397132697279 -0.37890457124200982 0 0.25687819372407023 -0.38903915957053298 0 0.24987622704845311 -0.37613765202982719 0 0.25108303853213881 -0.40002667887407228 0 0.26390234922262928 -0.39930308446362528 0 0.256136481120742 -0.41447562176841068 0 0.25687819372407023 -0.38903915957053298 0 0.25108303853213881 -0.40002667887407228 0 0.24309899287842279 -0.39271330151873202 0 0.25687819372407023 -0.38903915957053298 0 0.25108303853213881 -0.40002667887407228 0 0.26390234922262928 -0.39930308446362528 0 0.26961167010500181 -0.38756246250127813 0 0.25687819372407023 -0.38903915957053298 0 0.26390234922262928 -0.39930308446362528 0 0.26390234922262928 -0.39930308446362528 0 0.27510086349567708 -0.39798721671617321 0 0.2708804648698091 -0.41009655218672442 0 0.26961167010500181 -0.38756246250127813 0 0.26390234922262928 -0.39930308446362528 0 0.27510086349567708 -0.39798721671617321 0 0.28922044672054198 -0.39637746652331562 0 0.27924907625512951 -0.38731579260330862 0 0.27510086349567708 -0.39798721671617321 0 0.27924907625512951 -0.38731579260330862 0 0.26961167010500181 -0.38756246250127813 0 0.27510086349567708 -0.39798721671617321 0 0.27510086349567708 -0.39798721671617321 0 0.2708804648698091 -0.41009655218672442 0 0.28320928432356041 -0.41012407252970262 0 0.2708804648698091 -0.41009655218672442 0 0.256136481120742 -0.41447562176841068 0 0.27433621812851161 -0.42550461519375637 0 0.2708804648698091 -0.41009655218672442 0 0.27433621812851161 -0.42550461519375637 0 0.28320928432356041 -0.41012407252970262 0 0.26390234922262928 -0.39930308446362528 0 0.2708804648698091 -0.41009655218672442 0 0.256136481120742 -0.41447562176841068 0 0.25108303853213881 -0.40002667887407228 0 0.256136481120742 -0.41447562176841068 0 0.24629253832767661 -0.41022035877505542 0 0.256136481120742 -0.41447562176841068 0 0.25513396950241118 -0.43290986753561628 0 0.2453827316299185 -0.42192330194190181 0 0.256136481120742 -0.41447562176841068 0 0.25513396950241118 -0.43290986753561628 0 0.27433621812851161 -0.42550461519375637 0 0.25513396950241118 -0.43290986753561628 0 0.27433621812851161 -0.42550461519375637 0 0.26752346795397081 -0.44788636482661331 0 0.27433621812851161 -0.42550461519375637 0 0.29937418247959258 -0.41817563384508599 0 0.28546596250580908 -0.44246723239800262 0 0.29937418247959258 -0.41817563384508599 0 0.30480654487456732 -0.44641521679941309 0 0.28546596250580908 -0.44246723239800262 0 0.28922044672054198 -0.39637746652331562 0 0.28320928432356041 -0.41012407252970262 0 0.29937418247959258 -0.41817563384508599 0 0.27433621812851161 -0.42550461519375637 0 0.28320928432356041 -0.41012407252970262 0 0.29937418247959258 -0.41817563384508599 0 0.32126124445813709 -0.43429719032362252 0 0.29937418247959258 -0.41817563384508599 0 0.30480654487456732 -0.44641521679941309 0 0.3189449745883719 -0.46117016543644002 0 0.30480654487456732 -0.44641521679941309 0 0.28880919487484108 -0.4658549053918814 0 0.30480654487456732 -0.44641521679941309 0 0.28880919487484108 -0.4658549053918814 0 0.28546596250580908 -0.44246723239800262 0 0.27433621812851161 -0.42550461519375637 0 0.28546596250580908 -0.44246723239800262 0 0.26752346795397081 -0.44788636482661331 0 0.28880919487484108 -0.4658549053918814 0 0.28546596250580908 -0.44246723239800262 0 0.26752346795397081 -0.44788636482661331 0 0.25513396950241118 -0.43290986753561628 0 0.26752346795397081 -0.44788636482661331 0 0.24480843210435321 -0.45079661158300749 0 0.26752346795397081 -0.44788636482661331 0 0.2588368117714554 -0.46700690363883102 0 0.24480843210435321 -0.45079661158300749 0 0.28880919487484108 -0.4658549053918814 0 0.26752346795397081 -0.44788636482661331 0 0.2588368117714554 -0.46700690363883102 0 0.28880919487484108 -0.4658549053918814 0 0.2588368117714554 -0.46700690363883102 0 0.27227655507569209 -0.48076744006000099 0 0.2588368117714554 -0.46700690363883102 0 0.27227655507569209 -0.48076744006000099 0 0.25270961841775552 -0.48460016746525392 0 0.2588368117714554 -0.46700690363883102 0 0.25270961841775552 -0.48460016746525392 0 0.23949561189523169 -0.47426551941090739 0 0.25270961841775552 -0.48460016746525392 0 0.26826962257648529 -0.5 0 0.2413270925756249 -0.5 0 0.27227655507569209 -0.48076744006000099 0 0.25270961841775552 -0.48460016746525392 0 0.26826962257648529 -0.5 0 0.27227655507569209 -0.48076744006000099 0 0.26826962257648529 -0.5 0 0.29521215257734579 -0.5 0 0.28880919487484108 -0.4658549053918814 0 0.27227655507569209 -0.48076744006000099 0 0.29521215257734579 -0.5 0 0.28880919487484108 -0.4658549053918814 0 0.29521215257734579 -0.5 0 0.31005432530219129 -0.48106067464861729 0 0.3189449745883719 -0.46117016543644002 0 0.28880919487484108 -0.4658549053918814 0 0.31005432530219129 -0.48106067464861729 0 0.32215468257820618 -0.5 0 0.29521215257734579 -0.5 0 0.31005432530219129 -0.48106067464861729 0 0.33463237856908817 -0.28956894479377399 0 0.33485830675890288 -0.30442904333306592 0 0.35657459314761941 -0.2860097891906741 0 0.33463237856908817 -0.28956894479377399 0 0.32894302133540282 -0.28710755170783531 0 0.35195887039823659 -0.28200771363307098 0 0.32894302133540282 -0.28710755170783531 0 0.35195887039823659 -0.28200771363307098 0 0.32894302133540282 -0.28710755170783531 0 0.33255663915089151 -0.29722249741805129 0 0.33463237856908817 -0.28956894479377399 0 0.32894302133540282 -0.28710755170783531 0 0.33255663915089151 -0.29722249741805129 0 0.32894302133540282 -0.28710755170783531 0 0.33255663915089151 -0.29722249741805129 0 0.32301709761150521 -0.2972128627914089 0 0.33485830675890288 -0.30442904333306592 0 0.34824447571033601 -0.30253517369681238 0 0.34533870308018377 -0.31598934501886372 0 0.33485830675890288 -0.30442904333306592 0 0.33255663915089151 -0.29722249741805129 0 0.32434770264142349 -0.30499280498860082 0 0.33463237856908817 -0.28956894479377399 0 0.33485830675890288 -0.30442904333306592 0 0.33255663915089151 -0.29722249741805129 0 0.32301709761150521 -0.2972128627914089 0 0.32434770264142349 -0.30499280498860082 0 0.3171485971304504 -0.30589952111326829 0 0.32434770264142349 -0.30499280498860082 0 0.3171485971304504 -0.30589952111326829 0 0.31314202037018413 -0.32284829747545468 0 0.33485830675890288 -0.30442904333306592 0 0.32434770264142349 -0.30499280498860082 0 0.31314202037018413 -0.32284829747545468 0 0.33255663915089151 -0.29722249741805129 0 0.32301709761150521 -0.2972128627914089 0 0.32434770264142349 -0.30499280498860082 0 0.3171485971304504 -0.30589952111326829 0 0.31208952779935789 -0.2908419387292881 0 0.30833746379913463 -0.30503745501229762 0 0.32301709761150521 -0.2972128627914089 0 0.3171485971304504 -0.30589952111326829 0 0.31208952779935789 -0.2908419387292881 0 0.32894302133540282 -0.28710755170783531 0 0.31611371382327402 -0.28007222207304999 0 0.31208952779935789 -0.2908419387292881 0 0.32894302133540282 -0.28710755170783531 0 0.32301709761150521 -0.2972128627914089 0 0.31208952779935789 -0.2908419387292881 0 0.32894302133540282 -0.28710755170783531 0 0.31208952779935789 -0.2908419387292881 0 0.32894302133540282 -0.28710755170783531 0 0.32245882367699719 -0.26895751187574157 0 0.32894302133540282 -0.28710755170783531 0 0.31611371382327402 -0.28007222207304999 0 0.32245882367699719 -0.26895751187574157 0 0.31611371382327402 -0.28007222207304999 0 0.32245882367699719 -0.26895751187574157 0 0.30706455279928557 -0.27339796693147528 0 0.32245882367699719 -0.26895751187574157 0 0.30981211567343969 -0.26250129009931661 0 0.30706455279928557 -0.27339796693147528 0 0.32245882367699719 -0.26895751187574157 0 0.31597462601859122 -0.25080747204364812 0 0.32245882367699719 -0.26895751187574157 0 0.31597462601859122 -0.25080747204364812 0 0.30981211567343969 -0.26250129009931661 0 0.32245882367699719 -0.26895751187574157 0 0.31597462601859122 -0.25080747204364812 0 0.33396674820841349 -0.26640759283836002 0 0.31597462601859122 -0.25080747204364812 0 0.33396674820841349 -0.26640759283836002 0 0.33517615116993849 -0.24743488902137309 0 0.33396674820841349 -0.26640759283836002 0 0.35185333732921159 -0.25428502110151557 0 0.33517615116993849 -0.24743488902137309 0 0.31597462601859122 -0.25080747204364812 0 0.33396674820841349 -0.26640759283836002 0 0.32894302133540282 -0.28710755170783531 0 0.32245882367699719 -0.26895751187574157 0 0.33396674820841349 -0.26640759283836002 0 0.33396674820841349 -0.26640759283836002 0 0.35195887039823659 -0.28200771363307098 0 0.32894302133540282 -0.28710755170783531 0 0.33396674820841349 -0.26640759283836002 0 0.35195887039823659 -0.28200771363307098 0 0.33396674820841349 -0.26640759283836002 0 0.35159414215374007 -0.26901089914998932 0 0.35195887039823659 -0.28200771363307098 0 0.35159414215374007 -0.26901089914998932 0 0.36459381448795669 -0.2792080702757721 0 0.35195887039823659 -0.28200771363307098 0 0.36459381448795669 -0.2792080702757721 0 0.35195887039823659 -0.28200771363307098 0 0.33396674820841349 -0.26640759283836002 0 0.35159414215374007 -0.26901089914998932 0 0.35185333732921159 -0.25428502110151557 0 0.35159414215374007 -0.26901089914998932 0 0.35185333732921159 -0.25428502110151557 0 0.36435388824524378 -0.26651308148643732 0 0.37477580018058132 -0.24095111383496479 0 0.37683953433427181 -0.26882153263446662 0 0.36563983252638571 -0.25462703483095822 0 0.36075586336603621 -0.2426037127049111 0 0.35185333732921159 -0.25428502110151557 0 0.36563983252638571 -0.25462703483095822 0 0.35185333732921159 -0.25428502110151557 0 0.36563983252638571 -0.25462703483095822 0 0.36435388824524378 -0.26651308148643732 0 0.37683953433427181 -0.26882153263446662 0 0.36563983252638571 -0.25462703483095822 0 0.36435388824524378 -0.26651308148643732 0 0.36459381448795669 -0.2792080702757721 0 0.36308990924476459 -0.28048364807874221 0 0.35195887039823659 -0.28200771363307098 0 0.36459381448795669 -0.2792080702757721 0 0.36308990924476459 -0.28048364807874221 0 0.37273728942595791 -0.27740364396778311 0 0.36459381448795669 -0.2792080702757721 0 0.36308990924476459 -0.28048364807874221 0 0.35159414215374007 -0.26901089914998932 0 0.36459381448795669 -0.2792080702757721 0 0.36435388824524378 -0.26651308148643732 0 0.37683953433427181 -0.26882153263446662 0 0.36459381448795669 -0.2792080702757721 0 0.36435388824524378 -0.26651308148643732 0 0.36459381448795669 -0.2792080702757721 0 0.37273728942595791 -0.27740364396778311 0 0.37683953433427181 -0.26882153263446662 0 0.36459381448795669 -0.2792080702757721 0 0.37273728942595791 -0.27740364396778311 0 0.37683953433427181 -0.26882153263446662 0 0.36459381448795669 -0.2792080702757721 0 0.36308990924476459 -0.28048364807874221 0 0.37273728942595791 -0.27740364396778311 0 0.37795999762798671 -0.28395322059410122 0 0.37273728942595791 -0.27740364396778311 0 0.36936745264149701 -0.28627283508716472 0 0.35657459314761941 -0.2860097891906741 0 0.35620629985463748 -0.30371251724464648 0 0.37101427446782781 -0.29852975601036341 0 0.36308990924476459 -0.28048364807874221 0 0.37273728942595791 -0.27740364396778311 0 0.36936745264149701 -0.28627283508716472 0 0.37519981906117678 -0.29055939022370142 0 0.37795999762798671 -0.28395322059410122 0 0.36936745264149701 -0.28627283508716472 0 0.37519981906117678 -0.29055939022370142 0 0.36936745264149701 -0.28627283508716472 0 0.37101427446782781 -0.29852975601036341 0 0.36936745264149701 -0.28627283508716472 0 0.35657459314761941 -0.2860097891906741 0 0.37101427446782781 -0.29852975601036341 0 0.35657459314761941 -0.2860097891906741 0 0.37101427446782781 -0.29852975601036341 0 0.36308990924476459 -0.28048364807874221 0 0.36936745264149701 -0.28627283508716472 0 0.35657459314761941 -0.2860097891906741 0 0.36308990924476459 -0.28048364807874221 0 0.35657459314761941 -0.2860097891906741 0 0.36308990924476459 -0.28048364807874221 0 0.35366972758071469 -0.28349111722646431 0 0.33463237856908817 -0.28956894479377399 0 0.35366972758071469 -0.28349111722646431 0 0.33463237856908817 -0.28956894479377399 0 0.35366972758071469 -0.28349111722646431 0 0.35195887039823659 -0.28200771363307098 0 0.36308990924476459 -0.28048364807874221 0 0.35366972758071469 -0.28349111722646431 0 0.35195887039823659 -0.28200771363307098 0 0.33485830675890288 -0.30442904333306592 0 0.35657459314761941 -0.2860097891906741 0 0.36308990924476459 -0.28048364807874221 0 0.35366972758071469 -0.28349111722646431 0 0.35657459314761941 -0.2860097891906741 0 0.33463237856908817 -0.28956894479377399 0 0.35366972758071469 -0.28349111722646431 0 0.35657459314761941 -0.2860097891906741 0 0.35366972758071469 -0.28349111722646431 0 0.35657459314761941 -0.2860097891906741 0 0.35366972758071469 -0.28349111722646431 0 0.35195887039823659 -0.28200771363307098 0 0.35620629985463748 -0.30371251724464648 0 0.36380134767337091 -0.31365371592763602 0 0.34533870308018377 -0.31598934501886372 0 0.35657459314761941 -0.2860097891906741 0 0.34824447571033601 -0.30253517369681238 0 0.35620629985463748 -0.30371251724464648 0 0.33485830675890288 -0.30442904333306592 0 0.35657459314761941 -0.2860097891906741 0 0.34824447571033601 -0.30253517369681238 0 0.34824447571033601 -0.30253517369681238 0 0.35620629985463748 -0.30371251724464648 0 0.34533870308018377 -0.31598934501886372 0 0.38545395578803499 -0.31104972283005378 0 0.37101427446782781 -0.29852975601036341 0 0.36380134767337091 -0.31365371592763602 0 0.35620629985463748 -0.30371251724464648 0 0.37101427446782781 -0.29852975601036341 0 0.36380134767337091 -0.31365371592763602 0 0.38545395578803499 -0.31104972283005378 0 0.36380134767337091 -0.31365371592763602 0 0.36945761595668469 -0.32738841673247931 0 0.36380134767337091 -0.31365371592763602 0 0.36945761595668469 -0.32738841673247931 0 0.35533723689285712 -0.32525253772940937 0 0.36945761595668469 -0.32738841673247931 0 0.35618710249729552 -0.34088690244721892 0 0.35533723689285712 -0.32525253772940937 0 0.36945761595668469 -0.32738841673247931 0 0.35618710249729552 -0.34088690244721892 0 0.37368731816096312 -0.34897020548070451 0 0.35618710249729552 -0.34088690244721892 0 0.33810128782584858 -0.35072533414536311 0 0.34064131712366241 -0.33181983138849169 0 0.35618710249729552 -0.34088690244721892 0 0.35533723689285712 -0.32525253772940937 0 0.34064131712366241 -0.33181983138849169 0 0.34533870308018377 -0.31598934501886372 0 0.35533723689285712 -0.32525253772940937 0 0.34064131712366241 -0.33181983138849169 0 0.36380134767337091 -0.31365371592763602 0 0.34533870308018377 -0.31598934501886372 0 0.35533723689285712 -0.32525253772940937 0 0.3689120952668708 -0.37284951495870189 0 0.37368731816096312 -0.34897020548070451 0 0.35738528973841999 -0.35772904562383351 0 0.35618710249729552 -0.34088690244721892 0 0.37368731816096312 -0.34897020548070451 0 0.35738528973841999 -0.35772904562383351 0 0.35618710249729552 -0.34088690244721892 0 0.35738528973841999 -0.35772904562383351 0 0.33810128782584858 -0.35072533414536311 0 0.35738528973841999 -0.35772904562383351 0 0.34467783115022588 -0.37252705130409253 0 0.33810128782584858 -0.35072533414536311 0 0.3689120952668708 -0.37284951495870189 0 0.35738528973841999 -0.35772904562383351 0 0.34467783115022588 -0.37252705130409253 0 0.34467783115022588 -0.37252705130409253 0 0.33810128782584858 -0.35072533414536311 0 0.3255374248820434 -0.37161020359421471 0 0.31543696134246668 -0.34593224431305769 0 0.3255374248820434 -0.37161020359421471 0 0.30900602422585888 -0.35865430802761772 0 0.31543696134246668 -0.34593224431305769 0 0.3255374248820434 -0.37161020359421471 0 0.33810128782584858 -0.35072533414536311 0 0.31543696134246668 -0.34593224431305769 0 0.3255374248820434 -0.37161020359421471 0 0.3255374248820434 -0.37161020359421471 0 0.30525369772634148 -0.37164386163485291 0 0.30900602422585888 -0.35865430802761772 0 0.34533870308018377 -0.31598934501886372 0 0.33130220335757699 -0.32186248444176119 0 0.34064131712366241 -0.33181983138849169 0 0.33485830675890288 -0.30442904333306592 0 0.34533870308018377 -0.31598934501886372 0 0.33130220335757699 -0.32186248444176119 0 0.33810128782584858 -0.35072533414536311 0 0.34064131712366241 -0.33181983138849169 0 0.3268430880468266 -0.33457206034663262 0 0.33130220335757699 -0.32186248444176119 0 0.34064131712366241 -0.33181983138849169 0 0.3268430880468266 -0.33457206034663262 0 0.31543696134246668 -0.34593224431305769 0 0.3268430880468266 -0.33457206034663262 0 0.31314202037018413 -0.32284829747545468 0 0.33810128782584858 -0.35072533414536311 0 0.31543696134246668 -0.34593224431305769 0 0.3268430880468266 -0.33457206034663262 0 0.33130220335757699 -0.32186248444176119 0 0.3268430880468266 -0.33457206034663262 0 0.31314202037018413 -0.32284829747545468 0 0.33485830675890288 -0.30442904333306592 0 0.31314202037018413 -0.32284829747545468 0 0.3171485971304504 -0.30589952111326829 0 0.31314202037018413 -0.32284829747545468 0 0.3109911447756647 -0.31350988965823029 0 0.33485830675890288 -0.30442904333306592 0 0.33130220335757699 -0.32186248444176119 0 0.31314202037018413 -0.32284829747545468 0 0.31314202037018413 -0.32284829747545468 0 0.30533649780288991 -0.32025428503190068 0 0.3109911447756647 -0.31350988965823029 0 0.30533649780288991 -0.32025428503190068 0 0.3109911447756647 -0.31350988965823029 0 0.30833746379913463 -0.30503745501229762 0 0.31543696134246668 -0.34593224431305769 0 0.30533649780288991 -0.32025428503190068 0 0.30314188851555429 -0.3464145030398364 0 0.30533649780288991 -0.32025428503190068 0 0.29792146783109758 -0.32077626486014349 0 0.30314188851555429 -0.3464145030398364 0 0.31543696134246668 -0.34593224431305769 0 0.31314202037018413 -0.32284829747545468 0 0.30533649780288991 -0.32025428503190068 0 0.29792146783109758 -0.32077626486014349 0 0.30314188851555429 -0.3464145030398364 0 0.31543696134246668 -0.34593224431305769 0 0.30533649780288991 -0.32025428503190068 0 0.29792146783109758 -0.32077626486014349 0 0.29422135484035322 -0.33366994296298719 0 0.30314188851555429 -0.3464145030398364 0 0.29422135484035322 -0.33366994296298719 0 0.29546103181119637 -0.34185893253319311 0 0.30314188851555429 -0.3464145030398364 0 0.29422135484035322 -0.33366994296298719 0 0.29546103181119637 -0.34185893253319311 0 0.28827175492889229 -0.34275780055790278 0 0.29546103181119637 -0.34185893253319311 0 0.28827175492889229 -0.34275780055790278 0 0.29811044553331972 -0.34650788457159087 0 0.29422135484035322 -0.33366994296298719 0 0.28827175492889229 -0.34275780055790278 0 0.27955848846152698 -0.33666113426449551 0 0.29422135484035322 -0.33366994296298719 0 0.28744860979629389 -0.32474860906702402 0 0.27955848846152698 -0.33666113426449551 0 0.28744860979629389 -0.32474860906702402 0 0.29019889155513462 -0.31620785207956748 0 0.28097437988070417 -0.31138482246715898 0 0.29792146783109758 -0.32077626486014349 0 0.29019889155513462 -0.31620785207956748 0 0.29244758100571983 -0.32385066724243061 0 0.29422135484035322 -0.33366994296298719 0 0.28744860979629389 -0.32474860906702402 0 0.29244758100571983 -0.32385066724243061 0 0.29792146783109758 -0.32077626486014349 0 0.29422135484035322 -0.33366994296298719 0 0.29244758100571983 -0.32385066724243061 0 0.28744860979629389 -0.32474860906702402 0 0.29019889155513462 -0.31620785207956748 0 0.29244758100571983 -0.32385066724243061 0 0.30525369772634148 -0.37164386163485291 0 0.30031449930387721 -0.36082981960256849 0 0.30900602422585888 -0.35865430802761772 0 0.30525369772634148 -0.37164386163485291 0 0.30031449930387721 -0.36082981960256849 0 0.29483415024835152 -0.36747827247447862 0 0.30080593951138668 -0.35381036279877531 0 0.30900602422585888 -0.35865430802761772 0 0.30314188851555429 -0.3464145030398364 0 0.30080593951138668 -0.35381036279877531 0 0.29811044553331972 -0.34650788457159087 0 0.29345683997832372 -0.35664529875226292 0 0.30031449930387721 -0.36082981960256849 0 0.30080593951138668 -0.35381036279877531 0 0.30900602422585888 -0.35865430802761772 0 0.30031449930387721 -0.36082981960256849 0 0.30080593951138668 -0.35381036279877531 0 0.29345683997832372 -0.35664529875226292 0 0.31543696134246668 -0.34593224431305769 0 0.30900602422585888 -0.35865430802761772 0 0.30314188851555429 -0.3464145030398364 0 0.30080593951138668 -0.35381036279877531 0 0.30314188851555429 -0.3464145030398364 0 0.29811044553331972 -0.34650788457159087 0 0.29546103181119637 -0.34185893253319311 0 0.30314188851555429 -0.3464145030398364 0 0.29811044553331972 -0.34650788457159087 0 0.29811044553331972 -0.34650788457159087 0 0.29345683997832372 -0.35664529875226292 0 0.28122462644821988 -0.35688066365974619 0 0.28827175492889229 -0.34275780055790278 0 0.29811044553331972 -0.34650788457159087 0 0.28122462644821988 -0.35688066365974619 0 0.28827175492889229 -0.34275780055790278 0 0.28122462644821988 -0.35688066365974619 0 0.27955848846152698 -0.33666113426449551 0 0.29811044553331972 -0.34650788457159087 0 0.28122462644821988 -0.35688066365974619 0 0.29345683997832372 -0.35664529875226292 0 0.28676543400443838 -0.36101512068260139 0 0.28122462644821988 -0.35688066365974619 0 0.28676543400443838 -0.36101512068260139 0 0.28122462644821988 -0.35688066365974619 0 0.28783989868818821 -0.37644057584389279 0 0.30525369772634148 -0.37164386163485291 0 0.29483415024835152 -0.36747827247447862 0 0.28783989868818821 -0.37644057584389279 0 0.28676543400443838 -0.36101512068260139 0 0.27033126349110148 -0.36357234067652822 0 0.29357505063040601 -0.36145191270551408 0 0.28676543400443838 -0.36101512068260139 0 0.29483415024835152 -0.36747827247447862 0 0.30031449930387721 -0.36082981960256849 0 0.29357505063040601 -0.36145191270551408 0 0.29483415024835152 -0.36747827247447862 0 0.30031449930387721 -0.36082981960256849 0 0.29345683997832372 -0.35664529875226292 0 0.29357505063040601 -0.36145191270551408 0 0.29345683997832372 -0.35664529875226292 0 0.29357505063040601 -0.36145191270551408 0 0.28676543400443838 -0.36101512068260139 0 0.28783989868818821 -0.37644057584389279 0 0.28676543400443838 -0.36101512068260139 0 0.29483415024835152 -0.36747827247447862 0 0.28783989868818821 -0.37644057584389279 0 0.27033126349110148 -0.36357234067652822 0 0.28783989868818821 -0.37644057584389279 0 0.27447250226623809 -0.37821124143188289 0 0.27033126349110148 -0.36357234067652822 0 0.28676543400443838 -0.36101512068260139 0 0.27033126349110148 -0.36357234067652822 0 0.28122462644821988 -0.35688066365974619 0 0.27447250226623809 -0.37821124143188289 0 0.26423397132697279 -0.37890457124200982 0 0.27033126349110148 -0.36357234067652822 0 0.27033126349110148 -0.36357234067652822 0 0.28122462644821988 -0.35688066365974619 0 0.28122462644821988 -0.35688066365974619 0 0.26082083375001269 -0.34165569813656432 0 0.27033126349110148 -0.36357234067652822 0 0.28122462644821988 -0.35688066365974619 0 0.26082083375001269 -0.34165569813656432 0 0.28122462644821988 -0.35688066365974619 0 0.27955848846152698 -0.33666113426449551 0 0.26082083375001269 -0.34165569813656432 0 0.27033126349110148 -0.36357234067652822 0 0.25099839141978419 -0.34936335514031408 0 0.27033126349110148 -0.36357234067652822 0 0.25099839141978419 -0.34936335514031408 0 0.26082083375001269 -0.34165569813656432 0 0.27033126349110148 -0.36357234067652822 0 0.25099839141978419 -0.34936335514031408 0 0.24534349961555019 -0.36253701182870851 0 0.26423397132697279 -0.37890457124200982 0 0.27033126349110148 -0.36357234067652822 0 0.24987622704845311 -0.37613765202982719 0 0.27033126349110148 -0.36357234067652822 0 0.24534349961555019 -0.36253701182870851 0 0.24987622704845311 -0.37613765202982719 0 0.27033126349110148 -0.36357234067652822 0 0.24987622704845311 -0.37613765202982719 0 0.28744860979629389 -0.32474860906702402 0 0.26598899428458778 -0.32103793389256657 0 0.27955848846152698 -0.33666113426449551 0 0.28744860979629389 -0.32474860906702402 0 0.26598899428458778 -0.32103793389256657 0 0.28097437988070417 -0.31138482246715898 0 0.26598899428458778 -0.32103793389256657 0 0.27955848846152698 -0.33666113426449551 0 0.26082083375001269 -0.34165569813656432 0 0.26082083375001269 -0.34165569813656432 0 0.2404170410518052 -0.32643073261338312 0 0.26598899428458778 -0.32103793389256657 0 0.26082083375001269 -0.34165569813656432 0 0.2404170410518052 -0.32643073261338312 0 0.25099839141978419 -0.34936335514031408 0 0.26082083375001269 -0.34165569813656432 0 0.2404170410518052 -0.32643073261338312 0 0.26598899428458778 -0.32103793389256657 0 0.24423538898563429 -0.30587701823941071 0 0.2404170410518052 -0.32643073261338312 0 0.26846821806613752 -0.30050752245993012 0 0.24423538898563429 -0.30587701823941071 0 0.25301376652256202 -0.2892367573709661 0 0.26846821806613752 -0.30050752245993012 0 0.24423538898563429 -0.30587701823941071 0 0.26598899428458778 -0.32103793389256657 0 0.26846821806613752 -0.30050752245993012 0 0.24423538898563429 -0.30587701823941071 0 0.25301376652256202 -0.2892367573709661 0 0.26500420865911251 -0.28331687632378699 0 0.26846821806613752 -0.30050752245993012 0 0.25301376652256202 -0.2892367573709661 0 0.26500420865911251 -0.28331687632378699 0 0.2507153324002197 -0.27704953531328702 0 0.26500420865911251 -0.28331687632378699 0 0.27805302037335089 -0.28584974436810762 0 0.26846821806613752 -0.30050752245993012 0 0.27805302037335089 -0.28584974436810762 0 0.26846821806613752 -0.30050752245993012 0 0.29270104714664102 -0.29513802668045069 0 0.26500420865911251 -0.28331687632378699 0 0.27805302037335089 -0.28584974436810762 0 0.27342558025451552 -0.27498979272208851 0 0.26598899428458778 -0.32103793389256657 0 0.26846821806613752 -0.30050752245993012 0 0.28097437988070417 -0.31138482246715898 0 0.26846821806613752 -0.30050752245993012 0 0.28097437988070417 -0.31138482246715898 0 0.29270104714664102 -0.29513802668045069 0 0.26846821806613752 -0.30050752245993012 0 0.29270104714664102 -0.29513802668045069 0 0.29792146783109758 -0.32077626486014349 0 0.29270104714664102 -0.29513802668045069 0 0.29019889155513462 -0.31620785207956748 0 0.28097437988070417 -0.31138482246715898 0 0.29270104714664102 -0.29513802668045069 0 0.29792146783109758 -0.32077626486014349 0 0.29019889155513462 -0.31620785207956748 0 0.29270104714664102 -0.29513802668045069 0 0.29792146783109758 -0.32077626486014349 0 0.29270104714664102 -0.29513802668045069 0 0.29523603426331357 -0.29457632575074338 0 0.27805302037335089 -0.28584974436810762 0 0.29026987947112831 -0.28319821192468808 0 0.29270104714664102 -0.29513802668045069 0 0.27805302037335089 -0.28584974436810762 0 0.29026987947112831 -0.28319821192468808 0 0.28863308206368682 -0.27515966401439529 0 0.29026987947112831 -0.28319821192468808 0 0.29523603426331357 -0.29457632575074338 0 0.29026987947112831 -0.28319821192468808 0 0.29523603426331357 -0.29457632575074338 0 0.30320790951940702 -0.28313078900162059 0 0.29026987947112831 -0.28319821192468808 0 0.29270104714664102 -0.29513802668045069 0 0.29523603426331357 -0.29457632575074338 0 0.29026987947112831 -0.28319821192468808 0 0.29270104714664102 -0.29513802668045069 0 0.29270104714664102 -0.29513802668045069 0 0.29523603426331357 -0.29457632575074338 0 0.29523603426331357 -0.29457632575074338 0 0.31208952779935789 -0.2908419387292881 0 0.29523603426331357 -0.29457632575074338 0 0.30320790951940702 -0.28313078900162059 0 0.31208952779935789 -0.2908419387292881 0 0.29523603426331357 -0.29457632575074338 0 0.31208952779935789 -0.2908419387292881 0 0.30833746379913463 -0.30503745501229762 0 0.31611371382327402 -0.28007222207304999 0 0.30320790951940702 -0.28313078900162059 0 0.31208952779935789 -0.2908419387292881 0 0.30533649780288991 -0.32025428503190068 0 0.29523603426331357 -0.29457632575074338 0 0.30833746379913463 -0.30503745501229762 0 0.30533649780288991 -0.32025428503190068 0 0.29792146783109758 -0.32077626486014349 0 0.29523603426331357 -0.29457632575074338 0 0.30533649780288991 -0.32025428503190068 0 0.29523603426331357 -0.29457632575074338 0 0.3171485971304504 -0.30589952111326829 0 0.3109911447756647 -0.31350988965823029 0 0.30833746379913463 -0.30503745501229762 0 0.29812220868357159 -0.26533402464574418 0 0.30111904597271899 -0.2536098058489899 0 0.30981211567343969 -0.26250129009931661 0 0.31597462601859122 -0.25080747204364812 0 0.30111904597271899 -0.2536098058489899 0 0.30981211567343969 -0.26250129009931661 0 0.29812220868357159 -0.26533402464574418 0 0.30981211567343969 -0.26250129009931661 0 0.30706455279928557 -0.27339796693147528 0 0.31611371382327402 -0.28007222207304999 0 0.30320790951940702 -0.28313078900162059 0 0.30706455279928557 -0.27339796693147528 0 0.29026987947112831 -0.28319821192468808 0 0.30320790951940702 -0.28313078900162059 0 0.29755036247591721 -0.27602563541609298 0 0.30320790951940702 -0.28313078900162059 0 0.30706455279928557 -0.27339796693147528 0 0.29755036247591721 -0.27602563541609298 0 0.29812220868357159 -0.26533402464574418 0 0.30706455279928557 -0.27339796693147528 0 0.29755036247591721 -0.27602563541609298 0 0.29812220868357159 -0.26533402464574418 0 0.29755036247591721 -0.27602563541609298 0 0.28863308206368682 -0.27515966401439529 0 0.29026987947112831 -0.28319821192468808 0 0.28863308206368682 -0.27515966401439529 0 0.29026987947112831 -0.28319821192468808 0 0.29755036247591721 -0.27602563541609298 0 0.28863308206368682 -0.27515966401439529 0 0.28863308206368682 -0.27515966401439529 0 0.28456511698073272 -0.25518130134833977 0 0.29812220868357159 -0.26533402464574418 0 0.28863308206368682 -0.27515966401439529 0 0.28456511698073272 -0.25518130134833977 0 0.29812220868357159 -0.26533402464574418 0 0.30111904597271899 -0.2536098058489899 0 0.28456511698073272 -0.25518130134833977 0 0.28863308206368682 -0.27515966401439529 0 0.28456511698073272 -0.25518130134833977 0 0.27223885194073971 -0.26265851400849172 0 0.28456511698073272 -0.25518130134833977 0 0.27223885194073971 -0.26265851400849172 0 0.26629969424128969 -0.25192769388052821 0 0.27223885194073971 -0.26265851400849172 0 0.26629969424128969 -0.25192769388052821 0 0.2629172406837702 -0.26740365320709081 0 0.26500420865911251 -0.28331687632378699 0 0.27342558025451552 -0.27498979272208851 0 0.2629172406837702 -0.26740365320709081 0 0.28863308206368682 -0.27515966401439529 0 0.27223885194073971 -0.26265851400849172 0 0.27342558025451552 -0.27498979272208851 0 0.27805302037335089 -0.28584974436810762 0 0.28863308206368682 -0.27515966401439529 0 0.27342558025451552 -0.27498979272208851 0 0.27223885194073971 -0.26265851400849172 0 0.27342558025451552 -0.27498979272208851 0 0.2629172406837702 -0.26740365320709081 0 0.26500420865911251 -0.28331687632378699 0 0.2629172406837702 -0.26740365320709081 0 0.2507153324002197 -0.27704953531328702 0 0.2629172406837702 -0.26740365320709081 0 0.2507153324002197 -0.27704953531328702 0 0.2466218950091964 -0.26012473444713258 0 0.25037283077400019 -0.2416092145933311 0 0.26629969424128969 -0.25192769388052821 0 0.2466218950091964 -0.26012473444713258 0 0.26629969424128969 -0.25192769388052821 0 0.2629172406837702 -0.26740365320709081 0 0.2466218950091964 -0.26012473444713258 0 0.25037283077400019 -0.2416092145933311 0 0.2466218950091964 -0.26012473444713258 0 0.2339549802858914 -0.24933471903745599 0 0.2466218950091964 -0.26012473444713258 0 0.22717476572977791 -0.26325637954660608 0 0.2339549802858914 -0.24933471903745599 0 0.2466218950091964 -0.26012473444713258 0 0.23628574795648369 -0.27498419313581679 0 0.22717476572977791 -0.26325637954660608 0 0.2507153324002197 -0.27704953531328702 0 0.2466218950091964 -0.26012473444713258 0 0.23628574795648369 -0.27498419313581679 0 0.2507153324002197 -0.27704953531328702 0 0.23628574795648369 -0.27498419313581679 0 0.24044913557019401 -0.28723099739492908 0 0.2247339410531527 -0.27667652802353632 0 0.21554844428562811 -0.26491471108287651 0 0.21653111649902579 -0.28712771180040292 0 0.23628574795648369 -0.27498419313581679 0 0.2247339410531527 -0.27667652802353632 0 0.22717476572977791 -0.26325637954660608 0 0.2247339410531527 -0.27667652802353632 0 0.22717476572977791 -0.26325637954660608 0 0.21554844428562811 -0.26491471108287651 0 0.22717476572977791 -0.26325637954660608 0 0.22331750647786899 -0.25281133177650322 0 0.2339549802858914 -0.24933471903745599 0 0.22717476572977791 -0.26325637954660608 0 0.22331750647786899 -0.25281133177650322 0 0.21554844428562811 -0.26491471108287651 0 0.2084475354763706 -0.25511513831035743 0 0.21554844428562811 -0.26491471108287651 0 0.1982966667633215 -0.26354120971092698 0 0.21554844428562811 -0.26491471108287651 0 0.21456577207223029 -0.24270171036535029 0 0.22331750647786899 -0.25281133177650322 0 0.21554844428562811 -0.26491471108287651 0 0.21456577207223029 -0.24270171036535029 0 0.2084475354763706 -0.25511513831035743 0 0.21554844428562811 -0.26491471108287651 0 0.21336353465090491 -0.24693864317134839 0 0.21554844428562811 -0.26491471108287651 0 0.21336353465090491 -0.24693864317134839 0 0.21456577207223029 -0.24270171036535029 0 0.2084475354763706 -0.25511513831035743 0 0.1982966667633215 -0.26354120971092698 0 0.2080714594183444 -0.2424179483002232 0 0.1982966667633215 -0.26354120971092698 0 0.2080714594183444 -0.2424179483002232 0 0.21554844428562811 -0.26491471108287651 0 0.21653111649902579 -0.28712771180040292 0 0.21554844428562811 -0.26491471108287651 0 0.20859607852913339 -0.28093905456482821 0 0.21653111649902579 -0.28712771180040292 0 0.21554844428562811 -0.26491471108287651 0 0.20859607852913339 -0.28093905456482821 0 0.2011380539128553 -0.27767933622792518 0 0.21554844428562811 -0.26491471108287651 0 0.2011380539128553 -0.27767933622792518 0 0.1982966667633215 -0.26354120971092698 0 0.1982966667633215 -0.26354120971092698 0 0.18852187410829821 -0.28466447112163068 0 0.1982966667633215 -0.26354120971092698 0 0.18852187410829821 -0.28466447112163068 0 0.1845366839674035 -0.26640487959885623 0 0.2011380539128553 -0.27767933622792518 0 0.1982966667633215 -0.26354120971092698 0 0.18852187410829821 -0.28466447112163068 0 0.1982966667633215 -0.26354120971092698 0 0.2080714594183444 -0.2424179483002232 0 0.19254414318066221 -0.24961624770678509 0 0.1982966667633215 -0.26354120971092698 0 0.18706352147094041 -0.25756661524031438 0 0.1845366839674035 -0.26640487959885623 0 0.1982966667633215 -0.26354120971092698 0 0.18706352147094041 -0.25756661524031438 0 0.19254414318066221 -0.24961624770678509 0 0.18706352147094041 -0.25756661524031438 0 0.19254414318066221 -0.24961624770678509 0 0.18399505531774341 -0.24981832115951039 0 0.20249447748908611 -0.29813355613580778 0 0.1976485991634879 -0.30796138879627621 0 0.19462594870140809 -0.30164723750547567 0 0.20249447748908611 -0.29813355613580778 0 0.19462594870140809 -0.30164723750547567 0 0.19392418081794471 -0.29575522021664652 0 0.20249447748908611 -0.29813355613580778 0 0.1976485991634879 -0.30796138879627621 0 0.20782414549410869 -0.30817847155873718 0 0.1976485991634879 -0.30796138879627621 0 0.20782414549410869 -0.30817847155873718 0 0.20282381327660201 -0.31505297042611552 0 0.1976485991634879 -0.30796138879627621 0 0.19009702279388629 -0.3064242775921906 0 0.18802618722583669 -0.31833181955932999 0 0.1976485991634879 -0.30796138879627621 0 0.19009702279388629 -0.3064242775921906 0 0.19462594870140809 -0.30164723750547567 0 0.19009702279388629 -0.3064242775921906 0 0.19462594870140809 -0.30164723750547567 0 0.1880606218677118 -0.30022154946313712 0 0.19462594870140809 -0.30164723750547567 0 0.19110113081553529 -0.29631368747161629 0 0.19392418081794471 -0.29575522021664652 0 0.1880606218677118 -0.30022154946313712 0 0.19110113081553529 -0.29631368747161629 0 0.18734834214976739 -0.29514628785519947 0 0.19462594870140809 -0.30164723750547567 0 0.1880606218677118 -0.30022154946313712 0 0.19110113081553529 -0.29631368747161629 0 0.20249447748908611 -0.29813355613580778 0 0.18747516626574931 -0.28692639975368628 0 0.20249447748908611 -0.29813355613580778 0 0.19392418081794471 -0.29575522021664652 0 0.18747516626574931 -0.28692639975368628 0 0.19110113081553529 -0.29631368747161629 0 0.19392418081794471 -0.29575522021664652 0 0.18747516626574931 -0.28692639975368628 0 0.19110113081553529 -0.29631368747161629 0 0.18747516626574931 -0.28692639975368628 0 0.18734834214976739 -0.29514628785519947 0 0.18852187410829821 -0.28466447112163068 0 0.19787122383615691 -0.29172525818392958 0 0.18852187410829821 -0.28466447112163068 0 0.19731262536099689 -0.28481999283041842 0 0.19787122383615691 -0.29172525818392958 0 0.18852187410829821 -0.28466447112163068 0 0.19787122383615691 -0.29172525818392958 0 0.18747516626574931 -0.28692639975368628 0 0.18852187410829821 -0.28466447112163068 0 0.18747516626574931 -0.28692639975368628 0 0.2011380539128553 -0.27767933622792518 0 0.18852187410829821 -0.28466447112163068 0 0.19731262536099689 -0.28481999283041842 0 0.201719349586677 -0.2852109057881882 0 0.19787122383615691 -0.29172525818392958 0 0.206049533411369 -0.28982701925762389 0 0.19731262536099689 -0.28481999283041842 0 0.201719349586677 -0.2852109057881882 0 0.19787122383615691 -0.29172525818392958 0 0.2011380539128553 -0.27767933622792518 0 0.19731262536099689 -0.28481999283041842 0 0.201719349586677 -0.2852109057881882 0 0.20249447748908611 -0.29813355613580778 0 0.19787122383615691 -0.29172525818392958 0 0.18747516626574931 -0.28692639975368628 0 0.20249447748908611 -0.29813355613580778 0 0.19787122383615691 -0.29172525818392958 0 0.206049533411369 -0.28982701925762389 0 0.20249447748908611 -0.29813355613580778 0 0.206049533411369 -0.28982701925762389 0 0.20903552332543929 -0.29406903275804652 0 0.206049533411369 -0.28982701925762389 0 0.20903552332543929 -0.29406903275804652 0 0.21653111649902579 -0.28712771180040292 0 0.20249447748908611 -0.29813355613580778 0 0.20903552332543929 -0.29406903275804652 0 0.2123558614978226 -0.29827812898856709 0 0.20859607852913339 -0.28093905456482821 0 0.206049533411369 -0.28982701925762389 0 0.21653111649902579 -0.28712771180040292 0 0.20859607852913339 -0.28093905456482821 0 0.201719349586677 -0.2852109057881882 0 0.206049533411369 -0.28982701925762389 0 0.20859607852913339 -0.28093905456482821 0 0.2011380539128553 -0.27767933622792518 0 0.201719349586677 -0.2852109057881882 0 0.20903552332543929 -0.29406903275804652 0 0.21653111649902579 -0.28712771180040292 0 0.2123558614978226 -0.29827812898856709 0 0.21653111649902579 -0.28712771180040292 0 0.2175137887124228 -0.30934071251792922 0 0.21653111649902579 -0.28712771180040292 0 0.2123558614978226 -0.29827812898856709 0 0.2175137887124228 -0.30934071251792922 0 0.20249447748908611 -0.29813355613580778 0 0.2123558614978226 -0.29827812898856709 0 0.2175137887124228 -0.30934071251792922 0 0.20249447748908611 -0.29813355613580778 0 0.2175137887124228 -0.30934071251792922 0 0.20782414549410869 -0.30817847155873718 0 0.2176214393273678 -0.31177412129290383 0 0.20282381327660201 -0.31505297042611552 0 0.20249447748908611 -0.29813355613580778 0 0.20782414549410869 -0.30817847155873718 0 0.2175137887124228 -0.30934071251792922 0 0.20782414549410869 -0.30817847155873718 0 0.2175137887124228 -0.30934071251792922 0 0.2176214393273678 -0.31177412129290383 0 0.2175137887124228 -0.30934071251792922 0 0.2176214393273678 -0.31177412129290383 0 0.2175137887124228 -0.30934071251792922 0 0.2176214393273678 -0.31177412129290383 0 0.21999804566891551 -0.31122614102315033 0 0.21999804566891551 -0.31122614102315033 0 0.24423538898563429 -0.30587701823941071 0 0.2175137887124228 -0.30934071251792922 0 0.21999804566891551 -0.31122614102315033 0 0.22812963079484819 -0.29309964455197901 0 0.21999804566891551 -0.31122614102315033 0 0.22812963079484819 -0.29309964455197901 0 0.21999804566891551 -0.31122614102315033 0 0.22812963079484819 -0.29309964455197901 0 0.24423538898563429 -0.30587701823941071 0 0.2176214393273678 -0.31177412129290383 0 0.21999804566891551 -0.31122614102315033 0 0.2175137887124228 -0.30934071251792922 0 0.21999804566891551 -0.31122614102315033 0 0.23628574795648369 -0.27498419313581679 0 0.22812963079484819 -0.29309964455197901 0 0.2247339410531527 -0.27667652802353632 0 0.21653111649902579 -0.28712771180040292 0 0.22812963079484819 -0.29309964455197901 0 0.23628574795648369 -0.27498419313581679 0 0.2247339410531527 -0.27667652802353632 0 0.22812963079484819 -0.29309964455197901 0 0.21653111649902579 -0.28712771180040292 0 0.2175137887124228 -0.30934071251792922 0 0.22812963079484819 -0.29309964455197901 0 0.23628574795648369 -0.27498419313581679 0 0.22812963079484819 -0.29309964455197901 0 0.24044913557019401 -0.28723099739492908 0 0.25301376652256202 -0.2892367573709661 0 0.24044913557019401 -0.28723099739492908 0 0.24423538898563429 -0.30587701823941071 0 0.22812963079484819 -0.29309964455197901 0 0.24044913557019401 -0.28723099739492908 0 0.24423538898563429 -0.30587701823941071 0 0.25301376652256202 -0.2892367573709661 0 0.2507153324002197 -0.27704953531328702 0 0.24044913557019401 -0.28723099739492908 0 0.21999804566891551 -0.31122614102315033 0 0.24423538898563429 -0.30587701823941071 0 0.2404170410518052 -0.32643073261338312 0 0.25099839141978419 -0.34936335514031408 0 0.2316655193484673 -0.33515436960409939 0 0.25099839141978419 -0.34936335514031408 0 0.2404170410518052 -0.32643073261338312 0 0.2316655193484673 -0.33515436960409939 0 0.2404170410518052 -0.32643073261338312 0 0.2316655193484673 -0.33515436960409939 0 0.2247705650129608 -0.32491873692320528 0 0.2316655193484673 -0.33515436960409939 0 0.22208049410379579 -0.34309390150507102 0 0.22867514261462599 -0.34782526071452929 0 0.2316655193484673 -0.33515436960409939 0 0.22208049410379579 -0.34309390150507102 0 0.220555537226792 -0.33578323097752499 0 0.22208049410379579 -0.34309390150507102 0 0.220555537226792 -0.33578323097752499 0 0.21451162402718699 -0.34512658597487872 0 0.220555537226792 -0.33578323097752499 0 0.2247705650129608 -0.32491873692320528 0 0.21820242441149371 -0.32490710899175251 0 0.2316655193484673 -0.33515436960409939 0 0.220555537226792 -0.33578323097752499 0 0.2247705650129608 -0.32491873692320528 0 0.21999804566891551 -0.31122614102315033 0 0.2404170410518052 -0.32643073261338312 0 0.2247705650129608 -0.32491873692320528 0 0.21999804566891551 -0.31122614102315033 0 0.2404170410518052 -0.32643073261338312 0 0.2247705650129608 -0.32491873692320528 0 0.21780935440599439 -0.31602188338433101 0 0.21820242441149371 -0.32490710899175251 0 0.21999804566891551 -0.31122614102315033 0 0.2247705650129608 -0.32491873692320528 0 0.21780935440599439 -0.31602188338433101 0 0.21999804566891551 -0.31122614102315033 0 0.21780935440599439 -0.31602188338433101 0 0.23679608458568241 -0.3713456781615978 0 0.24534349961555019 -0.36253701182870851 0 0.24987622704845311 -0.37613765202982719 0 0.23679608458568241 -0.3713456781615978 0 0.24534349961555019 -0.36253701182870851 0 0.23133102347449649 -0.35950822589080189 0 0.25099839141978419 -0.34936335514031408 0 0.2316655193484673 -0.33515436960409939 0 0.23760271529458479 -0.35087764463569071 0 0.24534349961555019 -0.36253701182870851 0 0.23760271529458479 -0.35087764463569071 0 0.23133102347449649 -0.35950822589080189 0 0.25099839141978419 -0.34936335514031408 0 0.24534349961555019 -0.36253701182870851 0 0.23760271529458479 -0.35087764463569071 0 0.2316655193484673 -0.33515436960409939 0 0.23760271529458479 -0.35087764463569071 0 0.22867514261462599 -0.34782526071452929 0 0.22208049410379579 -0.34309390150507102 0 0.22076837523631451 -0.35267920974236072 0 0.21451162402718699 -0.34512658597487872 0 0.22208049410379579 -0.34309390150507102 0 0.22867514261462599 -0.34782526071452929 0 0.22076837523631451 -0.35267920974236072 0 0.22076837523631451 -0.35267920974236072 0 0.22341137818785181 -0.36337688942730773 0 0.21609027172906259 -0.36087537471117581 0 0.22076837523631451 -0.35267920974236072 0 0.23133102347449649 -0.35950822589080189 0 0.22341137818785181 -0.36337688942730773 0 0.22867514261462599 -0.34782526071452929 0 0.22076837523631451 -0.35267920974236072 0 0.23133102347449649 -0.35950822589080189 0 0.23760271529458479 -0.35087764463569071 0 0.22867514261462599 -0.34782526071452929 0 0.23133102347449649 -0.35950822589080189 0 0.23133102347449649 -0.35950822589080189 0 0.22341137818785181 -0.36337688942730773 0 0.22699371624108439 -0.37103399677892651 0 0.22341137818785181 -0.36337688942730773 0 0.22699371624108439 -0.37103399677892651 0 0.21663927632257499 -0.37152038636996992 0 0.22699371624108439 -0.37103399677892651 0 0.21663927632257499 -0.37152038636996992 0 0.22189277223980711 -0.38054577212349588 0 0.23679608458568241 -0.3713456781615978 0 0.22699371624108439 -0.37103399677892651 0 0.23010576568282681 -0.37607478874810818 0 0.23679608458568241 -0.3713456781615978 0 0.23133102347449649 -0.35950822589080189 0 0.22699371624108439 -0.37103399677892651 0 0.21663927632257499 -0.37152038636996992 0 0.20683644217058031 -0.36558797855932218 0 0.20576161095015591 -0.37595213443190167 0 0.22341137818785181 -0.36337688942730773 0 0.21663927632257499 -0.37152038636996992 0 0.21609027172906259 -0.36087537471117581 0 0.21609027172906259 -0.36087537471117581 0 0.20683644217058031 -0.36558797855932218 0 0.21089823393406021 -0.35324530101306001 0 0.21663927632257499 -0.37152038636996992 0 0.21609027172906259 -0.36087537471117581 0 0.20683644217058031 -0.36558797855932218 0 0.19940837682496099 -0.35689206815154528 0 0.20777431361625601 -0.33831058893907762 0 0.21089823393406021 -0.35324530101306001 0 0.19940837682496099 -0.35689206815154528 0 0.20777431361625601 -0.33831058893907762 0 0.20683644217058031 -0.36558797855932218 0 0.21089823393406021 -0.35324530101306001 0 0.19940837682496099 -0.35689206815154528 0 0.22076837523631451 -0.35267920974236072 0 0.21609027172906259 -0.36087537471117581 0 0.21089823393406021 -0.35324530101306001 0 0.21089823393406021 -0.35324530101306001 0 0.21451162402718699 -0.34512658597487872 0 0.20777431361625601 -0.33831058893907762 0 0.22076837523631451 -0.35267920974236072 0 0.21089823393406021 -0.35324530101306001 0 0.21451162402718699 -0.34512658597487872 0 0.1971616983813648 -0.34495631128618592 0 0.19940837682496099 -0.35689206815154528 0 0.20777431361625601 -0.33831058893907762 0 0.1971616983813648 -0.34495631128618592 0 0.18787137947787569 -0.35180034780069419 0 0.18864170350563411 -0.33720407153827198 0 0.1971616983813648 -0.34495631128618592 0 0.18787137947787569 -0.35180034780069419 0 0.19940837682496099 -0.35689206815154528 0 0.20683644217058031 -0.36558797855932218 0 0.20576161095015591 -0.37595213443190167 0 0.1910424400336663 -0.37547354736401328 0 0.18787137947787569 -0.35180034780069419 0 0.19940837682496099 -0.35689206815154528 0 0.1910424400336663 -0.37547354736401328 0 0.19940837682496099 -0.35689206815154528 0 0.1910424400336663 -0.37547354736401328 0 0.20683644217058031 -0.36558797855932218 0 0.19940837682496099 -0.35689206815154528 0 0.1910424400336663 -0.37547354736401328 0 0.21780935440599439 -0.31602188338433101 0 0.20777431361625601 -0.33831058893907762 0 0.21780935440599439 -0.31602188338433101 0 0.20777431361625601 -0.33831058893907762 0 0.20282381327660201 -0.31505297042611552 0 0.21780935440599439 -0.31602188338433101 0 0.21820242441149371 -0.32490710899175251 0 0.20777431361625601 -0.33831058893907762 0 0.2176214393273678 -0.31177412129290383 0 0.20282381327660201 -0.31505297042611552 0 0.2176214393273678 -0.31177412129290383 0 0.21780935440599439 -0.31602188338433101 0 0.20282381327660201 -0.31505297042611552 0 0.2176214393273678 -0.31177412129290383 0 0.21780935440599439 -0.31602188338433101 0 0.2176214393273678 -0.31177412129290383 0 0.21999804566891551 -0.31122614102315033 0 0.21780935440599439 -0.31602188338433101 0 0.21780935440599439 -0.31602188338433101 0 0.21820242441149371 -0.32490710899175251 0 0.220555537226792 -0.33578323097752499 0 0.21820242441149371 -0.32490710899175251 0 0.20777431361625601 -0.33831058893907762 0 0.220555537226792 -0.33578323097752499 0 0.21451162402718699 -0.34512658597487872 0 0.20777431361625601 -0.33831058893907762 0 0.21451162402718699 -0.34512658597487872 0 0.20777431361625601 -0.33831058893907762 0 0.1971616983813648 -0.34495631128618592 0 0.20777431361625601 -0.33831058893907762 0 0.18864170350563411 -0.33720407153827198 0 0.20777431361625601 -0.33831058893907762 0 0.18802618722583669 -0.31833181955932999 0 0.20777431361625601 -0.33831058893907762 0 0.18864170350563411 -0.33720407153827198 0 0.18802618722583669 -0.31833181955932999 0 0.20777431361625601 -0.33831058893907762 0 0.20282381327660201 -0.31505297042611552 0 0.18802618722583669 -0.31833181955932999 0 0.20282381327660201 -0.31505297042611552 0 0.18802618722583669 -0.31833181955932999 0 0.1976485991634879 -0.30796138879627621 0 0.20282381327660201 -0.31505297042611552 0 0.18802618722583669 -0.31833181955932999 0 0.18802618722583669 -0.31833181955932999 0 0.1791507244663583 -0.32983729973660558 0 0.16791254130802971 -0.3227885891963716 0 0.18802618722583669 -0.31833181955932999 0 0.17151825735526699 -0.31325416760549368 0 0.16791254130802971 -0.3227885891963716 0 0.18802618722583669 -0.31833181955932999 0 0.16791254130802971 -0.3227885891963716 0 0.18864170350563411 -0.33720407153827198 0 0.18802618722583669 -0.31833181955932999 0 0.1791507244663583 -0.32983729973660558 0 0.17202246582593331 -0.34102471865244838 0 0.1791507244663583 -0.32983729973660558 0 0.16791254130802971 -0.3227885891963716 0 0.18787137947787569 -0.35180034780069419 0 0.18864170350563411 -0.33720407153827198 0 0.17202246582593331 -0.34102471865244838 0 0.18864170350563411 -0.33720407153827198 0 0.17202246582593331 -0.34102471865244838 0 0.1791507244663583 -0.32983729973660558 0 0.17202246582593331 -0.34102471865244838 0 0.1546435437787094 -0.34381338892778002 0 0.1557586906108582 -0.32786840018592928 0 0.17202246582593331 -0.34102471865244838 0 0.16791254130802971 -0.3227885891963716 0 0.1557586906108582 -0.32786840018592928 0 0.16791254130802971 -0.3227885891963716 0 0.1557586906108582 -0.32786840018592928 0 0.1602411687519314 -0.31190927739118429 0 0.17151825735526699 -0.31325416760549368 0 0.16791254130802971 -0.3227885891963716 0 0.1602411687519314 -0.31190927739118429 0 0.18787137947787569 -0.35180034780069419 0 0.17662324672053431 -0.35795823269279659 0 0.1910424400336663 -0.37547354736401328 0 0.17662324672053431 -0.35795823269279659 0 0.17035242753357599 -0.36877211446365682 0 0.1910424400336663 -0.37547354736401328 0 0.17035242753357599 -0.36877211446365682 0 0.1910424400336663 -0.37547354736401328 0 0.1737051017910701 -0.38004230502140057 0 0.18787137947787569 -0.35180034780069419 0 0.17202246582593331 -0.34102471865244838 0 0.17662324672053431 -0.35795823269279659 0 0.17202246582593331 -0.34102471865244838 0 0.17662324672053431 -0.35795823269279659 0 0.16265844046108829 -0.35526087104265458 0 0.17202246582593331 -0.34102471865244838 0 0.16265844046108829 -0.35526087104265458 0 0.1546435437787094 -0.34381338892778002 0 0.17662324672053431 -0.35795823269279659 0 0.16265844046108829 -0.35526087104265458 0 0.17035242753357599 -0.36877211446365682 0 0.16265844046108829 -0.35526087104265458 0 0.1569593121701936 -0.36832063090657668 0 0.17035242753357599 -0.36877211446365682 0 0.1569593121701936 -0.36832063090657668 0 0.17035242753357599 -0.36877211446365682 0 0.16307541855137739 -0.37743582412871929 0 0.14536400873927011 -0.3681220756701501 0 0.1426630499740982 -0.35652090160864008 0 0.13524945632583441 -0.37311377610700652 0 0.16265844046108829 -0.35526087104265458 0 0.1569593121701936 -0.36832063090657668 0 0.1426630499740982 -0.35652090160864008 0 0.14536400873927011 -0.3681220756701501 0 0.13524945632583441 -0.37311377610700652 0 0.14973869037300869 -0.38096853745143089 0 0.1569593121701936 -0.36832063090657668 0 0.14536400873927011 -0.3681220756701501 0 0.14973869037300869 -0.38096853745143089 0 0.1569593121701936 -0.36832063090657668 0 0.14536400873927011 -0.3681220756701501 0 0.1426630499740982 -0.35652090160864008 0 0.1546435437787094 -0.34381338892778002 0 0.1426630499740982 -0.35652090160864008 0 0.1424354920479888 -0.33775294740649747 0 0.16265844046108829 -0.35526087104265458 0 0.1546435437787094 -0.34381338892778002 0 0.1426630499740982 -0.35652090160864008 0 0.13449730155472761 -0.34743155680512378 0 0.12784456261830821 -0.36308533366748658 0 0.123981461538115 -0.35128285539313481 0 0.1426630499740982 -0.35652090160864008 0 0.13449730155472761 -0.34743155680512378 0 0.1424354920479888 -0.33775294740649747 0 0.1426630499740982 -0.35652090160864008 0 0.13449730155472761 -0.34743155680512378 0 0.12784456261830821 -0.36308533366748658 0 0.13449730155472761 -0.34743155680512378 0 0.13051916655351839 -0.33696304048325831 0 0.123981461538115 -0.35128285539313481 0 0.1426630499740982 -0.35652090160864008 0 0.12784456261830821 -0.36308533366748658 0 0.13524945632583441 -0.37311377610700652 0 0.12784456261830821 -0.36308533366748658 0 0.13524945632583441 -0.37311377610700652 0 0.12609635470998201 -0.38402791619100712 0 0.14855409589738661 -0.31441038212804873 0 0.1557586906108582 -0.32786840018592928 0 0.1602411687519314 -0.31190927739118429 0 0.1445015266660287 -0.32337949759917511 0 0.14855409589738661 -0.31441038212804873 0 0.13871327718005111 -0.31332369293528212 0 0.1445015266660287 -0.32337949759917511 0 0.14855409589738661 -0.31441038212804873 0 0.1557586906108582 -0.32786840018592928 0 0.1546435437787094 -0.34381338892778002 0 0.1557586906108582 -0.32786840018592928 0 0.1424354920479888 -0.33775294740649747 0 0.1445015266660287 -0.32337949759917511 0 0.1557586906108582 -0.32786840018592928 0 0.1424354920479888 -0.33775294740649747 0 0.1445015266660287 -0.32337949759917511 0 0.1424354920479888 -0.33775294740649747 0 0.13219802669416811 -0.32498852212276208 0 0.1424354920479888 -0.33775294740649747 0 0.13051916655351839 -0.33696304048325831 0 0.13219802669416811 -0.32498852212276208 0 0.13449730155472761 -0.34743155680512378 0 0.1424354920479888 -0.33775294740649747 0 0.13051916655351839 -0.33696304048325831 0 0.13051916655351839 -0.33696304048325831 0 0.13219802669416811 -0.32498852212276208 0 0.12260601330919629 -0.33072698382653798 0 0.1445015266660287 -0.32337949759917511 0 0.13219802669416811 -0.32498852212276208 0 0.13871327718005111 -0.31332369293528212 0 0.13219802669416811 -0.32498852212276208 0 0.1265219532001009 -0.3124330460259736 0 0.1192961391526948 -0.32261879728377291 0 0.13219802669416811 -0.32498852212276208 0 0.13871327718005111 -0.31332369293528212 0 0.1265219532001009 -0.3124330460259736 0 0.1265219532001009 -0.3124330460259736 0 0.1332586495603032 -0.30031372317270688 0 0.1198701537204314 -0.30089140532399938 0 0.1332586495603032 -0.30031372317270688 0 0.1242383748246253 -0.29131174999725179 0 0.1198701537204314 -0.30089140532399938 0 0.13871327718005111 -0.31332369293528212 0 0.1265219532001009 -0.3124330460259736 0 0.1332586495603032 -0.30031372317270688 0 0.13871327718005111 -0.31332369293528212 0 0.1332586495603032 -0.30031372317270688 0 0.147245411062319 -0.30441698656302629 0 0.14855409589738661 -0.31441038212804873 0 0.13871327718005111 -0.31332369293528212 0 0.147245411062319 -0.30441698656302629 0 0.147245411062319 -0.30441698656302629 0 0.15432967412725099 -0.29846298066074151 0 0.14327492933615671 -0.29425024746867751 0 0.1332586495603032 -0.30031372317270688 0 0.147245411062319 -0.30441698656302629 0 0.14327492933615671 -0.29425024746867751 0 0.147245411062319 -0.30441698656302629 0 0.15432967412725099 -0.29846298066074151 0 0.1602411687519314 -0.31190927739118429 0 0.14855409589738661 -0.31441038212804873 0 0.147245411062319 -0.30441698656302629 0 0.1602411687519314 -0.31190927739118429 0 0.15432967412725099 -0.29846298066074151 0 0.1517600770447052 -0.28164214899084639 0 0.14327492933615671 -0.29425024746867751 0 0.1517600770447052 -0.28164214899084639 0 0.14327492933615671 -0.29425024746867751 0 0.13646338677899769 -0.28546266283427663 0 0.1332586495603032 -0.30031372317270688 0 0.14327492933615671 -0.29425024746867751 0 0.13646338677899769 -0.28546266283427663 0 0.1332586495603032 -0.30031372317270688 0 0.13646338677899769 -0.28546266283427663 0 0.1242383748246253 -0.29131174999725179 0 0.13646338677899769 -0.28546266283427663 0 0.1233023238440631 -0.28097148456094378 0 0.1242383748246253 -0.29131174999725179 0 0.1517600770447052 -0.28164214899084639 0 0.13646338677899769 -0.28546266283427663 0 0.1311170075682456 -0.27142576198599933 0 0.1517600770447052 -0.28164214899084639 0 0.1311170075682456 -0.27142576198599933 0 0.1364827709165429 -0.26618641562940759 0 0.13646338677899769 -0.28546266283427663 0 0.1311170075682456 -0.27142576198599933 0 0.1233023238440631 -0.28097148456094378 0 0.1311170075682456 -0.27142576198599933 0 0.1364827709165429 -0.26618641562940759 0 0.1212054647883809 -0.25073068226796852 0 0.1364827709165429 -0.26618641562940759 0 0.13217397618885759 -0.25462043987800831 0 0.1212054647883809 -0.25073068226796852 0 0.1364827709165429 -0.26618641562940759 0 0.1212054647883809 -0.25073068226796852 0 0.1364827709165429 -0.26618641562940759 0 0.13217397618885759 -0.25462043987800831 0 0.14275904560399111 -0.25945725309375861 0 0.13217397618885759 -0.25462043987800831 0 0.1429630926125974 -0.2502577086919005 0 0.14275904560399111 -0.25945725309375861 0 0.1429630926125974 -0.2502577086919005 0 0.16574248336044761 -0.26746108990676593 0 0.1429630926125974 -0.2502577086919005 0 0.15128247879849499 -0.26292486595599002 0 0.16574248336044761 -0.26746108990676593 0 0.1429630926125974 -0.2502577086919005 0 0.16574248336044761 -0.26746108990676593 0 0.16001236861667459 -0.2513654190734112 0 0.1429630926125974 -0.2502577086919005 0 0.14275904560399111 -0.25945725309375861 0 0.15128247879849499 -0.26292486595599002 0 0.1364827709165429 -0.26618641562940759 0 0.14275904560399111 -0.25945725309375861 0 0.15128247879849499 -0.26292486595599002 0 0.1517600770447052 -0.28164214899084639 0 0.1364827709165429 -0.26618641562940759 0 0.15128247879849499 -0.26292486595599002 0 0.1517600770447052 -0.28164214899084639 0 0.15128247879849499 -0.26292486595599002 0 0.15776774232478771 -0.26956647822523339 0 0.1517600770447052 -0.28164214899084639 0 0.1311170075682456 -0.27142576198599933 0 0.1517600770447052 -0.28164214899084639 0 0.1364827709165429 -0.26618641562940759 0 0.1517600770447052 -0.28164214899084639 0 0.16209364730358741 -0.27452888323759039 0 0.16594555478614451 -0.28284233368471318 0 0.1517600770447052 -0.28164214899084639 0 0.16209364730358741 -0.27452888323759039 0 0.15776774232478771 -0.26956647822523339 0 0.16209364730358741 -0.27452888323759039 0 0.15776774232478771 -0.26956647822523339 0 0.16574248336044761 -0.26746108990676593 0 0.15128247879849499 -0.26292486595599002 0 0.15776774232478771 -0.26956647822523339 0 0.16574248336044761 -0.26746108990676593 0 0.16209364730358741 -0.27452888323759039 0 0.16574248336044761 -0.26746108990676593 0 0.16920230535812411 -0.27329149954452342 0 0.16209364730358741 -0.27452888323759039 0 0.16920230535812411 -0.27329149954452342 0 0.16594555478614451 -0.28284233368471318 0 0.16920230535812411 -0.27329149954452342 0 0.1710222018321049 -0.28124575318360368 0 0.16594555478614451 -0.28284233368471318 0 0.16574248336044761 -0.26746108990676593 0 0.16001236861667459 -0.2513654190734112 0 0.16988601458932601 -0.2589500224365659 0 0.16574248336044761 -0.26746108990676593 0 0.16988601458932601 -0.2589500224365659 0 0.17628584543496439 -0.26683535894776161 0 0.16001236861667459 -0.2513654190734112 0 0.16988601458932601 -0.2589500224365659 0 0.16978669848249819 -0.25098739912941831 0 0.1767458594742066 -0.25730285456071711 0 0.17619278994504239 -0.24587918172992959 0 0.18399505531774341 -0.24981832115951039 0 0.16978669848249819 -0.25098739912941831 0 0.1767458594742066 -0.25730285456071711 0 0.17619278994504239 -0.24587918172992959 0 0.16988601458932601 -0.2589500224365659 0 0.16978669848249819 -0.25098739912941831 0 0.1767458594742066 -0.25730285456071711 0 0.16988601458932601 -0.2589500224365659 0 0.1767458594742066 -0.25730285456071711 0 0.17628584543496439 -0.26683535894776161 0 0.1767458594742066 -0.25730285456071711 0 0.17628584543496439 -0.26683535894776161 0 0.1845366839674035 -0.26640487959885623 0 0.1767458594742066 -0.25730285456071711 0 0.18706352147094041 -0.25756661524031438 0 0.1845366839674035 -0.26640487959885623 0 0.1767458594742066 -0.25730285456071711 0 0.18706352147094041 -0.25756661524031438 0 0.18399505531774341 -0.24981832115951039 0 0.18852187410829821 -0.28466447112163068 0 0.17628584543496439 -0.26683535894776161 0 0.1845366839674035 -0.26640487959885623 0 0.18852187410829821 -0.28466447112163068 0 0.16574248336044761 -0.26746108990676593 0 0.18852187410829821 -0.28466447112163068 0 0.16574248336044761 -0.26746108990676593 0 0.17628584543496439 -0.26683535894776161 0 0.16920230535812411 -0.27329149954452342 0 0.18747516626574931 -0.28692639975368628 0 0.17602993407772211 -0.2832030986568283 0 0.18852187410829821 -0.28466447112163068 0 0.16574248336044761 -0.26746108990676593 0 0.16920230535812411 -0.27329149954452342 0 0.16920230535812411 -0.27329149954452342 0 0.18747516626574931 -0.28692639975368628 0 0.16920230535812411 -0.27329149954452342 0 0.1710222018321049 -0.28124575318360368 0 0.17602993407772211 -0.2832030986568283 0 0.18747516626574931 -0.28692639975368628 0 0.1806905449634813 -0.28832929748571318 0 0.17602993407772211 -0.2832030986568283 0 0.18852187410829821 -0.28466447112163068 0 0.16920230535812411 -0.27329149954452342 0 0.18747516626574931 -0.28692639975368628 0 0.18747516626574931 -0.28692639975368628 0 0.1806905449634813 -0.28832929748571318 0 0.18301660310609241 -0.29114958545392738 0 0.17291101310642881 -0.28564608084835003 0 0.17864991096044419 -0.29495009963706692 0 0.16594555478614451 -0.28284233368471318 0 0.1806905449634813 -0.28832929748571318 0 0.17602993407772211 -0.2832030986568283 0 0.17673138357400531 -0.28840876668861409 0 0.17602993407772211 -0.2832030986568283 0 0.17673138357400531 -0.28840876668861409 0 0.17291101310642881 -0.28564608084835003 0 0.1710222018321049 -0.28124575318360368 0 0.17602993407772211 -0.2832030986568283 0 0.17291101310642881 -0.28564608084835003 0 0.17673138357400531 -0.28840876668861409 0 0.17291101310642881 -0.28564608084835003 0 0.17864991096044419 -0.29495009963706692 0 0.17673138357400531 -0.28840876668861409 0 0.17909088347012619 -0.29088019083727579 0 0.17864991096044419 -0.29495009963706692 0 0.1806905449634813 -0.28832929748571318 0 0.17673138357400531 -0.28840876668861409 0 0.17909088347012619 -0.29088019083727579 0 0.17909088347012619 -0.29088019083727579 0 0.17864991096044419 -0.29495009963706692 0 0.18114425154506539 -0.29221912984395187 0 0.18747516626574931 -0.28692639975368628 0 0.18734834214976739 -0.29514628785519947 0 0.1827564496500734 -0.29712351473235832 0 0.18747516626574931 -0.28692639975368628 0 0.18301660310609241 -0.29114958545392738 0 0.1827564496500734 -0.29712351473235832 0 0.18114425154506539 -0.29221912984395187 0 0.18301660310609241 -0.29114958545392738 0 0.1827564496500734 -0.29712351473235832 0 0.17864991096044419 -0.29495009963706692 0 0.18114425154506539 -0.29221912984395187 0 0.1827564496500734 -0.29712351473235832 0 0.18747516626574931 -0.28692639975368628 0 0.1827564496500734 -0.29712351473235832 0 0.1806905449634813 -0.28832929748571318 0 0.18114425154506539 -0.29221912984395187 0 0.18301660310609241 -0.29114958545392738 0 0.1806905449634813 -0.28832929748571318 0 0.17909088347012619 -0.29088019083727579 0 0.18114425154506539 -0.29221912984395187 0 0.18802618722583669 -0.31833181955932999 0 0.18221347423979239 -0.30458962683289892 0 0.1698931321352706 -0.29998698427508858 0 0.1880606218677118 -0.30022154946313712 0 0.18734834214976739 -0.29514628785519947 0 0.1827564496500734 -0.29712351473235832 0 0.19009702279388629 -0.3064242775921906 0 0.1880606218677118 -0.30022154946313712 0 0.18221347423979239 -0.30458962683289892 0 0.18802618722583669 -0.31833181955932999 0 0.17151825735526699 -0.31325416760549368 0 0.1698931321352706 -0.29998698427508858 0 0.1880606218677118 -0.30022154946313712 0 0.18221347423979239 -0.30458962683289892 0 0.1827564496500734 -0.29712351473235832 0 0.18802618722583669 -0.31833181955932999 0 0.1698931321352706 -0.29998698427508858 0 0.17864991096044419 -0.29495009963706692 0 0.1827564496500734 -0.29712351473235832 0 0.17837824174639511 -0.29916255636935318 0 0.18221347423979239 -0.30458962683289892 0 0.1827564496500734 -0.29712351473235832 0 0.17837824174639511 -0.29916255636935318 0 0.19009702279388629 -0.3064242775921906 0 0.18802618722583669 -0.31833181955932999 0 0.18221347423979239 -0.30458962683289892 0 0.18221347423979239 -0.30458962683289892 0 0.17837824174639511 -0.29916255636935318 0 0.1698931321352706 -0.29998698427508858 0 0.17864991096044419 -0.29495009963706692 0 0.17837824174639511 -0.29916255636935318 0 0.1698931321352706 -0.29998698427508858 0 0.17151825735526699 -0.31325416760549368 0 0.1698931321352706 -0.29998698427508858 0 0.1602411687519314 -0.31190927739118429 0 0.15432967412725099 -0.29846298066074151 0 0.1698931321352706 -0.29998698427508858 0 0.1602411687519314 -0.31190927739118429 0 0.1517600770447052 -0.28164214899084639 0 0.17864991096044419 -0.29495009963706692 0 0.1698931321352706 -0.29998698427508858 0 0.1517600770447052 -0.28164214899084639 0 0.1698931321352706 -0.29998698427508858 0 0.15432967412725099 -0.29846298066074151 0 0.1517600770447052 -0.28164214899084639 0 0.1698931321352706 -0.29998698427508858 0 0.1517600770447052 -0.28164214899084639 0 0.17864991096044419 -0.29495009963706692 0 0.1517600770447052 -0.28164214899084639 0 0.17864991096044419 -0.29495009963706692 0 0.16594555478614451 -0.28284233368471318 0 0.1710222018321049 -0.28124575318360368 0 0.17291101310642881 -0.28564608084835003 0 0.16594555478614451 -0.28284233368471318 0 0.21438456257476449 -0.5 0 0.2048745361024723 -0.48472171768082351 0 0.18744203257390391 -0.5 0 0.19122796324104871 -0.48466606029959602 0 0.2048745361024723 -0.48472171768082351 0 0.18744203257390391 -0.5 0 0.19122796324104871 -0.48466606029959602 0 0.20365346230900849 -0.47086657296764728 0 0.1938641377332887 -0.4633108835168005 0 0.19122796324104871 -0.48466606029959602 0 0.20365346230900849 -0.47086657296764728 0 0.2048745361024723 -0.48472171768082351 0 0.21766866328091511 -0.47157360957620892 0 0.2048745361024723 -0.48472171768082351 0 0.22288060450936709 -0.48400008360299168 0 0.20365346230900849 -0.47086657296764728 0 0.21766866328091511 -0.47157360957620892 0 0.2048745361024723 -0.48472171768082351 0 0.21438456257476449 -0.5 0 0.2048745361024723 -0.48472171768082351 0 0.22288060450936709 -0.48400008360299168 0 0.21438456257476449 -0.5 0 0.23633351028628971 -0.48712361601618398 0 0.2413270925756249 -0.5 0 0.21438456257476449 -0.5 0 0.23633351028628971 -0.48712361601618398 0 0.22288060450936709 -0.48400008360299168 0 0.25270961841775552 -0.48460016746525392 0 0.23633351028628971 -0.48712361601618398 0 0.2413270925756249 -0.5 0 0.25270961841775552 -0.48460016746525392 0 0.23633351028628971 -0.48712361601618398 0 0.23949561189523169 -0.47426551941090739 0 0.23949561189523169 -0.47426551941090739 0 0.22288060450936709 -0.48400008360299168 0 0.22545312399173489 -0.46028769725088831 0 0.21766866328091511 -0.47157360957620892 0 0.22288060450936709 -0.48400008360299168 0 0.22545312399173489 -0.46028769725088831 0 0.23633351028628971 -0.48712361601618398 0 0.23949561189523169 -0.47426551941090739 0 0.22288060450936709 -0.48400008360299168 0 0.22288060450936709 -0.48400008360299168 0 0.22545312399173489 -0.46028769725088831 0 0.21766866328091511 -0.47157360957620892 0 0.22545312399173489 -0.46028769725088831 0 0.2186728293425339 -0.44755637628226819 0 0.2588368117714554 -0.46700690363883102 0 0.23949561189523169 -0.47426551941090739 0 0.2409729068143365 -0.46262444708906358 0 0.22545312399173489 -0.46028769725088831 0 0.2409729068143365 -0.46262444708906358 0 0.24480843210435321 -0.45079661158300749 0 0.2588368117714554 -0.46700690363883102 0 0.2409729068143365 -0.46262444708906358 0 0.24480843210435321 -0.45079661158300749 0 0.23949561189523169 -0.47426551941090739 0 0.22545312399173489 -0.46028769725088831 0 0.2409729068143365 -0.46262444708906358 0 0.24480843210435321 -0.45079661158300749 0 0.22802564347410281 -0.43657531089878487 0 0.2418992233321238 -0.43333026798624508 0 0.25513396950241118 -0.43290986753561628 0 0.24480843210435321 -0.45079661158300749 0 0.2418992233321238 -0.43333026798624508 0 0.22545312399173489 -0.46028769725088831 0 0.22802564347410281 -0.43657531089878487 0 0.2186728293425339 -0.44755637628226819 0 0.21246462128442831 -0.43168381348743168 0 0.22802564347410281 -0.43657531089878487 0 0.22545312399173489 -0.46028769725088831 0 0.2186728293425339 -0.44755637628226819 0 0.22802564347410281 -0.43657531089878487 0 0.22545312399173489 -0.46028769725088831 0 0.24480843210435321 -0.45079661158300749 0 0.22802564347410281 -0.43657531089878487 0 0.20442019459899149 -0.44533796874460208 0 0.2186728293425339 -0.44755637628226819 0 0.21246462128442831 -0.43168381348743168 0 0.21766866328091511 -0.47157360957620892 0 0.20442019459899149 -0.44533796874460208 0 0.21766866328091511 -0.47157360957620892 0 0.20442019459899149 -0.44533796874460208 0 0.2186728293425339 -0.44755637628226819 0 0.20365346230900849 -0.47086657296764728 0 0.21766866328091511 -0.47157360957620892 0 0.20442019459899149 -0.44533796874460208 0 0.20365346230900849 -0.47086657296764728 0 0.20442019459899149 -0.44533796874460208 0 0.1938641377332887 -0.4633108835168005 0 0.20442019459899149 -0.44533796874460208 0 0.18484232774876749 -0.43033534366960768 0 0.18590039067086719 -0.44115637567916172 0 0.20442019459899149 -0.44533796874460208 0 0.18923595964957429 -0.45067509688328122 0 0.18590039067086719 -0.44115637567916172 0 0.20442019459899149 -0.44533796874460208 0 0.1938641377332887 -0.4633108835168005 0 0.18923595964957429 -0.45067509688328122 0 0.20442019459899149 -0.44533796874460208 0 0.1911717259170673 -0.41910232791299562 0 0.20473537155931409 -0.42802668409371708 0 0.20442019459899149 -0.44533796874460208 0 0.1911717259170673 -0.41910232791299562 0 0.20442019459899149 -0.44533796874460208 0 0.1911717259170673 -0.41910232791299562 0 0.18484232774876749 -0.43033534366960768 0 0.1911717259170673 -0.41910232791299562 0 0.21088494443676881 -0.41598262622983972 0 0.20473537155931409 -0.42802668409371708 0 0.18851111772050869 -0.41383358608972459 0 0.208966154163157 -0.40126827473642579 0 0.1911717259170673 -0.41910232791299562 0 0.21088494443676881 -0.41598262622983972 0 0.1911717259170673 -0.41910232791299562 0 0.18851111772050869 -0.41383358608972459 0 0.21088494443676881 -0.41598262622983972 0 0.18851111772050869 -0.41383358608972459 0 0.21088494443676881 -0.41598262622983972 0 0.208966154163157 -0.40126827473642579 0 0.1911717259170673 -0.41910232791299562 0 0.18851111772050869 -0.41383358608972459 0 0.21088494443676881 -0.41598262622983972 0 0.22155668588658281 -0.40529615173032069 0 0.208966154163157 -0.40126827473642579 0 0.21088494443676881 -0.41598262622983972 0 0.20473537155931409 -0.42802668409371708 0 0.21246462128442831 -0.43168381348743168 0 0.21088494443676881 -0.41598262622983972 0 0.21246462128442831 -0.43168381348743168 0 0.21959695705502991 -0.42408781639437282 0 0.20442019459899149 -0.44533796874460208 0 0.20473537155931409 -0.42802668409371708 0 0.21246462128442831 -0.43168381348743168 0 0.21246462128442831 -0.43168381348743168 0 0.21959695705502991 -0.42408781639437282 0 0.22802564347410281 -0.43657531089878487 0 0.22802564347410281 -0.43657531089878487 0 0.23614533994983331 -0.4244462479719151 0 0.23059816295646979 -0.4128629245466815 0 0.22802564347410281 -0.43657531089878487 0 0.23059816295646979 -0.4128629245466815 0 0.21959695705502991 -0.42408781639437282 0 0.22802564347410281 -0.43657531089878487 0 0.23059816295646979 -0.4128629245466815 0 0.22802564347410281 -0.43657531089878487 0 0.2418992233321238 -0.43333026798624508 0 0.23614533994983331 -0.4244462479719151 0 0.2418992233321238 -0.43333026798624508 0 0.23614533994983331 -0.4244462479719151 0 0.2453827316299185 -0.42192330194190181 0 0.25513396950241118 -0.43290986753561628 0 0.2418992233321238 -0.43333026798624508 0 0.2453827316299185 -0.42192330194190181 0 0.256136481120742 -0.41447562176841068 0 0.2453827316299185 -0.42192330194190181 0 0.24629253832767661 -0.41022035877505542 0 0.2453827316299185 -0.42192330194190181 0 0.24629253832767661 -0.41022035877505542 0 0.2366098857920339 -0.41191154353144788 0 0.23614533994983331 -0.4244462479719151 0 0.2366098857920339 -0.41191154353144788 0 0.23059816295646979 -0.4128629245466815 0 0.23614533994983331 -0.4244462479719151 0 0.2453827316299185 -0.42192330194190181 0 0.2366098857920339 -0.41191154353144788 0 0.24629253832767661 -0.41022035877505542 0 0.2366098857920339 -0.41191154353144788 0 0.2422505545635501 -0.40276464775944387 0 0.21088494443676881 -0.41598262622983972 0 0.23059816295646979 -0.4128629245466815 0 0.2366098857920339 -0.41191154353144788 0 0.23059816295646979 -0.4128629245466815 0 0.23156745731421779 -0.4039283829592023 0 0.23059816295646979 -0.4128629245466815 0 0.22155668588658281 -0.40529615173032069 0 0.23156745731421779 -0.4039283829592023 0 0.23059816295646979 -0.4128629245466815 0 0.23156745731421779 -0.4039283829592023 0 0.21088494443676881 -0.41598262622983972 0 0.23059816295646979 -0.4128629245466815 0 0.22155668588658281 -0.40529615173032069 0 0.21088494443676881 -0.41598262622983972 0 0.21959695705502991 -0.42408781639437282 0 0.23059816295646979 -0.4128629245466815 0 0.2366098857920339 -0.41191154353144788 0 0.23059816295646979 -0.4128629245466815 0 0.22155668588658281 -0.40529615173032069 0 0.22942119060580499 -0.38870296338312649 0 0.208966154163157 -0.40126827473642579 0 0.22155668588658281 -0.40529615173032069 0 0.23156745731421779 -0.4039283829592023 0 0.22942119060580499 -0.38870296338312649 0 0.22942119060580499 -0.38870296338312649 0 0.208966154163157 -0.40126827473642579 0 0.23156745731421779 -0.4039283829592023 0 0.24309899287842279 -0.39271330151873202 0 0.2422505545635501 -0.40276464775944387 0 0.2366098857920339 -0.41191154353144788 0 0.23156745731421779 -0.4039283829592023 0 0.2422505545635501 -0.40276464775944387 0 0.23156745731421779 -0.4039283829592023 0 0.24309899287842279 -0.39271330151873202 0 0.22942119060580499 -0.38870296338312649 0 0.25108303853213881 -0.40002667887407228 0 0.24629253832767661 -0.41022035877505542 0 0.2422505545635501 -0.40276464775944387 0 0.25108303853213881 -0.40002667887407228 0 0.24309899287842279 -0.39271330151873202 0 0.2422505545635501 -0.40276464775944387 0 0.24987622704845311 -0.37613765202982719 0 0.22942119060580499 -0.38870296338312649 0 0.24309899287842279 -0.39271330151873202 0 0.24987622704845311 -0.37613765202982719 0 0.22942119060580499 -0.38870296338312649 0 0.24987622704845311 -0.37613765202982719 0 0.23474048966473349 -0.38137370792841258 0 0.22942119060580499 -0.38870296338312649 0 0.25687819372407023 -0.38903915957053298 0 0.24309899287842279 -0.39271330151873202 0 0.24987622704845311 -0.37613765202982719 0 0.23679608458568241 -0.3713456781615978 0 0.24987622704845311 -0.37613765202982719 0 0.23474048966473349 -0.38137370792841258 0 0.23474048966473349 -0.38137370792841258 0 0.23010576568282681 -0.37607478874810818 0 0.22189277223980711 -0.38054577212349588 0 0.23474048966473349 -0.38137370792841258 0 0.22189277223980711 -0.38054577212349588 0 0.20961824525516401 -0.3936281247522696 0 0.23474048966473349 -0.38137370792841258 0 0.22942119060580499 -0.38870296338312649 0 0.20961824525516401 -0.3936281247522696 0 0.23679608458568241 -0.3713456781615978 0 0.23474048966473349 -0.38137370792841258 0 0.23010576568282681 -0.37607478874810818 0 0.23474048966473349 -0.38137370792841258 0 0.20961824525516401 -0.3936281247522696 0 0.22699371624108439 -0.37103399677892651 0 0.23010576568282681 -0.37607478874810818 0 0.22189277223980711 -0.38054577212349588 0 0.21663927632257499 -0.37152038636996992 0 0.22189277223980711 -0.38054577212349588 0 0.21119602619295649 -0.38157571206759561 0 0.21663927632257499 -0.37152038636996992 0 0.21119602619295649 -0.38157571206759561 0 0.20576161095015591 -0.37595213443190167 0 0.21119602619295649 -0.38157571206759561 0 0.20576161095015591 -0.37595213443190167 0 0.20229958674085519 -0.38616776423662919 0 0.21119602619295649 -0.38157571206759561 0 0.20961824525516401 -0.3936281247522696 0 0.20229958674085519 -0.38616776423662919 0 0.22189277223980711 -0.38054577212349588 0 0.21119602619295649 -0.38157571206759561 0 0.20961824525516401 -0.3936281247522696 0 0.22942119060580499 -0.38870296338312649 0 0.208966154163157 -0.40126827473642579 0 0.20961824525516401 -0.3936281247522696 0 0.20961824525516401 -0.3936281247522696 0 0.18449600084559339 -0.40588254157612419 0 0.20961824525516401 -0.3936281247522696 0 0.19262774622386039 -0.39991289132556063 0 0.20229958674085519 -0.38616776423662919 0 0.18851111772050869 -0.41383358608972459 0 0.20961824525516401 -0.3936281247522696 0 0.18449600084559339 -0.40588254157612419 0 0.19262774622386039 -0.39991289132556063 0 0.193172237845981 -0.38760648281860499 0 0.20229958674085519 -0.38616776423662919 0 0.20961824525516401 -0.3936281247522696 0 0.19262774622386039 -0.39991289132556063 0 0.18449600084559339 -0.40588254157612419 0 0.18851111772050869 -0.41383358608972459 0 0.208966154163157 -0.40126827473642579 0 0.20961824525516401 -0.3936281247522696 0 0.19262774622386039 -0.39991289132556063 0 0.18963514604776821 -0.39361523539988952 0 0.193172237845981 -0.38760648281860499 0 0.19262774622386039 -0.39991289132556063 0 0.18963514604776821 -0.39361523539988952 0 0.18221634088723479 -0.40136818287387582 0 0.18963514604776821 -0.39361523539988952 0 0.193172237845981 -0.38760648281860499 0 0.18267650324237161 -0.39405502657648112 0 0.193172237845981 -0.38760648281860499 0 0.1910424400336663 -0.37547354736401328 0 0.18267650324237161 -0.39405502657648112 0 0.20576161095015591 -0.37595213443190167 0 0.1910424400336663 -0.37547354736401328 0 0.20229958674085519 -0.38616776423662919 0 0.193172237845981 -0.38760648281860499 0 0.1910424400336663 -0.37547354736401328 0 0.20229958674085519 -0.38616776423662919 0 0.1910424400336663 -0.37547354736401328 0 0.17822948803450961 -0.38676940160015832 0 0.1737051017910701 -0.38004230502140057 0 0.1910424400336663 -0.37547354736401328 0 0.18267650324237161 -0.39405502657648112 0 0.1910424400336663 -0.37547354736401328 0 0.17822948803450961 -0.38676940160015832 0 0.18267650324237161 -0.39405502657648112 0 0.17822948803450961 -0.38676940160015832 0 0.17910183421640119 -0.39520059623836468 0 0.1646215608890387 -0.38907553280053181 0 0.17822948803450961 -0.38676940160015832 0 0.1737051017910701 -0.38004230502140057 0 0.1646215608890387 -0.38907553280053181 0 0.17822948803450961 -0.38676940160015832 0 0.18267650324237161 -0.39405502657648112 0 0.17910183421640119 -0.39520059623836468 0 0.18221634088723479 -0.40136818287387582 0 0.17910183421640119 -0.39520059623836468 0 0.15805845094365739 -0.40474493864538458 0 0.18963514604776821 -0.39361523539988952 0 0.18267650324237161 -0.39405502657648112 0 0.18221634088723479 -0.40136818287387582 0 0.18267650324237161 -0.39405502657648112 0 0.18221634088723479 -0.40136818287387582 0 0.17910183421640119 -0.39520059623836468 0 0.18221634088723479 -0.40136818287387582 0 0.17910183421640119 -0.39520059623836468 0 0.19262774622386039 -0.39991289132556063 0 0.18221634088723479 -0.40136818287387582 0 0.19262774622386039 -0.39991289132556063 0 0.18449600084559339 -0.40588254157612419 0 0.18221634088723479 -0.40136818287387582 0 0.18449600084559339 -0.40588254157612419 0 0.18221634088723479 -0.40136818287387582 0 0.17910183421640119 -0.39520059623836468 0 0.15805845094365739 -0.40474493864538458 0 0.1646215608890387 -0.38907553280053181 0 0.18221634088723479 -0.40136818287387582 0 0.15805845094365739 -0.40474493864538458 0 0.15805845094365739 -0.40474493864538458 0 0.1646215608890387 -0.38907553280053181 0 0.14706277844018539 -0.39464292458295508 0 0.1737051017910701 -0.38004230502140057 0 0.1646215608890387 -0.38907553280053181 0 0.16307541855137739 -0.37743582412871929 0 0.17035242753357599 -0.36877211446365682 0 0.1737051017910701 -0.38004230502140057 0 0.16307541855137739 -0.37743582412871929 0 0.1569593121701936 -0.36832063090657668 0 0.16307541855137739 -0.37743582412871929 0 0.14973869037300869 -0.38096853745143089 0 0.1646215608890387 -0.38907553280053181 0 0.16307541855137739 -0.37743582412871929 0 0.14973869037300869 -0.38096853745143089 0 0.1646215608890387 -0.38907553280053181 0 0.14973869037300869 -0.38096853745143089 0 0.14706277844018539 -0.39464292458295508 0 0.14973869037300869 -0.38096853745143089 0 0.1375772795987745 -0.38493757303029391 0 0.14706277844018539 -0.39464292458295508 0 0.13524945632583441 -0.37311377610700652 0 0.14973869037300869 -0.38096853745143089 0 0.1375772795987745 -0.38493757303029391 0 0.13524945632583441 -0.37311377610700652 0 0.1375772795987745 -0.38493757303029391 0 0.12609635470998201 -0.38402791619100712 0 0.1375772795987745 -0.38493757303029391 0 0.12609635470998201 -0.38402791619100712 0 0.13569313113510631 -0.39589912548093298 0 0.12645644117523869 -0.39722706905544619 0 0.13569313113510631 -0.39589912548093298 0 0.1339005610000801 -0.40812169441689322 0 0.12645644117523869 -0.39722706905544619 0 0.1339005610000801 -0.40812169441689322 0 0.1250254850364893 -0.40936224001308058 0 0.12609635470998201 -0.38402791619100712 0 0.12645644117523869 -0.39722706905544619 0 0.13569313113510631 -0.39589912548093298 0 0.1375772795987745 -0.38493757303029391 0 0.13569313113510631 -0.39589912548093298 0 0.14706277844018539 -0.39464292458295508 0 0.13569313113510631 -0.39589912548093298 0 0.14706277844018539 -0.39464292458295508 0 0.1339005610000801 -0.40812169441689322 0 0.13569313113510631 -0.39589912548093298 0 0.1339005610000801 -0.40812169441689322 0 0.15805845094365739 -0.40474493864538458 0 0.14706277844018539 -0.39464292458295508 0 0.1339005610000801 -0.40812169441689322 0 0.15805845094365739 -0.40474493864538458 0 0.1339005610000801 -0.40812169441689322 0 0.15805845094365739 -0.40474493864538458 0 0.15398562739609989 -0.414436145328195 0 0.14500783119440661 -0.41410657591589572 0 0.15805845094365739 -0.40474493864538458 0 0.14500783119440661 -0.41410657591589572 0 0.1339005610000801 -0.40812169441689322 0 0.15398562739609989 -0.414436145328195 0 0.15088002640467921 -0.42009116626417142 0 0.14500783119440661 -0.41410657591589572 0 0.15088002640467921 -0.42009116626417142 0 0.15979138776423191 -0.42406840149736191 0 0.15636365466176849 -0.41960526040447821 0 0.15398562739609989 -0.414436145328195 0 0.15088002640467921 -0.42009116626417142 0 0.15636365466176849 -0.41960526040447821 0 0.15088002640467921 -0.42009116626417142 0 0.14500783119440661 -0.41410657591589572 0 0.14354831806896931 -0.42663893719234869 0 0.14500783119440661 -0.41410657591589572 0 0.1339005610000801 -0.40812169441689322 0 0.13212255532719441 -0.42024495614079282 0 0.14500783119440661 -0.41410657591589572 0 0.13212255532719441 -0.42024495614079282 0 0.14354831806896931 -0.42663893719234869 0 0.1339005610000801 -0.40812169441689322 0 0.13212255532719441 -0.42024495614079282 0 0.13212255532719441 -0.42024495614079282 0 0.1250254850364893 -0.40936224001308058 0 0.117866085899093 -0.41583132647739651 0 0.13212255532719441 -0.42024495614079282 0 0.1250254850364893 -0.40936224001308058 0 0.1339005610000801 -0.40812169441689322 0 0.13212255532719441 -0.42024495614079282 0 0.1250254850364893 -0.40936224001308058 0 0.1339005610000801 -0.40812169441689322 0 0.1250254850364893 -0.40936224001308058 0 0.13212255532719441 -0.42024495614079282 0 0.14354831806896931 -0.42663893719234869 0 0.1460535583969573 -0.44160689079445481 0 0.13212255532719441 -0.42024495614079282 0 0.128223579302082 -0.44682997076052833 0 0.13212255532719441 -0.42024495614079282 0 0.128223579302082 -0.44682997076052833 0 0.1159996351348133 -0.43474120747525058 0 0.13212255532719441 -0.42024495614079282 0 0.1460535583969573 -0.44160689079445481 0 0.13212255532719441 -0.42024495614079282 0 0.1460535583969573 -0.44160689079445481 0 0.128223579302082 -0.44682997076052833 0 0.15088002640467921 -0.42009116626417142 0 0.14354831806896931 -0.42663893719234869 0 0.15979138776423191 -0.42406840149736191 0 0.14354831806896931 -0.42663893719234869 0 0.15979138776423191 -0.42406840149736191 0 0.14354831806896931 -0.42663893719234869 0 0.15423293294423909 -0.43386412417913311 0 0.1460535583969573 -0.44160689079445481 0 0.14354831806896931 -0.42663893719234869 0 0.15423293294423909 -0.43386412417913311 0 0.15979138776423191 -0.42406840149736191 0 0.15423293294423909 -0.43386412417913311 0 0.16088991666547389 -0.43196094602310392 0 0.16557730454712019 -0.44172028084172121 0 0.1713980071398 -0.42434598792645378 0 0.15979138776423191 -0.42406840149736191 0 0.1760344574594947 -0.42149786580237669 0 0.15423293294423909 -0.43386412417913311 0 0.16088991666547389 -0.43196094602310392 0 0.15979138776423191 -0.42406840149736191 0 0.15979138776423191 -0.42406840149736191 0 0.1760344574594947 -0.42149786580237669 0 0.16626302434537371 -0.43076979168845952 0 0.17509911994716071 -0.43336510097506958 0 0.16557730454712019 -0.44172028084172121 0 0.16088991666547389 -0.43196094602310392 0 0.16626302434537371 -0.43076979168845952 0 0.16557730454712019 -0.44172028084172121 0 0.16626302434537371 -0.43076979168845952 0 0.1713980071398 -0.42434598792645378 0 0.17509911994716071 -0.43336510097506958 0 0.16626302434537371 -0.43076979168845952 0 0.1713980071398 -0.42434598792645378 0 0.15979138776423191 -0.42406840149736191 0 0.16088991666547389 -0.43196094602310392 0 0.16626302434537371 -0.43076979168845952 0 0.15979138776423191 -0.42406840149736191 0 0.15636365466176849 -0.41960526040447821 0 0.16176651730702801 -0.41283252991975622 0 0.17042982775368151 -0.41274390099030239 0 0.18221634088723479 -0.40136818287387582 0 0.15805845094365739 -0.40474493864538458 0 0.17042982775368151 -0.41274390099030239 0 0.15979138776423191 -0.42406840149736191 0 0.15636365466176849 -0.41960526040447821 0 0.17042982775368151 -0.41274390099030239 0 0.15636365466176849 -0.41960526040447821 0 0.17042982775368151 -0.41274390099030239 0 0.15979138776423191 -0.42406840149736191 0 0.17042982775368151 -0.41274390099030239 0 0.1760344574594947 -0.42149786580237669 0 0.15398562739609989 -0.414436145328195 0 0.15636365466176849 -0.41960526040447821 0 0.16176651730702801 -0.41283252991975622 0 0.15805845094365739 -0.40474493864538458 0 0.15398562739609989 -0.414436145328195 0 0.16176651730702801 -0.41283252991975622 0 0.15805845094365739 -0.40474493864538458 0 0.16176651730702801 -0.41283252991975622 0 0.17042982775368151 -0.41274390099030239 0 0.17042982775368151 -0.41274390099030239 0 0.1760344574594947 -0.42149786580237669 0 0.17986785094481991 -0.4134894736146324 0 0.18449600084559339 -0.40588254157612419 0 0.17042982775368151 -0.41274390099030239 0 0.18449600084559339 -0.40588254157612419 0 0.18221634088723479 -0.40136818287387582 0 0.17042982775368151 -0.41274390099030239 0 0.18449600084559339 -0.40588254157612419 0 0.17042982775368151 -0.41274390099030239 0 0.17986785094481991 -0.4134894736146324 0 0.18851111772050869 -0.41383358608972459 0 0.18449600084559339 -0.40588254157612419 0 0.18851111772050869 -0.41383358608972459 0 0.18449600084559339 -0.40588254157612419 0 0.17986785094481991 -0.4134894736146324 0 0.18851111772050869 -0.41383358608972459 0 0.1760344574594947 -0.42149786580237669 0 0.1911717259170673 -0.41910232791299562 0 0.1760344574594947 -0.42149786580237669 0 0.18851111772050869 -0.41383358608972459 0 0.1760344574594947 -0.42149786580237669 0 0.17986785094481991 -0.4134894736146324 0 0.1911717259170673 -0.41910232791299562 0 0.18851111772050869 -0.41383358608972459 0 0.1760344574594947 -0.42149786580237669 0 0.1911717259170673 -0.41910232791299562 0 0.1760344574594947 -0.42149786580237669 0 0.18484232774876749 -0.43033534366960768 0 0.18484232774876749 -0.43033534366960768 0 0.17509911994716071 -0.43336510097506958 0 0.18590039067086719 -0.44115637567916172 0 0.18484232774876749 -0.43033534366960768 0 0.17509911994716071 -0.43336510097506958 0 0.17653319474121221 -0.42750765242104072 0 0.1713980071398 -0.42434598792645378 0 0.17509911994716071 -0.43336510097506958 0 0.17653319474121221 -0.42750765242104072 0 0.1760344574594947 -0.42149786580237669 0 0.18484232774876749 -0.43033534366960768 0 0.17653319474121221 -0.42750765242104072 0 0.1713980071398 -0.42434598792645378 0 0.1760344574594947 -0.42149786580237669 0 0.17653319474121221 -0.42750765242104072 0 0.1713980071398 -0.42434598792645378 0 0.1760344574594947 -0.42149786580237669 0 0.17791556380287959 -0.4455361086535346 0 0.17376504419967539 -0.46076368888843938 0 0.16557730454712019 -0.44172028084172121 0 0.17509911994716071 -0.43336510097506958 0 0.17791556380287959 -0.4455361086535346 0 0.18590039067086719 -0.44115637567916172 0 0.17509911994716071 -0.43336510097506958 0 0.17791556380287959 -0.4455361086535346 0 0.16557730454712019 -0.44172028084172121 0 0.18923595964957429 -0.45067509688328122 0 0.17791556380287959 -0.4455361086535346 0 0.18590039067086719 -0.44115637567916172 0 0.18923595964957429 -0.45067509688328122 0 0.17791556380287959 -0.4455361086535346 0 0.17376504419967539 -0.46076368888843938 0 0.1938641377332887 -0.4633108835168005 0 0.18923595964957429 -0.45067509688328122 0 0.17376504419967539 -0.46076368888843938 0 0.1938641377332887 -0.4633108835168005 0 0.17376504419967539 -0.46076368888843938 0 0.17718182015316611 -0.48165544175840053 0 0.17376504419967539 -0.46076368888843938 0 0.15550290350416551 -0.45157236434768988 0 0.1539044029471725 -0.46809795184702829 0 0.17376504419967539 -0.46076368888843938 0 0.16557730454712019 -0.44172028084172121 0 0.15550290350416551 -0.45157236434768988 0 0.15423293294423909 -0.43386412417913311 0 0.16557730454712019 -0.44172028084172121 0 0.15550290350416551 -0.45157236434768988 0 0.15423293294423909 -0.43386412417913311 0 0.15550290350416551 -0.45157236434768988 0 0.1460535583969573 -0.44160689079445481 0 0.15550290350416551 -0.45157236434768988 0 0.1460535583969573 -0.44160689079445481 0 0.14153074802588431 -0.45654190970348868 0 0.1460535583969573 -0.44160689079445481 0 0.128223579302082 -0.44682997076052833 0 0.14153074802588431 -0.45654190970348868 0 0.128223579302082 -0.44682997076052833 0 0.12432460327697011 -0.47341498538026422 0 0.128223579302082 -0.44682997076052833 0 0.14153074802588431 -0.45654190970348868 0 0.12432460327697011 -0.47341498538026422 0 0.1539044029471725 -0.46809795184702829 0 0.14153074802588431 -0.45654190970348868 0 0.12432460327697011 -0.47341498538026422 0 0.15550290350416551 -0.45157236434768988 0 0.1539044029471725 -0.46809795184702829 0 0.14153074802588431 -0.45654190970348868 0 0.1539044029471725 -0.46809795184702829 0 0.15048103374274721 -0.48484579871078243 0 0.12432460327697011 -0.47341498538026422 0 0.1404625649124509 -0.5 0 0.15048103374274721 -0.48484579871078243 0 0.12432460327697011 -0.47341498538026422 0 0.1404625649124509 -0.5 0 0.12042562725185831 -0.49999999999999989 0 0.12432460327697011 -0.47341498538026422 0 0.1404625649124509 -0.5 0 0.15048103374274721 -0.48484579871078243 0 0.16049950257304349 -0.50000000000000033 0 0.16049950257304349 -0.50000000000000033 0 0.17718182015316611 -0.48165544175840053 0 0.15048103374274721 -0.48484579871078243 0 0.16049950257304349 -0.50000000000000033 0 0.17718182015316611 -0.48165544175840053 0 0.17376504419967539 -0.46076368888843938 0 0.1539044029471725 -0.46809795184702829 0 0.17718182015316611 -0.48165544175840053 0 0.1539044029471725 -0.46809795184702829 0 0.15048103374274721 -0.48484579871078243 0 0.17718182015316611 -0.48165544175840053 0 0.1938641377332887 -0.4633108835168005 0 0.17718182015316611 -0.48165544175840053 0 0.19122796324104871 -0.48466606029959602 0 0.1938641377332887 -0.4633108835168005 0 0.17718182015316611 -0.48165544175840053 0 0.16049950257304349 -0.50000000000000033 0 0.17718182015316611 -0.48165544175840053 0 0.18744203257390391 -0.5 0 0.19122796324104871 -0.48466606029959602 0 0.17718182015316611 -0.48165544175840053 0 0.18744203257390391 -0.5 0 0.072018957471098571 -0.48629524479662273 0 0.069142552082564368 -0.5 0 0.082735946582200875 -0.4892045976485363 0 0.072018957471098571 -0.48629524479662273 0 0.079568506083734697 -0.4785915255016745 0 0.082735946582200875 -0.4892045976485363 0 0.072018957471098571 -0.48629524479662273 0 0.062670741706174135 -0.48944359682069549 0 0.064881374578912687 -0.4815757870058418 0 0.072018957471098571 -0.48629524479662273 0 0.069142552082564368 -0.5 0 0.062670741706174135 -0.48944359682069549 0 0.073180054077148754 -0.46968413697177741 0 0.079568506083734697 -0.4785915255016745 0 0.081395248040860374 -0.46160025678040811 0 0.067447632246636219 -0.45716428258124142 0 0.05849497948899289 -0.47642287528831911 0 0.061758178687080389 -0.47580514524370598 0 0.072018957471098571 -0.48629524479662273 0 0.064881374578912687 -0.4815757870058418 0 0.070673492561877091 -0.4782128222507579 0 0.064881374578912687 -0.4815757870058418 0 0.066280053791524171 -0.47680462027284459 0 0.061758178687080389 -0.47580514524370598 0 0.064881374578912687 -0.4815757870058418 0 0.066280053791524171 -0.47680462027284459 0 0.070673492561877091 -0.4782128222507579 0 0.066280053791524171 -0.47680462027284459 0 0.067807169338226503 -0.47162472659107291 0 0.061758178687080389 -0.47580514524370598 0 0.066280053791524171 -0.47680462027284459 0 0.067807169338226503 -0.47162472659107291 0 0.070673492561877091 -0.4782128222507579 0 0.067807169338226503 -0.47162472659107291 0 0.073180054077148754 -0.46968413697177741 0 0.070673492561877091 -0.4782128222507579 0 0.073180054077148754 -0.46968413697177741 0 0.070673492561877091 -0.4782128222507579 0 0.079568506083734697 -0.4785915255016745 0 0.072018957471098571 -0.48629524479662273 0 0.070673492561877091 -0.4782128222507579 0 0.079568506083734697 -0.4785915255016745 0 0.096876661376123455 -0.48080012839020431 0 0.081395248040860374 -0.46160025678040811 0 0.096876661376123455 -0.48080012839020431 0 0.095349939854524335 -0.46404107218864848 0 0.081395248040860374 -0.46160025678040811 0 0.079568506083734697 -0.4785915255016745 0 0.082735946582200875 -0.4892045976485363 0 0.096876661376123455 -0.48080012839020431 0 0.079568506083734697 -0.4785915255016745 0 0.096876661376123455 -0.48080012839020431 0 0.081395248040860374 -0.46160025678040811 0 0.090750313396975479 -0.5 0 0.082735946582200875 -0.4892045976485363 0 0.096876661376123455 -0.48080012839020431 0 0.069142552082564368 -0.5 0 0.090750313396975479 -0.5 0 0.082735946582200875 -0.4892045976485363 0 0.1123580747113867 -0.50000000000000033 0 0.1124728586670535 -0.48406595427175642 0 0.096876661376123455 -0.48080012839020431 0 0.090750313396975479 -0.5 0 0.1123580747113867 -0.50000000000000033 0 0.096876661376123455 -0.48080012839020431 0 0.1123580747113867 -0.50000000000000033 0 0.096876661376123455 -0.48080012839020431 0 0.1123580747113867 -0.50000000000000033 0 0.12042562725185831 -0.49999999999999989 0 0.1124728586670535 -0.48406595427175642 0 0.12042562725185831 -0.49999999999999989 0 0.1124728586670535 -0.48406595427175642 0 0.12432460327697011 -0.47341498538026422 0 0.12042562725185831 -0.49999999999999989 0 0.12432460327697011 -0.47341498538026422 0 0.1124728586670535 -0.48406595427175642 0 0.12432460327697011 -0.47341498538026422 0 0.1082250197838846 -0.46311527911574241 0 0.096876661376123455 -0.48080012839020431 0 0.095349939854524335 -0.46404107218864848 0 0.1082250197838846 -0.46311527911574241 0 0.1124728586670535 -0.48406595427175642 0 0.096876661376123455 -0.48080012839020431 0 0.1082250197838846 -0.46311527911574241 0 0.095349939854524335 -0.46404107218864848 0 0.1082250197838846 -0.46311527911574241 0 0.094902830217228867 -0.45064862446823939 0 0.128223579302082 -0.44682997076052833 0 0.12432460327697011 -0.47341498538026422 0 0.1082250197838846 -0.46311527911574241 0 0.128223579302082 -0.44682997076052833 0 0.1069391861142964 -0.44299064961396012 0 0.1159996351348133 -0.43474120747525058 0 0.128223579302082 -0.44682997076052833 0 0.1082250197838846 -0.46311527911574241 0 0.1069391861142964 -0.44299064961396012 0 0.1082250197838846 -0.46311527911574241 0 0.1069391861142964 -0.44299064961396012 0 0.094902830217228867 -0.45064862446823939 0 0.1069391861142964 -0.44299064961396012 0 0.091812697424993442 -0.4386357446441016 0 0.098414951810672224 -0.43233268446502993 0 0.1069391861142964 -0.44299064961396012 0 0.094902830217228867 -0.45064862446823939 0 0.091812697424993442 -0.4386357446441016 0 0.094902830217228867 -0.45064862446823939 0 0.091812697424993442 -0.4386357446441016 0 0.082434724511159588 -0.44537142502386151 0 0.094902830217228867 -0.45064862446823939 0 0.082434724511159588 -0.44537142502386151 0 0.081395248040860374 -0.46160025678040811 0 0.091812697424993442 -0.4386357446441016 0 0.082434724511159588 -0.44537142502386151 0 0.078149012167117934 -0.43357211405594609 0 0.095349939854524335 -0.46404107218864848 0 0.094902830217228867 -0.45064862446823939 0 0.081395248040860374 -0.46160025678040811 0 0.067447632246636219 -0.45716428258124142 0 0.065913834705597293 -0.44240038517061198 0 0.057068655694905858 -0.46015288389510001 0 0.067447632246636219 -0.45716428258124142 0 0.05849497948899289 -0.47642287528831911 0 0.067807169338226503 -0.47162472659107291 0 0.067447632246636219 -0.45716428258124142 0 0.061758178687080389 -0.47580514524370598 0 0.081395248040860374 -0.46160025678040811 0 0.067447632246636219 -0.45716428258124142 0 0.065913834705597293 -0.44240038517061198 0 0.073180054077148754 -0.46968413697177741 0 0.081395248040860374 -0.46160025678040811 0 0.067447632246636219 -0.45716428258124142 0 0.067807169338226503 -0.47162472659107291 0 0.073180054077148754 -0.46968413697177741 0 0.067447632246636219 -0.45716428258124142 0 0.081395248040860374 -0.46160025678040811 0 0.065913834705597293 -0.44240038517061198 0 0.082434724511159588 -0.44537142502386151 0 0.081395248040860374 -0.46160025678040811 0 0.065913834705597293 -0.44240038517061198 0 0.082434724511159588 -0.44537142502386151 0 0.065913834705597293 -0.44240038517061198 0 0.078149012167117934 -0.43357211405594609 0 0.065921365320016911 -0.4273577277455588 0 0.073982485551444349 -0.42005290588181732 0 0.078149012167117934 -0.43357211405594609 0 0.065913834705597293 -0.44240038517061198 0 0.065921365320016911 -0.4273577277455588 0 0.078149012167117934 -0.43357211405594609 0 0.073982485551444349 -0.42005290588181732 0 0.069775570718114244 -0.40426700169235308 0 0.060774245729122177 -0.41691050055794487 0 0.065921365320016911 -0.4273577277455588 0 0.073982485551444349 -0.42005290588181732 0 0.060774245729122177 -0.41691050055794487 0 0.073982485551444349 -0.42005290588181732 0 0.086447448161059384 -0.41120764722282821 0 0.069775570718114244 -0.40426700169235308 0 0.073982485551444349 -0.42005290588181732 0 0.086447448161059384 -0.41120764722282821 0 0.088692331433278357 -0.42535053834926723 0 0.086447448161059384 -0.41120764722282821 0 0.093827427438274241 -0.41775801958915132 0 0.099702730965631758 -0.41290181884877419 0 0.086447448161059384 -0.41120764722282821 0 0.088692331433278357 -0.42535053834926723 0 0.093827427438274241 -0.41775801958915132 0 0.088692331433278357 -0.42535053834926723 0 0.097645949564215143 -0.42435504664253748 0 0.093827427438274241 -0.41775801958915132 0 0.073982485551444349 -0.42005290588181732 0 0.088692331433278357 -0.42535053834926723 0 0.078149012167117934 -0.43357211405594609 0 0.091812697424993442 -0.4386357446441016 0 0.088692331433278357 -0.42535053834926723 0 0.078149012167117934 -0.43357211405594609 0 0.091812697424993442 -0.4386357446441016 0 0.088692331433278357 -0.42535053834926723 0 0.098414951810672224 -0.43233268446502993 0 0.098414951810672224 -0.43233268446502993 0 0.097645949564215143 -0.42435504664253748 0 0.1061961683754654 -0.43004895598907111 0 0.088692331433278357 -0.42535053834926723 0 0.098414951810672224 -0.43233268446502993 0 0.097645949564215143 -0.42435504664253748 0 0.1061961683754654 -0.43004895598907111 0 0.11152958735588871 -0.42539382439527612 0 0.1045809803654715 -0.42051706085107571 0 0.097645949564215143 -0.42435504664253748 0 0.1061961683754654 -0.43004895598907111 0 0.1045809803654715 -0.42051706085107571 0 0.1069391861142964 -0.44299064961396012 0 0.098414951810672224 -0.43233268446502993 0 0.1061961683754654 -0.43004895598907111 0 0.1061961683754654 -0.43004895598907111 0 0.1159996351348133 -0.43474120747525058 0 0.11152958735588871 -0.42539382439527612 0 0.13212255532719441 -0.42024495614079282 0 0.1159996351348133 -0.43474120747525058 0 0.11851153239627241 -0.42275952171654291 0 0.1069391861142964 -0.44299064961396012 0 0.1061961683754654 -0.43004895598907111 0 0.1159996351348133 -0.43474120747525058 0 0.1159996351348133 -0.43474120747525058 0 0.11152958735588871 -0.42539382439527612 0 0.11851153239627241 -0.42275952171654291 0 0.11152958735588871 -0.42539382439527612 0 0.11851153239627241 -0.42275952171654291 0 0.1123596205074209 -0.41890237594444008 0 0.1250254850364893 -0.40936224001308058 0 0.117866085899093 -0.41583132647739651 0 0.1096180349996463 -0.41151587164058129 0 0.1250254850364893 -0.40936224001308058 0 0.1096180349996463 -0.41151587164058129 0 0.13212255532719441 -0.42024495614079282 0 0.11851153239627241 -0.42275952171654291 0 0.117866085899093 -0.41583132647739651 0 0.117866085899093 -0.41583132647739651 0 0.1123596205074209 -0.41890237594444008 0 0.1096180349996463 -0.41151587164058129 0 0.11851153239627241 -0.42275952171654291 0 0.117866085899093 -0.41583132647739651 0 0.1123596205074209 -0.41890237594444008 0 0.11152958735588871 -0.42539382439527612 0 0.1123596205074209 -0.41890237594444008 0 0.1045809803654715 -0.42051706085107571 0 0.1123596205074209 -0.41890237594444008 0 0.1096180349996463 -0.41151587164058129 0 0.1065506547415149 -0.41613106226330793 0 0.1096180349996463 -0.41151587164058129 0 0.1065506547415149 -0.41613106226330793 0 0.099702730965631758 -0.41290181884877419 0 0.1096180349996463 -0.41151587164058129 0 0.099702730965631758 -0.41290181884877419 0 0.1096180349996463 -0.41151587164058129 0 0.099702730965631758 -0.41290181884877419 0 0.1041447551606165 -0.40305668800175581 0 0.1123596205074209 -0.41890237594444008 0 0.1065506547415149 -0.41613106226330793 0 0.1045809803654715 -0.42051706085107571 0 0.1065506547415149 -0.41613106226330793 0 0.1045809803654715 -0.42051706085107571 0 0.099702730965631758 -0.41290181884877419 0 0.1045809803654715 -0.42051706085107571 0 0.093827427438274241 -0.41775801958915132 0 0.099702730965631758 -0.41290181884877419 0 0.097645949564215143 -0.42435504664253748 0 0.1045809803654715 -0.42051706085107571 0 0.093827427438274241 -0.41775801958915132 0 0.086447448161059384 -0.41120764722282821 0 0.099702730965631758 -0.41290181884877419 0 0.095691580682652475 -0.39908469234235189 0 0.095691580682652475 -0.39908469234235189 0 0.1041447551606165 -0.40305668800175581 0 0.1115666739945345 -0.38872436917531578 0 0.099702730965631758 -0.41290181884877419 0 0.095691580682652475 -0.39908469234235189 0 0.1041447551606165 -0.40305668800175581 0 0.1096180349996463 -0.41151587164058129 0 0.1041447551606165 -0.40305668800175581 0 0.1115666739945345 -0.38872436917531578 0 0.1250254850364893 -0.40936224001308058 0 0.1115666739945345 -0.38872436917531578 0 0.1096180349996463 -0.41151587164058129 0 0.1115666739945345 -0.38872436917531578 0 0.1250254850364893 -0.40936224001308058 0 0.1096180349996463 -0.41151587164058129 0 0.1115666739945345 -0.38872436917531578 0 0.12645644117523869 -0.39722706905544619 0 0.1250254850364893 -0.40936224001308058 0 0.1115666739945345 -0.38872436917531578 0 0.12609635470998201 -0.38402791619100712 0 0.1115666739945345 -0.38872436917531578 0 0.113745377556003 -0.36324200547299851 0 0.1115666739945345 -0.38872436917531578 0 0.113745377556003 -0.36324200547299851 0 0.12609635470998201 -0.38402791619100712 0 0.12645644117523869 -0.39722706905544619 0 0.1115666739945345 -0.38872436917531578 0 0.1115666739945345 -0.38872436917531578 0 0.096372132326470572 -0.36542491223168638 0 0.1115666739945345 -0.38872436917531578 0 0.089853218628298884 -0.38394717958202601 0 0.096372132326470572 -0.36542491223168638 0 0.095691580682652475 -0.39908469234235189 0 0.1115666739945345 -0.38872436917531578 0 0.089853218628298884 -0.38394717958202601 0 0.089853218628298884 -0.38394717958202601 0 0.082924844884061683 -0.39714926844771359 0 0.072939106935086151 -0.38728773006234168 0 0.089853218628298884 -0.38394717958202601 0 0.072939106935086151 -0.38728773006234168 0 0.07582030708563034 -0.37256671738353597 0 0.095691580682652475 -0.39908469234235189 0 0.089853218628298884 -0.38394717958202601 0 0.082924844884061683 -0.39714926844771359 0 0.086447448161059384 -0.41120764722282821 0 0.082924844884061683 -0.39714926844771359 0 0.069775570718114244 -0.40426700169235308 0 0.086447448161059384 -0.41120764722282821 0 0.095691580682652475 -0.39908469234235189 0 0.082924844884061683 -0.39714926844771359 0 0.069775570718114244 -0.40426700169235308 0 0.072939106935086151 -0.38728773006234168 0 0.058313699768321348 -0.39007371912844929 0 0.082924844884061683 -0.39714926844771359 0 0.069775570718114244 -0.40426700169235308 0 0.072939106935086151 -0.38728773006234168 0 0.072939106935086151 -0.38728773006234168 0 0.05933500968155693 -0.37671477575793533 0 0.058313699768321348 -0.39007371912844929 0 0.072939106935086151 -0.38728773006234168 0 0.05933500968155693 -0.37671477575793533 0 0.07582030708563034 -0.37256671738353597 0 0.05933500968155693 -0.37671477575793533 0 0.043300396670470892 -0.38581293046691678 0 0.039079294002052851 -0.37065651216905859 0 0.05933500968155693 -0.37671477575793533 0 0.058313699768321348 -0.39007371912844929 0 0.043300396670470892 -0.38581293046691678 0 0.058313699768321348 -0.39007371912844929 0 0.0466875803122518 -0.39705513158652528 0 0.054373060569327003 -0.40663711634463268 0 0.069775570718114244 -0.40426700169235308 0 0.058313699768321348 -0.39007371912844929 0 0.054373060569327003 -0.40663711634463268 0 0.058313699768321348 -0.39007371912844929 0 0.054373060569327003 -0.40663711634463268 0 0.0466875803122518 -0.39705513158652528 0 0.042121557959679479 -0.40689397827368962 0 0.054373060569327003 -0.40663711634463268 0 0.058313699768321348 -0.39007371912844929 0 0.0466875803122518 -0.39705513158652528 0 0.043300396670470892 -0.38581293046691678 0 0.0466875803122518 -0.39705513158652528 0 0.032645317368698572 -0.39721328630736241 0 0.043300396670470892 -0.38581293046691678 0 0.0466875803122518 -0.39705513158652528 0 0.032645317368698572 -0.39721328630736241 0 0.042121557959679479 -0.40689397827368962 0 0.032645317368698572 -0.39721328630736241 0 0.043300396670470892 -0.38581293046691678 0 0.025542853711361019 -0.38384675294920401 0 0.043300396670470892 -0.38581293046691678 0 0.025542853711361019 -0.38384675294920401 0 0.039079294002052851 -0.37065651216905859 0 0.025542853711361019 -0.38384675294920401 0 0.009690974369139977 -0.39295199195252922 0 0.016784443680880379 -0.36713146693108112 0 -0.0064694903547723136 -0.38059021958606692 0 0.009690974369139977 -0.39295199195252922 0 0.016784443680880379 -0.36713146693108112 0 0.032645317368698572 -0.39721328630736241 0 0.009690974369139977 -0.39295199195252922 0 0.030062121183744069 -0.41560348860952728 0 0.032645317368698572 -0.39721328630736241 0 0.025542853711361019 -0.38384675294920401 0 0.009690974369139977 -0.39295199195252922 0 0.009690974369139977 -0.39295199195252922 0 0.030062121183744069 -0.41560348860952728 0 0.01224976062295041 -0.42183763890738629 0 -0.0080625817845775948 -0.40608726553411861 0 0.009690974369139977 -0.39295199195252922 0 0.01224976062295041 -0.42183763890738629 0 0.009690974369139977 -0.39295199195252922 0 0.01224976062295041 -0.42183763890738629 0 0.01224976062295041 -0.42183763890738629 0 0.01480854687676085 -0.45072328586224342 0 0.030062121183744069 -0.41560348860952728 0 0.01224976062295041 -0.42183763890738629 0 0.028535899264767479 -0.43733174884408438 0 0.01224976062295041 -0.42183763890738629 0 0.028535899264767479 -0.43733174884408438 0 0.01480854687676085 -0.45072328586224342 0 0.030062121183744069 -0.41560348860952728 0 0.028535899264767479 -0.43733174884408438 0 0.039909128579099777 -0.42893709763038412 0 0.039909128579099777 -0.42893709763038412 0 0.050432421370333713 -0.42320051356081623 0 0.04400553312424714 -0.45021417746364167 0 0.039909128579099777 -0.42893709763038412 0 0.046509667952406512 -0.41833555967385072 0 0.050432421370333713 -0.42320051356081623 0 0.032645317368698572 -0.39721328630736241 0 0.030062121183744069 -0.41560348860952728 0 0.042121557959679479 -0.40689397827368962 0 0.030062121183744069 -0.41560348860952728 0 0.039909128579099777 -0.42893709763038412 0 0.046509667952406512 -0.41833555967385072 0 0.030062121183744069 -0.41560348860952728 0 0.042121557959679479 -0.40689397827368962 0 0.046509667952406512 -0.41833555967385072 0 0.054373060569327003 -0.40663711634463268 0 0.050432421370333713 -0.42320051356081623 0 0.046509667952406512 -0.41833555967385072 0 0.054373060569327003 -0.40663711634463268 0 0.050432421370333713 -0.42320051356081623 0 0.054373060569327003 -0.40663711634463268 0 0.060774245729122177 -0.41691050055794487 0 0.050432421370333713 -0.42320051356081623 0 0.046509667952406512 -0.41833555967385072 0 0.050432421370333713 -0.42320051356081623 0 0.042121557959679479 -0.40689397827368962 0 0.046509667952406512 -0.41833555967385072 0 0.054373060569327003 -0.40663711634463268 0 0.069775570718114244 -0.40426700169235308 0 0.054373060569327003 -0.40663711634463268 0 0.060774245729122177 -0.41691050055794487 0 0.050432421370333713 -0.42320051356081623 0 0.04400553312424714 -0.45021417746364167 0 0.065913834705597293 -0.44240038517061198 0 0.050432421370333713 -0.42320051356081623 0 0.065913834705597293 -0.44240038517061198 0 0.065921365320016911 -0.4273577277455588 0 0.050432421370333713 -0.42320051356081623 0 0.065921365320016911 -0.4273577277455588 0 0.060774245729122177 -0.41691050055794487 0 0.050432421370333713 -0.42320051356081623 0 0.065913834705597293 -0.44240038517061198 0 0.050432421370333713 -0.42320051356081623 0 0.04400553312424714 -0.45021417746364167 0 0.065913834705597293 -0.44240038517061198 0 0.057068655694905858 -0.46015288389510001 0 0.04400553312424714 -0.45021417746364167 0 0.057068655694905858 -0.46015288389510001 0 0.048043393468649283 -0.46676160836513853 0 0.04400553312424714 -0.45021417746364167 0 0.067447632246636219 -0.45716428258124142 0 0.057068655694905858 -0.46015288389510001 0 0.05849497948899289 -0.47642287528831911 0 0.057068655694905858 -0.46015288389510001 0 0.048043393468649283 -0.46676160836513853 0 0.052635520687858477 -0.47072247146996382 0 0.04400553312424714 -0.45021417746364167 0 0.037578644878161642 -0.47722784136646751 0 0.048043393468649283 -0.46676160836513853 0 0.04400553312424714 -0.45021417746364167 0 0.037578644878161642 -0.47722784136646751 0 0.04400553312424714 -0.45021417746364167 0 0.030366658319331299 -0.45781827645911538 0 0.037578644878161642 -0.47722784136646751 0 0.028535899264767479 -0.43733174884408438 0 0.039909128579099777 -0.42893709763038412 0 0.04400553312424714 -0.45021417746364167 0 0.028535899264767479 -0.43733174884408438 0 0.04400553312424714 -0.45021417746364167 0 0.030366658319331299 -0.45781827645911538 0 0.028535899264767479 -0.43733174884408438 0 0.01480854687676085 -0.45072328586224342 0 0.030366658319331299 -0.45781827645911538 0 -0.008216644178786571 -0.4466179140804285 0 0.01224976062295041 -0.42183763890738629 0 0.01480854687676085 -0.45072328586224342 0 0.01480854687676085 -0.45072328586224342 0 0.017367333130571299 -0.47960893281710049 0 0.0084119176919832291 -0.471974008478943 0 -0.0021957942935651631 -0.46571035637089769 0 0.01480854687676085 -0.45072328586224342 0 0.0084119176919832291 -0.471974008478943 0 -0.008216644178786571 -0.4466179140804285 0 -0.0021957942935651631 -0.46571035637089769 0 0.01480854687676085 -0.45072328586224342 0 0.01480854687676085 -0.45072328586224342 0 0.017367333130571299 -0.47960893281710049 0 0.01480854687676085 -0.45072328586224342 0 0.030366658319331299 -0.45781827645911538 0 0.0269046674527194 -0.47359432875914009 0 0.01480854687676085 -0.45072328586224342 0 0.0269046674527194 -0.47359432875914009 0 0.017367333130571299 -0.47960893281710049 0 0.017367333130571299 -0.47960893281710049 0 0.012735562036971701 -0.48508522326900949 0 0.035615270762982369 -0.48075404927866472 0 0.012735562036971701 -0.48508522326900949 0 0.035615270762982369 -0.48075404927866472 0 0.0269046674527194 -0.47359432875914009 0 0.017367333130571299 -0.47960893281710049 0 0.035615270762982369 -0.48075404927866472 0 0.017367333130571299 -0.47960893281710049 0 0.0084119176919832291 -0.471974008478943 0 0.012735562036971701 -0.48508522326900949 0 -0.00065605929082254884 -0.47874224407546379 0 0.0084119176919832291 -0.471974008478943 0 0.012735562036971701 -0.48508522326900949 0 -0.0021957942935651631 -0.46571035637089769 0 -0.00065605929082254884 -0.47874224407546379 0 0.0084119176919832291 -0.471974008478943 0 -0.010144146689038991 -0.48941639725935437 0 -0.00065605929082254884 -0.47874224407546379 0 0.012735562036971701 -0.48508522326900949 0 -0.010144146689038991 -0.48941639725935437 0 0.012735562036971701 -0.48508522326900949 0 -0.011489863113854141 -0.5 0 0.012735562036971701 -0.48508522326900949 0 0.01802246382714956 -0.5 0 0.01802246382714956 -0.5 0 0.025329369399590369 -0.48901546815995378 0 0.047534790768153173 -0.50000000000000044 0 0.012735562036971701 -0.48508522326900949 0 0.025329369399590369 -0.48901546815995378 0 0.035615270762982369 -0.48075404927866472 0 0.012735562036971701 -0.48508522326900949 0 0.01802246382714956 -0.5 0 0.025329369399590369 -0.48901546815995378 0 0.025329369399590369 -0.48901546815995378 0 0.035615270762982369 -0.48075404927866472 0 0.047534790768153173 -0.50000000000000044 0 0.030366658319331299 -0.45781827645911538 0 0.0269046674527194 -0.47359432875914009 0 0.037578644878161642 -0.47722784136646751 0 0.0269046674527194 -0.47359432875914009 0 0.037578644878161642 -0.47722784136646751 0 0.035615270762982369 -0.48075404927866472 0 0.048043393468649283 -0.46676160836513853 0 0.037578644878161642 -0.47722784136646751 0 0.046296380844488463 -0.47463440362945558 0 0.035615270762982369 -0.48075404927866472 0 0.046296380844488463 -0.47463440362945558 0 0.049693011087844949 -0.4756354888466594 0 0.037578644878161642 -0.47722784136646751 0 0.035615270762982369 -0.48075404927866472 0 0.046296380844488463 -0.47463440362945558 0 0.057068655694905858 -0.46015288389510001 0 0.052635520687858477 -0.47072247146996382 0 0.05849497948899289 -0.47642287528831911 0 0.035615270762982369 -0.48075404927866472 0 0.049693011087844949 -0.4756354888466594 0 0.05849497948899289 -0.47642287528831911 0 0.035615270762982369 -0.48075404927866472 0 0.05849497948899289 -0.47642287528831911 0 0.048043393468649283 -0.46676160836513853 0 0.046296380844488463 -0.47463440362945558 0 0.052635520687858477 -0.47072247146996382 0 0.049693011087844949 -0.4756354888466594 0 0.052635520687858477 -0.47072247146996382 0 0.05849497948899289 -0.47642287528831911 0 0.046296380844488463 -0.47463440362945558 0 0.049693011087844949 -0.4756354888466594 0 0.052635520687858477 -0.47072247146996382 0 0.05849497948899289 -0.47642287528831911 0 0.061758178687080389 -0.47580514524370598 0 0.062670741706174135 -0.48944359682069549 0 0.064881374578912687 -0.4815757870058418 0 0.05849497948899289 -0.47642287528831911 0 0.064881374578912687 -0.4815757870058418 0 0.05849497948899289 -0.47642287528831911 0 0.061758178687080389 -0.47580514524370598 0 0.069142552082564368 -0.5 0 0.062670741706174135 -0.48944359682069549 0 0.047534790768153173 -0.50000000000000044 0 0.05849497948899289 -0.47642287528831911 0 0.047534790768153173 -0.50000000000000044 0 0.035615270762982369 -0.48075404927866472 0 0.05849497948899289 -0.47642287528831911 0 0.047534790768153173 -0.50000000000000044 0 0.062670741706174135 -0.48944359682069549 0 0.05849497948899289 -0.47642287528831911 0 0.047534790768153173 -0.50000000000000044 0 0.089727975817252392 -0.29646224842349211 0 0.069967983226982527 -0.30495776272600778 0 0.075483032258224086 -0.28815868119130272 0 0.089727975817252392 -0.29646224842349211 0 0.088503230311337153 -0.27716835087377989 0 0.101883582619993 -0.28460947857741209 0 0.089727975817252392 -0.29646224842349211 0 0.075483032258224086 -0.28815868119130272 0 0.088503230311337153 -0.27716835087377989 0 0.089727975817252392 -0.29646224842349211 0 0.086214248119208581 -0.31193359067875348 0 0.069967983226982527 -0.30495776272600778 0 0.089727975817252392 -0.29646224842349211 0 0.086214248119208581 -0.31193359067875348 0 0.10049372866807189 -0.31082656242210721 0 0.069967983226982527 -0.30495776272600778 0 0.075483032258224086 -0.28815868119130272 0 0.059449054433483903 -0.28956707473318272 0 0.075483032258224086 -0.28815868119130272 0 0.0646939085167762 -0.2722383315448984 0 0.059449054433483903 -0.28956707473318272 0 0.0646939085167762 -0.2722383315448984 0 0.077350866508299074 -0.27549126298099152 0 0.080723294946858856 -0.26439968831398508 0 0.075483032258224086 -0.28815868119130272 0 0.0646939085167762 -0.2722383315448984 0 0.077350866508299074 -0.27549126298099152 0 0.0646939085167762 -0.2722383315448984 0 0.070005134957367529 -0.25889031236374099 0 0.080723294946858856 -0.26439968831398508 0 0.070005134957367529 -0.25889031236374099 0 0.061490933840310687 -0.25382890142296882 0 0.070069103552599196 -0.24823964670048029 0 0.0646939085167762 -0.2722383315448984 0 0.070005134957367529 -0.25889031236374099 0 0.060614126731859473 -0.2624009925450973 0 0.070005134957367529 -0.25889031236374099 0 0.061490933840310687 -0.25382890142296882 0 0.060614126731859473 -0.2624009925450973 0 0.070005134957367529 -0.25889031236374099 0 0.080071368274292315 -0.25145738896057979 0 0.080723294946858856 -0.26439968831398508 0 0.070005134957367529 -0.25889031236374099 0 0.080071368274292315 -0.25145738896057979 0 0.070069103552599196 -0.24823964670048029 0 0.080071368274292315 -0.25145738896057979 0 0.080723294946858856 -0.26439968831398508 0 0.090706365013478091 -0.25245448435890872 0 0.080723294946858856 -0.26439968831398508 0 0.090706365013478091 -0.25245448435890872 0 0.095060577752172304 -0.26241188567384149 0 0.075483032258224086 -0.28815868119130272 0 0.077350866508299074 -0.27549126298099152 0 0.088503230311337153 -0.27716835087377989 0 0.077350866508299074 -0.27549126298099152 0 0.080723294946858856 -0.26439968831398508 0 0.088503230311337153 -0.27716835087377989 0 0.080723294946858856 -0.26439968831398508 0 0.088503230311337153 -0.27716835087377989 0 0.095060577752172304 -0.26241188567384149 0 0.088503230311337153 -0.27716835087377989 0 0.1016952336099234 -0.27235330725820578 0 0.101883582619993 -0.28460947857741209 0 0.088503230311337153 -0.27716835087377989 0 0.1016952336099234 -0.27235330725820578 0 0.095060577752172304 -0.26241188567384149 0 0.1016952336099234 -0.27235330725820578 0 0.1104739380917857 -0.2612093749811526 0 0.1125548392743288 -0.27636744618484282 0 0.1016952336099234 -0.27235330725820578 0 0.1125548392743288 -0.27636744618484282 0 0.101883582619993 -0.28460947857741209 0 0.090706365013478091 -0.25245448435890872 0 0.099550463170151926 -0.25262580003909579 0 0.095060577752172304 -0.26241188567384149 0 0.1016952336099234 -0.27235330725820578 0 0.095060577752172304 -0.26241188567384149 0 0.1104739380917857 -0.2612093749811526 0 0.099550463170151926 -0.25262580003909579 0 0.095060577752172304 -0.26241188567384149 0 0.1104739380917857 -0.2612093749811526 0 0.099550463170151926 -0.25262580003909579 0 0.1104739380917857 -0.2612093749811526 0 0.1078238037173969 -0.24832262031645649 0 0.1311170075682456 -0.27142576198599933 0 0.1104739380917857 -0.2612093749811526 0 0.1212054647883809 -0.25073068226796852 0 0.1104739380917857 -0.2612093749811526 0 0.1212054647883809 -0.25073068226796852 0 0.1078238037173969 -0.24832262031645649 0 0.1311170075682456 -0.27142576198599933 0 0.1104739380917857 -0.2612093749811526 0 0.1311170075682456 -0.27142576198599933 0 0.1104739380917857 -0.2612093749811526 0 0.1193620271946058 -0.27249351692823448 0 0.1104739380917857 -0.2612093749811526 0 0.1125548392743288 -0.27636744618484282 0 0.1193620271946058 -0.27249351692823448 0 0.1125548392743288 -0.27636744618484282 0 0.1193620271946058 -0.27249351692823448 0 0.1233023238440631 -0.28097148456094378 0 0.1311170075682456 -0.27142576198599933 0 0.1193620271946058 -0.27249351692823448 0 0.1233023238440631 -0.28097148456094378 0 0.1233023238440631 -0.28097148456094378 0 0.1242383748246253 -0.29131174999725179 0 0.1141297936923768 -0.28878453930630188 0 0.1242383748246253 -0.29131174999725179 0 0.1141297936923768 -0.28878453930630188 0 0.1198701537204314 -0.30089140532399938 0 0.1141297936923768 -0.28878453930630188 0 0.10622170970645189 -0.29895353846799488 0 0.1198701537204314 -0.30089140532399938 0 0.1125548392743288 -0.27636744618484282 0 0.1233023238440631 -0.28097148456094378 0 0.1141297936923768 -0.28878453930630188 0 0.1125548392743288 -0.27636744618484282 0 0.1141297936923768 -0.28878453930630188 0 0.101883582619993 -0.28460947857741209 0 0.089727975817252392 -0.29646224842349211 0 0.101883582619993 -0.28460947857741209 0 0.10622170970645189 -0.29895353846799488 0 0.1141297936923768 -0.28878453930630188 0 0.101883582619993 -0.28460947857741209 0 0.10622170970645189 -0.29895353846799488 0 0.089727975817252392 -0.29646224842349211 0 0.10049372866807189 -0.31082656242210721 0 0.10622170970645189 -0.29895353846799488 0 0.10049372866807189 -0.31082656242210721 0 0.10622170970645189 -0.29895353846799488 0 0.1134387524627216 -0.31086840579325631 0 0.10622170970645189 -0.29895353846799488 0 0.1134387524627216 -0.31086840579325631 0 0.1198701537204314 -0.30089140532399938 0 0.1265219532001009 -0.3124330460259736 0 0.1134387524627216 -0.31086840579325631 0 0.1198701537204314 -0.30089140532399938 0 0.1265219532001009 -0.3124330460259736 0 0.1134387524627216 -0.31086840579325631 0 0.1192961391526948 -0.32261879728377291 0 0.1134387524627216 -0.31086840579325631 0 0.1192961391526948 -0.32261879728377291 0 0.1082288303285789 -0.31948708523568958 0 0.1192961391526948 -0.32261879728377291 0 0.1093748658769356 -0.32997486192450581 0 0.1082288303285789 -0.31948708523568958 0 0.1192961391526948 -0.32261879728377291 0 0.1168506625355451 -0.3296807312869221 0 0.1093748658769356 -0.32997486192450581 0 0.1192961391526948 -0.32261879728377291 0 0.12260601330919629 -0.33072698382653798 0 0.1168506625355451 -0.3296807312869221 0 0.13219802669416811 -0.32498852212276208 0 0.1192961391526948 -0.32261879728377291 0 0.12260601330919629 -0.33072698382653798 0 0.13051916655351839 -0.33696304048325831 0 0.12260601330919629 -0.33072698382653798 0 0.1159240811174677 -0.33775964177068091 0 0.12260601330919629 -0.33072698382653798 0 0.1159240811174677 -0.33775964177068091 0 0.1161256318033537 -0.33540228211287182 0 0.12260601330919629 -0.33072698382653798 0 0.1168506625355451 -0.3296807312869221 0 0.1161256318033537 -0.33540228211287182 0 0.13051916655351839 -0.33696304048325831 0 0.1159240811174677 -0.33775964177068091 0 0.13051916655351839 -0.33696304048325831 0 0.1159240811174677 -0.33775964177068091 0 0.123981461538115 -0.35128285539313481 0 0.1159240811174677 -0.33775964177068091 0 0.1161256318033537 -0.33540228211287182 0 0.1168506625355451 -0.3296807312869221 0 0.1161256318033537 -0.33540228211287182 0 0.1093748658769356 -0.32997486192450581 0 0.1159240811174677 -0.33775964177068091 0 0.1161256318033537 -0.33540228211287182 0 0.1093748658769356 -0.32997486192450581 0 0.1159240811174677 -0.33775964177068091 0 0.092335912071574502 -0.33904708650077298 0 0.1159240811174677 -0.33775964177068091 0 0.1093748658769356 -0.32997486192450581 0 0.092335912071574502 -0.33904708650077298 0 0.1093748658769356 -0.32997486192450581 0 0.096347407600029022 -0.32440529872184809 0 0.092335912071574502 -0.33904708650077298 0 0.1159240811174677 -0.33775964177068091 0 0.10211321446004019 -0.35101158716873732 0 0.092335912071574502 -0.33904708650077298 0 0.086214248119208581 -0.31193359067875348 0 0.10049372866807189 -0.31082656242210721 0 0.096347407600029022 -0.32440529872184809 0 0.10049372866807189 -0.31082656242210721 0 0.1134387524627216 -0.31086840579325631 0 0.1082288303285789 -0.31948708523568958 0 0.10049372866807189 -0.31082656242210721 0 0.096347407600029022 -0.32440529872184809 0 0.1082288303285789 -0.31948708523568958 0 0.1093748658769356 -0.32997486192450581 0 0.096347407600029022 -0.32440529872184809 0 0.1082288303285789 -0.31948708523568958 0 0.12784456261830821 -0.36308533366748658 0 0.12609635470998201 -0.38402791619100712 0 0.113745377556003 -0.36324200547299851 0 0.1159240811174677 -0.33775964177068091 0 0.113745377556003 -0.36324200547299851 0 0.123981461538115 -0.35128285539313481 0 0.1159240811174677 -0.33775964177068091 0 0.113745377556003 -0.36324200547299851 0 0.1159240811174677 -0.33775964177068091 0 0.113745377556003 -0.36324200547299851 0 0.10211321446004019 -0.35101158716873732 0 0.12784456261830821 -0.36308533366748658 0 0.113745377556003 -0.36324200547299851 0 0.123981461538115 -0.35128285539313481 0 0.1115666739945345 -0.38872436917531578 0 0.113745377556003 -0.36324200547299851 0 0.096372132326470572 -0.36542491223168638 0 0.113745377556003 -0.36324200547299851 0 0.10211321446004019 -0.35101158716873732 0 0.096372132326470572 -0.36542491223168638 0 0.089853218628298884 -0.38394717958202601 0 0.096372132326470572 -0.36542491223168638 0 0.07582030708563034 -0.37256671738353597 0 0.096372132326470572 -0.36542491223168638 0 0.082110249222110576 -0.35466523699539548 0 0.07582030708563034 -0.37256671738353597 0 0.10211321446004019 -0.35101158716873732 0 0.096372132326470572 -0.36542491223168638 0 0.082110249222110576 -0.35466523699539548 0 0.082110249222110576 -0.35466523699539548 0 0.092335912071574502 -0.33904708650077298 0 0.068747743025681235 -0.34033453123086538 0 0.10211321446004019 -0.35101158716873732 0 0.082110249222110576 -0.35466523699539548 0 0.092335912071574502 -0.33904708650077298 0 0.082110249222110576 -0.35466523699539548 0 0.068747743025681235 -0.34033453123086538 0 0.057272186363266697 -0.35960658745677498 0 0.082110249222110576 -0.35466523699539548 0 0.07582030708563034 -0.37256671738353597 0 0.057272186363266697 -0.35960658745677498 0 0.05933500968155693 -0.37671477575793533 0 0.07582030708563034 -0.37256671738353597 0 0.057272186363266697 -0.35960658745677498 0 0.086214248119208581 -0.31193359067875348 0 0.096347407600029022 -0.32440529872184809 0 0.078030795921920637 -0.32434601069550512 0 0.092335912071574502 -0.33904708650077298 0 0.068747743025681235 -0.34033453123086538 0 0.078030795921920637 -0.32434601069550512 0 0.092335912071574502 -0.33904708650077298 0 0.068747743025681235 -0.34033453123086538 0 0.096347407600029022 -0.32440529872184809 0 0.092335912071574502 -0.33904708650077298 0 0.078030795921920637 -0.32434601069550512 0 0.068747743025681235 -0.34033453123086538 0 0.078030795921920637 -0.32434601069550512 0 0.053863538987460123 -0.3232816795844588 0 0.069967983226982527 -0.30495776272600778 0 0.078030795921920637 -0.32434601069550512 0 0.053863538987460123 -0.3232816795844588 0 0.086214248119208581 -0.31193359067875348 0 0.069967983226982527 -0.30495776272600778 0 0.078030795921920637 -0.32434601069550512 0 0.068747743025681235 -0.34033453123086538 0 0.045159573979787898 -0.34162197596095778 0 0.068747743025681235 -0.34033453123086538 0 0.053863538987460123 -0.3232816795844588 0 0.045159573979787898 -0.34162197596095778 0 0.053863538987460123 -0.3232816795844588 0 0.034832013842728909 -0.33032259781876938 0 0.045159573979787898 -0.34162197596095778 0 0.034832013842728909 -0.33032259781876938 0 0.045159573979787898 -0.34162197596095778 0 0.02157140493389462 -0.34290942069105018 0 0.045159573979787898 -0.34162197596095778 0 0.02157140493389462 -0.34290942069105018 0 0.053863538987460123 -0.3232816795844588 0 0.034832013842728909 -0.33032259781876938 0 0.03621734991660093 -0.31670946998547028 0 0.053863538987460123 -0.3232816795844588 0 0.03621734991660093 -0.31670946998547028 0 0.048768037075517537 -0.30442990221103089 0 0.05933500968155693 -0.37671477575793533 0 0.057272186363266697 -0.35960658745677498 0 0.039079294002052851 -0.37065651216905859 0 0.068747743025681235 -0.34033453123086538 0 0.045159573979787898 -0.34162197596095778 0 0.057272186363266697 -0.35960658745677498 0 0.045159573979787898 -0.34162197596095778 0 0.034512899630155462 -0.3545258348651717 0 0.02157140493389462 -0.34290942069105018 0 0.045159573979787898 -0.34162197596095778 0 0.057272186363266697 -0.35960658745677498 0 0.034512899630155462 -0.3545258348651717 0 0.057272186363266697 -0.35960658745677498 0 0.034512899630155462 -0.3545258348651717 0 0.039079294002052851 -0.37065651216905859 0 0.025542853711361019 -0.38384675294920401 0 0.039079294002052851 -0.37065651216905859 0 0.016784443680880379 -0.36713146693108112 0 0.034512899630155462 -0.3545258348651717 0 0.039079294002052851 -0.37065651216905859 0 0.016784443680880379 -0.36713146693108112 0 0.034512899630155462 -0.3545258348651717 0 0.016784443680880379 -0.36713146693108112 0 0.02157140493389462 -0.34290942069105018 0 -0.0043130761299947744 -0.35643483176966217 0 0.016784443680880379 -0.36713146693108112 0 0.02157140493389462 -0.34290942069105018 0 -0.0038616663111063101 -0.33241552487502413 0 -0.0043130761299947744 -0.35643483176966217 0 0.02157140493389462 -0.34290942069105018 0 -0.0043130761299947744 -0.35643483176966217 0 -0.0064694903547723136 -0.38059021958606692 0 0.016784443680880379 -0.36713146693108112 0 0.03621734991660093 -0.31670946998547028 0 0.020048637459846991 -0.32439583124448262 0 0.029165048793799431 -0.30349547286963757 0 0.034832013842728909 -0.33032259781876938 0 0.03621734991660093 -0.31670946998547028 0 0.020048637459846991 -0.32439583124448262 0 0.020048637459846991 -0.32439583124448262 0 0.0094652366165251054 -0.31053241408104548 0 0.029165048793799431 -0.30349547286963757 0 0.034832013842728909 -0.33032259781876938 0 0.020048637459846991 -0.32439583124448262 0 0.02157140493389462 -0.34290942069105018 0 -0.0038616663111063101 -0.33241552487502413 0 0.020048637459846991 -0.32439583124448262 0 0.02157140493389462 -0.34290942069105018 0 -0.0038616663111063101 -0.33241552487502413 0 0.020048637459846991 -0.32439583124448262 0 0.0094652366165251054 -0.31053241408104548 0 -0.01007927323019326 -0.3103345258507364 0 0.0094652366165251054 -0.31053241408104548 0 0.0017563221397047381 -0.2997067901486577 0 0.0094652366165251054 -0.31053241408104548 0 0.0017563221397047381 -0.2997067901486577 0 0.017453688627786131 -0.29322190620108468 0 0.0017563221397047381 -0.2997067901486577 0 0.0066437179820165657 -0.2861171845936395 0 0.017453688627786131 -0.29322190620108468 0 -0.0080748459131490501 -0.2914060437848453 0 0.0017563221397047381 -0.2997067901486577 0 0.0066437179820165657 -0.2861171845936395 0 0.0066437179820165657 -0.2861171845936395 0 0.017453688627786131 -0.29322190620108468 0 0.01908241754038794 -0.28073467218482329 0 0.017453688627786131 -0.29322190620108468 0 0.029398966714908509 -0.28692964748338379 0 0.029165048793799431 -0.30349547286963757 0 0.017453688627786131 -0.29322190620108468 0 0.029398966714908509 -0.28692964748338379 0 0.01908241754038794 -0.28073467218482329 0 0.0094652366165251054 -0.31053241408104548 0 0.017453688627786131 -0.29322190620108468 0 0.029165048793799431 -0.30349547286963757 0 0.03621734991660093 -0.31670946998547028 0 0.029165048793799431 -0.30349547286963757 0 0.048768037075517537 -0.30442990221103089 0 0.029165048793799431 -0.30349547286963757 0 0.043029943860180789 -0.28970337243015992 0 0.048768037075517537 -0.30442990221103089 0 0.029398966714908509 -0.28692964748338379 0 0.029165048793799431 -0.30349547286963757 0 0.043029943860180789 -0.28970337243015992 0 0.029398966714908509 -0.28692964748338379 0 0.043029943860180789 -0.28970337243015992 0 0.038396769586432553 -0.27977596087564799 0 0.043029943860180789 -0.28970337243015992 0 0.051749435803858171 -0.27840569125857739 0 0.038396769586432553 -0.27977596087564799 0 0.043029943860180789 -0.28970337243015992 0 0.059449054433483903 -0.28956707473318272 0 0.051749435803858171 -0.27840569125857739 0 0.043029943860180789 -0.28970337243015992 0 0.059449054433483903 -0.28956707473318272 0 0.048768037075517537 -0.30442990221103089 0 0.069967983226982527 -0.30495776272600778 0 0.059449054433483903 -0.28956707473318272 0 0.048768037075517537 -0.30442990221103089 0 0.069967983226982527 -0.30495776272600778 0 0.053863538987460123 -0.3232816795844588 0 0.048768037075517537 -0.30442990221103089 0 0.053380735395516472 -0.25867595766617779 0 0.04428054005230446 -0.26275141268032309 0 0.045372505498807933 -0.25408090721008542 0 0.053380735395516472 -0.25867595766617779 0 0.053158010572478251 -0.26777612517812432 0 0.04428054005230446 -0.26275141268032309 0 0.053380735395516472 -0.25867595766617779 0 0.045372505498807933 -0.25408090721008542 0 0.05268811686830014 -0.24901610311096159 0 0.053380735395516472 -0.25867595766617779 0 0.061490933840310687 -0.25382890142296882 0 0.05268811686830014 -0.24901610311096159 0 0.053380735395516472 -0.25867595766617779 0 0.060614126731859473 -0.2624009925450973 0 0.053158010572478251 -0.26777612517812432 0 0.053380735395516472 -0.25867595766617779 0 0.061490933840310687 -0.25382890142296882 0 0.060614126731859473 -0.2624009925450973 0 0.0646939085167762 -0.2722383315448984 0 0.060614126731859473 -0.2624009925450973 0 0.053158010572478251 -0.26777612517812432 0 0.0646939085167762 -0.2722383315448984 0 0.059449054433483903 -0.28956707473318272 0 0.051749435803858171 -0.27840569125857739 0 0.0646939085167762 -0.2722383315448984 0 0.051749435803858171 -0.27840569125857739 0 0.053158010572478251 -0.26777612517812432 0 0.053158010572478251 -0.26777612517812432 0 0.044229316934554799 -0.27218436537367241 0 0.04428054005230446 -0.26275141268032309 0 0.051749435803858171 -0.27840569125857739 0 0.053158010572478251 -0.26777612517812432 0 0.044229316934554799 -0.27218436537367241 0 0.044229316934554799 -0.27218436537367241 0 0.031885251388666561 -0.26470215361104171 0 0.04428054005230446 -0.26275141268032309 0 0.051749435803858171 -0.27840569125857739 0 0.044229316934554799 -0.27218436537367241 0 0.038396769586432553 -0.27977596087564799 0 0.044229316934554799 -0.27218436537367241 0 0.038396769586432553 -0.27977596087564799 0 0.029696712261103771 -0.27487286106778819 0 0.029398966714908509 -0.28692964748338379 0 0.038396769586432553 -0.27977596087564799 0 0.029696712261103771 -0.27487286106778819 0 0.044229316934554799 -0.27218436537367241 0 0.031885251388666561 -0.26470215361104171 0 0.029696712261103771 -0.27487286106778819 0 0.037315510146954597 -0.25849363249326118 0 0.031885251388666561 -0.26470215361104171 0 0.04428054005230446 -0.26275141268032309 0 0.037315510146954597 -0.25849363249326118 0 0.031885251388666561 -0.26470215361104171 0 0.03069464768829987 -0.25176037071845259 0 0.037315510146954597 -0.25849363249326118 0 0.04428054005230446 -0.26275141268032309 0 0.045372505498807933 -0.25408090721008542 0 0.045372505498807933 -0.25408090721008542 0 0.03069464768829987 -0.25176037071845259 0 0.042588116356466379 -0.2448823624008481 0 0.037315510146954597 -0.25849363249326118 0 0.045372505498807933 -0.25408090721008542 0 0.03069464768829987 -0.25176037071845259 0 0.031885251388666561 -0.26470215361104171 0 0.021199614426200629 -0.26114166245967918 0 0.019908913466960752 -0.27058631964059482 0 0.031885251388666561 -0.26470215361104171 0 0.03069464768829987 -0.25176037071845259 0 0.021199614426200629 -0.26114166245967918 0 0.03069464768829987 -0.25176037071845259 0 0.021199614426200629 -0.26114166245967918 0 0.016145176335298529 -0.25210595968411048 0 0.029398966714908509 -0.28692964748338379 0 0.029696712261103771 -0.27487286106778819 0 0.01908241754038794 -0.28073467218482329 0 0.031885251388666561 -0.26470215361104171 0 0.029696712261103771 -0.27487286106778819 0 0.019908913466960752 -0.27058631964059482 0 0.019908913466960752 -0.27058631964059482 0 0.01908241754038794 -0.28073467218482329 0 0.01128192931255503 -0.27464126756021451 0 0.029696712261103771 -0.27487286106778819 0 0.019908913466960752 -0.27058631964059482 0 0.01908241754038794 -0.28073467218482329 0 -0.01145854626600548 -0.26602311564559261 0 0.01128192931255503 -0.27464126756021451 0 0.0057158633005241696 -0.26337829885565528 0 0.0066437179820165657 -0.2861171845936395 0 0.01908241754038794 -0.28073467218482329 0 0.01128192931255503 -0.27464126756021451 0 0.019908913466960752 -0.27058631964059482 0 0.01128192931255503 -0.27464126756021451 0 0.0057158633005241696 -0.26337829885565528 0 -0.002848760243290064 -0.27761611820401882 0 0.0066437179820165657 -0.2861171845936395 0 0.01128192931255503 -0.27464126756021451 0 0.016145176335298529 -0.25210595968411048 0 0.0057158633005241696 -0.26337829885565528 0 0.0054759062840018038 -0.25064707341720888 0 0.021199614426200629 -0.26114166245967918 0 0.019908913466960752 -0.27058631964059482 0 0.0057158633005241696 -0.26337829885565528 0 0.021199614426200629 -0.26114166245967918 0 0.016145176335298529 -0.25210595968411048 0 0.0057158633005241696 -0.26337829885565528 0 -0.0009620894167222515 -0.25496392916579452 0 0.0057158633005241696 -0.26337829885565528 0 0.0054759062840018038 -0.25064707341720888 0 -0.0009620894167222515 -0.25496392916579452 0 -0.0029313858115674811 -0.24854412401401971 0 0.0054759062840018038 -0.25064707341720888 0 0.0054759062840018038 -0.25064707341720888 0 0.0026199421412959989 -0.2430643023623929 0 0.011589873569895199 -0.24127835128668559 0 -0.0029313858115674811 -0.24854412401401971 0 0.0054759062840018038 -0.25064707341720888 0 0.0026199421412959989 -0.2430643023623929 0 0.016145176335298529 -0.25210595968411048 0 0.0054759062840018038 -0.25064707341720888 0 0.011589873569895199 -0.24127835128668559 0 0.011589873569895199 -0.24127835128668559 0 0.010668172172219499 -0.2272828987723072 0 0.020574075722817331 -0.2351284197632682 0 0.0026199421412959989 -0.2430643023623929 0 0.011589873569895199 -0.24127835128668559 0 0.0017465435191736189 -0.23378549097037141 0 -0.00080535468136348092 -0.21995366459000901 0 0.010668172172219499 -0.2272828987723072 0 0.01016515501406726 -0.20926501301563591 0 -0.00080535468136348092 -0.21995366459000901 0 0.0017465435191736189 -0.23378549097037141 0 0.010668172172219499 -0.2272828987723072 0 0.010668172172219499 -0.2272828987723072 0 0.02170661161633574 -0.22145314359659171 0 0.01016515501406726 -0.20926501301563591 0 0.011589873569895199 -0.24127835128668559 0 0.0017465435191736189 -0.23378549097037141 0 0.010668172172219499 -0.2272828987723072 0 0.010668172172219499 -0.2272828987723072 0 0.02170661161633574 -0.22145314359659171 0 0.020574075722817331 -0.2351284197632682 0 0.02170661161633574 -0.22145314359659171 0 0.02866695829179056 -0.22960637228307629 0 0.036392787169896093 -0.22322562645731159 0 0.02170661161633574 -0.22145314359659171 0 0.02866695829179056 -0.22960637228307629 0 0.020574075722817331 -0.2351284197632682 0 0.02866695829179056 -0.22960637228307629 0 0.020574075722817331 -0.2351284197632682 0 0.032071787069821417 -0.24054619649286721 0 0.022195152742869501 -0.2444300013669817 0 0.020574075722817331 -0.2351284197632682 0 0.032071787069821417 -0.24054619649286721 0 0.03069464768829987 -0.25176037071845259 0 0.022195152742869501 -0.2444300013669817 0 0.032071787069821417 -0.24054619649286721 0 0.03069464768829987 -0.25176037071845259 0 0.016145176335298529 -0.25210595968411048 0 0.022195152742869501 -0.2444300013669817 0 0.016145176335298529 -0.25210595968411048 0 0.011589873569895199 -0.24127835128668559 0 0.022195152742869501 -0.2444300013669817 0 0.011589873569895199 -0.24127835128668559 0 0.022195152742869501 -0.2444300013669817 0 0.020574075722817331 -0.2351284197632682 0 -0.003739977245034012 -0.19168309442994089 0 0.010514116253606281 -0.1925853606064957 0 0.01016515501406726 -0.20926501301563591 0 0.010514116253606281 -0.1925853606064957 0 0.01016515501406726 -0.20926501301563591 0 0.018596641755985681 -0.20049862993462389 0 0.02170661161633574 -0.22145314359659171 0 0.01016515501406726 -0.20926501301563591 0 0.028304225500431591 -0.20785134554231141 0 0.01016515501406726 -0.20926501301563591 0 0.028304225500431591 -0.20785134554231141 0 0.018596641755985681 -0.20049862993462389 0 0.02170661161633574 -0.22145314359659171 0 0.028304225500431591 -0.20785134554231141 0 0.036392787169896093 -0.22322562645731159 0 0.028304225500431591 -0.20785134554231141 0 0.018596641755985681 -0.20049862993462389 0 0.02540307025583758 -0.19229280057405279 0 0.010514116253606281 -0.1925853606064957 0 0.018596641755985681 -0.20049862993462389 0 0.02540307025583758 -0.19229280057405279 0 0.010514116253606281 -0.1925853606064957 0 0.02540307025583758 -0.19229280057405279 0 0.015764016274472759 -0.1812646672695073 0 0.02540307025583758 -0.19229280057405279 0 0.041440672425083092 -0.19607701236864419 0 0.030421272951226121 -0.1778391783376792 0 0.028304225500431591 -0.20785134554231141 0 0.02540307025583758 -0.19229280057405279 0 0.041440672425083092 -0.19607701236864419 0 0.041440672425083092 -0.19607701236864419 0 0.042310424588804782 -0.2140630995529598 0 0.055497750511994078 -0.2086068857692274 0 0.028304225500431591 -0.20785134554231141 0 0.041440672425083092 -0.19607701236864419 0 0.042310424588804782 -0.2140630995529598 0 0.028304225500431591 -0.20785134554231141 0 0.042310424588804782 -0.2140630995529598 0 0.036392787169896093 -0.22322562645731159 0 0.042310424588804782 -0.2140630995529598 0 0.055497750511994078 -0.2086068857692274 0 0.052955454276687589 -0.2198291654371925 0 0.062338921595789062 -0.21792006704763969 0 0.055497750511994078 -0.2086068857692274 0 0.052955454276687589 -0.2198291654371925 0 0.062338921595789062 -0.21792006704763969 0 0.055497750511994078 -0.2086068857692274 0 0.067863046951983474 -0.20503048868511209 0 0.055497750511994078 -0.2086068857692274 0 0.056257937900538298 -0.19577788601322099 0 0.067863046951983474 -0.20503048868511209 0 0.041440672425083092 -0.19607701236864419 0 0.056257937900538298 -0.19577788601322099 0 0.051449240160577621 -0.1762857105508405 0 0.041440672425083092 -0.19607701236864419 0 0.055497750511994078 -0.2086068857692274 0 0.056257937900538298 -0.19577788601322099 0 0.040491861427302538 -0.2355872617630255 0 0.042588116356466379 -0.2448823624008481 0 0.052307832003780613 -0.23884346229351339 0 0.040491861427302538 -0.2355872617630255 0 0.045866106706223042 -0.22907627795895011 0 0.052307832003780613 -0.23884346229351339 0 0.03069464768829987 -0.25176037071845259 0 0.042588116356466379 -0.2448823624008481 0 0.032071787069821417 -0.24054619649286721 0 0.040491861427302538 -0.2355872617630255 0 0.042588116356466379 -0.2448823624008481 0 0.032071787069821417 -0.24054619649286721 0 0.02866695829179056 -0.22960637228307629 0 0.040491861427302538 -0.2355872617630255 0 0.032071787069821417 -0.24054619649286721 0 0.02866695829179056 -0.22960637228307629 0 0.040491861427302538 -0.2355872617630255 0 0.036392787169896093 -0.22322562645731159 0 0.042310424588804782 -0.2140630995529598 0 0.036392787169896093 -0.22322562645731159 0 0.045866106706223042 -0.22907627795895011 0 0.040491861427302538 -0.2355872617630255 0 0.036392787169896093 -0.22322562645731159 0 0.045866106706223042 -0.22907627795895011 0 0.045866106706223042 -0.22907627795895011 0 0.058764067980626958 -0.22947949685718549 0 0.052307832003780613 -0.23884346229351339 0 0.045866106706223042 -0.22907627795895011 0 0.052955454276687589 -0.2198291654371925 0 0.058764067980626958 -0.22947949685718549 0 0.042310424588804782 -0.2140630995529598 0 0.045866106706223042 -0.22907627795895011 0 0.052955454276687589 -0.2198291654371925 0 0.062338921595789062 -0.21792006704763969 0 0.058764067980626958 -0.22947949685718549 0 0.065719467571416057 -0.22489822263154319 0 0.062338921595789062 -0.21792006704763969 0 0.052955454276687589 -0.2198291654371925 0 0.058764067980626958 -0.22947949685718549 0 0.058764067980626958 -0.22947949685718549 0 0.062159259289524899 -0.2368834247622158 0 0.052307832003780613 -0.23884346229351339 0 0.062159259289524899 -0.2368834247622158 0 0.052307832003780613 -0.23884346229351339 0 0.061229972926465738 -0.2445427902389527 0 0.045372505498807933 -0.25408090721008542 0 0.042588116356466379 -0.2448823624008481 0 0.05268811686830014 -0.24901610311096159 0 0.042588116356466379 -0.2448823624008481 0 0.052307832003780613 -0.23884346229351339 0 0.05268811686830014 -0.24901610311096159 0 0.061490933840310687 -0.25382890142296882 0 0.05268811686830014 -0.24901610311096159 0 0.061229972926465738 -0.2445427902389527 0 0.052307832003780613 -0.23884346229351339 0 0.05268811686830014 -0.24901610311096159 0 0.061229972926465738 -0.2445427902389527 0 0.061490933840310687 -0.25382890142296882 0 0.061229972926465738 -0.2445427902389527 0 0.070069103552599196 -0.24823964670048029 0 0.061229972926465738 -0.2445427902389527 0 0.070069103552599196 -0.24823964670048029 0 0.069856411684105391 -0.23913895996007839 0 0.062159259289524899 -0.2368834247622158 0 0.061229972926465738 -0.2445427902389527 0 0.069856411684105391 -0.23913895996007839 0 0.062159259289524899 -0.2368834247622158 0 0.069856411684105391 -0.23913895996007839 0 0.067142239376285745 -0.23139328163069281 0 0.069856411684105391 -0.23913895996007839 0 0.077788170153509889 -0.24196191377257101 0 0.076767606518392539 -0.23187249677345001 0 0.080071368274292315 -0.25145738896057979 0 0.070069103552599196 -0.24823964670048029 0 0.077788170153509889 -0.24196191377257101 0 0.070069103552599196 -0.24823964670048029 0 0.069856411684105391 -0.23913895996007839 0 0.077788170153509889 -0.24196191377257101 0 0.080071368274292315 -0.25145738896057979 0 0.090706365013478091 -0.25245448435890872 0 0.085906732882507178 -0.24385162082211831 0 0.080071368274292315 -0.25145738896057979 0 0.077788170153509889 -0.24196191377257101 0 0.085906732882507178 -0.24385162082211831 0 0.077788170153509889 -0.24196191377257101 0 0.085906732882507178 -0.24385162082211831 0 0.083256636250354649 -0.23616880796388259 0 0.077788170153509889 -0.24196191377257101 0 0.083256636250354649 -0.23616880796388259 0 0.076767606518392539 -0.23187249677345001 0 0.085906732882507178 -0.24385162082211831 0 0.089657973372422345 -0.23730775202069579 0 0.094006026236525903 -0.2441335510050745 0 0.085906732882507178 -0.24385162082211831 0 0.083256636250354649 -0.23616880796388259 0 0.089657973372422345 -0.23730775202069579 0 0.083256636250354649 -0.23616880796388259 0 0.089657973372422345 -0.23730775202069579 0 0.089763789457938253 -0.2306791647953326 0 0.089657973372422345 -0.23730775202069579 0 0.089763789457938253 -0.2306791647953326 0 0.096012267649498176 -0.23702186761809721 0 0.089657973372422345 -0.23730775202069579 0 0.094006026236525903 -0.2441335510050745 0 0.096012267649498176 -0.23702186761809721 0 0.090706365013478091 -0.25245448435890872 0 0.085906732882507178 -0.24385162082211831 0 0.094006026236525903 -0.2441335510050745 0 0.086446736705125371 -0.22420087797706609 0 0.091303359373345411 -0.22339335178318359 0 0.089763789457938253 -0.2306791647953326 0 0.086446736705125371 -0.22420087797706609 0 0.091303359373345411 -0.22339335178318359 0 0.086853981468707001 -0.2185547472363609 0 0.091303359373345411 -0.22339335178318359 0 0.086853981468707001 -0.2185547472363609 0 0.09077468002378962 -0.21857675351640271 0 0.091303359373345411 -0.22339335178318359 0 0.09077468002378962 -0.21857675351640271 0 0.094530837428433365 -0.22086489816084981 0 0.091303359373345411 -0.22339335178318359 0 0.089763789457938253 -0.2306791647953326 0 0.098670227838192195 -0.22970514568366851 0 0.086446736705125371 -0.22420087797706609 0 0.089763789457938253 -0.2306791647953326 0 0.083020570332336119 -0.22791650227557511 0 0.083256636250354649 -0.23616880796388259 0 0.083020570332336119 -0.22791650227557511 0 0.076767606518392539 -0.23187249677345001 0 0.083256636250354649 -0.23616880796388259 0 0.089763789457938253 -0.2306791647953326 0 0.083020570332336119 -0.22791650227557511 0 0.083020570332336119 -0.22791650227557511 0 0.077930889523722374 -0.22519622511208121 0 0.076767606518392539 -0.23187249677345001 0 0.083020570332336119 -0.22791650227557511 0 0.081291982893300085 -0.22046062379487821 0 0.077930889523722374 -0.22519622511208121 0 0.086446736705125371 -0.22420087797706609 0 0.083020570332336119 -0.22791650227557511 0 0.081291982893300085 -0.22046062379487821 0 0.086446736705125371 -0.22420087797706609 0 0.081291982893300085 -0.22046062379487821 0 0.086853981468707001 -0.2185547472363609 0 0.081291982893300085 -0.22046062379487821 0 0.077930889523722374 -0.22519622511208121 0 0.073706539318973169 -0.21796036257100029 0 0.072234091795087663 -0.22574485878751241 0 0.065719467571416057 -0.22489822263154319 0 0.073706539318973169 -0.21796036257100029 0 0.077930889523722374 -0.22519622511208121 0 0.072234091795087663 -0.22574485878751241 0 0.073706539318973169 -0.21796036257100029 0 0.069856411684105391 -0.23913895996007839 0 0.076767606518392539 -0.23187249677345001 0 0.067142239376285745 -0.23139328163069281 0 0.072234091795087663 -0.22574485878751241 0 0.076767606518392539 -0.23187249677345001 0 0.067142239376285745 -0.23139328163069281 0 0.077930889523722374 -0.22519622511208121 0 0.072234091795087663 -0.22574485878751241 0 0.076767606518392539 -0.23187249677345001 0 0.058764067980626958 -0.22947949685718549 0 0.062159259289524899 -0.2368834247622158 0 0.067142239376285745 -0.23139328163069281 0 0.058764067980626958 -0.22947949685718549 0 0.067142239376285745 -0.23139328163069281 0 0.065719467571416057 -0.22489822263154319 0 0.072234091795087663 -0.22574485878751241 0 0.067142239376285745 -0.23139328163069281 0 0.065719467571416057 -0.22489822263154319 0 0.062338921595789062 -0.21792006704763969 0 0.065719467571416057 -0.22489822263154319 0 0.073706539318973169 -0.21796036257100029 0 0.062338921595789062 -0.21792006704763969 0 0.067863046951983474 -0.20503048868511209 0 0.073706539318973169 -0.21796036257100029 0 0.067863046951983474 -0.20503048868511209 0 0.073706539318973169 -0.21796036257100029 0 0.079094442607528917 -0.20913243433380641 0 0.067863046951983474 -0.20503048868511209 0 0.081482512553192915 -0.1953056794767786 0 0.079094442607528917 -0.20913243433380641 0 0.056257937900538298 -0.19577788601322099 0 0.067863046951983474 -0.20503048868511209 0 0.066040058368007956 -0.18964665730407451 0 0.067863046951983474 -0.20503048868511209 0 0.066040058368007956 -0.18964665730407451 0 0.081482512553192915 -0.1953056794767786 0 0.081482512553192915 -0.1953056794767786 0 0.095454742848087734 -0.19451486061966669 0 0.093505174579280592 -0.1731787749771625 0 0.081482512553192915 -0.1953056794767786 0 0.08833530696517819 -0.21036332105093219 0 0.095454742848087734 -0.19451486061966669 0 0.08833530696517819 -0.21036332105093219 0 0.097404311116896569 -0.21585094626217091 0 0.095454742848087734 -0.19451486061966669 0 0.081291982893300085 -0.22046062379487821 0 0.073706539318973169 -0.21796036257100029 0 0.082946926161669862 -0.2149195339015407 0 0.082946926161669862 -0.2149195339015407 0 0.079094442607528917 -0.20913243433380641 0 0.08833530696517819 -0.21036332105093219 0 0.073706539318973169 -0.21796036257100029 0 0.082946926161669862 -0.2149195339015407 0 0.079094442607528917 -0.20913243433380641 0 0.081291982893300085 -0.22046062379487821 0 0.082946926161669862 -0.2149195339015407 0 0.086853981468707001 -0.2185547472363609 0 0.081482512553192915 -0.1953056794767786 0 0.079094442607528917 -0.20913243433380641 0 0.08833530696517819 -0.21036332105093219 0 0.082946926161669862 -0.2149195339015407 0 0.08833530696517819 -0.21036332105093219 0 0.086853981468707001 -0.2185547472363609 0 0.08833530696517819 -0.21036332105093219 0 0.086853981468707001 -0.2185547472363609 0 0.09077468002378962 -0.21857675351640271 0 0.08833530696517819 -0.21036332105093219 0 0.09077468002378962 -0.21857675351640271 0 0.092213447725184278 -0.21529843562297729 0 0.08833530696517819 -0.21036332105093219 0 0.092213447725184278 -0.21529843562297729 0 0.097404311116896569 -0.21585094626217091 0 0.09077468002378962 -0.21857675351640271 0 0.094501608789943028 -0.21679829355882299 0 0.094530837428433365 -0.22086489816084981 0 0.09077468002378962 -0.21857675351640271 0 0.092213447725184278 -0.21529843562297729 0 0.094501608789943028 -0.21679829355882299 0 0.094501608789943028 -0.21679829355882299 0 0.097404311116896569 -0.21585094626217091 0 0.094530837428433365 -0.22086489816084981 0 0.092213447725184278 -0.21529843562297729 0 0.094501608789943028 -0.21679829355882299 0 0.097404311116896569 -0.21585094626217091 0 0.097404311116896569 -0.21585094626217091 0 0.095454742848087734 -0.19451486061966669 0 0.097404311116896569 -0.21585094626217091 0 0.1059898830346106 -0.20430933332548051 0 0.095454742848087734 -0.19451486061966669 0 0.097404311116896569 -0.21585094626217091 0 0.1089347031997706 -0.21297733173581901 0 0.1146171121197104 -0.21980430615730401 0 0.097404311116896569 -0.21585094626217091 0 0.1059898830346106 -0.20430933332548051 0 0.1089347031997706 -0.21297733173581901 0 0.095454742848087734 -0.19451486061966669 0 0.1128143282819509 -0.19216489626002589 0 0.10772522460311169 -0.17968171223372481 0 0.1059898830346106 -0.20430933332548051 0 0.095454742848087734 -0.19451486061966669 0 0.1128143282819509 -0.19216489626002589 0 0.1128143282819509 -0.19216489626002589 0 0.1237689835273371 -0.19605207676116951 0 0.1178461100078927 -0.20838697738218431 0 0.1059898830346106 -0.20430933332548051 0 0.1128143282819509 -0.19216489626002589 0 0.1178461100078927 -0.20838697738218431 0 0.1128143282819509 -0.19216489626002589 0 0.1237689835273371 -0.19605207676116951 0 0.1232013989280239 -0.1819146573535104 0 0.1089347031997706 -0.21297733173581901 0 0.1178461100078927 -0.20838697738218431 0 0.1146171121197104 -0.21980430615730401 0 0.1059898830346106 -0.20430933332548051 0 0.1089347031997706 -0.21297733173581901 0 0.1178461100078927 -0.20838697738218431 0 0.1178461100078927 -0.20838697738218431 0 0.1146171121197104 -0.21980430615730401 0 0.12895394136930069 -0.22163642029703709 0 0.1146171121197104 -0.21980430615730401 0 0.12018370186474731 -0.23305432747703519 0 0.12895394136930069 -0.22163642029703709 0 0.097404311116896569 -0.21585094626217091 0 0.1146171121197104 -0.21980430615730401 0 0.12018370186474731 -0.23305432747703519 0 0.1212054647883809 -0.25073068226796852 0 0.12018370186474731 -0.23305432747703519 0 0.1059281586602189 -0.23527494890652931 0 0.13217397618885759 -0.25462043987800831 0 0.1212054647883809 -0.25073068226796852 0 0.12018370186474731 -0.23305432747703519 0 0.1212054647883809 -0.25073068226796852 0 0.1059281586602189 -0.23527494890652931 0 0.1078238037173969 -0.24832262031645649 0 0.1212054647883809 -0.25073068226796852 0 0.1059281586602189 -0.23527494890652931 0 0.099550463170151926 -0.25262580003909579 0 0.1078238037173969 -0.24832262031645649 0 0.10103467245524091 -0.24298905409433241 0 0.1059281586602189 -0.23527494890652931 0 0.1078238037173969 -0.24832262031645649 0 0.10103467245524091 -0.24298905409433241 0 0.099550463170151926 -0.25262580003909579 0 0.10103467245524091 -0.24298905409433241 0 0.094006026236525903 -0.2441335510050745 0 0.090706365013478091 -0.25245448435890872 0 0.099550463170151926 -0.25262580003909579 0 0.094006026236525903 -0.2441335510050745 0 0.1059281586602189 -0.23527494890652931 0 0.10103467245524091 -0.24298905409433241 0 0.096012267649498176 -0.23702186761809721 0 0.10103467245524091 -0.24298905409433241 0 0.094006026236525903 -0.2441335510050745 0 0.096012267649498176 -0.23702186761809721 0 0.1059281586602189 -0.23527494890652931 0 0.096012267649498176 -0.23702186761809721 0 0.098670227838192195 -0.22970514568366851 0 0.089763789457938253 -0.2306791647953326 0 0.096012267649498176 -0.23702186761809721 0 0.098670227838192195 -0.22970514568366851 0 0.097404311116896569 -0.21585094626217091 0 0.12018370186474731 -0.23305432747703519 0 0.097404311116896569 -0.21585094626217091 0 0.12018370186474731 -0.23305432747703519 0 0.1059281586602189 -0.23527494890652931 0 0.097404311116896569 -0.21585094626217091 0 0.1059281586602189 -0.23527494890652931 0 0.098670227838192195 -0.22970514568366851 0 0.091303359373345411 -0.22339335178318359 0 0.098670227838192195 -0.22970514568366851 0 0.094530837428433365 -0.22086489816084981 0 0.097404311116896569 -0.21585094626217091 0 0.098670227838192195 -0.22970514568366851 0 0.094530837428433365 -0.22086489816084981 0 0.097404311116896569 -0.21585094626217091 0 0.098670227838192195 -0.22970514568366851 0 0.1071373084330472 -0.14482826815459701 0 0.1035248479174861 -0.15311019857333261 0 0.098760878024456711 -0.14050656481393209 0 0.1071373084330472 -0.14482826815459701 0 0.1035248479174861 -0.15311019857333261 0 0.1121477659277255 -0.1503271840913511 0 0.1035248479174861 -0.15311019857333261 0 0.098760878024456711 -0.14050656481393209 0 0.091560400862706559 -0.15189516094014111 0 0.098760878024456711 -0.14050656481393209 0 0.099399694252258627 -0.1328638184600745 0 0.089615627146132512 -0.13061154690311971 0 0.099399694252258627 -0.1328638184600745 0 0.099525338641528904 -0.12611341339503321 0 0.089615627146132512 -0.13061154690311971 0 0.099525338641528904 -0.12611341339503321 0 0.1096969331969164 -0.13422374872821319 0 0.1121708616464093 -0.1216807098986791 0 0.099399694252258627 -0.1328638184600745 0 0.099525338641528904 -0.12611341339503321 0 0.1096969331969164 -0.13422374872821319 0 0.098760878024456711 -0.14050656481393209 0 0.099399694252258627 -0.1328638184600745 0 0.1096969331969164 -0.13422374872821319 0 0.1071373084330472 -0.14482826815459701 0 0.098760878024456711 -0.14050656481393209 0 0.1096969331969164 -0.13422374872821319 0 0.1096969331969164 -0.13422374872821319 0 0.1155243526086871 -0.14484298486410191 0 0.12532898621889721 -0.13663811256420449 0 0.1096969331969164 -0.13422374872821319 0 0.11997683785091839 -0.1276371159963853 0 0.12532898621889721 -0.13663811256420449 0 0.1096969331969164 -0.13422374872821319 0 0.11997683785091839 -0.1276371159963853 0 0.1121708616464093 -0.1216807098986791 0 0.1217036921304827 -0.1482443959076799 0 0.1155243526086871 -0.14484298486410191 0 0.12532898621889721 -0.13663811256420449 0 0.1217036921304827 -0.1482443959076799 0 0.1155243526086871 -0.14484298486410191 0 0.1179114041550178 -0.15136128022523329 0 0.1071373084330472 -0.14482826815459701 0 0.1155243526086871 -0.14484298486410191 0 0.1121477659277255 -0.1503271840913511 0 0.1071373084330472 -0.14482826815459701 0 0.1096969331969164 -0.13422374872821319 0 0.1155243526086871 -0.14484298486410191 0 0.1035248479174861 -0.15311019857333261 0 0.1121477659277255 -0.1503271840913511 0 0.1169082366172023 -0.15609331882735419 0 0.1155243526086871 -0.14484298486410191 0 0.1121477659277255 -0.1503271840913511 0 0.1179114041550178 -0.15136128022523329 0 0.1121477659277255 -0.1503271840913511 0 0.1169082366172023 -0.15609331882735419 0 0.1179114041550178 -0.15136128022523329 0 0.1169082366172023 -0.15609331882735419 0 0.1179114041550178 -0.15136128022523329 0 0.12324902196630889 -0.15465793599018671 0 0.1217036921304827 -0.1482443959076799 0 0.1179114041550178 -0.15136128022523329 0 0.12324902196630889 -0.15465793599018671 0 0.1217036921304827 -0.1482443959076799 0 0.12324902196630889 -0.15465793599018671 0 0.12831016946945831 -0.1492440347933528 0 0.1035248479174861 -0.15311019857333261 0 0.12443417021765769 -0.1709717485187108 0 0.1227471198665283 -0.15880086614903269 0 0.12098675462827781 -0.16200852072179159 0 0.1290045142054978 -0.1612372837293575 0 0.1035248479174861 -0.15311019857333261 0 0.12443417021765769 -0.1709717485187108 0 0.12083528946942131 -0.1711597280255607 0 0.1035248479174861 -0.15311019857333261 0 0.12098675462827781 -0.16200852072179159 0 0.12443417021765769 -0.1709717485187108 0 0.1035248479174861 -0.15311019857333261 0 0.1169082366172023 -0.15609331882735419 0 0.12098675462827781 -0.16200852072179159 0 0.1169082366172023 -0.15609331882735419 0 0.1227471198665283 -0.15880086614903269 0 0.12098675462827781 -0.16200852072179159 0 0.1169082366172023 -0.15609331882735419 0 0.12324902196630889 -0.15465793599018671 0 0.1227471198665283 -0.15880086614903269 0 0.12098675462827781 -0.16200852072179159 0 0.12443417021765769 -0.1709717485187108 0 0.12715697753007521 -0.16591248018761531 0 0.1128143282819509 -0.19216489626002589 0 0.1232013989280239 -0.1819146573535104 0 0.1157139550245927 -0.18029465614444529 0 0.12083528946942131 -0.1711597280255607 0 0.1232013989280239 -0.1819146573535104 0 0.1157139550245927 -0.18029465614444529 0 0.12443417021765769 -0.1709717485187108 0 0.12083528946942131 -0.1711597280255607 0 0.1232013989280239 -0.1819146573535104 0 0.12083528946942131 -0.1711597280255607 0 0.1157139550245927 -0.18029465614444529 0 0.10772522460311169 -0.17968171223372481 0 0.1128143282819509 -0.19216489626002589 0 0.1157139550245927 -0.18029465614444529 0 0.10772522460311169 -0.17968171223372481 0 0.095454742848087734 -0.19451486061966669 0 0.10772522460311169 -0.17968171223372481 0 0.093505174579280592 -0.1731787749771625 0 0.12083528946942131 -0.1711597280255607 0 0.093505174579280592 -0.1731787749771625 0 0.095454742848087734 -0.19451486061966669 0 0.093505174579280592 -0.1731787749771625 0 0.12083528946942131 -0.1711597280255607 0 0.10772522460311169 -0.17968171223372481 0 0.093505174579280592 -0.1731787749771625 0 0.1035248479174861 -0.15311019857333261 0 0.093505174579280592 -0.1731787749771625 0 0.091560400862706559 -0.15189516094014111 0 0.1035248479174861 -0.15311019857333261 0 0.12083528946942131 -0.1711597280255607 0 0.093505174579280592 -0.1731787749771625 0 0.078133883947979807 -0.15717501910519549 0 0.093505174579280592 -0.1731787749771625 0 0.091560400862706559 -0.15189516094014111 0 0.078133883947979807 -0.15717501910519549 0 0.093505174579280592 -0.1731787749771625 0 0.072477207369929117 -0.17473224276400179 0 0.093505174579280592 -0.1731787749771625 0 0.091560400862706559 -0.15189516094014111 0 0.081482512553192915 -0.1953056794767786 0 0.093505174579280592 -0.1731787749771625 0 0.072477207369929117 -0.17473224276400179 0 0.093505174579280592 -0.1731787749771625 0 0.072477207369929117 -0.17473224276400179 0 0.066040058368007956 -0.18964665730407451 0 0.072477207369929117 -0.17473224276400179 0 0.051449240160577621 -0.1762857105508405 0 0.066040058368007956 -0.18964665730407451 0 0.081482512553192915 -0.1953056794767786 0 0.072477207369929117 -0.17473224276400179 0 0.078133883947979807 -0.15717501910519549 0 0.072477207369929117 -0.17473224276400179 0 0.063878974636528515 -0.16401540189567099 0 0.072477207369929117 -0.17473224276400179 0 0.063878974636528515 -0.16401540189567099 0 0.051449240160577621 -0.1762857105508405 0 0.078133883947979807 -0.15717501910519549 0 0.063878974636528515 -0.16401540189567099 0 0.06522271263887458 -0.15305574504012881 0 0.06522271263887458 -0.15305574504012881 0 0.069316279952888193 -0.14186668388360371 0 0.075278834721760557 -0.14616760919767161 0 0.06522271263887458 -0.15305574504012881 0 0.069316279952888193 -0.14186668388360371 0 0.05757515479497001 -0.1486962131740798 0 0.069316279952888193 -0.14186668388360371 0 0.075278834721760557 -0.14616760919767161 0 0.079765110473415279 -0.13788087003968491 0 0.078133883947979807 -0.15717501910519549 0 0.06522271263887458 -0.15305574504012881 0 0.075278834721760557 -0.14616760919767161 0 0.098760878024456711 -0.14050656481393209 0 0.091560400862706559 -0.15189516094014111 0 0.089615627146132512 -0.13061154690311971 0 0.078133883947979807 -0.15717501910519549 0 0.083611330147541921 -0.14459745320402559 0 0.091560400862706559 -0.15189516094014111 0 0.091560400862706559 -0.15189516094014111 0 0.089615627146132512 -0.13061154690311971 0 0.078133883947979807 -0.15717501910519549 0 0.075278834721760557 -0.14616760919767161 0 0.083611330147541921 -0.14459745320402559 0 0.083611330147541921 -0.14459745320402559 0 0.091560400862706559 -0.15189516094014111 0 0.089615627146132512 -0.13061154690311971 0 0.075278834721760557 -0.14616760919767161 0 0.083611330147541921 -0.14459745320402559 0 0.079765110473415279 -0.13788087003968491 0 0.099525338641528904 -0.12611341339503321 0 0.089615627146132512 -0.13061154690311971 0 0.081894058627025895 -0.12584863130967919 0 0.083611330147541921 -0.14459745320402559 0 0.089615627146132512 -0.13061154690311971 0 0.079765110473415279 -0.13788087003968491 0 0.089615627146132512 -0.13061154690311971 0 0.079765110473415279 -0.13788087003968491 0 0.081894058627025895 -0.12584863130967919 0 0.081894058627025895 -0.12584863130967919 0 0.065576399090336079 -0.13067912082877309 0 0.057907204523981459 -0.13951585418161591 0 0.081894058627025895 -0.12584863130967919 0 0.057907204523981459 -0.13951585418161591 0 0.069316279952888193 -0.14186668388360371 0 0.081894058627025895 -0.12584863130967919 0 0.057907204523981459 -0.13951585418161591 0 0.081894058627025895 -0.12584863130967919 0 0.068207364780656948 -0.12563827965844471 0 0.065576399090336079 -0.13067912082877309 0 0.069316279952888193 -0.14186668388360371 0 0.079765110473415279 -0.13788087003968491 0 0.081894058627025895 -0.12584863130967919 0 0.068207364780656948 -0.12563827965844471 0 0.065576399090336079 -0.13067912082877309 0 0.054296968429680029 -0.13171371816535249 0 0.054296968429680029 -0.13171371816535249 0 0.057907204523981459 -0.13951585418161591 0 0.034849001543539322 -0.1503583031021323 0 0.054296968429680029 -0.13171371816535249 0 0.045553716665441668 -0.12681104972785159 0 0.052448498866582129 -0.1166826243517366 0 0.065576399090336079 -0.13067912082877309 0 0.054296968429680029 -0.13171371816535249 0 0.057907204523981459 -0.13951585418161591 0 0.069316279952888193 -0.14186668388360371 0 0.057907204523981459 -0.13951585418161591 0 0.05757515479497001 -0.1486962131740798 0 0.06522271263887458 -0.15305574504012881 0 0.05757515479497001 -0.1486962131740798 0 0.052111829065281459 -0.15882829201818821 0 0.046808539919221563 -0.15014413002933799 0 0.052111829065281459 -0.15882829201818821 0 0.043031393960321331 -0.1571354857308308 0 0.05757515479497001 -0.1486962131740798 0 0.046808539919221563 -0.15014413002933799 0 0.052111829065281459 -0.15882829201818821 0 0.057907204523981459 -0.13951585418161591 0 0.05757515479497001 -0.1486962131740798 0 0.046808539919221563 -0.15014413002933799 0 0.057907204523981459 -0.13951585418161591 0 0.046808539919221563 -0.15014413002933799 0 0.033920350420936912 -0.1531830770535528 0 0.057907204523981459 -0.13951585418161591 0 0.034849001543539322 -0.1503583031021323 0 0.033920350420936912 -0.1531830770535528 0 0.054296968429680029 -0.13171371816535249 0 0.034849001543539322 -0.1503583031021323 0 0.038558521200612962 -0.14006542407622449 0 0.054296968429680029 -0.13171371816535249 0 0.034849001543539322 -0.1503583031021323 0 0.057907204523981459 -0.13951585418161591 0 0.033920350420936912 -0.1531830770535528 0 0.046808539919221563 -0.15014413002933799 0 0.040219483271594643 -0.15466785876887121 0 0.033920350420936912 -0.1531830770535528 0 0.046808539919221563 -0.15014413002933799 0 0.040219483271594643 -0.15466785876887121 0 0.043031393960321331 -0.1571354857308308 0 0.040219483271594643 -0.15466785876887121 0 0.033920350420936912 -0.1531830770535528 0 0.037117648785898759 -0.15820874226176301 0 0.034849001543539322 -0.1503583031021323 0 0.031672068294339203 -0.14528428076340441 0 0.030051573782975471 -0.15027594372919439 0 0.034849001543539322 -0.1503583031021323 0 0.033920350420936912 -0.1531830770535528 0 0.030051573782975471 -0.15027594372919439 0 0.034849001543539322 -0.1503583031021323 0 0.031672068294339203 -0.14528428076340441 0 0.038558521200612962 -0.14006542407622449 0 0.031672068294339203 -0.14528428076340441 0 0.038558521200612962 -0.14006542407622449 0 0.030566093298411881 -0.13865773310914861 0 0.054296968429680029 -0.13171371816535249 0 0.038558521200612962 -0.14006542407622449 0 0.040644455285911409 -0.1338393175667463 0 0.038558521200612962 -0.14006542407622449 0 0.040644455285911409 -0.1338393175667463 0 0.030566093298411881 -0.13865773310914861 0 0.034824944079593127 -0.12500853882757099 0 0.040644455285911409 -0.1338393175667463 0 0.030566093298411881 -0.13865773310914861 0 0.034824944079593127 -0.12500853882757099 0 0.045553716665441668 -0.12681104972785159 0 0.040644455285911409 -0.1338393175667463 0 0.054296968429680029 -0.13171371816535249 0 0.045553716665441668 -0.12681104972785159 0 0.040644455285911409 -0.1338393175667463 0 0.072477207369929117 -0.17473224276400179 0 0.051449240160577621 -0.1762857105508405 0 0.056257937900538298 -0.19577788601322099 0 0.066040058368007956 -0.18964665730407451 0 0.051449240160577621 -0.1762857105508405 0 0.063878974636528515 -0.16401540189567099 0 0.051449240160577621 -0.1762857105508405 0 0.052111829065281459 -0.15882829201818821 0 0.051449240160577621 -0.1762857105508405 0 0.052111829065281459 -0.15882829201818821 0 0.040502396519655252 -0.1663673850483231 0 0.063878974636528515 -0.16401540189567099 0 0.06522271263887458 -0.15305574504012881 0 0.052111829065281459 -0.15882829201818821 0 0.043031393960321331 -0.1571354857308308 0 0.037117648785898759 -0.15820874226176301 0 0.040502396519655252 -0.1663673850483231 0 0.052111829065281459 -0.15882829201818821 0 0.043031393960321331 -0.1571354857308308 0 0.040502396519655252 -0.1663673850483231 0 0.040219483271594643 -0.15466785876887121 0 0.043031393960321331 -0.1571354857308308 0 0.037117648785898759 -0.15820874226176301 0 0.033920350420936912 -0.1531830770535528 0 0.033509818979212957 -0.15868168045615499 0 0.027465449436243041 -0.1628752445715565 0 0.037117648785898759 -0.15820874226176301 0 0.034071859908748191 -0.1623715567021686 0 0.040502396519655252 -0.1663673850483231 0 0.033920350420936912 -0.1531830770535528 0 0.037117648785898759 -0.15820874226176301 0 0.033509818979212957 -0.15868168045615499 0 0.037117648785898759 -0.15820874226176301 0 0.033509818979212957 -0.15868168045615499 0 0.034071859908748191 -0.1623715567021686 0 0.033509818979212957 -0.15868168045615499 0 0.034071859908748191 -0.1623715567021686 0 0.027465449436243041 -0.1628752445715565 0 0.031586668938662611 -0.1691709391612749 0 0.040502396519655252 -0.1663673850483231 0 0.030421272951226121 -0.1778391783376792 0 0.034071859908748191 -0.1623715567021686 0 0.031586668938662611 -0.1691709391612749 0 0.040502396519655252 -0.1663673850483231 0 0.051449240160577621 -0.1762857105508405 0 0.040502396519655252 -0.1663673850483231 0 0.030421272951226121 -0.1778391783376792 0 0.041440672425083092 -0.19607701236864419 0 0.051449240160577621 -0.1762857105508405 0 0.030421272951226121 -0.1778391783376792 0 0.051449240160577621 -0.1762857105508405 0 0.030421272951226121 -0.1778391783376792 0 0.02540307025583758 -0.19229280057405279 0 0.015764016274472759 -0.1812646672695073 0 0.030421272951226121 -0.1778391783376792 0 0.031586668938662611 -0.1691709391612749 0 0.030421272951226121 -0.1778391783376792 0 0.021575687727073561 -0.1734893605992324 0 0.015764016274472759 -0.1812646672695073 0 0.021575687727073561 -0.1734893605992324 0 0.012676990919703311 -0.16924925594887871 0 0.015764016274472759 -0.1812646672695073 0 0.030421272951226121 -0.1778391783376792 0 0.021575687727073561 -0.1734893605992324 0 0.033920350420936912 -0.1531830770535528 0 0.009933496317892726 -0.16685029992549011 0 0.02294500892830088 -0.1542832107784407 0 0.033920350420936912 -0.1531830770535528 0 0.027465449436243041 -0.1628752445715565 0 0.009933496317892726 -0.16685029992549011 0 0.019596439448784399 -0.16744493330375371 0 0.027465449436243041 -0.1628752445715565 0 0.009933496317892726 -0.16685029992549011 0 0.033920350420936912 -0.1531830770535528 0 0.009933496317892726 -0.16685029992549011 0 0.021575687727073561 -0.1734893605992324 0 0.019596439448784399 -0.16744493330375371 0 0.012676990919703311 -0.16924925594887871 0 0.021575687727073561 -0.1734893605992324 0 0.019596439448784399 -0.16744493330375371 0 0.025540403417393751 -0.1677775419388785 0 0.031586668938662611 -0.1691709391612749 0 0.021575687727073561 -0.1734893605992324 0 0.025540403417393751 -0.1677775419388785 0 0.019596439448784399 -0.16744493330375371 0 0.025540403417393751 -0.1677775419388785 0 0.027465449436243041 -0.1628752445715565 0 0.034071859908748191 -0.1623715567021686 0 0.031586668938662611 -0.1691709391612749 0 0.027465449436243041 -0.1628752445715565 0 0.031586668938662611 -0.1691709391612749 0 0.025540403417393751 -0.1677775419388785 0 0.027465449436243041 -0.1628752445715565 0 0.009933496317892726 -0.16685029992549011 0 0.01648447247354291 -0.15404273338364399 0 0.02294500892830088 -0.1542832107784407 0 0.009933496317892726 -0.16685029992549011 0 0.01648447247354291 -0.15404273338364399 0 0.0068311679390763679 -0.1533437069849535 0 0.019596439448784399 -0.16744493330375371 0 0.009933496317892726 -0.16685029992549011 0 0.012676990919703311 -0.16924925594887871 0 0.009933496317892726 -0.16685029992549011 0 0.012676990919703311 -0.16924925594887871 0 0.0034571977838801569 -0.17702496179755631 0 0.009933496317892726 -0.16685029992549011 0 0.012676990919703311 -0.16924925594887871 0 -0.0085976242789068957 -0.177408956520272 0 0.009933496317892726 -0.16685029992549011 0 -0.0085976242789068957 -0.177408956520272 0 0.009933496317892726 -0.16685029992549011 0 0.0034571977838801569 -0.17702496179755631 0 0.015764016274472759 -0.1812646672695073 0 0.012676990919703311 -0.16924925594887871 0 0.0034571977838801569 -0.17702496179755631 0 -0.003739977245034012 -0.19168309442994089 0 0.010514116253606281 -0.1925853606064957 0 0.0034571977838801569 -0.17702496179755631 0 0.010514116253606281 -0.1925853606064957 0 0.015764016274472759 -0.1812646672695073 0 0.0034571977838801569 -0.17702496179755631 0 0.02166725362828328 -0.1398342401410575 0 0.019282665512654749 -0.1297026577714144 0 0.01241268948209219 -0.14437852502616319 0 0.034824944079593127 -0.12500853882757099 0 0.019282665512654749 -0.1297026577714144 0 0.030566093298411881 -0.13865773310914861 0 0.02166725362828328 -0.1398342401410575 0 0.019282665512654749 -0.1297026577714144 0 0.030566093298411881 -0.13865773310914861 0 0.031672068294339203 -0.14528428076340441 0 0.030566093298411881 -0.13865773310914861 0 0.024335151646156381 -0.14706399980032239 0 0.02166725362828328 -0.1398342401410575 0 0.030566093298411881 -0.13865773310914861 0 0.024335151646156381 -0.14706399980032239 0 0.031672068294339203 -0.14528428076340441 0 0.024335151646156381 -0.14706399980032239 0 0.030051573782975471 -0.15027594372919439 0 0.033920350420936912 -0.1531830770535528 0 0.030051573782975471 -0.15027594372919439 0 0.02294500892830088 -0.1542832107784407 0 0.024335151646156381 -0.14706399980032239 0 0.030051573782975471 -0.15027594372919439 0 0.02294500892830088 -0.1542832107784407 0 0.024335151646156381 -0.14706399980032239 0 0.01648447247354291 -0.15404273338364399 0 0.01241268948209219 -0.14437852502616319 0 0.024335151646156381 -0.14706399980032239 0 0.01648447247354291 -0.15404273338364399 0 0.02294500892830088 -0.1542832107784407 0 0.02166725362828328 -0.1398342401410575 0 0.024335151646156381 -0.14706399980032239 0 0.01241268948209219 -0.14437852502616319 0 -0.011505986517222349 -0.14810326960451681 0 0.01241268948209219 -0.14437852502616319 0 0.0068311679390763679 -0.1533437069849535 0 -0.011505986517222349 -0.14810326960451681 0 0.009933496317892726 -0.16685029992549011 0 0.0068311679390763679 -0.1533437069849535 0 -0.011505986517222349 -0.14810326960451681 0 0.01241268948209219 -0.14437852502616319 0 0.0027021066240326768 -0.1317064378292063 0 0.01648447247354291 -0.15404273338364399 0 0.01241268948209219 -0.14437852502616319 0 0.0068311679390763679 -0.1533437069849535 0 0.019282665512654749 -0.1297026577714144 0 0.01241268948209219 -0.14437852502616319 0 0.0027021066240326768 -0.1317064378292063 0 0.019282665512654749 -0.1297026577714144 0 0.0027021066240326768 -0.1317064378292063 0 0.005085065621477718 -0.1151057880332567 0 0.019282665512654749 -0.1297026577714144 0 0.005085065621477718 -0.1151057880332567 0 0.024129304522527751 -0.1089818526354679 0 0.034824944079593127 -0.12500853882757099 0 0.019282665512654749 -0.1297026577714144 0 0.024129304522527751 -0.1089818526354679 0 0.024129304522527751 -0.1089818526354679 0 0.01380815825635252 -0.094132232187142617 0 0.031293966725895003 -0.08518965294817829 0 -0.00044729776891663488 -0.1011528385718463 0 0.005085065621477718 -0.1151057880332567 0 0.01380815825635252 -0.094132232187142617 0 0.005085065621477718 -0.1151057880332567 0 0.024129304522527751 -0.1089818526354679 0 0.01380815825635252 -0.094132232187142617 0 0.01380815825635252 -0.094132232187142617 0 0.0042106568376920582 -0.081118225430045127 0 0.020039989671696231 -0.071989185162356889 0 -0.00044729776891663488 -0.1011528385718463 0 0.01380815825635252 -0.094132232187142617 0 0.0042106568376920582 -0.081118225430045127 0 0.0042106568376920582 -0.081118225430045127 0 0.0052181775422467033 -0.064346337314722044 0 0.020039989671696231 -0.071989185162356889 0 -0.0043762627118289626 -0.071729097412358583 0 0.0042106568376920582 -0.081118225430045127 0 0.0052181775422467033 -0.064346337314722044 0 0.0052181775422467033 -0.064346337314722044 0 0.020039989671696231 -0.071989185162356889 0 0.0052181775422467033 -0.064346337314722044 0 0.020039989671696231 -0.071989185162356889 0 0.017880224012190679 -0.058506375123621113 0 0.020039989671696231 -0.071989185162356889 0 0.017880224012190679 -0.058506375123621113 0 0.035073137211611732 -0.060365082031122411 0 0.020039989671696231 -0.071989185162356889 0 0.031293966725895003 -0.08518965294817829 0 0.035073137211611732 -0.060365082031122411 0 0.01380815825635252 -0.094132232187142617 0 0.020039989671696231 -0.071989185162356889 0 0.031293966725895003 -0.08518965294817829 0 0.031293966725895003 -0.08518965294817829 0 0.050629459546369923 -0.074776417317023003 0 0.042727201812981508 -0.099892478072297022 0 0.050629459546369923 -0.074776417317023003 0 0.042727201812981508 -0.099892478072297022 0 0.031293966725895003 -0.08518965294817829 0 0.050629459546369923 -0.074776417317023003 0 0.035073137211611732 -0.060365082031122411 0 0.050629459546369923 -0.074776417317023003 0 0.058531717279758283 -0.049660356561749108 0 0.072219385832792832 -0.066659644627356851 0 0.050629459546369923 -0.074776417317023003 0 0.042727201812981508 -0.099892478072297022 0 0.069701838591585213 -0.089386546866783212 0 0.059655618646742382 -0.10475769562984739 0 0.052448498866582129 -0.1166826243517366 0 0.042727201812981508 -0.099892478072297022 0 0.059655618646742382 -0.10475769562984739 0 0.042727201812981508 -0.099892478072297022 0 0.069701838591585213 -0.089386546866783212 0 0.054296968429680029 -0.13171371816535249 0 0.052448498866582129 -0.1166826243517366 0 0.073744935315820714 -0.1130691332285727 0 0.059655618646742382 -0.10475769562984739 0 0.052448498866582129 -0.1166826243517366 0 0.073744935315820714 -0.1130691332285727 0 0.034824944079593127 -0.12500853882757099 0 0.045553716665441668 -0.12681104972785159 0 0.052448498866582129 -0.1166826243517366 0 0.034824944079593127 -0.12500853882757099 0 0.052448498866582129 -0.1166826243517366 0 0.042727201812981508 -0.099892478072297022 0 0.034824944079593127 -0.12500853882757099 0 0.024129304522527751 -0.1089818526354679 0 0.042727201812981508 -0.099892478072297022 0 0.034824944079593127 -0.12500853882757099 0 0.042727201812981508 -0.099892478072297022 0 0.024129304522527751 -0.1089818526354679 0 0.031293966725895003 -0.08518965294817829 0 0.042727201812981508 -0.099892478072297022 0 0.034885408484197772 0.0062912350017927032 0 0.01265631079038235 -0.01012693536007268 0 0.042517259973231587 -0.011683923625132649 0 -0.00118246574067416 -0.01324232368796026 0 0.0012074066645448821 -0.00065723147797176382 0 0.01265631079038235 -0.01012693536007268 0 0.01265631079038235 -0.01012693536007268 0 0.02406773205363014 -0.026959444655171291 0 0.0015263381015913891 -0.033415212413580753 0 0.01265631079038235 -0.01012693536007268 0 0.0015263381015913891 -0.033415212413580753 0 -0.00118246574067416 -0.01324232368796026 0 0.01265631079038235 -0.01012693536007268 0 0.0015263381015913891 -0.033415212413580753 0 0.01265631079038235 -0.01012693536007268 0 0.02406773205363014 -0.026959444655171291 0 0.042517259973231587 -0.011683923625132649 0 0.02406773205363014 -0.026959444655171291 0 0.021771409900077709 -0.044354063799483319 0 0.04186734150286768 -0.035217088077587062 0 0.02406773205363014 -0.026959444655171291 0 0.021771409900077709 -0.044354063799483319 0 0.0015263381015913891 -0.033415212413580753 0 0.021771409900077709 -0.044354063799483319 0 0.0015263381015913891 -0.033415212413580753 0 0.007298405735321048 -0.051477207310420908 0 -0.0096036345872028556 -0.056703489467087059 0 0.0052181775422467033 -0.064346337314722044 0 0.007298405735321048 -0.051477207310420908 0 0.0052181775422467033 -0.064346337314722044 0 0.007298405735321048 -0.051477207310420908 0 0.017880224012190679 -0.058506375123621113 0 0.021771409900077709 -0.044354063799483319 0 0.017880224012190679 -0.058506375123621113 0 0.035073137211611732 -0.060365082031122411 0 0.021771409900077709 -0.044354063799483319 0 0.007298405735321048 -0.051477207310420908 0 0.017880224012190679 -0.058506375123621113 0 0.035073137211611732 -0.060365082031122411 0 0.058531717279758283 -0.049660356561749108 0 0.04186734150286768 -0.035217088077587062 0 0.050629459546369923 -0.074776417317023003 0 0.058531717279758283 -0.049660356561749108 0 0.050629459546369923 -0.074776417317023003 0 0.035073137211611732 -0.060365082031122411 0 0.058531717279758283 -0.049660356561749108 0 0.058531717279758283 -0.049660356561749108 0 0.066433975013146629 -0.02454429580647528 0 0.058531717279758283 -0.049660356561749108 0 0.04186734150286768 -0.035217088077587062 0 0.066433975013146629 -0.02454429580647528 0 0.021771409900077709 -0.044354063799483319 0 0.035073137211611732 -0.060365082031122411 0 0.04186734150286768 -0.035217088077587062 0 0.02406773205363014 -0.026959444655171291 0 0.04186734150286768 -0.035217088077587062 0 0.042517259973231587 -0.011683923625132649 0 0.04186734150286768 -0.035217088077587062 0 0.042517259973231587 -0.011683923625132649 0 0.066433975013146629 -0.02454429580647528 0 0.052968053050369737 0.0090809173488315582 0 0.042517259973231587 -0.011683923625132649 0 0.067492943165135169 -0.0019794682467893379 0 0.042517259973231587 -0.011683923625132649 0 0.067492943165135169 -0.0019794682467893379 0 0.066433975013146629 -0.02454429580647528 0 0.087040675587819916 -0.0096101539263870796 0 0.066433975013146629 -0.02454429580647528 0 0.098032226742104309 -0.02831505409649597 0 0.083930998993742512 0.0059737405228527038 0 0.087040675587819916 -0.0096101539263870796 0 0.067492943165135169 -0.0019794682467893379 0 0.083930998993742512 0.0059737405228527038 0 0.098495163759696414 0.0029673617968291321 0 0.087040675587819916 -0.0096101539263870796 0 0.087040675587819916 -0.0096101539263870796 0 0.067492943165135169 -0.0019794682467893379 0 0.066433975013146629 -0.02454429580647528 0 0.066433975013146629 -0.02454429580647528 0 0.080663194565618018 -0.042742664855397232 0 0.098032226742104309 -0.02831505409649597 0 0.080663194565618018 -0.042742664855397232 0 0.099119978598511321 -0.045144617550746849 0 0.098032226742104309 -0.02831505409649597 0 0.058531717279758283 -0.049660356561749108 0 0.066433975013146629 -0.02454429580647528 0 0.080663194565618018 -0.042742664855397232 0 0.058531717279758283 -0.049660356561749108 0 0.080663194565618018 -0.042742664855397232 0 0.072219385832792832 -0.066659644627356851 0 0.080663194565618018 -0.042742664855397232 0 0.091985945990252393 -0.059557823171565508 0 0.072219385832792832 -0.066659644627356851 0 0.080663194565618018 -0.042742664855397232 0 0.091985945990252393 -0.059557823171565508 0 0.099119978598511321 -0.045144617550746849 0 0.091985945990252393 -0.059557823171565508 0 0.109385226414503 -0.056941989317685793 0 0.099119978598511321 -0.045144617550746849 0 0.109385226414503 -0.056941989317685793 0 0.1174221699598199 -0.069046986946925279 0 0.12664898879935529 -0.055605769639440771 0 0.109385226414503 -0.056941989317685793 0 0.1155332992800789 -0.038165556312589707 0 0.12664898879935529 -0.055605769639440771 0 0.1155332992800789 -0.038165556312589707 0 0.12954193793015309 -0.041748568408345607 0 0.12664898879935529 -0.055605769639440771 0 0.1155332992800789 -0.038165556312589707 0 0.1294320674019063 -0.023146095115484211 0 0.12954193793015309 -0.041748568408345607 0 0.109385226414503 -0.056941989317685793 0 0.1155332992800789 -0.038165556312589707 0 0.099119978598511321 -0.045144617550746849 0 0.1155332992800789 -0.038165556312589707 0 0.099119978598511321 -0.045144617550746849 0 0.098032226742104309 -0.02831505409649597 0 0.1155332992800789 -0.038165556312589707 0 0.098032226742104309 -0.02831505409649597 0 0.1112777463759113 -0.012222875866518469 0 0.087040675587819916 -0.0096101539263870796 0 0.098032226742104309 -0.02831505409649597 0 0.1112777463759113 -0.012222875866518469 0 0.1155332992800789 -0.038165556312589707 0 0.1112777463759113 -0.012222875866518469 0 0.1294320674019063 -0.023146095115484211 0 0.1158546052028349 0.0064685721448778594 0 0.13464870039648349 0.00080453217212592717 0 0.1112777463759113 -0.012222875866518469 0 0.098495163759696414 0.0029673617968291321 0 0.087040675587819916 -0.0096101539263870796 0 0.1112777463759113 -0.012222875866518469 0 0.1158546052028349 0.0064685721448778594 0 0.098495163759696414 0.0029673617968291321 0 0.1112777463759113 -0.012222875866518469 0 0.093192902201961414 -0.094424548291792879 0 0.088899626305776192 -0.1113374325741409 0 0.073744935315820714 -0.1130691332285727 0 0.093192902201961414 -0.094424548291792879 0 0.073744935315820714 -0.1130691332285727 0 0.069701838591585213 -0.089386546866783212 0 0.093192902201961414 -0.094424548291792879 0 0.073744935315820714 -0.1130691332285727 0 0.081894058627025895 -0.12584863130967919 0 0.088899626305776192 -0.1113374325741409 0 0.09397493983509804 -0.11322330148444169 0 0.081894058627025895 -0.12584863130967919 0 0.079920122843727764 -0.11786127252462281 0 0.075141871126288284 -0.1211898929860986 0 0.081894058627025895 -0.12584863130967919 0 0.088899626305776192 -0.1113374325741409 0 0.079920122843727764 -0.11786127252462281 0 0.088899626305776192 -0.1113374325741409 0 0.079920122843727764 -0.11786127252462281 0 0.073744935315820714 -0.1130691332285727 0 0.068207364780656948 -0.12563827965844471 0 0.054296968429680029 -0.13171371816535249 0 0.073744935315820714 -0.1130691332285727 0 0.054296968429680029 -0.13171371816535249 0 0.073744935315820714 -0.1130691332285727 0 0.068207364780656948 -0.12563827965844471 0 0.073744935315820714 -0.1130691332285727 0 0.075141871126288284 -0.1211898929860986 0 0.079920122843727764 -0.11786127252462281 0 0.073744935315820714 -0.1130691332285727 0 0.075141871126288284 -0.1211898929860986 0 0.081894058627025895 -0.12584863130967919 0 0.068207364780656948 -0.12563827965844471 0 0.075141871126288284 -0.1211898929860986 0 0.059655618646742382 -0.10475769562984739 0 0.073744935315820714 -0.1130691332285727 0 0.069701838591585213 -0.089386546866783212 0 0.050629459546369923 -0.074776417317023003 0 0.069701838591585213 -0.089386546866783212 0 0.072219385832792832 -0.066659644627356851 0 0.069701838591585213 -0.089386546866783212 0 0.072219385832792832 -0.066659644627356851 0 0.089711563165187497 -0.078251462936863553 0 0.091985945990252393 -0.059557823171565508 0 0.072219385832792832 -0.066659644627356851 0 0.089711563165187497 -0.078251462936863553 0 0.093192902201961414 -0.094424548291792879 0 0.069701838591585213 -0.089386546866783212 0 0.089711563165187497 -0.078251462936863553 0 0.093192902201961414 -0.094424548291792879 0 0.089711563165187497 -0.078251462936863553 0 0.1048667032735431 -0.089595599910983495 0 0.089711563165187497 -0.078251462936863553 0 0.1048667032735431 -0.089595599910983495 0 0.1056935618466131 -0.072691272791708894 0 0.1048667032735431 -0.089595599910983495 0 0.1056935618466131 -0.072691272791708894 0 0.11564058922802831 -0.08068930143821873 0 0.091985945990252393 -0.059557823171565508 0 0.089711563165187497 -0.078251462936863553 0 0.1056935618466131 -0.072691272791708894 0 0.091985945990252393 -0.059557823171565508 0 0.109385226414503 -0.056941989317685793 0 0.1056935618466131 -0.072691272791708894 0 0.1174221699598199 -0.069046986946925279 0 0.12840026197867099 -0.078951386265116219 0 0.12664898879935529 -0.055605769639440771 0 0.109385226414503 -0.056941989317685793 0 0.1056935618466131 -0.072691272791708894 0 0.1174221699598199 -0.069046986946925279 0 0.1056935618466131 -0.072691272791708894 0 0.1174221699598199 -0.069046986946925279 0 0.11564058922802831 -0.08068930143821873 0 0.1174221699598199 -0.069046986946925279 0 0.11564058922802831 -0.08068930143821873 0 0.12840026197867099 -0.078951386265116219 0 0.1048667032735431 -0.089595599910983495 0 0.11564058922802831 -0.08068930143821873 0 0.1191358060176364 -0.092450830711447801 0 0.1191358060176364 -0.092450830711447801 0 0.12840026197867099 -0.078951386265116219 0 0.11564058922802831 -0.08068930143821873 0 0.1191358060176364 -0.092450830711447801 0 0.12840026197867099 -0.078951386265116219 0 0.1058809127300703 -0.11218140843774239 0 0.12023297736745781 -0.1110263554770618 0 0.12986776683311119 -0.098514185565799078 0 0.1058809127300703 -0.11218140843774239 0 0.12986776683311119 -0.098514185565799078 0 0.1048667032735431 -0.089595599910983495 0 0.1191358060176364 -0.092450830711447801 0 0.10987135005660249 -0.1059502751577799 0 0.10987135005660249 -0.1059502751577799 0 0.1058809127300703 -0.11218140843774239 0 0.12986776683311119 -0.098514185565799078 0 0.1191358060176364 -0.092450830711447801 0 0.10987135005660249 -0.1059502751577799 0 0.12986776683311119 -0.098514185565799078 0 0.1191358060176364 -0.092450830711447801 0 0.10987135005660249 -0.1059502751577799 0 0.093192902201961414 -0.094424548291792879 0 0.088899626305776192 -0.1113374325741409 0 0.099225161677519755 -0.1035257336162041 0 0.1048667032735431 -0.089595599910983495 0 0.10987135005660249 -0.1059502751577799 0 0.099225161677519755 -0.1035257336162041 0 0.10987135005660249 -0.1059502751577799 0 0.099225161677519755 -0.1035257336162041 0 0.1058809127300703 -0.11218140843774239 0 0.088899626305776192 -0.1113374325741409 0 0.099225161677519755 -0.1035257336162041 0 0.09397493983509804 -0.11322330148444169 0 0.093192902201961414 -0.094424548291792879 0 0.1048667032735431 -0.089595599910983495 0 0.099225161677519755 -0.1035257336162041 0 0.081894058627025895 -0.12584863130967919 0 0.1058809127300703 -0.11218140843774239 0 0.099525338641528904 -0.12611341339503321 0 0.081894058627025895 -0.12584863130967919 0 0.1058809127300703 -0.11218140843774239 0 0.081894058627025895 -0.12584863130967919 0 0.09397493983509804 -0.11322330148444169 0 0.1058809127300703 -0.11218140843774239 0 0.099225161677519755 -0.1035257336162041 0 0.09397493983509804 -0.11322330148444169 0 0.1058809127300703 -0.11218140843774239 0 0.099525338641528904 -0.12611341339503321 0 0.1058809127300703 -0.11218140843774239 0 0.1121708616464093 -0.1216807098986791 0 0.1058809127300703 -0.11218140843774239 0 0.1121708616464093 -0.1216807098986791 0 0.12023297736745781 -0.1110263554770618 0 0.11997683785091839 -0.1276371159963853 0 0.121067612134044 -0.1214532534018402 0 0.13188977167139071 -0.12546883223523481 0 0.12023297736745781 -0.1110263554770618 0 0.121067612134044 -0.1214532534018402 0 0.13188977167139071 -0.12546883223523481 0 0.11997683785091839 -0.1276371159963853 0 0.1121708616464093 -0.1216807098986791 0 0.121067612134044 -0.1214532534018402 0 0.1121708616464093 -0.1216807098986791 0 0.12023297736745781 -0.1110263554770618 0 0.121067612134044 -0.1214532534018402 0 0.12023297736745781 -0.1110263554770618 0 0.12986776683311119 -0.098514185565799078 0 0.13188977167139071 -0.12546883223523481 0 0.12986776683311119 -0.098514185565799078 0 0.13188977167139071 -0.12546883223523481 0 0.14925441928633251 -0.10969288085116551 0 0.13995942417209239 -0.1034127274713456 0 0.13188977167139071 -0.12546883223523481 0 0.14724036225017881 -0.1245170930860646 0 0.14925441928633251 -0.10969288085116551 0 0.13188977167139071 -0.12546883223523481 0 0.14925441928633251 -0.10969288085116551 0 0.15485465026004211 -0.11932571079310079 0 0.15999890680388329 -0.1096406796162286 0 0.14724036225017881 -0.1245170930860646 0 0.15485465026004211 -0.11932571079310079 0 0.15557261582888751 -0.13003178131142151 0 0.14724036225017881 -0.1245170930860646 0 0.14925441928633251 -0.10969288085116551 0 0.15485465026004211 -0.11932571079310079 0 0.14925441928633251 -0.10969288085116551 0 0.14348993397904131 -0.092765062884646393 0 0.1620153957752187 -0.097165399419701551 0 0.14348993397904131 -0.092765062884646393 0 0.1620153957752187 -0.097165399419701551 0 0.14925441928633251 -0.10969288085116551 0 0.13995942417209239 -0.1034127274713456 0 0.14348993397904131 -0.092765062884646393 0 0.13995942417209239 -0.1034127274713456 0 0.12986776683311119 -0.098514185565799078 0 0.13188977167139071 -0.12546883223523481 0 0.13995942417209239 -0.1034127274713456 0 0.12986776683311119 -0.098514185565799078 0 0.14348993397904131 -0.092765062884646393 0 0.12986776683311119 -0.098514185565799078 0 0.12840026197867099 -0.078951386265116219 0 0.1428482005174804 -0.076716741777837147 0 0.1191358060176364 -0.092450830711447801 0 0.12986776683311119 -0.098514185565799078 0 0.12840026197867099 -0.078951386265116219 0 0.12986776683311119 -0.098514185565799078 0 0.12840026197867099 -0.078951386265116219 0 0.12840026197867099 -0.078951386265116219 0 0.12664898879935529 -0.055605769639440771 0 0.12840026197867099 -0.078951386265116219 0 0.12664898879935529 -0.055605769639440771 0 0.14464694777039611 -0.055277979731059648 0 0.12840026197867099 -0.078951386265116219 0 0.1428482005174804 -0.076716741777837147 0 0.14464694777039611 -0.055277979731059648 0 0.12840026197867099 -0.078951386265116219 0 0.14464694777039611 -0.055277979731059648 0 0.1428482005174804 -0.076716741777837147 0 0.15680899227989839 -0.06637062400294011 0 0.14464694777039611 -0.055277979731059648 0 0.1428482005174804 -0.076716741777837147 0 0.15451703372532541 -0.084469533324270707 0 0.15680899227989839 -0.06637062400294011 0 0.12986776683311119 -0.098514185565799078 0 0.15451703372532541 -0.084469533324270707 0 0.12986776683311119 -0.098514185565799078 0 0.14348993397904131 -0.092765062884646393 0 0.15451703372532541 -0.084469533324270707 0 0.14348993397904131 -0.092765062884646393 0 0.15451703372532541 -0.084469533324270707 0 0.1620153957752187 -0.097165399419701551 0 0.12986776683311119 -0.098514185565799078 0 0.1428482005174804 -0.076716741777837147 0 0.15451703372532541 -0.084469533324270707 0 0.15451703372532541 -0.084469533324270707 0 0.1674193516126988 -0.088794767656503876 0 0.1620153957752187 -0.097165399419701551 0 0.15451703372532541 -0.084469533324270707 0 0.1674193516126988 -0.088794767656503876 0 0.16389165652408541 -0.076485311925560115 0 0.1674193516126988 -0.088794767656503876 0 0.16389165652408541 -0.076485311925560115 0 0.17613181446746839 -0.084287857658230353 0 0.15451703372532541 -0.084469533324270707 0 0.15680899227989839 -0.06637062400294011 0 0.16389165652408541 -0.076485311925560115 0 0.16389165652408541 -0.076485311925560115 0 0.1717227713635387 -0.067009979361705274 0 0.17613181446746839 -0.084287857658230353 0 0.15680899227989839 -0.06637062400294011 0 0.16389165652408541 -0.076485311925560115 0 0.1717227713635387 -0.067009979361705274 0 0.15680899227989839 -0.06637062400294011 0 0.1717227713635387 -0.067009979361705274 0 0.1652446184022294 -0.054500080927008407 0 0.1717227713635387 -0.067009979361705274 0 0.17613181446746839 -0.084287857658230353 0 0.1717227713635387 -0.067009979361705274 0 0.18346211879182289 -0.064955309332027283 0 0.18137547142311691 -0.085525622921553163 0 0.18346211879182289 -0.064955309332027283 0 0.18137547142311691 -0.085525622921553163 0 0.1952329782378138 -0.068464889048657496 0 0.1717227713635387 -0.067009979361705274 0 0.18137547142311691 -0.085525622921553163 0 0.1717227713635387 -0.067009979361705274 0 0.18346211879182289 -0.064955309332027283 0 0.1746283364613696 -0.057560297553190053 0 0.18137547142311691 -0.085525622921553163 0 0.17613181446746839 -0.084287857658230353 0 0.18054085757139629 -0.1015657359547559 0 0.17613181446746839 -0.084287857658230353 0 0.18054085757139629 -0.1015657359547559 0 0.1674193516126988 -0.088794767656503876 0 0.17613181446746839 -0.084287857658230353 0 0.18054085757139629 -0.1015657359547559 0 0.1717227713635387 -0.067009979361705274 0 0.18137547142311691 -0.085525622921553163 0 0.17613181446746839 -0.084287857658230353 0 0.18137547142311691 -0.085525622921553163 0 0.19100769245097829 -0.1040519139747048 0 0.18137547142311691 -0.085525622921553163 0 0.18054085757139629 -0.1015657359547559 0 0.19100769245097829 -0.1040519139747048 0 0.18054085757139629 -0.1015657359547559 0 0.1749190978293893 -0.1165979942053425 0 0.16884250162088479 -0.1080310140379921 0 0.18054085757139629 -0.1015657359547559 0 0.19100769245097829 -0.1040519139747048 0 0.18054085757139629 -0.1015657359547559 0 0.1862357176231304 -0.1238823921021804 0 0.1749190978293893 -0.1165979942053425 0 0.18054085757139629 -0.1015657359547559 0 0.1862357176231304 -0.1238823921021804 0 0.19100769245097829 -0.1040519139747048 0 0.18054085757139629 -0.1015657359547559 0 0.1862357176231304 -0.1238823921021804 0 0.1862357176231304 -0.1238823921021804 0 0.1749190978293893 -0.1165979942053425 0 0.17324983187337631 -0.13165498831909611 0 0.1749190978293893 -0.1165979942053425 0 0.16471491079178111 -0.1205264202314431 0 0.16884250162088479 -0.1080310140379921 0 0.16471491079178111 -0.1205264202314431 0 0.15999890680388329 -0.1096406796162286 0 0.16884250162088479 -0.1080310140379921 0 0.1749190978293893 -0.1165979942053425 0 0.16471491079178111 -0.1205264202314431 0 0.17324983187337631 -0.13165498831909611 0 0.15485465026004211 -0.11932571079310079 0 0.16471491079178111 -0.1205264202314431 0 0.15557261582888751 -0.13003178131142151 0 0.15485465026004211 -0.11932571079310079 0 0.16471491079178111 -0.1205264202314431 0 0.15999890680388329 -0.1096406796162286 0 0.18054085757139629 -0.1015657359547559 0 0.1620153957752187 -0.097165399419701551 0 0.1674193516126988 -0.088794767656503876 0 0.18054085757139629 -0.1015657359547559 0 0.1620153957752187 -0.097165399419701551 0 0.14925441928633251 -0.10969288085116551 0 0.15999890680388329 -0.1096406796162286 0 0.1620153957752187 -0.097165399419701551 0 0.15999890680388329 -0.1096406796162286 0 0.1620153957752187 -0.097165399419701551 0 0.16884250162088479 -0.1080310140379921 0 0.18054085757139629 -0.1015657359547559 0 0.1620153957752187 -0.097165399419701551 0 0.16884250162088479 -0.1080310140379921 0 0.13464870039648349 0.00080453217212592717 0 0.15480995508657039 -0.001084596553268768 0 0.14892696920713289 -0.018041582065753459 0 0.13464870039648349 0.00080453217212592717 0 0.1294320674019063 -0.023146095115484211 0 0.14892696920713289 -0.018041582065753459 0 0.13464870039648349 0.00080453217212592717 0 0.1112777463759113 -0.012222875866518469 0 0.1294320674019063 -0.023146095115484211 0 0.1294320674019063 -0.023146095115484211 0 0.14892696920713289 -0.018041582065753459 0 0.14270131340979469 -0.036531096068384838 0 0.14892696920713289 -0.018041582065753459 0 0.14270131340979469 -0.036531096068384838 0 0.16089363356212191 -0.031604573197003549 0 0.14270131340979469 -0.036531096068384838 0 0.14464694777039611 -0.055277979731059648 0 0.16089363356212191 -0.031604573197003549 0 0.14464694777039611 -0.055277979731059648 0 0.15561449558007559 -0.051164132387281437 0 0.16089363356212191 -0.031604573197003549 0 0.14464694777039611 -0.055277979731059648 0 0.16089363356212191 -0.031604573197003549 0 0.14270131340979469 -0.036531096068384838 0 0.12954193793015309 -0.041748568408345607 0 0.14464694777039611 -0.055277979731059648 0 0.1294320674019063 -0.023146095115484211 0 0.14270131340979469 -0.036531096068384838 0 0.12954193793015309 -0.041748568408345607 0 0.12954193793015309 -0.041748568408345607 0 0.12664898879935529 -0.055605769639440771 0 0.14464694777039611 -0.055277979731059648 0 0.15680899227989839 -0.06637062400294011 0 0.14464694777039611 -0.055277979731059648 0 0.15561449558007559 -0.051164132387281437 0 0.15680899227989839 -0.06637062400294011 0 0.15561449558007559 -0.051164132387281437 0 0.1652446184022294 -0.054500080927008407 0 0.15561449558007559 -0.051164132387281437 0 0.1652446184022294 -0.054500080927008407 0 0.1617942405007988 -0.043199732881276223 0 0.1652446184022294 -0.054500080927008407 0 0.1746283364613696 -0.057560297553190053 0 0.1617942405007988 -0.043199732881276223 0 0.1717227713635387 -0.067009979361705274 0 0.1652446184022294 -0.054500080927008407 0 0.1717227713635387 -0.067009979361705274 0 0.1652446184022294 -0.054500080927008407 0 0.1746283364613696 -0.057560297553190053 0 0.1746283364613696 -0.057560297553190053 0 0.1828119860636557 -0.050363577362968731 0 0.1617942405007988 -0.043199732881276223 0 0.18346211879182289 -0.064955309332027283 0 0.1746283364613696 -0.057560297553190053 0 0.1828119860636557 -0.050363577362968731 0 0.18346211879182289 -0.064955309332027283 0 0.1828119860636557 -0.050363577362968731 0 0.19188844298534441 -0.056659859735039647 0 0.1617942405007988 -0.043199732881276223 0 0.18853740735089011 -0.033706188378118708 0 0.1828119860636557 -0.050363577362968731 0 0.1617942405007988 -0.043199732881276223 0 0.18853740735089011 -0.033706188378118708 0 0.15561449558007559 -0.051164132387281437 0 0.16089363356212191 -0.031604573197003549 0 0.1617942405007988 -0.043199732881276223 0 0.16089363356212191 -0.031604573197003549 0 0.1617942405007988 -0.043199732881276223 0 0.18853740735089011 -0.033706188378118708 0 0.16089363356212191 -0.031604573197003549 0 0.17714031935384769 -0.0079311666629475405 0 0.14892696920713289 -0.018041582065753459 0 0.16089363356212191 -0.031604573197003549 0 0.17714031935384769 -0.0079311666629475405 0 0.16089363356212191 -0.031604573197003549 0 0.17714031935384769 -0.0079311666629475405 0 0.18853740735089011 -0.033706188378118708 0 0.1657030786406338 0.0084270166623369204 0 0.15480995508657039 -0.001084596553268768 0 0.17714031935384769 -0.0079311666629475405 0 0.15480995508657039 -0.001084596553268768 0 0.14892696920713289 -0.018041582065753459 0 0.17714031935384769 -0.0079311666629475405 0 0.21351355446813719 -0.0021103410187178909 0 0.2110126965438916 -0.012672932103663791 0 0.2228246624943325 -0.0092295053444410857 0 0.2110126965438916 -0.012672932103663791 0 0.21911622703360889 -0.015650702578479541 0 0.2228246624943325 -0.0092295053444410857 0 0.21351355446813719 -0.0021103410187178909 0 0.2110126965438916 -0.012672932103663791 0 0.19836939172364151 -0.01016904411482358 0 0.1998105265397013 0.00335350757378736 0 0.21351355446813719 -0.0021103410187178909 0 0.19836939172364151 -0.01016904411482358 0 0.1998105265397013 0.00335350757378736 0 0.17714031935384769 -0.0079311666629475405 0 0.19836939172364151 -0.01016904411482358 0 0.17714031935384769 -0.0079311666629475405 0 0.19836939172364151 -0.01016904411482358 0 0.18853740735089011 -0.033706188378118708 0 0.2110126965438916 -0.012672932103663791 0 0.19836939172364151 -0.01016904411482358 0 0.18853740735089011 -0.033706188378118708 0 0.21528057420098159 -0.024212643874961401 0 0.18853740735089011 -0.033706188378118708 0 0.2110126965438916 -0.012672932103663791 0 0.21528057420098159 -0.024212643874961401 0 0.18853740735089011 -0.033706188378118708 0 0.21528057420098159 -0.024212643874961401 0 0.20886364623554921 -0.031523512657201581 0 0.18853740735089011 -0.033706188378118708 0 0.2110126965438916 -0.012672932103663791 0 0.21528057420098159 -0.024212643874961401 0 0.21911622703360889 -0.015650702578479541 0 0.21528057420098159 -0.024212643874961401 0 0.2158000993154765 -0.027276596113623111 0 0.21360323626451261 -0.02858374534336202 0 0.21528057420098159 -0.024212643874961401 0 0.2158000993154765 -0.027276596113623111 0 0.21995729679401421 -0.029331280632926501 0 0.2158000993154765 -0.027276596113623111 0 0.21503400689837671 -0.030930810510401429 0 0.21995729679401421 -0.029331280632926501 0 0.2158000993154765 -0.027276596113623111 0 0.21503400689837671 -0.030930810510401429 0 0.21360323626451261 -0.02858374534336202 0 0.21528057420098159 -0.024212643874961401 0 0.21360323626451261 -0.02858374534336202 0 0.20886364623554921 -0.031523512657201581 0 0.21503400689837671 -0.030930810510401429 0 0.21360323626451261 -0.02858374534336202 0 0.20886364623554921 -0.031523512657201581 0 0.2128060919330283 -0.035124071741943173 0 0.2180191377477218 -0.035203133534298187 0 0.2167024847658664 -0.043974661413588162 0 0.21503400689837671 -0.030930810510401429 0 0.2128060919330283 -0.035124071741943173 0 0.20886364623554921 -0.031523512657201581 0 0.21503400689837671 -0.030930810510401429 0 0.2128060919330283 -0.035124071741943173 0 0.2180191377477218 -0.035203133534298187 0 0.21503400689837671 -0.030930810510401429 0 0.2180191377477218 -0.035203133534298187 0 0.21995729679401421 -0.029331280632926501 0 0.2167024847658664 -0.043974661413588162 0 0.20890374551960481 -0.040729144831228678 0 0.20897987019450001 -0.050060865146210963 0 0.2128060919330283 -0.035124071741943173 0 0.2167024847658664 -0.043974661413588162 0 0.20890374551960481 -0.040729144831228678 0 0.20890374551960481 -0.040729144831228678 0 0.19655169947710091 -0.043788383486002072 0 0.20897987019450001 -0.050060865146210963 0 0.2128060919330283 -0.035124071741943173 0 0.20890374551960481 -0.040729144831228678 0 0.20886364623554921 -0.031523512657201581 0 0.20890374551960481 -0.040729144831228678 0 0.20886364623554921 -0.031523512657201581 0 0.19655169947710091 -0.043788383486002072 0 0.1828119860636557 -0.050363577362968731 0 0.18853740735089011 -0.033706188378118708 0 0.19655169947710091 -0.043788383486002072 0 0.20886364623554921 -0.031523512657201581 0 0.18853740735089011 -0.033706188378118708 0 0.19655169947710091 -0.043788383486002072 0 0.19655169947710091 -0.043788383486002072 0 0.20138343235632811 -0.055727139445542639 0 0.20897987019450001 -0.050060865146210963 0 0.19655169947710091 -0.043788383486002072 0 0.19188844298534441 -0.056659859735039647 0 0.20138343235632811 -0.055727139445542639 0 0.1828119860636557 -0.050363577362968731 0 0.19655169947710091 -0.043788383486002072 0 0.19188844298534441 -0.056659859735039647 0 0.19188844298534441 -0.056659859735039647 0 0.20138343235632811 -0.055727139445542639 0 0.1952329782378138 -0.068464889048657496 0 0.20138343235632811 -0.055727139445542639 0 0.22670270369963491 -0.067064047377793826 0 0.20138343235632811 -0.055727139445542639 0 0.21577564808412511 -0.056666161138016313 0 0.22670270369963491 -0.067064047377793826 0 0.20138343235632811 -0.055727139445542639 0 0.20897987019450001 -0.050060865146210963 0 0.21577564808412511 -0.056666161138016313 0 0.2167024847658664 -0.043974661413588162 0 0.20897987019450001 -0.050060865146210963 0 0.21577564808412511 -0.056666161138016313 0 0.21577564808412511 -0.056666161138016313 0 0.23694359709532001 -0.061394592404840097 0 0.22670270369963491 -0.067064047377793826 0 0.21577564808412511 -0.056666161138016313 0 0.22648325856373289 -0.049317463857355977 0 0.23694359709532001 -0.061394592404840097 0 0.21577564808412511 -0.056666161138016313 0 0.23694359709532001 -0.061394592404840097 0 0.2167024847658664 -0.043974661413588162 0 0.21577564808412511 -0.056666161138016313 0 0.22648325856373289 -0.049317463857355977 0 0.22648325856373289 -0.049317463857355977 0 0.23694359709532001 -0.061394592404840097 0 0.23716366819637241 -0.046229271507985323 0 0.25811154610651499 -0.066123023671663908 0 0.23694359709532001 -0.061394592404840097 0 0.24870160087168189 -0.052882304334001928 0 0.23694359709532001 -0.061394592404840097 0 0.24870160087168189 -0.052882304334001928 0 0.23716366819637241 -0.046229271507985323 0 0.24870160087168189 -0.052882304334001928 0 0.23716366819637241 -0.046229271507985323 0 0.24731406762381819 -0.035960341631652723 0 0.23716366819637241 -0.046229271507985323 0 0.24731406762381819 -0.035960341631652723 0 0.23342582712955959 -0.033308149953783547 0 0.23342582712955959 -0.033308149953783547 0 0.2258308946769807 -0.038322632822349968 0 0.22548915127375299 -0.027513718828695861 0 0.22648325856373289 -0.049317463857355977 0 0.23716366819637241 -0.046229271507985323 0 0.2258308946769807 -0.038322632822349968 0 0.23716366819637241 -0.046229271507985323 0 0.23342582712955959 -0.033308149953783547 0 0.2258308946769807 -0.038322632822349968 0 0.2180191377477218 -0.035203133534298187 0 0.2167024847658664 -0.043974661413588162 0 0.2258308946769807 -0.038322632822349968 0 0.2167024847658664 -0.043974661413588162 0 0.22648325856373289 -0.049317463857355977 0 0.2258308946769807 -0.038322632822349968 0 0.2180191377477218 -0.035203133534298187 0 0.2258308946769807 -0.038322632822349968 0 0.21995729679401421 -0.029331280632926501 0 0.2258308946769807 -0.038322632822349968 0 0.22548915127375299 -0.027513718828695861 0 0.21995729679401421 -0.029331280632926501 0 0.21528057420098159 -0.024212643874961401 0 0.2313313538768734 -0.018514784978234038 0 0.22829619310998309 -0.01520182636873813 0 0.21528057420098159 -0.024212643874961401 0 0.2313313538768734 -0.018514784978234038 0 0.21528057420098159 -0.024212643874961401 0 0.22548915127375299 -0.027513718828695861 0 0.2313313538768734 -0.018514784978234038 0 0.21528057420098159 -0.024212643874961401 0 0.22548915127375299 -0.027513718828695861 0 0.21995729679401421 -0.029331280632926501 0 0.21528057420098159 -0.024212643874961401 0 0.22829619310998309 -0.01520182636873813 0 0.21528057420098159 -0.024212643874961401 0 0.21911622703360889 -0.015650702578479541 0 0.22829619310998309 -0.01520182636873813 0 0.2313313538768734 -0.018514784978234038 0 0.22829619310998309 -0.01520182636873813 0 0.23342582712955959 -0.033308149953783547 0 0.22548915127375299 -0.027513718828695861 0 0.2313313538768734 -0.018514784978234038 0 0.25508119948702751 -0.010083838205662381 0 0.2313313538768734 -0.018514784978234038 0 0.2482857443068576 -0.021714794414400052 0 0.24731406762381819 -0.035960341631652723 0 0.2313313538768734 -0.018514784978234038 0 0.2482857443068576 -0.021714794414400052 0 0.24731406762381819 -0.035960341631652723 0 0.23342582712955959 -0.033308149953783547 0 0.2313313538768734 -0.018514784978234038 0 0.24731406762381819 -0.035960341631652723 0 0.2313313538768734 -0.018514784978234038 0 0.25508119948702751 -0.010083838205662381 0 0.2313313538768734 -0.018514784978234038 0 0.24138147174972829 -0.0061427828714447699 0 0.25508119948702751 -0.010083838205662381 0 0.2313313538768734 -0.018514784978234038 0 0.24138147174972829 -0.0061427828714447699 0 0.22829619310998309 -0.01520182636873813 0 0.25446675038947358 0.0029162606258486688 0 0.2541426920980116 -0.0036136263454906951 0 0.24138147174972829 -0.0061427828714447699 0 0.25446675038947358 0.0029162606258486688 0 0.24138147174972829 -0.0061427828714447699 0 0.22999165343287109 0.0038227322559807589 0 0.24138147174972829 -0.0061427828714447699 0 0.23189167676904729 -0.0064153040848911828 0 0.22999165343287109 0.0038227322559807589 0 0.23189167676904729 -0.0064153040848911828 0 0.2228246624943325 -0.0092295053444410857 0 0.22999165343287109 0.0038227322559807589 0 0.21351355446813719 -0.0021103410187178909 0 0.2228246624943325 -0.0092295053444410857 0 0.23189167676904729 -0.0064153040848911828 0 0.22829619310998309 -0.01520182636873813 0 0.2228246624943325 -0.0092295053444410857 0 0.2313313538768734 -0.018514784978234038 0 0.24138147174972829 -0.0061427828714447699 0 0.22829619310998309 -0.01520182636873813 0 0.24138147174972829 -0.0061427828714447699 0 0.23189167676904729 -0.0064153040848911828 0 0.22829619310998309 -0.01520182636873813 0 0.21911622703360889 -0.015650702578479541 0 0.22829619310998309 -0.01520182636873813 0 0.2228246624943325 -0.0092295053444410857 0 0.22829619310998309 -0.01520182636873813 0 0.2228246624943325 -0.0092295053444410857 0 0.2084634723971549 -0.097930235578601213 0 0.21737999015654699 -0.1103161024944793 0 0.2275791846540145 -0.10054182369239011 0 0.21737999015654699 -0.1103161024944793 0 0.19100769245097829 -0.1040519139747048 0 0.2084634723971549 -0.097930235578601213 0 0.21140608144591419 -0.084503356370523836 0 0.2275791846540145 -0.10054182369239011 0 0.2084634723971549 -0.097930235578601213 0 0.21737999015654699 -0.1103161024944793 0 0.19100769245097829 -0.1040519139747048 0 0.21737999015654699 -0.1103161024944793 0 0.21277072480774051 -0.1248863227998855 0 0.20025029595199689 -0.1218288277367077 0 0.21737999015654699 -0.1103161024944793 0 0.21277072480774051 -0.1248863227998855 0 0.2239597136694004 -0.1277946194696456 0 0.1862357176231304 -0.1238823921021804 0 0.20025029595199689 -0.1218288277367077 0 0.19100769245097829 -0.1040519139747048 0 0.21737999015654699 -0.1103161024944793 0 0.20025029595199689 -0.1218288277367077 0 0.19100769245097829 -0.1040519139747048 0 0.20025029595199689 -0.1218288277367077 0 0.19100769245097829 -0.1040519139747048 0 0.2084634723971549 -0.097930235578601213 0 0.19100769245097829 -0.1040519139747048 0 0.19624682445825681 -0.08914472739044943 0 0.18137547142311691 -0.085525622921553163 0 0.19100769245097829 -0.1040519139747048 0 0.19624682445825681 -0.08914472739044943 0 0.19624682445825681 -0.08914472739044943 0 0.1952329782378138 -0.068464889048657496 0 0.21140608144591419 -0.084503356370523836 0 0.18137547142311691 -0.085525622921553163 0 0.19624682445825681 -0.08914472739044943 0 0.1952329782378138 -0.068464889048657496 0 0.20138343235632811 -0.055727139445542639 0 0.1952329782378138 -0.068464889048657496 0 0.21149591893834541 -0.070957707586151192 0 0.18346211879182289 -0.064955309332027283 0 0.19188844298534441 -0.056659859735039647 0 0.1952329782378138 -0.068464889048657496 0 0.1952329782378138 -0.068464889048657496 0 0.21140608144591419 -0.084503356370523836 0 0.20138343235632811 -0.055727139445542639 0 0.21149591893834541 -0.070957707586151192 0 0.22670270369963491 -0.067064047377793826 0 0.1952329782378138 -0.068464889048657496 0 0.21149591893834541 -0.070957707586151192 0 0.21140608144591419 -0.084503356370523836 0 0.2084634723971549 -0.097930235578601213 0 0.19624682445825681 -0.08914472739044943 0 0.21140608144591419 -0.084503356370523836 0 0.21149591893834541 -0.070957707586151192 0 0.21140608144591419 -0.084503356370523836 0 0.2227543989520358 -0.079029105688238177 0 0.21140608144591419 -0.084503356370523836 0 0.2275791846540145 -0.10054182369239011 0 0.2227543989520358 -0.079029105688238177 0 0.23449163343577681 -0.083610487294907485 0 0.2275791846540145 -0.10054182369239011 0 0.21140608144591419 -0.084503356370523836 0 0.2227543989520358 -0.079029105688238177 0 0.2275791846540145 -0.10054182369239011 0 0.2227543989520358 -0.079029105688238177 0 0.22670270369963491 -0.067064047377793826 0 0.23449163343577681 -0.083610487294907485 0 0.21149591893834541 -0.070957707586151192 0 0.2227543989520358 -0.079029105688238177 0 0.22670270369963491 -0.067064047377793826 0 0.25202197504294188 -0.078400955310045109 0 0.25811154610651499 -0.066123023671663908 0 0.23694359709532001 -0.061394592404840097 0 0.25202197504294188 -0.078400955310045109 0 0.22670270369963491 -0.067064047377793826 0 0.25202197504294188 -0.078400955310045109 0 0.22670270369963491 -0.067064047377793826 0 0.23449163343577681 -0.083610487294907485 0 0.25202197504294188 -0.078400955310045109 0 0.23694359709532001 -0.061394592404840097 0 0.22670270369963491 -0.067064047377793826 0 0.25811154610651499 -0.066123023671663908 0 0.23694359709532001 -0.061394592404840097 0 0.25202197504294188 -0.078400955310045109 0 0.23449163343577681 -0.083610487294907485 0 0.24624903761231479 -0.086847438891893419 0 0.23449163343577681 -0.083610487294907485 0 0.24292322406264641 -0.096552741650977186 0 0.2275791846540145 -0.10054182369239011 0 0.23449163343577681 -0.083610487294907485 0 0.24624903761231479 -0.086847438891893419 0 0.24292322406264641 -0.096552741650977186 0 0.25304747237378489 -0.090741332181114118 0 0.24624903761231479 -0.086847438891893419 0 0.24292322406264641 -0.096552741650977186 0 0.2275791846540145 -0.10054182369239011 0 0.24375228786211539 -0.116580291014256 0 0.24292322406264641 -0.096552741650977186 0 0.2275791846540145 -0.10054182369239011 0 0.24375228786211539 -0.116580291014256 0 0.25771864553297669 -0.099620140202181948 0 0.24292322406264641 -0.096552741650977186 0 0.24375228786211539 -0.116580291014256 0 0.21737999015654699 -0.1103161024944793 0 0.2275791846540145 -0.10054182369239011 0 0.24375228786211539 -0.116580291014256 0 0.21737999015654699 -0.1103161024944793 0 0.24375228786211539 -0.116580291014256 0 0.2239597136694004 -0.1277946194696456 0 0.21737999015654699 -0.1103161024944793 0 0.24375228786211539 -0.116580291014256 0 0.24375228786211539 -0.116580291014256 0 0.235054631712311 -0.13955626642273861 0 0.24955680073527009 -0.143898101237383 0 0.235054631712311 -0.13955626642273861 0 0.24955680073527009 -0.143898101237383 0 0.23627457688356679 -0.15840319400941011 0 0.25449645062408999 -0.16331052089379791 0 0.24955680073527009 -0.143898101237383 0 0.23627457688356679 -0.15840319400941011 0 0.235054631712311 -0.13955626642273861 0 0.22199130801810529 -0.1478171468904442 0 0.23627457688356679 -0.15840319400941011 0 0.24375228786211539 -0.116580291014256 0 0.235054631712311 -0.13955626642273861 0 0.2239597136694004 -0.1277946194696456 0 0.235054631712311 -0.13955626642273861 0 0.22199130801810529 -0.1478171468904442 0 0.2239597136694004 -0.1277946194696456 0 0.20025029595199689 -0.1218288277367077 0 0.20949289945301761 -0.1396057414987095 0 0.22199130801810529 -0.1478171468904442 0 0.2239597136694004 -0.1277946194696456 0 0.20949289945301761 -0.1396057414987095 0 0.21277072480774051 -0.1248863227998855 0 0.20025029595199689 -0.1218288277367077 0 0.20949289945301761 -0.1396057414987095 0 0.21277072480774051 -0.1248863227998855 0 0.2239597136694004 -0.1277946194696456 0 0.20949289945301761 -0.1396057414987095 0 0.22199130801810529 -0.1478171468904442 0 0.20949289945301761 -0.1396057414987095 0 0.2069794531536403 -0.1537888919124783 0 0.20949289945301761 -0.1396057414987095 0 0.2069794531536403 -0.1537888919124783 0 0.1919305776748628 -0.1461990482496055 0 0.2069794531536403 -0.1537888919124783 0 0.1919305776748628 -0.1461990482496055 0 0.19225769977326759 -0.16432491474026781 0 0.1862357176231304 -0.1238823921021804 0 0.1919305776748628 -0.1461990482496055 0 0.19714487019074359 -0.1333469628700395 0 0.20025029595199689 -0.1218288277367077 0 0.20949289945301761 -0.1396057414987095 0 0.19714487019074359 -0.1333469628700395 0 0.20949289945301761 -0.1396057414987095 0 0.1919305776748628 -0.1461990482496055 0 0.19714487019074359 -0.1333469628700395 0 0.1862357176231304 -0.1238823921021804 0 0.1919305776748628 -0.1461990482496055 0 0.1862357176231304 -0.1238823921021804 0 0.20025029595199689 -0.1218288277367077 0 0.19714487019074359 -0.1333469628700395 0 0.19629081049063871 -0.1815365299480412 0 0.19225769977326759 -0.16432491474026781 0 0.17982600751226671 -0.1762593337595659 0 0.19629081049063871 -0.1815365299480412 0 0.19225769977326759 -0.16432491474026781 0 0.22018657323669569 -0.16775416802968299 0 0.2069794531536403 -0.1537888919124783 0 0.19225769977326759 -0.16432491474026781 0 0.22018657323669569 -0.16775416802968299 0 0.22199130801810529 -0.1478171468904442 0 0.2069794531536403 -0.1537888919124783 0 0.22018657323669569 -0.16775416802968299 0 0.19629081049063871 -0.1815365299480412 0 0.22018657323669569 -0.16775416802968299 0 0.21237941264848451 -0.18810475376770611 0 0.22018657323669569 -0.16775416802968299 0 0.23934418379307471 -0.18436482883247621 0 0.22018657323669569 -0.16775416802968299 0 0.23934418379307471 -0.18436482883247621 0 0.21237941264848451 -0.18810475376770611 0 0.22018657323669569 -0.16775416802968299 0 0.23627457688356679 -0.15840319400941011 0 0.23934418379307471 -0.18436482883247621 0 0.22199130801810529 -0.1478171468904442 0 0.22018657323669569 -0.16775416802968299 0 0.23627457688356679 -0.15840319400941011 0 0.25449645062408999 -0.16331052089379791 0 0.23627457688356679 -0.15840319400941011 0 0.23934418379307471 -0.18436482883247621 0 0.25850179434945381 -0.20097548963526929 0 0.23934418379307471 -0.18436482883247621 0 0.25850179434945381 -0.20097548963526929 0 0.23934418379307471 -0.18436482883247621 0 0.23907695871134879 -0.21289681242661959 0 0.23907695871134879 -0.21289681242661959 0 0.22308479462261119 -0.20217133576560289 0 0.21722062693650279 -0.2226466586169516 0 0.23934418379307471 -0.18436482883247621 0 0.22308479462261119 -0.20217133576560289 0 0.21237941264848451 -0.18810475376770611 0 0.23934418379307471 -0.18436482883247621 0 0.23907695871134879 -0.21289681242661959 0 0.22308479462261119 -0.20217133576560289 0 0.25037283077400019 -0.2416092145933311 0 0.23239962387573149 -0.2337287944253621 0 0.2339549802858914 -0.24933471903745599 0 0.25658827463044448 -0.2222138965281123 0 0.23907695871134879 -0.21289681242661959 0 0.2446094219978813 -0.2276121794933563 0 0.25037283077400019 -0.2416092145933311 0 0.2446094219978813 -0.2276121794933563 0 0.23239962387573149 -0.2337287944253621 0 0.23907695871134879 -0.21289681242661959 0 0.2446094219978813 -0.2276121794933563 0 0.23239962387573149 -0.2337287944253621 0 0.23907695871134879 -0.21289681242661959 0 0.23239962387573149 -0.2337287944253621 0 0.21722062693650279 -0.2226466586169516 0 0.23239962387573149 -0.2337287944253621 0 0.2194561222393229 -0.23682627783696539 0 0.21722062693650279 -0.2226466586169516 0 0.23239962387573149 -0.2337287944253621 0 0.22502312889380549 -0.2426362774769398 0 0.2339549802858914 -0.24933471903745599 0 0.2194561222393229 -0.23682627783696539 0 0.22502312889380549 -0.2426362774769398 0 0.21456577207223029 -0.24270171036535029 0 0.23239962387573149 -0.2337287944253621 0 0.2194561222393229 -0.23682627783696539 0 0.22502312889380549 -0.2426362774769398 0 0.22331750647786899 -0.25281133177650322 0 0.22502312889380549 -0.2426362774769398 0 0.21456577207223029 -0.24270171036535029 0 0.22331750647786899 -0.25281133177650322 0 0.22502312889380549 -0.2426362774769398 0 0.2339549802858914 -0.24933471903745599 0 0.2084475354763706 -0.25511513831035743 0 0.2080714594183444 -0.2424179483002232 0 0.21336353465090491 -0.24693864317134839 0 0.2080714594183444 -0.2424179483002232 0 0.21336353465090491 -0.24693864317134839 0 0.2080714594183444 -0.2424179483002232 0 0.21336353465090491 -0.24693864317134839 0 0.21456577207223029 -0.24270171036535029 0 0.2194561222393229 -0.23682627783696539 0 0.2080714594183444 -0.2424179483002232 0 0.21456577207223029 -0.24270171036535029 0 0.21722062693650279 -0.2226466586169516 0 0.20244123733496699 -0.2260211367091485 0 0.19848523837712481 -0.2136299623964425 0 0.2080714594183444 -0.2424179483002232 0 0.21722062693650279 -0.2226466586169516 0 0.2194561222393229 -0.23682627783696539 0 0.2080714594183444 -0.2424179483002232 0 0.21722062693650279 -0.2226466586169516 0 0.2080714594183444 -0.2424179483002232 0 0.21722062693650279 -0.2226466586169516 0 0.20244123733496699 -0.2260211367091485 0 0.2080714594183444 -0.2424179483002232 0 0.18716213711817259 -0.22455639835484539 0 0.2080714594183444 -0.2424179483002232 0 0.20244123733496699 -0.2260211367091485 0 0.18716213711817259 -0.22455639835484539 0 0.20244123733496699 -0.2260211367091485 0 0.19848523837712481 -0.2136299623964425 0 0.18716213711817259 -0.22455639835484539 0 0.2080714594183444 -0.2424179483002232 0 0.19254414318066221 -0.24961624770678509 0 0.1866817818972302 -0.23981118877977231 0 0.2080714594183444 -0.2424179483002232 0 0.1866817818972302 -0.23981118877977231 0 0.18716213711817259 -0.22455639835484539 0 0.19254414318066221 -0.24961624770678509 0 0.18399505531774341 -0.24981832115951039 0 0.1866817818972302 -0.23981118877977231 0 0.21237941264848451 -0.18810475376770611 0 0.20793523744788639 -0.20366419955677639 0 0.19447652973028121 -0.19759128756789451 0 0.22308479462261119 -0.20217133576560289 0 0.21237941264848451 -0.18810475376770611 0 0.20793523744788639 -0.20366419955677639 0 0.22308479462261119 -0.20217133576560289 0 0.21722062693650279 -0.2226466586169516 0 0.20793523744788639 -0.20366419955677639 0 0.21722062693650279 -0.2226466586169516 0 0.20793523744788639 -0.20366419955677639 0 0.19848523837712481 -0.2136299623964425 0 0.19848523837712481 -0.2136299623964425 0 0.19447652973028121 -0.19759128756789451 0 0.1831457957419608 -0.2071674304332729 0 0.20793523744788639 -0.20366419955677639 0 0.19848523837712481 -0.2136299623964425 0 0.19447652973028121 -0.19759128756789451 0 0.19848523837712481 -0.2136299623964425 0 0.1831457957419608 -0.2071674304332729 0 0.18716213711817259 -0.22455639835484539 0 0.19629081049063871 -0.1815365299480412 0 0.19447652973028121 -0.19759128756789451 0 0.1840061663436266 -0.1900566622106199 0 0.19629081049063871 -0.1815365299480412 0 0.21237941264848451 -0.18810475376770611 0 0.19447652973028121 -0.19759128756789451 0 0.19447652973028121 -0.19759128756789451 0 0.1840061663436266 -0.1900566622106199 0 0.1831457957419608 -0.2071674304332729 0 0.1840061663436266 -0.1900566622106199 0 0.1831457957419608 -0.2071674304332729 0 0.16486725365112659 -0.18785963188663279 0 0.1831457957419608 -0.2071674304332729 0 0.16486725365112659 -0.18785963188663279 0 0.1831457957419608 -0.2071674304332729 0 0.16625281481800089 -0.2066948484094672 0 0.18716213711817259 -0.22455639835484539 0 0.16625281481800089 -0.2066948484094672 0 0.18716213711817259 -0.22455639835484539 0 0.16625281481800089 -0.2066948484094672 0 0.18716213711817259 -0.22455639835484539 0 0.16937657335138201 -0.22198425569814831 0 0.16625281481800089 -0.2066948484094672 0 0.15661990237239229 -0.21733625041789439 0 0.14909823278687431 -0.20687378182447139 0 0.16625281481800089 -0.2066948484094672 0 0.15661990237239229 -0.21733625041789439 0 0.16937657335138201 -0.22198425569814831 0 0.1831457957419608 -0.2071674304332729 0 0.16625281481800089 -0.2066948484094672 0 0.16486725365112659 -0.18785963188663279 0 0.16625281481800089 -0.2066948484094672 0 0.16486725365112659 -0.18785963188663279 0 0.14534349251782941 -0.188833298464089 0 0.17619278994504239 -0.24587918172992959 0 0.18399505531774341 -0.24981832115951039 0 0.1866817818972302 -0.23981118877977231 0 0.17619278994504239 -0.24587918172992959 0 0.17450151464944069 -0.23276490516368609 0 0.16609645978724119 -0.24143951784646769 0 0.17619278994504239 -0.24587918172992959 0 0.1866817818972302 -0.23981118877977231 0 0.17450151464944069 -0.23276490516368609 0 0.17450151464944069 -0.23276490516368609 0 0.18716213711817259 -0.22455639835484539 0 0.16937657335138201 -0.22198425569814831 0 0.1866817818972302 -0.23981118877977231 0 0.17450151464944069 -0.23276490516368609 0 0.18716213711817259 -0.22455639835484539 0 0.15661990237239229 -0.21733625041789439 0 0.1623464977989032 -0.22856887614484861 0 0.15090654410468329 -0.22688320449844629 0 0.15661990237239229 -0.21733625041789439 0 0.16937657335138201 -0.22198425569814831 0 0.1623464977989032 -0.22856887614484861 0 0.17450151464944069 -0.23276490516368609 0 0.1623464977989032 -0.22856887614484861 0 0.16609645978724119 -0.24143951784646769 0 0.17450151464944069 -0.23276490516368609 0 0.16937657335138201 -0.22198425569814831 0 0.1623464977989032 -0.22856887614484861 0 0.1623464977989032 -0.22856887614484861 0 0.16609645978724119 -0.24143951784646769 0 0.1528270009437688 -0.23836283418195289 0 0.16001236861667459 -0.2513654190734112 0 0.16609645978724119 -0.24143951784646769 0 0.1528270009437688 -0.23836283418195289 0 0.16978669848249819 -0.25098739912941831 0 0.17619278994504239 -0.24587918172992959 0 0.16609645978724119 -0.24143951784646769 0 0.16001236861667459 -0.2513654190734112 0 0.16978669848249819 -0.25098739912941831 0 0.16609645978724119 -0.24143951784646769 0 0.1429630926125974 -0.2502577086919005 0 0.16001236861667459 -0.2513654190734112 0 0.1528270009437688 -0.23836283418195289 0 0.1429630926125974 -0.2502577086919005 0 0.1528270009437688 -0.23836283418195289 0 0.13988621804673579 -0.23152362256679451 0 0.1528270009437688 -0.23836283418195289 0 0.15090654410468329 -0.22688320449844629 0 0.13988621804673579 -0.23152362256679451 0 0.1623464977989032 -0.22856887614484861 0 0.1528270009437688 -0.23836283418195289 0 0.15090654410468329 -0.22688320449844629 0 0.15661990237239229 -0.21733625041789439 0 0.15090654410468329 -0.22688320449844629 0 0.1428531013616163 -0.21862443918074129 0 0.15090654410468329 -0.22688320449844629 0 0.13988621804673579 -0.23152362256679451 0 0.1428531013616163 -0.21862443918074129 0 0.12018370186474731 -0.23305432747703519 0 0.12895394136930069 -0.22163642029703709 0 0.13988621804673579 -0.23152362256679451 0 0.12895394136930069 -0.22163642029703709 0 0.13988621804673579 -0.23152362256679451 0 0.1428531013616163 -0.21862443918074129 0 0.1429630926125974 -0.2502577086919005 0 0.12018370186474731 -0.23305432747703519 0 0.1429630926125974 -0.2502577086919005 0 0.12018370186474731 -0.23305432747703519 0 0.13988621804673579 -0.23152362256679451 0 0.13217397618885759 -0.25462043987800831 0 0.1429630926125974 -0.2502577086919005 0 0.12018370186474731 -0.23305432747703519 0 0.16625281481800089 -0.2066948484094672 0 0.14534349251782941 -0.188833298464089 0 0.16625281481800089 -0.2066948484094672 0 0.14534349251782941 -0.188833298464089 0 0.14909823278687431 -0.20687378182447139 0 0.14534349251782941 -0.188833298464089 0 0.14909823278687431 -0.20687378182447139 0 0.1346280568372662 -0.20359450925845249 0 0.15661990237239229 -0.21733625041789439 0 0.14909823278687431 -0.20687378182447139 0 0.1428531013616163 -0.21862443918074129 0 0.14909823278687431 -0.20687378182447139 0 0.1428531013616163 -0.21862443918074129 0 0.1346280568372662 -0.20359450925845249 0 0.1178461100078927 -0.20838697738218431 0 0.12895394136930069 -0.22163642029703709 0 0.1346280568372662 -0.20359450925845249 0 0.12895394136930069 -0.22163642029703709 0 0.1428531013616163 -0.21862443918074129 0 0.1346280568372662 -0.20359450925845249 0 0.14534349251782941 -0.188833298464089 0 0.1346280568372662 -0.20359450925845249 0 0.13128332926409281 -0.18787359724935929 0 0.1237689835273371 -0.19605207676116951 0 0.1178461100078927 -0.20838697738218431 0 0.1346280568372662 -0.20359450925845249 0 0.1237689835273371 -0.19605207676116951 0 0.1346280568372662 -0.20359450925845249 0 0.13128332926409281 -0.18787359724935929 0 0.1237689835273371 -0.19605207676116951 0 0.1232013989280239 -0.1819146573535104 0 0.13128332926409281 -0.18787359724935929 0 0.12443417021765769 -0.1709717485187108 0 0.14534349251782941 -0.188833298464089 0 0.12443417021765769 -0.1709717485187108 0 0.1232013989280239 -0.1819146573535104 0 0.13128332926409281 -0.18787359724935929 0 0.12443417021765769 -0.1709717485187108 0 0.14534349251782941 -0.188833298464089 0 0.13128332926409281 -0.18787359724935929 0 0.12443417021765769 -0.1709717485187108 0 0.14534349251782941 -0.188833298464089 0 0.13540865390058859 -0.1688207667960602 0 0.14534349251782941 -0.188833298464089 0 0.14658871156029241 -0.16855183333999291 0 0.13540865390058859 -0.1688207667960602 0 0.16486725365112659 -0.18785963188663279 0 0.14658871156029241 -0.16855183333999291 0 0.16486725365112659 -0.18785963188663279 0 0.14534349251782941 -0.188833298464089 0 0.14658871156029241 -0.16855183333999291 0 0.14658871156029241 -0.16855183333999291 0 0.13391177650968769 -0.15242347890466901 0 0.14971917460686079 -0.1530450482394467 0 0.14658871156029241 -0.16855183333999291 0 0.14971917460686079 -0.1530450482394467 0 0.16192904395431579 -0.15800089119817939 0 0.14658871156029241 -0.16855183333999291 0 0.13391177650968769 -0.15242347890466901 0 0.12831016946945831 -0.1492440347933528 0 0.14658871156029241 -0.16855183333999291 0 0.12831016946945831 -0.1492440347933528 0 0.14658871156029241 -0.16855183333999291 0 0.13540865390058859 -0.1688207667960602 0 0.1290045142054978 -0.1612372837293575 0 0.14658871156029241 -0.16855183333999291 0 0.1290045142054978 -0.1612372837293575 0 0.12831016946945831 -0.1492440347933528 0 0.13540865390058859 -0.1688207667960602 0 0.12715697753007521 -0.16591248018761531 0 0.1290045142054978 -0.1612372837293575 0 0.12443417021765769 -0.1709717485187108 0 0.13540865390058859 -0.1688207667960602 0 0.12715697753007521 -0.16591248018761531 0 0.12098675462827781 -0.16200852072179159 0 0.12715697753007521 -0.16591248018761531 0 0.1290045142054978 -0.1612372837293575 0 0.12324902196630889 -0.15465793599018671 0 0.1227471198665283 -0.15880086614903269 0 0.1290045142054978 -0.1612372837293575 0 0.13391177650968769 -0.15242347890466901 0 0.12831016946945831 -0.1492440347933528 0 0.12532898621889721 -0.13663811256420449 0 0.12324902196630889 -0.15465793599018671 0 0.1290045142054978 -0.1612372837293575 0 0.12831016946945831 -0.1492440347933528 0 0.1217036921304827 -0.1482443959076799 0 0.12831016946945831 -0.1492440347933528 0 0.12532898621889721 -0.13663811256420449 0 0.13391177650968769 -0.15242347890466901 0 0.13188977167139071 -0.12546883223523481 0 0.13391177650968769 -0.15242347890466901 0 0.13188977167139071 -0.12546883223523481 0 0.1446303542042412 -0.1380662602394005 0 0.13391177650968769 -0.15242347890466901 0 0.13188977167139071 -0.12546883223523481 0 0.12532898621889721 -0.13663811256420449 0 0.11997683785091839 -0.1276371159963853 0 0.13188977167139071 -0.12546883223523481 0 0.12532898621889721 -0.13663811256420449 0 0.1446303542042412 -0.1380662602394005 0 0.15557261582888751 -0.13003178131142151 0 0.1621281360659286 -0.14191921566573409 0 0.14724036225017881 -0.1245170930860646 0 0.13188977167139071 -0.12546883223523481 0 0.1446303542042412 -0.1380662602394005 0 0.14724036225017881 -0.1245170930860646 0 0.1446303542042412 -0.1380662602394005 0 0.15557261582888751 -0.13003178131142151 0 0.13391177650968769 -0.15242347890466901 0 0.1446303542042412 -0.1380662602394005 0 0.14971917460686079 -0.1530450482394467 0 0.1446303542042412 -0.1380662602394005 0 0.14971917460686079 -0.1530450482394467 0 0.1621281360659286 -0.14191921566573409 0 0.1621281360659286 -0.14191921566573409 0 0.17324983187337631 -0.13165498831909611 0 0.17651024624945799 -0.1485415537171802 0 0.14971917460686079 -0.1530450482394467 0 0.1621281360659286 -0.14191921566573409 0 0.16192904395431579 -0.15800089119817939 0 0.1621281360659286 -0.14191921566573409 0 0.17651024624945799 -0.1485415537171802 0 0.16192904395431579 -0.15800089119817939 0 0.16471491079178111 -0.1205264202314431 0 0.15557261582888751 -0.13003178131142151 0 0.1639163736399934 -0.1310331013819237 0 0.15557261582888751 -0.13003178131142151 0 0.1621281360659286 -0.14191921566573409 0 0.1639163736399934 -0.1310331013819237 0 0.1621281360659286 -0.14191921566573409 0 0.1639163736399934 -0.1310331013819237 0 0.17324983187337631 -0.13165498831909611 0 0.16471491079178111 -0.1205264202314431 0 0.1639163736399934 -0.1310331013819237 0 0.17324983187337631 -0.13165498831909611 0 0.1862357176231304 -0.1238823921021804 0 0.1919305776748628 -0.1461990482496055 0 0.17324983187337631 -0.13165498831909611 0 0.1919305776748628 -0.1461990482496055 0 0.17324983187337631 -0.13165498831909611 0 0.17651024624945799 -0.1485415537171802 0 0.1919305776748628 -0.1461990482496055 0 0.19225769977326759 -0.16432491474026781 0 0.17651024624945799 -0.1485415537171802 0 0.19225769977326759 -0.16432491474026781 0 0.17526083145963689 -0.16308053239281189 0 0.17982600751226671 -0.1762593337595659 0 0.19225769977326759 -0.16432491474026781 0 0.17651024624945799 -0.1485415537171802 0 0.17526083145963689 -0.16308053239281189 0 0.17526083145963689 -0.16308053239281189 0 0.17982600751226671 -0.1762593337595659 0 0.16627328335530381 -0.17069773137902189 0 0.1840061663436266 -0.1900566622106199 0 0.16486725365112659 -0.18785963188663279 0 0.17982600751226671 -0.1762593337595659 0 0.19629081049063871 -0.1815365299480412 0 0.1840061663436266 -0.1900566622106199 0 0.17982600751226671 -0.1762593337595659 0 0.16486725365112659 -0.18785963188663279 0 0.14658871156029241 -0.16855183333999291 0 0.16627328335530381 -0.17069773137902189 0 0.16486725365112659 -0.18785963188663279 0 0.17982600751226671 -0.1762593337595659 0 0.16627328335530381 -0.17069773137902189 0 0.14658871156029241 -0.16855183333999291 0 0.16192904395431579 -0.15800089119817939 0 0.16627328335530381 -0.17069773137902189 0 0.17526083145963689 -0.16308053239281189 0 0.16192904395431579 -0.15800089119817939 0 0.16627328335530381 -0.17069773137902189 0 0.17651024624945799 -0.1485415537171802 0 0.17526083145963689 -0.16308053239281189 0 0.16192904395431579 -0.15800089119817939 0 
</DataArray>
</Points>
<Cells>
<DataArray type="UInt32" Name="connectivity" format="ascii">
0 1 2 3 4 5 6 7 8 9 10 11 12 13 14 15 16 17 18 19 20 21 22 23 24 25 26 27 28 29 30 31 32 33 34 35 36 37 38 39 40 41 42 43 44 45 46 47 48 49 50 51 52 53 54 55 56 57 58 59 60 61 62 63 64 65 66 67 68 69 70 71 72 73 74 75 76 77 78 79 80 81 82 83 84 85 86 87 88 89 90 91 92 93 94 95 96 97 98 99 100 101 102 103 104 105 106 107 108 109 110 111 112 113 114 115 116 117 118 119 120 121 122 123 124 125 126 127 128 129 130 131 132 133 134 135 136 137 138 139 140 141 142 143 144 145 146 147 148 149 150 151 152 153 154 155 156 157 158 159 160 161 162 163 164 165 166 167 168 169 170 171 172 173 174 175 176 177 178 179 180 181 182 183 184 185 186 187 188 189 190 191 192 193 194 195 196 197 198 199 200 201 202 203 204 205 206 207 208 209 210 211 212 213 214 215 216 217 218 219 220 221 222 223 224 225 226 227 228 229 230 231 232 233 234 235 236 237 238 239 240 241 242 243 244 245 246 247 248 249 250 251 252 253 254 255 256 257 258 259 260 261 262 263 264 265 266 267 268 269 270 271 272 273 274 275 276 277 278 279 280 281 282 283 284 285 286 287 288 289 290 291 292 293 294 295 296 297 298 299 300 301 302 303 304 305 306 307 308 309 310 311 312 313 314 315 316 317 318 319 320 321 322 323 324 325 326 327 328 329 330 331 332 333 334 335 336 337 338 339 340 341 342 343 344 345 346 347 348 349 350 351 352 353 354 355 356 357 358 359 360 361 362 363 364 365 366 367 368 369 370 371 372 373 374 375 376 377 378 379 380 381 382 383 384 385 386 387 388 389 390 391 392 393 394 395 396 397 398 399 400 401 402 403 404 405 406 407 408 409 410 411 412 413 414 415 416 417 418 419 420 421 422 423 424 425 426 427 428 429 430 431 432 433 434 435 436 437 438 439 440 441 442 443 444 445 446 447 448 449 450 451 452 453 454 455 456 457 458 459 460 461 462 463 464 465 466 467 468 469 470 471 472 473 474 475 476 477 478 479 480 481 482 483 484 485 486 487 488 489 490 491 492 493 494 495 496 497 498 499 500 501 502 503 504 505 506 507 508 509 510 511 512 513 514 515 516 517 518 519 520 521 522 523 524 525 526 527 528 529 530 531 532 533 534 535 536 537 538 539 540 541 542 543 544 545 546 547 548 549 550 551 552 553 554 555 556 557 558 559 560 561 562 563 564 565 566 567 568 569 570 571 572 573 574 575 576 577 578 579 580 581 582 583 584 585 586 587 588 589 590 591 592 593 594 595 596 597 598 599 600 601 602 603 604 605 606 607 608 609 610 611 612 613 614 615 616 617 618 619 620 621 622 623 624 625 626 627 628 629 630 631 632 633 634 635 636 637 638 639 640 641 642 643 644 645 646 647 648 649 650 651 652 653 654 655 656 657 658 659 660 661 662 663 664 665 666 667 668 669 670 671 672 673 674 675 676 677 678 679 680 681 682 683 684 685 686 687 688 689 690 691 692 693 694 695 696 697 698 699 700 701 702 703 704 705 706 707 708 709 710 711 712 713 714 715 716 717 718 719 720 721 722 723 724 725 726 727 728 729 730 731 732 733 734 735 736 737 738 739 740 741 742 743 744 745 746 747 748 749 750 751 752 753 754 755 756 757 758 759 760 761 762 763 764 765 766 767 768 769 770 771 772 773 774 775 776 777 778 779 780 781 782 783 784 785 786 787 788 789 790 791 792 793 794 795 796 797 798 799 800 801 802 803 804 805 806 807 808 809 810 811 812 813 814 815 816 817 818 819 820 821 822 823 824 825 826 827 828 829 830 831 832 833 834 835 836 837 838 839 840 841 842 843 844 845 846 847 848 849 850 851 852 853 854 855 856 857 858 859 860 861 862 863 864 865 866 867 868 869 870 871 872 873 874 875 876 877 878 879 880 881 882 883 884 885 886 887 888 889 890 891 892 893 894 895 896 897 898 899 900 901 902 903 904 905 906 907 908 909 910 911 912 913 914 915 916 917 918 919 920 921 922 923 924 925 926 927 928 929 930 931 932 933 934 935 936 937 938 939 940 941 942 943 944 945 946 947 948 949 950 951 952 953 954 955 956 957 958 959 960 961 962 963 964 965 966 967 968 969 970 971 972 973 974 975 976 977 978 979 980 981 982 983 984 985 986 987 988 989 990 991 992 993 994 995 996 997 998 999 1000 1001 1002 1003 1004 1005 1006 1007 1008 1009 1010 1011 1012 1013 1014 1015 1016 1017 1018 1019 1020 1021 1022 1023 1024 1025 1026 1027 1028 1029 1030 1031 1032 1033 1034 1035 1036 1037 1038 1039 1040 1041 1042 1043 1044 1045 1046 1047 1048 1049 1050 1051 1052 1053 1054 1055 1056 1057 1058 1059 1060 1061 1062 1063 1064 1065 1066 1067 1068 1069 1070 1071 1072 1073 1074 1075 1076 1077 1078 1079 1080 1081 1082 1083 1084 1085 1086 1087 1088 1089 1090 1091 1092 1093 1094 1095 1096 1097 1098 1099 1100 1101 1102 1103 1104 1105 1106 1107 1108 1109 1110 1111 1112 1113 1114 1115 1116 1117 1118 1119 1120 1121 1122 1123 1124 1125 1126 1127 1128 1129 1130 1131 1132 1133 1134 1135 1136 1137 1138 1139 1140 1141 1142 1143 1144 1145 1146 1147 1148 1149 1150 1151 1152 1153 1154 1155 1156 1157 1158 1159 1160 1161 1162 1163 1164 1165 1166 1167 1168 1169 1170 1171 1172 1173 1174 1175 1176 1177 1178 1179 1180 1181 1182 1183 1184 1185 1186 1187 1188 1189 1190 1191 1192 1193 1194 1195 1196 1197 1198 1199 1200 1201 1202 1203 1204 1205 1206 1207 1208 1209 1210 1211 1212 1213 1214 1215 1216 1217 1218 1219 1220 1221 1222 1223 1224 1225 1226 1227 1228 1229 1230 1231 1232 1233 1234 1235 1236 1237 1238 1239 1240 1241 1242 1243 1244 1245 1246 1247 1248 1249 1250 1251 1252 1253 1254 1255 1256 1257 1258 1259 1260 1261 1262 1263 1264 1265 1266 1267 1268 1269 1270 1271 1272 1273 1274 1275 1276 1277 1278 1279 1280 1281 1282 1283 1284 1285 1286 1287 1288 1289 1290 1291 1292 1293 1294 1295 1296 1297 1298 1299 1300 1301 1302 1303 1304 1305 1306 1307 1308 1309 1310 1311 1312 1313 1314 1315 1316 1317 1318 1319 1320 1321 1322 1323 1324 1325 1326 1327 1328 1329 1330 1331 1332 1333 1334 1335 1336 1337 1338 1339 1340 1341 1342 1343 1344 1345 1346 1347 1348 1349 1350 1351 1352 1353 1354 1355 1356 1357 1358 1359 1360 1361 1362 1363 1364 1365 1366 1367 1368 1369 1370 1371 1372 1373 1374 1375 1376 1377 1378 1379 1380 1381 1382 1383 1384 1385 1386 1387 1388 1389 1390 1391 1392 1393 1394 1395 1396 1397 1398 1399 1400 1401 1402 1403 1404 1405 1406 1407 1408 1409 1410 1411 1412 1413 1414 1415 1416 1417 1418 1419 1420 1421 1422 1423 1424 1425 1426 1427 1428 1429 1430 1431 1432 1433 1434 1435 1436 1437 1438 1439 1440 1441 1442 1443 1444 1445 1446 1447 1448 1449 1450 1451 1452 1453 1454 1455 1456 1457 1458 1459 1460 1461 1462 1463 1464 1465 1466 1467 1468 1469 1470 1471 1472 1473 1474 1475 1476 1477 1478 1479 1480 1481 1482 1483 1484 1485 1486 1487 1488 1489 1490 1491 1492 1493 1494 1495 1496 1497 1498 1499 1500 1501 1502 1503 1504 1505 1506 1507 1508 1509 1510 1511 1512 1513 1514 1515 1516 1517 1518 1519 1520 1521 1522 1523 1524 1525 1526 1527 1528 1529 1530 1531 1532 1533 1534 1535 1536 1537 1538 1539 1540 1541 1542 1543 1544 1545 1546 1547 1548 1549 1550 1551 1552 1553 1554 1555 1556 1557 1558 1559 1560 1561 1562 1563 1564 1565 1566 1567 1568 1569 1570 1571 1572 1573 1574 1575 1576 1577 1578 1579 1580 1581 1582 1583 1584 1585 1586 1587 1588 1589 1590 1591 1592 1593 1594 1595 1596 1597 1598 1599 1600 1601 1602 1603 1604 1605 1606 1607 1608 1609 1610 1611 1612 1613 1614 1615 1616 1617 1618 1619 1620 1621 1622 1623 1624 1625 1626 1627 1628 1629 1630 1631 1632 1633 1634 1635 1636 1637 1638 1639 1640 1641 1642 1643 1644 1645 1646 1647 1648 1649 1650 1651 1652 1653 1654 1655 1656 1657 1658 1659 1660 1661 1662 1663 1664 1665 1666 1667 1668 1669 1670 1671 1672 1673 1674 1675 1676 1677 1678 1679 1680 1681 1682 1683 1684 1685 1686 1687 1688 1689 1690 1691 1692 1693 1694 1695 1696 1697 1698 1699 1700 1701 1702 1703 1704 1705 1706 1707 1708 1709 1710 1711 1712 1713 1714 1715 1716 1717 1718 1719 1720 1721 1722 1723 1724 1725 1726 1727 1728 1729 1730 1731 1732 1733 1734 1735 1736 1737 1738 1739 1740 1741 1742 1743 1744 1745 1746 1747 1748 1749 1750 1751 1752 1753 1754 1755 1756 1757 1758 1759 1760 1761 1762 1763 1764 1765 1766 1767 1768 1769 1770 1771 1772 1773 1774 1775 1776 1777 1778 1779 1780 1781 1782 1783 1784 1785 1786 1787 1788 1789 1790 1791 1792 1793 1794 1795 1796 1797 1798 1799 1800 1801 1802 1803 1804 1805 1806 1807 1808 1809 1810 1811 1812 1813 1814 1815 1816 1817 1818 1819 1820 1821 1822 1823 1824 1825 1826 1827 1828 1829 1830 1831 1832 1833 1834 1835 1836 1837 1838 1839 1840 1841 1842 1843 1844 1845 1846 1847 1848 1849 1850 1851 1852 1853 1854 1855 1856 1857 1858 1859 1860 1861 1862 1863 1864 1865 1866 1867 1868 1869 1870 1871 1872 1873 1874 1875 1876 1877 1878 1879 1880 1881 1882 1883 1884 1885 1886 1887 1888 1889 1890 1891 1892 1893 1894 1895 1896 1897 1898 1899 1900 1901 1902 1903 1904 1905 1906 1907 1908 1909 1910 1911 1912 1913 1914 1915 1916 1917 1918 1919 1920 1921 1922 1923 1924 1925 1926 1927 1928 1929 1930 1931 1932 1933 1934 1935 1936 1937 1938 1939 1940 1941 1942 1943 1944 1945 1946 1947 1948 1949 1950 1951 1952 1953 1954 1955 1956 1957 1958 1959 1960 1961 1962 1963 1964 1965 1966 1967 1968 1969 1970 1971 1972 1973 1974 1975 1976 1977 1978 1979 1980 1981 1982 1983 1984 1985 1986 1987 1988 1989 1990 1991 1992 1993 1994 1995 1996 1997 1998 1999 2000 2001 2002 2003 2004 2005 2006 2007 2008 2009 2010 2011 2012 2013 2014 2015 2016 2017 2018 2019 2020 2021 2022 2023 2024 2025 2026 2027 2028 2029 2030 2031 2032 2033 2034 2035 2036 2037 2038 2039 2040 2041 2042 2043 2044 2045 2046 2047 2048 2049 2050 2051 2052 2053 2054 2055 2056 2057 2058 2059 2060 2061 2062 2063 2064 2065 2066 2067 2068 2069 2070 2071 2072 2073 2074 2075 2076 2077 2078 2079 2080 2081 2082 2083 2084 2085 2086 2087 2088 2089 2090 2091 2092 2093 2094 2095 2096 2097 2098 2099 2100 2101 2102 2103 2104 2105 2106 2107 2108 2109 2110 2111 2112 2113 2114 2115 2116 2117 2118 2119 2120 2121 2122 2123 2124 2125 2126 2127 2128 2129 2130 2131 2132 2133 2134 2135 2136 2137 2138 2139 2140 2141 2142 2143 2144 2145 2146 2147 2148 2149 2150 2151 2152 2153 2154 2155 2156 2157 2158 2159 2160 2161 2162 2163 2164 2165 2166 2167 2168 2169 2170 2171 2172 2173 2174 2175 2176 2177 2178 2179 2180 2181 2182 2183 2184 2185 2186 2187 2188 2189 2190 2191 2192 2193 2194 2195 2196 2197 2198 2199 2200 2201 2202 2203 2204 2205 2206 2207 2208 2209 2210 2211 2212 2213 2214 2215 2216 2217 2218 2219 2220 2221 2222 2223 2224 2225 2226 2227 2228 2229 2230 2231 2232 2233 2234 2235 2236 2237 2238 2239 2240 2241 2242 2243 2244 2245 2246 2247 2248 2249 2250 2251 2252 2253 2254 2255 2256 2257 2258 2259 2260 2261 2262 2263 2264 2265 2266 2267 2268 2269 2270 2271 2272 2273 2274 2275 2276 2277 2278 2279 2280 2281 2282 2283 2284 2285 2286 2287 2288 2289 2290 2291 2292 2293 2294 2295 2296 2297 2298 2299 2300 2301 2302 2303 2304 2305 2306 2307 2308 2309 2310 2311 2312 2313 2314 2315 2316 2317 2318 2319 2320 2321 2322 2323 2324 2325 2326 2327 2328 2329 2330 2331 2332 2333 2334 2335 2336 2337 2338 2339 2340 2341 2342 2343 2344 2345 2346 2347 2348 2349 2350 2351 2352 2353 2354 2355 2356 2357 2358 2359 2360 2361 2362 2363 2364 2365 2366 2367 2368 2369 2370 2371 2372 2373 2374 2375 2376 2377 2378 2379 2380 2381 2382 2383 2384 2385 2386 2387 2388 2389 2390 2391 2392 2393 2394 2395 2396 2397 2398 2399 2400 2401 2402 2403 2404 2405 2406 2407 2408 2409 2410 2411 2412 2413 2414 2415 2416 2417 2418 2419 2420 2421 2422 2423 2424 2425 2426 2427 2428 2429 2430 2431 2432 2433 2434 2435 2436 2437 2438 2439 2440 2441 2442 2443 2444 2445 2446 2447 2448 2449 2450 2451 2452 2453 2454 2455 2456 2457 2458 2459 2460 2461 2462 2463 2464 2465 2466 2467 2468 2469 2470 2471 2472 2473 2474 2475 2476 2477 2478 2479 2480 2481 2482 2483 2484 2485 2486 2487 2488 2489 2490 2491 2492 2493 2494 2495 2496 2497 2498 2499 2500 2501 2502 2503 2504 2505 2506 2507 2508 2509 2510 2511 2512 2513 2514 2515 2516 2517 2518 2519 2520 2521 2522 2523 2524 2525 2526 2527 2528 2529 2530 2531 2532 2533 2534 2535 2536 2537 2538 2539 2540 2541 2542 2543 2544 2545 2546 2547 2548 2549 2550 2551 2552 2553 2554 2555 2556 2557 2558 2559 2560 2561 2562 2563 2564 2565 2566 2567 2568 2569 2570 2571 2572 2573 2574 2575 2576 2577 2578 2579 2580 2581 2582 2583 2584 2585 2586 2587 2588 2589 2590 2591 2592 2593 2594 2595 2596 2597 2598 2599 2600 2601 2602 2603 2604 2605 2606 2607 2608 2609 2610 2611 2612 2613 2614 2615 2616 2617 2618 2619 2620 2621 2622 2623 2624 2625 2626 2627 2628 2629 2630 2631 2632 2633 2634 2635 2636 2637 2638 2639 2640 2641 2642 2643 2644 2645 2646 2647 2648 2649 2650 2651 2652 2653 2654 2655 2656 2657 2658 2659 2660 2661 2662 2663 2664 2665 2666 2667 2668 2669 2670 2671 2672 2673 2674 2675 2676 2677 2678 2679 2680 2681 2682 2683 2684 2685 2686 2687 2688 2689 2690 2691 2692 2693 2694 2695 2696 2697 2698 2699 2700 2701 2702 2703 2704 2705 2706 2707 2708 2709 2710 2711 2712 2713 2714 2715 2716 2717 2718 2719 2720 2721 2722 2723 2724 2725 2726 2727 2728 2729 2730 2731 2732 2733 2734 2735 2736 2737 2738 2739 2740 2741 2742 2743 2744 2745 2746 2747 2748 2749 2750 2751 2752 2753 2754 2755 2756 2757 2758 2759 2760 2761 2762 2763 2764 2765 2766 2767 2768 2769 2770 2771 2772 2773 2774 2775 2776 2777 2778 2779 2780 2781 2782 2783 2784 2785 2786 2787 2788 2789 2790 2791 2792 2793 2794 2795 2796 2797 2798 2799 2800 2801 2802 2803 2804 2805 2806 2807 2808 2809 2810 2811 2812 2813 2814 2815 2816 2817 2818 2819 2820 2821 2822 2823 2824 2825 2826 2827 2828 2829 2830 2831 2832 2833 2834 2835 2836 2837 2838 2839 2840 2841 2842 2843 2844 2845 2846 2847 2848 2849 2850 2851 2852 2853 2854 2855 2856 2857 2858 2859 2860 2861 2862 2863 2864 2865 2866 2867 2868 2869 2870 2871 2872 2873 2874 2875 2876 2877 2878 2879 2880 2881 2882 2883 2884 2885 2886 2887 2888 2889 2890 2891 2892 2893 2894 2895 2896 2897 2898 2899 2900 2901 2902 2903 2904 2905 2906 2907 2908 2909 2910 2911 2912 2913 2914 2915 2916 2917 2918 2919 2920 2921 2922 2923 2924 2925 2926 2927 2928 2929 2930 2931 2932 2933 2934 2935 2936 2937 2938 2939 2940 2941 2942 2943 2944 2945 2946 2947 2948 2949 2950 2951 2952 2953 2954 2955 2956 2957 2958 2959 2960 2961 2962 2963 2964 2965 2966 2967 2968 2969 2970 2971 2972 2973 2974 2975 2976 2977 2978 2979 2980 2981 2982 2983 2984 2985 2986 2987 2988 2989 2990 2991 2992 2993 2994 2995 2996 2997 2998 2999 3000 3001 3002 3003 3004 3005 3006 3007 3008 3009 3010 3011 3012 3013 3014 3015 3016 3017 3018 3019 3020 3021 3022 3023 3024 3025 3026 3027 3028 3029 3030 3031 3032 3033 3034 3035 3036 3037 3038 3039 3040 3041 3042 3043 3044 3045 3046 3047 3048 3049 3050 3051 3052 3053 3054 3055 3056 3057 3058 3059 3060 3061 3062 3063 3064 3065 3066 3067 3068 3069 3070 3071 3072 3073 3074 3075 3076 3077 3078 3079 3080 3081 3082 3083 3084 3085 3086 3087 3088 3089 3090 3091 3092 3093 3094 3095 3096 3097 3098 3099 3100 3101 3102 3103 3104 3105 3106 3107 3108 3109 3110 3111 3112 3113 3114 3115 3116 3117 3118 3119 3120 3121 3122 3123 3124 3125 3126 3127 3128 3129 3130 3131 3132 3133 3134 3135 3136 3137 3138 3139 3140 3141 3142 3143 3144 3145 3146 3147 3148 3149 3150 3151 3152 3153 3154 3155 3156 3157 3158 3159 3160 3161 3162 3163 3164 3165 3166 3167 3168 3169 3170 3171 3172 3173 3174 3175 3176 3177 3178 3179 3180 3181 3182 3183 3184 3185 3186 3187 3188 3189 3190 3191 3192 3193 3194 3195 3196 3197 3198 3199 3200 3201 3202 3203 3204 3205 3206 3207 3208 3209 3210 3211 3212 3213 3214 3215 3216 3217 3218 3219 3220 3221 3222 3223 3224 3225 3226 3227 3228 3229 3230 3231 3232 3233 3234 3235 3236 3237 3238 3239 3240 3241 3242 3243 3244 3245 3246 3247 3248 3249 3250 3251 3252 3253 3254 3255 3256 3257 3258 3259 3260 3261 3262 3263 3264 3265 3266 3267 3268 3269 3270 3271 3272 3273 3274 3275 3276 3277 3278 3279 3280 3281 3282 3283 3284 3285 3286 3287 3288 3289 3290 3291 3292 3293 3294 3295 3296 3297 3298 3299 3300 3301 3302 3303 3304 3305 3306 3307 3308 3309 3310 3311 3312 3313 3314 3315 3316 3317 3318 3319 3320 3321 3322 3323 3324 3325 3326 3327 3328 3329 3330 3331 3332 3333 3334 3335 3336 3337 3338 3339 3340 3341 3342 3343 3344 3345 3346 3347 3348 3349 3350 3351 3352 3353 3354 3355 3356 3357 3358 3359 3360 3361 3362 3363 3364 3365 3366 3367 3368 3369 3370 3371 3372 3373 3374 3375 3376 3377 3378 3379 3380 3381 3382 3383 3384 3385 3386 3387 3388 3389 3390 3391 3392 3393 3394 3395 3396 3397 3398 3399 3400 3401 3402 3403 3404 3405 3406 3407 3408 3409 3410 3411 3412 3413 3414 3415 3416 3417 3418 3419 3420 3421 3422 3423 3424 3425 3426 3427 3428 3429 3430 3431 3432 3433 3434 3435 3436 3437 3438 3439 3440 3441 3442 3443 3444 3445 3446 3447 3448 3449 3450 3451 3452 3453 3454 3455 3456 3457 3458 3459 3460 3461 3462 3463 3464 3465 3466 3467 3468 3469 3470 3471 3472 3473 3474 3475 3476 3477 3478 3479 3480 3481 3482 3483 3484 3485 3486 3487 3488 3489 3490 3491 3492 3493 3494 3495 3496 3497 3498 3499 3500 3501 3502 3503 3504 3505 3506 3507 3508 3509 3510 3511 3512 3513 3514 3515 3516 3517 3518 3519 3520 3521 3522 3523 3524 3525 3526 3527 3528 3529 3530 3531 3532 3533 3534 3535 3536 3537 3538 3539 3540 3541 3542 3543 3544 3545 3546 3547 3548 3549 3550 3551 3552 3553 3554 3555 3556 3557 3558 3559 3560 3561 3562 3563 3564 3565 3566 3567 3568 3569 3570 3571 3572 3573 3574 3575 3576 3577 3578 3579 3580 3581 3582 3583 3584 3585 3586 3587 3588 3589 3590 3591 3592 3593 3594 3595 3596 3597 3598 3599 3600 3601 3602 3603 3604 3605 3606 3607 3608 3609 3610 3611 3612 3613 3614 3615 3616 3617 3618 3619 3620 3621 3622 3623 3624 3625 3626 3627 3628 3629 3630 3631 3632 3633 3634 3635 3636 3637 3638 3639 3640 3641 3642 3643 3644 3645 3646 3647 3648 3649 3650 3651 3652 3653 3654 3655 3656 3657 3658 3659 3660 3661 3662 3663 3664 3665 3666 3667 3668 3669 3670 3671 3672 3673 3674 3675 3676 3677 3678 3679 3680 3681 3682 3683 3684 3685 3686 3687 3688 3689 3690 3691 3692 3693 3694 3695 3696 3697 3698 3699 3700 3701 3702 3703 3704 3705 3706 3707 3708 3709 3710 3711 3712 3713 3714 3715 3716 3717 3718 3719 3720 3721 3722 3723 3724 3725 3726 3727 3728 3729 3730 3731 3732 3733 3734 3735 3736 3737 3738 3739 3740 3741 3742 3743 3744 3745 3746 3747 3748 3749 3750 3751 3752 3753 3754 3755 3756 3757 3758 3759 3760 3761 3762 3763 3764 3765 3766 3767 3768 3769 3770 3771 3772 3773 3774 3775 3776 3777 3778 3779 3780 3781 3782 3783 3784 3785 3786 3787 3788 3789 3790 3791 3792 3793 3794 3795 3796 3797 3798 3799 3800 3801 3802 3803 3804 3805 3806 3807 3808 3809 3810 3811 3812 3813 3814 3815 3816 3817 3818 3819 3820 3821 3822 3823 3824 3825 3826 3827 3828 3829 3830 3831 3832 3833 3834 3835 3836 3837 3838 3839 3840 3841 3842 3843 3844 3845 3846 3847 3848 3849 3850 3851 3852 3853 3854 3855 3856 3857 3858 3859 3860 3861 3862 3863 3864 3865 3866 3867 3868 3869 3870 3871 3872 3873 3874 3875 3876 3877 3878 3879 3880 3881 3882 3883 3884 3885 3886 3887 3888 3889 3890 3891 3892 3893 3894 3895 3896 3897 3898 3899 3900 3901 3902 3903 3904 3905 3906 3907 3908 3909 3910 3911 3912 3913 3914 3915 3916 3917 3918 3919 3920 3921 3922 3923 3924 3925 3926 3927 3928 3929 3930 3931 3932 3933 3934 3935 3936 3937 3938 3939 3940 3941 3942 3943 3944 3945 3946 3947 3948 3949 3950 3951 3952 3953 3954 3955 3956 3957 3958 3959 3960 3961 3962 3963 3964 3965 3966 3967 3968 3969 3970 3971 3972 3973 3974 3975 3976 3977 3978 3979 3980 3981 3982 3983 3984 3985 3986 3987 3988 3989 3990 3991 3992 3993 3994 3995 3996 3997 3998 3999 4000 4001 4002 4003 4004 4005 4006 4007 4008 4009 4010 4011 4012 4013 4014 4015 4016 4017 4018 4019 4020 4021 4022 4023 4024 4025 4026 4027 4028 4029 4030 4031 4032 4033 4034 4035 4036 4037 4038 4039 4040 4041 4042 4043 4044 4045 4046 4047 4048 4049 4050 4051 4052 4053 4054 4055 4056 4057 4058 4059 4060 4061 4062 4063 4064 4065 4066 4067 4068 4069 4070 4071 4072 4073 4074 4075 4076 4077 4078 4079 4080 4081 4082 4083 4084 4085 4086 4087 4088 4089 4090 4091 4092 4093 4094 4095 4096 4097 4098 4099 4100 4101 4102 4103 4104 4105 4106 4107 4108 4109 4110 4111 4112 4113 4114 4115 4116 4117 4118 4119 4120 4121 4122 4123 4124 4125 4126 4127 4128 4129 4130 4131 4132 4133 4134 4135 4136 4137 4138 4139 4140 4141 4142 4143 4144 4145 4146 4147 4148 4149 4150 4151 4152 4153 4154 4155 4156 4157 4158 4159 4160 4161 4162 4163 4164 4165 4166 4167 4168 4169 4170 4171 4172 4173 4174 4175 4176 4177 4178 4179 4180 4181 4182 4183 4184 4185 4186 4187 4188 4189 4190 4191 4192 4193 4194 4195 4196 4197 4198 4199 4200 4201 4202 4203 4204 4205 4206 4207 4208 4209 4210 4211 4212 4213 4214 4215 4216 4217 4218 4219 4220 4221 4222 4223 4224 4225 4226 4227 4228 4229 4230 4231 4232 4233 4234 4235 4236 4237 4238 4239 4240 4241 4242 4243 4244 4245 4246 4247 4248 4249 4250 4251 4252 4253 4254 4255 4256 4257 4258 4259 4260 4261 4262 4263 4264 4265 4266 4267 4268 4269 4270 4271 4272 4273 4274 4275 4276 4277 4278 4279 4280 4281 4282 4283 4284 4285 4286 4287 4288 4289 4290 4291 4292 4293 4294 4295 4296 4297 4298 4299 4300 4301 4302 4303 4304 4305 4306 4307 4308 4309 4310 4311 4312 4313 4314 4315 4316 4317 4318 4319 4320 4321 4322 4323 4324 4325 4326 4327 4328 4329 4330 4331 4332 4333 4334 4335 4336 4337 4338 4339 4340 4341 4342 4343 4344 4345 4346 4347 4348 4349 4350 4351 4352 4353 4354 4355 4356 4357 4358 4359 4360 4361 4362 4363 4364 4365 4366 4367 4368 4369 4370 4371 4372 4373 4374 4375 4376 4377 4378 4379 4380 4381 4382 4383 4384 4385 4386 4387 4388 4389 4390 4391 4392 4393 4394 4395 4396 4397 4398 4399 4400 4401 4402 4403 4404 4405 4406 4407 4408 4409 4410 4411 4412 4413 4414 4415 4416 4417 4418 4419 4420 4421 4422 4423 4424 4425 4426 4427 4428 4429 4430 4431 4432 4433 4434 4435 4436 4437 4438 4439 4440 4441 4442 4443 4444 4445 4446 4447 4448 4449 4450 4451 4452 4453 4454 4455 4456 4457 4458 4459 4460 4461 4462 4463 4464 4465 4466 4467 4468 4469 4470 4471 4472 4473 4474 4475 4476 4477 4478 4479 4480 4481 4482 4483 4484 4485 4486 4487 4488 4489 4490 4491 4492 4493 4494 4495 4496 4497 4498 4499 4500 4501 4502 4503 4504 4505 4506 4507 4508 4509 4510 4511 4512 4513 4514 4515 4516 4517 4518 4519 4520 4521 4522 4523 4524 4525 4526 4527 4528 4529 4530 4531 4532 4533 4534 4535 4536 4537 4538 4539 4540 4541 4542 4543 4544 4545 4546 4547 4548 4549 4550 4551 4552 4553 4554 4555 4556 4557 4558 4559 4560 4561 4562 4563 4564 4565 4566 4567 4568 4569 4570 4571 4572 4573 4574 4575 4576 4577 4578 4579 4580 4581 4582 4583 4584 4585 4586 4587 4588 4589 4590 4591 4592 4593 4594 4595 4596 4597 4598 4599 4600 4601 4602 4603 4604 4605 4606 4607 4608 4609 4610 4611 4612 4613 4614 4615 4616 4617 4618 4619 4620 4621 4622 4623 4624 4625 4626 4627 4628 4629 4630 4631 4632 4633 4634 4635 4636 4637 4638 4639 4640 4641 4642 4643 4644 4645 4646 4647 4648 4649 4650 4651 4652 4653 4654 4655 4656 4657 4658 4659 4660 4661 4662 4663 4664 4665 4666 4667 4668 4669 4670 4671 4672 4673 4674 4675 4676 4677 4678 4679 4680 4681 4682 4683 4684 4685 4686 4687 4688 4689 4690 4691 4692 4693 4694 4695 4696 4697 4698 4699 4700 4701 4702 4703 4704 4705 4706 4707 4708 4709 4710 4711 4712 4713 4714 4715 4716 4717 4718 4719 4720 4721 4722 4723 4724 4725 4726 4727 4728 4729 4730 4731 4732 4733 4734 4735 4736 4737 4738 4739 4740 4741 4742 4743 4744 4745 4746 4747 4748 4749 4750 4751 4752 4753 4754 4755 4756 4757 4758 4759 4760 4761 4762 4763 4764 4765 4766 4767 4768 4769 4770 4771 4772 4773 4774 4775 4776 4777 4778 4779 4780 4781 4782 4783 4784 4785 4786 4787 4788 4789 4790 4791 4792 4793 4794 4795 4796 4797 4798 4799 4800 4801 4802 4803 4804 4805 4806 4807 4808 4809 4810 4811 4812 4813 4814 4815 4816 4817 4818 4819 4820 4821 4822 4823 4824 4825 4826 4827 4828 4829 4830 4831 4832 4833 4834 4835 4836 4837 4838 4839 4840 4841 4842 4843 4844 4845 4846 4847 4848 4849 4850 4851 4852 4853 4854 4855 4856 4857 4858 4859 4860 4861 4862 4863 4864 4865 4866 4867 4868 4869 4870 4871 4872 4873 4874 4875 4876 4877 4878 4879 4880 4881 4882 4883 4884 4885 4886 4887 4888 4889 4890 4891 4892 4893 4894 4895 4896 4897 4898 4899 4900 4901 4902 4903 4904 4905 4906 4907 4908 4909 4910 4911 4912 4913 4914 4915 4916 4917 4918 4919 4920 4921 4922 4923 4924 4925 4926 4927 4928 4929 4930 4931 4932 4933 4934 4935 4936 4937 4938 4939 4940 4941 4942 4943 4944 4945 4946 4947 4948 4949 4950 4951 4952 4953 4954 4955 4956 4957 4958 4959 4960 4961 4962 4963 4964 4965 4966 4967 4968 4969 4970 4971 4972 4973 4974 4975 4976 4977 4978 4979 4980 4981 4982 4983 4984 4985 4986 4987 4988 4989 4990 4991 4992 4993 4994 4995 4996 4997 4998 4999 5000 5001 5002 5003 5004 5005 5006 5007 5008 5009 5010 5011 5012 5013 5014 5015 5016 5017 5018 5019 5020 5021 5022 5023 5024 5025 5026 5027 5028 5029 5030 5031 5032 5033 5034 5035 5036 5037 5038 5039 5040 5041 5042 5043 5044 5045 5046 5047 5048 5049 5050 5051 5052 5053 5054 5055 5056 5057 5058 5059 5060 5061 5062 5063 5064 5065 5066 5067 5068 5069 5070 5071 5072 5073 5074 5075 5076 5077 5078 5079 5080 5081 5082 5083 5084 5085 5086 5087 5088 5089 5090 5091 5092 5093 5094 5095 5096 5097 5098 5099 5100 5101 5102 5103 5104 5105 5106 5107 5108 5109 5110 5111 5112 5113 5114 5115 5116 5117 5118 5119 5120 5121 5122 5123 5124 5125 5126 5127 5128 5129 5130 5131 5132 5133 5134 5135 5136 5137 5138 5139 5140 5141 5142 5143 5144 5145 5146 5147 5148 5149 5150 5151 5152 5153 5154 5155 5156 5157 5158 5159 5160 5161 5162 5163 5164 5165 5166 5167 5168 5169 5170 5171 5172 5173 5174 5175 5176 5177 5178 5179 5180 5181 5182 5183 5184 5185 5186 5187 5188 5189 5190 5191 5192 5193 5194 5195 5196 5197 5198 5199 5200 5201 5202 5203 5204 5205 5206 5207 5208 5209 5210 5211 5212 5213 5214 5215 5216 5217 5218 5219 5220 5221 5222 5223 5224 5225 5226 5227 5228 5229 5230 5231 5232 5233 5234 5235 5236 5237 5238 5239 5240 5241 5242 5243 5244 5245 5246 5247 5248 5249 5250 5251 5252 5253 5254 5255 5256 5257 5258 5259 5260 5261 5262 5263 5264 5265 5266 5267 5268 5269 5270 5271 5272 5273 5274 5275 5276 5277 5278 5279 5280 5281 5282 5283 5284 5285 5286 5287 5288 5289 5290 5291 5292 5293 5294 5295 5296 5297 5298 5299 5300 5301 5302 5303 5304 5305 5306 5307 5308 5309 5310 5311 5312 5313 5314 5315 5316 5317 5318 5319 5320 5321 5322 5323 5324 5325 5326 5327 5328 5329 5330 5331 5332 5333 5334 5335 5336 5337 5338 5339 5340 5341 5342 5343 5344 5345 5346 5347 5348 5349 5350 5351 5352 5353 5354 5355 5356 5357 5358 5359 5360 5361 5362 5363 5364 5365 5366 5367 5368 5369 5370 5371 5372 5373 5374 5375 5376 5377 5378 5379 5380 5381 5382 5383 5384 5385 5386 5387 5388 5389 5390 5391 5392 5393 5394 5395 5396 5397 5398 5399 5400 5401 5402 5403 5404 5405 5406 5407 5408 5409 5410 5411 5412 5413 5414 5415 5416 5417 5418 5419 5420 5421 5422 5423 5424 5425 5426 5427 5428 5429 5430 5431 5432 5433 5434 5435 5436 5437 5438 5439 5440 5441 5442 5443 5444 5445 5446 5447 5448 5449 5450 5451 5452 5453 5454 5455 5456 5457 5458 5459 5460 5461 5462 5463 5464 5465 5466 5467 5468 5469 5470 5471 5472 5473 5474 5475 5476 5477 5478 5479 5480 5481 5482 5483 5484 5485 5486 5487 5488 5489 5490 5491 5492 5493 5494 5495 5496 5497 5498 5499 5500 5501 5502 5503 5504 5505 5506 5507 5508 5509 5510 5511 5512 5513 5514 5515 5516 5517 5518 5519 5520 5521 5522 5523 5524 5525 5526 5527 5528 5529 5530 5531 5532 5533 5534 5535 5536 5537 5538 5539 5540 5541 5542 5543 5544 5545 5546 5547 5548 5549 5550 5551 5552 5553 5554 5555 5556 5557 5558 5559 5560 5561 5562 5563 5564 5565 5566 5567 5568 5569 5570 5571 5572 5573 5574 5575 5576 5577 5578 5579 5580 5581 5582 5583 5584 5585 5586 5587 5588 5589 5590 5591 5592 5593 5594 5595 5596 5597 5598 5599 5600 5601 5602 5603 5604 5605 5606 5607 5608 5609 5610 5611 5612 5613 5614 5615 5616 5617 5618 5619 5620 5621 5622 5623 5624 5625 5626 5627 5628 5629 5630 5631 5632 5633 5634 5635 5636 5637 5638 5639 5640 5641 5642 5643 5644 5645 5646 5647 5648 5649 5650 5651 5652 5653 5654 5655 5656 5657 5658 5659 5660 5661 5662 5663 5664 5665 5666 5667 5668 5669 5670 5671 5672 5673 5674 5675 5676 5677 5678 5679 5680 5681 5682 5683 5684 5685 5686 5687 5688 5689 5690 5691 5692 5693 5694 5695 5696 5697 5698 5699 5700 5701 5702 5703 5704 5705 5706 5707 5708 5709 5710 5711 5712 5713 5714 5715 5716 5717 5718 5719 5720 5721 5722 5723 5724 5725 5726 5727 5728 5729 5730 5731 5732 5733 5734 5735 5736 5737 5738 5739 5740 5741 5742 5743 5744 5745 5746 5747 5748 5749 5750 5751 5752 5753 5754 5755 5756 5757 5758 5759 5760 5761 5762 5763 5764 5765 5766 5767 5768 5769 5770 5771 5772 5773 5774 5775 5776 5777 5778 5779 5780 5781 5782 5783 5784 5785 5786 5787 5788 5789 5790 5791 5792 5793 5794 5795 5796 5797 5798 5799 5800 5801 5802 5803 5804 5805 5806 5807 5808 5809 5810 5811 5812 5813 5814 5815 5816 5817 5818 5819 5820 5821 5822 5823 5824 5825 5826 5827 5828 5829 5830 5831 5832 5833 5834 5835 5836 5837 5838 5839 5840 5841 5842 5843 5844 5845 5846 5847 5848 5849 5850 5851 5852 5853 5854 5855 5856 5857 5858 5859 5860 5861 5862 5863 5864 5865 5866 5867 5868 5869 5870 5871 5872 5873 5874 5875 5876 5877 5878 5879 5880 5881 5882 5883 5884 5885 5886 5887 5888 5889 5890 5891 5892 5893 5894 5895 5896 5897 5898 5899 5900 5901 5902 5903 5904 5905 5906 5907 5908 5909 5910 5911 5912 5913 5914 5915 5916 5917 5918 5919 5920 5921 5922 5923 5924 5925 5926 5927 5928 5929 5930 5931 5932 5933 5934 5935 5936 5937 5938 5939 5940 5941 5942 5943 5944 5945 5946 5947 5948 5949 5950 5951 5952 5953 5954 5955 5956 5957 5958 5959 5960 5961 5962 5963 5964 5965 5966 5967 5968 5969 5970 5971 5972 5973 5974 5975 5976 5977 5978 5979 5980 5981 5982 5983 5984 5985 5986 5987 5988 5989 5990 5991 5992 5993 5994 5995 5996 5997 5998 5999 6000 6001 6002 6003 6004 6005 6006 6007 6008 6009 6010 6011 6012 6013 6014 6015 6016 6017 6018 6019 6020 6021 6022 6023 6024 6025 6026 6027 6028 6029 6030 6031 6032 6033 6034 6035 6036 6037 6038 6039 6040 6041 6042 6043 6044 6045 6046 6047 6048 6049 6050 6051 6052 6053 6054 6055 6056 6057 6058 6059 6060 6061 6062 6063 6064 6065 6066 6067 6068 6069 6070 6071 6072 6073 6074 6075 6076 6077 6078 6079 6080 6081 6082 6083 6084 6085 6086 6087 6088 6089 6090 6091 6092 6093 6094 6095 6096 6097 6098 6099 6100 6101 6102 6103 6104 6105 6106 6107 6108 6109 6110 6111 6112 6113 6114 6115 6116 6117 6118 6119 6120 6121 6122 6123 6124 6125 6126 6127 6128 6129 6130 6131 6132 6133 6134 6135 6136 6137 6138 6139 6140 6141 6142 6143 6144 6145 6146 6147 6148 6149 6150 6151 6152 6153 6154 6155 6156 6157 6158 6159 6160 6161 6162 6163 6164 6165 6166 6167 6168 6169 6170 6171 6172 6173 6174 6175 6176 6177 6178 6179 6180 6181 6182 6183 6184 6185 6186 6187 6188 6189 6190 6191 6192 6193 6194 6195 6196 6197 6198 6199 6200 6201 6202 6203 6204 6205 6206 6207 6208 6209 6210 6211 6212 6213 6214 6215 6216 6217 6218 6219 6220 6221 6222 6223 6224 6225 6226 6227 6228 6229 6230 6231 6232 6233 6234 6235 6236 6237 6238 6239 6240 6241 6242 6243 6244 6245 6246 6247 6248 6249 6250 6251 6252 6253 6254 6255 6256 6257 6258 6259 6260 6261 6262 6263 6264 6265 6266 6267 6268 6269 6270 6271 6272 6273 6274 6275 6276 6277 6278 6279 6280 6281 6282 6283 6284 6285 6286 6287 6288 6289 6290 6291 6292 6293 6294 6295 6296 6297 6298 6299 6300 6301 6302 6303 6304 6305 6306 6307 6308 6309 6310 6311 6312 6313 6314 6315 6316 6317 6318 6319 6320 6321 6322 6323 6324 6325 6326 6327 6328 6329 6330 6331 6332 6333 6334 6335 6336 6337 6338 6339 6340 6341 6342 6343 6344 6345 6346 6347 6348 6349 6350 6351 6352 6353 6354 6355 6356 6357 6358 6359 6360 6361 6362 6363 6364 6365 6366 6367 6368 6369 6370 6371 6372 6373 6374 6375 6376 6377 6378 6379 6380 6381 6382 6383 6384 6385 6386 6387 6388 6389 6390 6391 6392 6393 6394 6395 6396 6397 6398 6399 6400 6401 6402 6403 6404 6405 6406 6407 6408 6409 6410 6411 6412 6413 6414 6415 6416 6417 6418 6419 6420 6421 6422 6423 6424 6425 6426 6427 6428 6429 6430 6431 6432 6433 6434 6435 6436 6437 6438 6439 6440 6441 6442 6443 6444 6445 6446 6447 6448 6449 6450 6451 6452 6453 6454 6455 6456 6457 6458 6459 6460 6461 6462 6463 6464 6465 6466 6467 6468 6469 6470 6471 6472 6473 6474 6475 6476 6477 6478 6479 6480 6481 6482 6483 6484 6485 6486 6487 6488 6489 6490 6491 6492 6493 6494 6495 6496 6497 6498 6499 6500 6501 6502 6503 6504 6505 6506 6507 6508 6509 6510 6511 6512 6513 6514 6515 6516 6517 6518 6519 6520 6521 6522 6523 6524 6525 6526 6527 6528 6529 6530 6531 6532 6533 6534 6535 6536 6537 6538 6539 6540 6541 6542 6543 6544 6545 6546 6547 6548 6549 6550 6551 6552 6553 6554 6555 6556 6557 6558 6559 6560 6561 6562 6563 6564 6565 6566 6567 6568 6569 6570 6571 6572 6573 6574 6575 6576 6577 6578 6579 6580 6581 6582 6583 6584 6585 6586 6587 6588 6589 6590 6591 6592 6593 6594 6595 6596 6597 6598 6599 6600 6601 6602 6603 6604 6605 6606 6607 6608 6609 6610 6611 6612 6613 6614 6615 6616 6617 6618 6619 6620 6621 6622 6623 6624 6625 6626 6627 6628 6629 6630 6631 6632 6633 6634 6635 6636 6637 6638 6639 6640 6641 6642 6643 6644 6645 6646 6647 6648 6649 6650 6651 6652 6653 6654 6655 6656 6657 6658 6659 6660 6661 6662 6663 6664 6665 6666 6667 6668 6669 6670 6671 6672 6673 6674 6675 6676 6677 6678 6679 6680 6681 6682 6683 6684 6685 6686 6687 6688 6689 6690 6691 6692 6693 6694 6695 6696 6697 6698 6699 6700 6701 6702 6703 6704 6705 6706 6707 6708 6709 6710 6711 6712 6713 6714 6715 6716 6717 6718 6719 6720 6721 6722 6723 6724 6725 6726 6727 6728 6729 6730 6731 6732 6733 6734 6735 6736 6737 6738 6739 6740 6741 6742 6743 6744 6745 6746 6747 6748 6749 6750 6751 6752 6753 6754 6755 6756 6757 6758 6759 6760 6761 6762 6763 6764 6765 6766 6767 6768 6769 6770 6771 6772 6773 6774 6775 6776 6777 6778 6779 6780 6781 6782 6783 6784 6785 6786 6787 6788 6789 6790 6791 6792 6793 6794 6795 6796 6797 6798 6799 6800 6801 6802 6803 6804 6805 6806 6807 6808 6809 6810 6811 6812 6813 6814 6815 6816 6817 6818 6819 6820 6821 6822 6823 6824 6825 6826 6827 6828 6829 6830 6831 6832 6833 6834 6835 6836 6837 6838 6839 6840 6841 6842 6843 6844 6845 6846 6847 6848 6849 6850 6851 6852 6853 6854 6855 6856 6857 6858 6859 6860 6861 6862 6863 6864 6865 6866 6867 6868 6869 6870 6871 6872 6873 6874 6875 6876 6877 6878 6879 6880 6881 6882 6883 6884 6885 6886 6887 6888 6889 6890 6891 6892 6893 6894 6895 6896 6897 6898 6899 6900 6901 6902 6903 6904 6905 6906 6907 6908 6909 6910 6911 6912 6913 6914 6915 6916 6917 6918 6919 6920 6921 6922 6923 6924 6925 6926 6927 6928 6929 6930 6931 6932 6933 6934 6935 6936 6937 6938 6939 6940 6941 6942 6943 6944 6945 6946 6947 6948 6949 6950 6951 6952 6953 6954 6955 6956 6957 6958 6959 6960 6961 6962 6963 6964 6965 6966 6967 6968 6969 6970 6971 6972 6973 6974 6975 6976 6977 6978 6979 6980 6981 6982 6983 6984 6985 6986 6987 6988 6989 6990 6991 6992 6993 6994 6995 6996 6997 6998 6999 7000 7001 7002 7003 7004 7005 7006 7007 7008 7009 7010 7011 7012 7013 7014 7015 7016 7017 7018 7019 7020 7021 7022 7023 7024 7025 7026 7027 7028 7029 7030 7031 7032 7033 7034 7035 7036 7037 7038 7039 7040 7041 7042 7043 7044 7045 7046 7047 7048 7049 7050 7051 7052 7053 7054 7055 7056 7057 7058 7059 7060 7061 7062 7063 7064 7065 7066 7067 7068 7069 7070 7071 7072 7073 7074 7075 7076 7077 7078 7079 7080 7081 7082 7083 7084 7085 7086 7087 7088 7089 7090 7091 7092 7093 7094 7095 7096 7097 7098 7099 7100 7101 7102 7103 7104 7105 7106 7107 7108 7109 7110 7111 7112 7113 7114 7115 7116 7117 7118 7119 7120 7121 7122 7123 7124 7125 7126 7127 7128 7129 7130 7131 7132 7133 7134 7135 7136 7137 7138 7139 7140 7141 7142 7143 7144 7145 7146 7147 7148 7149 7150 7151 7152 7153 7154 7155 7156 7157 7158 7159 7160 7161 7162 7163 7164 7165 7166 7167 7168 7169 7170 7171 7172 7173 7174 7175 7176 7177 7178 7179 7180 7181 7182 7183 7184 7185 7186 7187 7188 7189 7190 7191 7192 7193 7194 7195 7196 7197 7198 7199 7200 7201 7202 7203 7204 7205 7206 7207 7208 7209 7210 7211 7212 7213 7214 7215 7216 7217 7218 7219 7220 7221 7222 7223 7224 7225 7226 7227 7228 7229 7230 7231 7232 7233 7234 7235 7236 7237 7238 7239 7240 7241 7242 7243 7244 7245 7246 7247 7248 7249 7250 7251 7252 7253 7254 7255 7256 7257 7258 7259 7260 7261 7262 7263 7264 7265 7266 7267 7268 7269 7270 7271 7272 7273 7274 7275 7276 7277 7278 7279 7280 7281 7282 7283 7284 7285 7286 7287 7288 7289 7290 7291 7292 7293 7294 7295 7296 7297 7298 7299 7300 7301 7302 7303 7304 7305 7306 7307 7308 7309 7310 7311 7312 7313 7314 7315 7316 7317 7318 7319 7320 7321 7322 7323 7324 7325 7326 7327 7328 7329 7330 7331 7332 7333 7334 7335 7336 7337 7338 7339 7340 7341 7342 7343 7344 7345 7346 7347 7348 7349 7350 7351 7352 7353 7354 7355 7356 7357 7358 7359 7360 7361 7362 7363 7364 7365 7366 7367 7368 7369 7370 7371 7372 7373 7374 7375 7376 7377 7378 7379 7380 7381 7382 7383 7384 7385 7386 7387 7388 7389 7390 7391 7392 7393 7394 7395 7396 7397 7398 7399 7400 7401 7402 7403 7404 7405 7406 7407 7408 7409 7410 7411 7412 7413 7414 7415 7416 7417 7418 7419 7420 7421 7422 7423 7424 7425 7426 7427 7428 7429 7430 7431 7432 7433 7434 7435 7436 7437 7438 7439 7440 7441 7442 7443 7444 7445 7446 7447 7448 7449 7450 7451 7452 7453 7454 7455 7456 7457 7458 7459 7460 7461 7462 7463 7464 7465 7466 7467 7468 7469 7470 7471 7472 7473 7474 7475 7476 7477 7478 7479 7480 7481 7482 7483 7484 7485 7486 7487 7488 7489 7490 7491 7492 7493 7494 7495 7496 7497 7498 7499 7500 7501 7502 7503 7504 7505 7506 7507 7508 7509 7510 7511 7512 7513 7514 7515 7516 7517 7518 7519 7520 7521 7522 7523 7524 7525 7526 7527 7528 7529 7530 7531 7532 7533 7534 7535 7536 7537 7538 7539 7540 7541 7542 7543 7544 7545 7546 7547 7548 7549 7550 7551 7552 7553 7554 7555 7556 7557 7558 7559 7560 7561 7562 7563 7564 7565 7566 7567 7568 7569 7570 7571 7572 7573 7574 7575 7576 7577 7578 7579 7580 7581 7582 7583 7584 7585 7586 7587 7588 7589 7590 7591 7592 7593 7594 7595 7596 7597 7598 7599 7600 7601 7602 7603 7604 7605 7606 7607 7608 7609 7610 7611 7612 7613 7614 7615 7616 7617 7618 7619 7620 7621 7622 7623 7624 7625 7626 7627 7628 7629 7630 7631 7632 7633 7634 7635 7636 7637 7638 7639 7640 7641 7642 7643 7644 7645 7646 7647 7648 7649 7650 7651 7652 7653 7654 7655 7656 7657 7658 7659 7660 7661 7662 7663 7664 7665 7666 7667 7668 7669 7670 7671 7672 7673 7674 7675 7676 7677 7678 7679 7680 7681 7682 7683 7684 7685 7686 7687 7688 7689 7690 7691 7692 7693 7694 7695 7696 7697 7698 7699 7700 7701 7702 7703 7704 7705 7706 7707 7708 7709 7710 7711 7712 7713 7714 7715 7716 7717 7718 7719 7720 7721 7722 7723 7724 7725 7726 7727 7728 7729 7730 7731 7732 7733 7734 7735 7736 7737 7738 7739 7740 7741 7742 7743 7744 7745 7746 7747 7748 7749 7750 7751 7752 7753 7754 7755 7756 7757 7758 7759 7760 7761 7762 7763 7764 7765 7766 7767 7768 7769 7770 7771 7772 7773 7774 7775 7776 7777 7778 7779 7780 7781 7782 7783 7784 7785 7786 7787 7788 7789 7790 7791 7792 7793 7794 7795 7796 7797 7798 7799 7800 7801 7802 7803 7804 7805 7806 7807 7808 7809 7810 7811 7812 7813 7814 7815 7816 7817 7818 7819 7820 7821 7822 7823 7824 7825 7826 7827 7828 7829 7830 7831 7832 7833 7834 7835 7836 7837 7838 7839 7840 7841 7842 7843 7844 7845 7846 7847 7848 7849 7850 7851 7852 7853 7854 7855 7856 7857 7858 7859 7860 7861 7862 7863 7864 7865 7866 7867 7868 7869 7870 7871 7872 7873 7874 7875 7876 7877 7878 7879 7880 7881 7882 7883 7884 7885 7886 7887 7888 7889 7890 7891 7892 7893 7894 7895 7896 7897 7898 7899 7900 7901 7902 7903 7904 7905 7906 7907 7908 7909 7910 7911 7912 7913 7914 7915 7916 7917 7918 7919 7920 7921 7922 7923 7924 7925 7926 7927 7928 7929 7930 7931 7932 7933 7934 7935 7936 7937 7938 7939 7940 7941 7942 7943 7944 7945 7946 7947 7948 7949 7950 7951 7952 7953 7954 7955 7956 7957 7958 7959 7960 7961 7962 7963 7964 7965 7966 7967 7968 7969 7970 7971 7972 7973 7974 7975 7976 7977 7978 7979 7980 7981 7982 7983 7984 7985 7986 7987 7988 7989 7990 7991 7992 7993 7994 7995 7996 7997 7998 7999 8000 8001 8002 8003 8004 8005 8006 8007 8008 8009 8010 8011 8012 8013 8014 8015 8016 8017 8018 8019 8020 8021 8022 8023 8024 8025 8026 8027 8028 8029 8030 8031 8032 8033 8034 8035 8036 8037 8038 8039 8040 8041 8042 8043 8044 8045 8046 8047 8048 8049 8050 8051 8052 8053 8054 8055 8056 8057 8058 8059 8060 8061 8062 8063 8064 8065 8066 8067 8068 8069 8070 8071 8072 8073 8074 8075 8076 8077 8078 8079 8080 8081 8082 8083 8084 8085 8086 8087 8088 8089 8090 8091 8092 8093 8094 8095 8096 8097 8098 8099 8100 8101 8102 8103 8104 8105 8106 8107 8108 8109 8110 8111 8112 8113 8114 8115 8116 8117 8118 8119 8120 8121 8122 8123 8124 8125 8126 8127 8128 8129 8130 8131 8132 8133 8134 8135 8136 8137 8138 8139 8140 8141 8142 8143 8144 8145 8146 8147 8148 8149 8150 8151 8152 8153 8154 8155 8156 8157 8158 8159 8160 8161 8162 8163 8164 8165 8166 8167 8168 8169 8170 8171 8172 8173 8174 8175 8176 8177 8178 8179 8180 8181 8182 8183 8184 8185 8186 8187 8188 8189 8190 8191 8192 8193 8194 8195 8196 8197 8198 8199 8200 8201 8202 8203 8204 8205 8206 8207 8208 8209 8210 8211 8212 8213 8214 8215 8216 8217 8218 8219 8220 8221 8222 8223 8224 8225 8226 8227 8228 8229 8230 8231 8232 8233 8234 8235 8236 8237 8238 8239 8240 8241 8242 8243 8244 8245 8246 8247 8248 8249 8250 8251 8252 8253 8254 8255 8256 8257 8258 8259 8260 8261 8262 8263 8264 8265 8266 8267 8268 8269 8270 8271 8272 8273 8274 8275 8276 8277 8278 8279 8280 8281 8282 8283 8284 8285 8286 8287 8288 8289 8290 8291 8292 8293 8294 8295 8296 8297 8298 8299 8300 8301 8302 8303 8304 8305 8306 8307 8308 8309 8310 8311 8312 8313 8314 8315 8316 8317 8318 8319 8320 8321 8322 8323 8324 8325 8326 8327 8328 8329 8330 8331 8332 8333 8334 8335 8336 8337 8338 8339 8340 8341 8342 8343 8344 8345 8346 8347 8348 8349 8350 8351 8352 8353 8354 8355 8356 8357 8358 8359 8360 8361 8362 8363 8364 8365 8366 8367 8368 8369 8370 8371 8372 8373 8374 8375 8376 8377 8378 8379 8380 8381 8382 8383 8384 8385 8386 8387 8388 8389 8390 8391 8392 8393 8394 8395 8396 8397 8398 8399 8400 8401 8402 8403 8404 8405 8406 8407 8408 8409 8410 8411 8412 8413 8414 8415 8416 8417 8418 8419 8420 8421 8422 8423 8424 8425 8426 8427 8428 8429 8430 8431 8432 8433 8434 8435 8436 8437 8438 8439 8440 8441 8442 8443 8444 8445 8446 8447 8448 8449 8450 8451 8452 8453 8454 8455 8456 8457 8458 8459 8460 8461 8462 8463 8464 8465 8466 8467 8468 8469 8470 8471 8472 8473 8474 8475 8476 8477 8478 8479 8480 8481 8482 8483 8484 8485 8486 8487 8488 8489 8490 8491 8492 8493 8494 8495 8496 8497 8498 8499 8500 8501 8502 8503 8504 8505 8506 8507 8508 8509 8510 8511 8512 8513 8514 8515 8516 8517 8518 8519 8520 8521 8522 8523 8524 8525 8526 8527 8528 8529 8530 8531 8532 8533 8534 8535 8536 8537 8538 8539 8540 8541 8542 8543 8544 8545 8546 8547 8548 8549 8550 8551 8552 8553 8554 8555 8556 8557 8558 8559 8560 8561 8562 8563 8564 8565 8566 8567 8568 8569 8570 8571 8572 8573 8574 8575 8576 8577 8578 8579 8580 8581 8582 8583 8584 8585 8586 8587 8588 8589 8590 8591 8592 8593 8594 8595 8596 8597 8598 8599 8600 8601 8602 8603 8604 8605 8606 8607 8608 8609 8610 8611 8612 8613 8614 8615 8616 8617 8618 8619 8620 8621 8622 8623 8624 8625 8626 8627 8628 8629 8630 8631 8632 8633 8634 8635 8636 8637 8638 8639 8640 8641 8642 8643 8644 8645 8646 8647 8648 8649 8650 8651 8652 8653 8654 8655 8656 8657 8658 8659 8660 8661 8662 8663 8664 8665 8666 8667 8668 8669 8670 8671 8672 8673 8674 8675 8676 8677 8678 8679 8680 8681 8682 8683 8684 8685 8686 8687 8688 8689 8690 8691 8692 8693 8694 8695 8696 8697 8698 8699 8700 8701 8702 8703 8704 8705 8706 8707 8708 8709 8710 8711 8712 8713 8714 8715 8716 8717 8718 8719 8720 8721 8722 8723 8724 8725 8726 8727 8728 8729 8730 8731 8732 8733 8734 8735 8736 8737 8738 8739 8740 8741 8742 8743 8744 8745 8746 8747 8748 8749 8750 8751 8752 8753 8754 8755 8756 8757 8758 8759 8760 8761 8762 8763 8764 8765 8766 8767 8768 8769 8770 8771 8772 8773 8774 8775 8776 8777 8778 8779 8780 8781 8782 8783 8784 8785 8786 8787 8788 8789 8790 8791 8792 8793 8794 8795 8796 8797 8798 8799 8800 8801 8802 8803 8804 8805 8806 8807 8808 8809 8810 8811 8812 8813 8814 8815 8816 8817 8818 8819 8820 8821 8822 8823 8824 8825 8826 8827 8828 8829 8830 8831 8832 8833 8834 8835 8836 8837 8838 8839 8840 8841 8842 8843 8844 8845 8846 8847 8848 8849 8850 8851 8852 8853 8854 8855 8856 8857 8858 8859 8860 8861 8862 8863 8864 8865 8866 8867 8868 8869 8870 8871 8872 8873 8874 8875 8876 8877 8878 8879 8880 8881 8882 8883 8884 8885 8886 8887 8888 8889 8890 8891 8892 8893 8894 8895 8896 8897 8898 8899 8900 8901 8902 8903 8904 8905 8906 8907 8908 8909 8910 8911 8912 8913 8914 8915 8916 8917 8918 8919 8920 8921 8922 8923 8924 8925 8926 8927 8928 8929 8930 8931 8932 8933 8934 8935 8936 8937 8938 8939 8940 8941 8942 8943 8944 8945 8946 8947 8948 8949 8950 8951 8952 8953 8954 8955 8956 8957 8958 8959 8960 8961 8962 8963 8964 8965 8966 8967 8968 8969 8970 8971 8972 8973 8974 8975 8976 8977 8978 8979 8980 8981 8982 8983 8984 8985 8986 8987 8988 8989 8990 8991 8992 8993 8994 8995 8996 8997 8998 8999 9000 9001 9002 9003 9004 9005 9006 9007 9008 9009 9010 9011 9012 9013 9014 9015 9016 9017 9018 9019 9020 9021 9022 9023 9024 9025 9026 9027 9028 9029 9030 9031 9032 9033 9034 9035 9036 9037 9038 9039 9040 9041 9042 9043 9044 9045 9046 9047 9048 9049 9050 9051 9052 9053 9054 9055 9056 9057 9058 9059 9060 9061 9062 9063 9064 9065 9066 9067 9068 9069 9070 9071 9072 9073 9074 9075 9076 9077 9078 9079 9080 9081 9082 9083 9084 9085 9086 9087 9088 9089 9090 9091 9092 9093 9094 9095 9096 9097 9098 9099 9100 9101 9102 9103 9104 9105 9106 9107 9108 9109 9110 9111 9112 9113 9114 9115 9116 9117 9118 9119 9120 9121 9122 9123 9124 9125 9126 9127 9128 9129 9130 9131 9132 9133 9134 9135 9136 9137 9138 9139 9140 9141 9142 9143 9144 9145 9146 9147 9148 9149 9150 9151 9152 9153 9154 9155 9156 9157 9158 9159 9160 9161 9162 9163 9164 9165 9166 9167 9168 9169 9170 9171 9172 9173 9174 9175 9176 9177 9178 9179 9180 9181 9182 9183 9184 9185 9186 9187 9188 9189 9190 9191 9192 9193 9194 9195 9196 9197 9198 9199 9200 9201 9202 9203 9204 9205 9206 9207 9208 9209 9210 9211 9212 9213 9214 9215 9216 9217 9218 9219 9220 9221 9222 9223 9224 9225 9226 9227 9228 9229 9230 9231 9232 9233 9234 9235 9236 9237 9238 9239 9240 9241 9242 9243 9244 9245 9246 9247 9248 9249 9250 9251 9252 9253 9254 9255 9256 9257 9258 9259 9260 9261 9262 9263 9264 9265 9266 9267 9268 9269 9270 9271 9272 9273 9274 9275 9276 9277 9278 9279 9280 9281 9282 9283 9284 9285 9286 9287 9288 9289 9290 9291 9292 9293 9294 9295 9296 9297 9298 9299 9300 9301 9302 9303 9304 9305 9306 9307 9308 9309 9310 9311 9312 9313 9314 9315 9316 9317 9318 9319 9320 9321 9322 9323 9324 9325 9326 9327 9328 9329 9330 9331 9332 9333 9334 9335 9336 9337 9338 9339 9340 9341 9342 9343 9344 9345 9346 9347 9348 9349 9350 9351 9352 9353 9354 9355 9356 9357 9358 9359 9360 9361 9362 9363 9364 9365 9366 9367 9368 9369 9370 9371 9372 9373 9374 9375 9376 9377 9378 9379 9380 9381 9382 9383 9384 9385 9386 9387 9388 9389 9390 9391 9392 9393 9394 9395 9396 9397 9398 9399 9400 9401 9402 9403 9404 9405 9406 9407 9408 9409 9410 9411 9412 9413 9414 9415 9416 9417 9418 9419 9420 9421 9422 9423 9424 9425 9426 9427 9428 9429 9430 9431 9432 9433 9434 9435 9436 9437 9438 9439 9440 9441 9442 9443 9444 9445 9446 9447 9448 9449 9450 9451 9452 9453 9454 9455 9456 9457 9458 9459 9460 9461 9462 9463 9464 9465 9466 9467 9468 9469 9470 9471 9472 9473 9474 9475 9476 9477 9478 9479 9480 9481 9482 9483 9484 9485 9486 9487 9488 9489 9490 9491 9492 9493 9494 9495 9496 9497 9498 9499 9500 9501 9502 9503 9504 9505 9506 9507 9508 9509 9510 9511 9512 9513 9514 9515 9516 9517 9518 9519 9520 9521 9522 9523 9524 9525 9526 9527 9528 9529 9530 9531 9532 9533 9534 9535 9536 9537 9538 9539 9540 9541 9542 9543 9544 9545 9546 9547 9548 9549 9550 9551 9552 9553 9554 9555 9556 9557 9558 9559 9560 9561 9562 9563 9564 9565 9566 9567 9568 9569 9570 9571 9572 9573 9574 9575 9576 9577 9578 9579 9580 9581 9582 9583 9584 9585 9586 9587 9588 9589 9590 9591 9592 9593 9594 9595 9596 9597 9598 9599 9600 9601 9602 9603 9604 9605 9606 9607 9608 9609 9610 9611 9612 9613 9614 9615 9616 9617 9618 9619 9620 9621 9622 9623 9624 9625 9626 9627 9628 9629 9630 9631 9632 9633 9634 9635 9636 9637 9638 9639 9640 9641 9642 9643 9644 9645 9646 9647 9648 9649 9650 9651 9652 9653 9654 9655 9656 9657 9658 9659 9660 9661 9662 9663 9664 9665 9666 9667 9668 9669 9670 9671 9672 9673 9674 9675 9676 9677 9678 9679 9680 9681 9682 9683 9684 9685 9686 9687 9688 9689 9690 9691 9692 9693 9694 9695 9696 9697 9698 9699 9700 9701 9702 9703 9704 9705 9706 9707 9708 9709 9710 9711 9712 9713 9714 9715 9716 9717 9718 9719 9720 9721 9722 9723 9724 9725 9726 9727 9728 9729 9730 9731 9732 9733 9734 9735 9736 9737 9738 9739 9740 9741 9742 9743 9744 9745 9746 9747 9748 9749 9750 9751 9752 9753 9754 9755 9756 9757 9758 9759 9760 9761 9762 9763 9764 9765 9766 9767 9768 9769 9770 9771 9772 9773 9774 9775 9776 9777 9778 9779 9780 9781 9782 9783 9784 9785 9786 9787 9788 9789 9790 9791 9792 9793 9794 9795 9796 9797 9798 9799 9800 9801 9802 9803 9804 9805 9806 9807 9808 9809 9810 9811 9812 9813 9814 9815 9816 9817 9818 9819 9820 9821 9822 9823 9824 9825 9826 9827 9828 9829 9830 9831 9832 9833 9834 9835 9836 9837 9838 9839 9840 9841 9842 9843 9844 9845 9846 9847 9848 9849 9850 9851 9852 9853 9854 9855 9856 9857 9858 9859 9860 9861 9862 9863 9864 9865 9866 9867 9868 9869 9870 9871 9872 9873 9874 9875 9876 9877 9878 9879 9880 9881 9882 9883 9884 9885 9886 9887 9888 9889 9890 9891 9892 9893 9894 9895 9896 9897 9898 9899 9900 9901 9902 9903 9904 9905 9906 9907 9908 9909 9910 9911 9912 9913 9914 9915 9916 9917 9918 9919 9920 9921 9922 9923 9924 9925 9926 9927 9928 9929 9930 9931 9932 9933 9934 9935 9936 9937 9938 9939 9940 9941 9942 9943 9944 9945 9946 9947 9948 9949 9950 9951 9952 9953 9954 9955 9956 9957 9958 9959 9960 9961 9962 9963 9964 9965 9966 9967 9968 9969 9970 9971 9972 9973 9974 9975 9976 9977 9978 9979 9980 9981 9982 9983 9984 9985 9986 9987 9988 9989 9990 9991 9992 9993 9994 9995 9996 9997 9998 9999 10000 10001 10002 10003 10004 10005 10006 10007 10008 10009 10010 10011 10012 10013 10014 10015 10016 10017 10018 10019 10020 10021 10022 10023 10024 10025 10026 10027 10028 10029 10030 10031 10032 10033 10034 10035 10036 10037 10038 10039 10040 10041 10042 10043 10044 10045 10046 10047 10048 10049 10050 10051 10052 10053 10054 10055 10056 10057 10058 10059 10060 10061 10062 10063 10064 10065 10066 10067 10068 10069 10070 10071 10072 10073 10074 10075 10076 10077 10078 10079 10080 10081 10082 10083 10084 10085 10086 10087 10088 10089 10090 10091 10092 10093 10094 10095 10096 10097 10098 10099 10100 10101 10102 10103 10104 10105 10106 10107 10108 10109 10110 10111 10112 10113 10114 10115 10116 10117 10118 10119 10120 10121 10122 10123 10124 10125 10126 10127 10128 10129 10130 10131 10132 10133 10134 10135 10136 10137 10138 10139 10140 10141 10142 10143 10144 10145 10146 10147 10148 10149 10150 10151 10152 10153 10154 10155 10156 10157 10158 10159 10160 10161 10162 10163 10164 10165 10166 10167 10168 10169 10170 10171 10172 10173 10174 10175 10176 10177 10178 10179 10180 10181 10182 10183 10184 10185 10186 10187 10188 10189 10190 10191 10192 10193 10194 10195 10196 10197 10198 10199 10200 10201 10202 10203 10204 10205 10206 10207 10208 10209 10210 10211 10212 10213 10214 10215 10216 10217 10218 10219 10220 10221 10222 10223 10224 10225 10226 10227 10228 10229 10230 10231 10232 10233 10234 10235 10236 10237 10238 10239 10240 10241 10242 10243 10244 10245 10246 10247 10248 10249 10250 10251 10252 10253 10254 10255 10256 10257 10258 10259 10260 10261 10262 10263 10264 10265 10266 10267 10268 10269 10270 10271 10272 10273 10274 10275 10276 10277 10278 10279 10280 10281 10282 10283 10284 10285 10286 10287 10288 10289 10290 10291 10292 10293 10294 10295 10296 10297 10298 10299 10300 10301 10302 10303 10304 10305 10306 10307 10308 10309 10310 10311 10312 10313 10314 10315 10316 10317 10318 10319 10320 10321 10322 10323 10324 10325 10326 10327 10328 10329 10330 10331 10332 10333 10334 10335 10336 10337 10338 10339 10340 10341 10342 10343 10344 10345 10346 10347 10348 10349 10350 10351 10352 10353 10354 10355 10356 10357 10358 10359 10360 10361 10362 10363 10364 10365 10366 10367 10368 10369 10370 10371 10372 10373 10374 10375 10376 10377 10378 10379 10380 10381 10382 10383 10384 10385 10386 10387 10388 10389 10390 10391 10392 10393 10394 10395 10396 10397 10398 10399 10400 10401 10402 10403 10404 10405 10406 10407 10408 10409 10410 10411 10412 10413 10414 10415 10416 10417 10418 10419 10420 10421 10422 10423 10424 10425 10426 10427 10428 10429 10430 10431 10432 10433 10434 10435 10436 10437 10438 10439 10440 10441 10442 10443 10444 10445 10446 10447 10448 10449 10450 10451 10452 10453 10454 10455 10456 10457 10458 10459 10460 10461 10462 10463 10464 10465 10466 10467 10468 10469 10470 10471 10472 10473 10474 10475 10476 10477 10478 10479 10480 10481 10482 10483 10484 10485 10486 10487 10488 10489 10490 10491 10492 10493 10494 10495 10496 10497 10498 10499 10500 10501 10502 10503 10504 10505 10506 10507 10508 10509 10510 10511 10512 10513 10514 10515 10516 10517 10518 10519 10520 10521 10522 10523 10524 10525 10526 10527 10528 10529 10530 10531 10532 10533 10534 10535 10536 10537 10538 10539 10540 10541 10542 10543 10544 10545 10546 10547 10548 10549 10550 10551 10552 10553 10554 10555 10556 10557 10558 10559 10560 10561 10562 10563 10564 10565 10566 10567 10568 10569 10570 10571 10572 10573 10574 10575 10576 10577 10578 10579 10580 10581 10582 10583 10584 10585 10586 10587 10588 10589 10590 10591 10592 10593 10594 10595 10596 10597 10598 10599 10600 10601 10602 10603 10604 10605 10606 10607 10608 10609 10610 10611 10612 10613 10614 10615 10616 10617 10618 10619 10620 10621 10622 10623 10624 10625 10626 10627 10628 10629 10630 10631 10632 10633 10634 10635 10636 10637 10638 10639 10640 10641 10642 10643 10644 10645 10646 10647 10648 10649 10650 10651 10652 10653 10654 10655 10656 10657 10658 10659 10660 10661 10662 10663 10664 10665 10666 10667 10668 10669 10670 10671 10672 10673 10674 10675 10676 10677 10678 10679 10680 10681 10682 10683 10684 10685 10686 10687 10688 10689 10690 10691 10692 10693 10694 10695 10696 10697 10698 10699 10700 10701 10702 10703 10704 10705 10706 10707 10708 10709 10710 10711 10712 10713 10714 10715 10716 10717 10718 10719 10720 10721 10722 10723 10724 10725 10726 10727 10728 10729 10730 10731 10732 10733 10734 10735 10736 10737 10738 10739 10740 10741 10742 10743 10744 10745 10746 10747 10748 10749 10750 10751 10752 10753 10754 10755 10756 10757 10758 10759 10760 10761 10762 10763 10764 10765 10766 10767 10768 10769 10770 10771 10772 10773 10774 10775 10776 10777 10778 10779 10780 10781 10782 10783 10784 10785 10786 10787 10788 10789 10790 10791 10792 10793 10794 10795 10796 10797 10798 10799 10800 10801 10802 10803 10804 10805 10806 10807 10808 10809 10810 10811 10812 10813 10814 10815 10816 10817 10818 10819 10820 10821 10822 10823 10824 10825 10826 10827 10828 10829 10830 10831 10832 10833 10834 10835 10836 10837 10838 10839 10840 10841 10842 10843 10844 10845 10846 10847 10848 10849 10850 10851 10852 10853 10854 10855 10856 10857 10858 10859 10860 10861 10862 10863 10864 10865 10866 10867 10868 10869 10870 10871 10872 10873 10874 10875 10876 10877 10878 10879 10880 10881 10882 10883 10884 10885 10886 10887 10888 10889 10890 10891 10892 10893 10894 10895 10896 10897 10898 10899 10900 10901 10902 10903 10904 10905 10906 10907 10908 10909 10910 10911 10912 10913 10914 10915 10916 10917 10918 10919 10920 10921 10922 10923 10924 10925 10926 10927 10928 10929 10930 10931 10932 10933 10934 10935 10936 10937 10938 10939 10940 10941 10942 10943 10944 10945 10946 10947 10948 10949 10950 10951 10952 10953 10954 10955 10956 10957 10958 10959 10960 10961 10962 10963 10964 10965 10966 10967 10968 10969 10970 10971 10972 10973 10974 10975 10976 10977 10978 10979 10980 10981 10982 10983 10984 10985 10986 10987 10988 10989 10990 10991 10992 10993 10994 10995 10996 10997 10998 10999 11000 11001 11002 11003 11004 11005 11006 11007 11008 11009 11010 11011 11012 11013 11014 11015 11016 11017 11018 11019 11020 11021 11022 11023 11024 11025 11026 11027 11028 11029 11030 11031 11032 11033 11034 11035 11036 11037 11038 11039 11040 11041 11042 11043 11044 11045 11046 11047 11048 11049 11050 11051 11052 11053 11054 11055 11056 11057 11058 11059 11060 11061 11062 11063 11064 11065 11066 11067 11068 11069 11070 11071 11072 11073 11074 11075 11076 11077 11078 11079 11080 11081 11082 11083 11084 11085 11086 11087 11088 11089 11090 11091 11092 11093 11094 11095 11096 11097 11098 11099 11100 11101 11102 11103 11104 11105 11106 11107 11108 11109 11110 11111 11112 11113 11114 11115 11116 11117 11118 11119 11120 11121 11122 11123 11124 11125 11126 11127 11128 11129 11130 11131 11132 11133 11134 11135 11136 11137 11138 11139 11140 11141 11142 11143 11144 11145 11146 11147 11148 11149 11150 11151 11152 11153 11154 11155 11156 11157 11158 11159 11160 11161 11162 11163 11164 11165 11166 11167 11168 11169 11170 11171 11172 11173 11174 11175 11176 11177 11178 11179 11180 11181 11182 11183 11184 11185 11186 11187 11188 11189 11190 11191 11192 11193 11194 11195 11196 11197 11198 11199 11200 11201 11202 11203 11204 11205 11206 11207 11208 11209 11210 11211 11212 11213 11214 11215 11216 11217 11218 11219 11220 11221 11222 11223 11224 11225 11226 11227 11228 11229 11230 11231 11232 11233 11234 11235 11236 11237 11238 11239 11240 11241 11242 11243 11244 11245 11246 11247 11248 11249 11250 11251 11252 11253 11254 11255 11256 11257 11258 11259 11260 11261 11262 11263 11264 11265 11266 11267 11268 11269 11270 11271 11272 11273 11274 11275 11276 11277 11278 11279 11280 11281 11282 11283 11284 11285 11286 11287 11288 11289 11290 11291 11292 11293 11294 11295 11296 11297 11298 11299 11300 11301 11302 11303 11304 11305 11306 11307 11308 11309 11310 11311 11312 11313 11314 11315 11316 11317 11318 11319 11320 11321 11322 11323 11324 11325 11326 11327 11328 11329 11330 11331 11332 11333 11334 11335 11336 11337 11338 11339 11340 11341 11342 11343 11344 11345 11346 11347 11348 11349 11350 11351 11352 11353 11354 11355 11356 11357 11358 11359 11360 11361 11362 11363 11364 11365 11366 11367 11368 11369 11370 11371 11372 11373 11374 11375 11376 11377 11378 11379 11380 11381 11382 11383 11384 11385 11386 11387 11388 11389 11390 11391 11392 11393 11394 11395 11396 11397 11398 11399 11400 11401 11402 11403 11404 11405 11406 11407 11408 11409 11410 11411 11412 11413 11414 11415 11416 11417 11418 11419 11420 11421 11422 11423 11424 11425 11426 11427 11428 11429 11430 11431 11432 11433 11434 11435 11436 11437 11438 11439 11440 11441 11442 11443 11444 11445 11446 11447 11448 11449 11450 11451 11452 11453 11454 11455 11456 11457 11458 11459 11460 11461 11462 11463 11464 11465 11466 11467 11468 11469 11470 11471 11472 11473 11474 11475 11476 11477 11478 11479 11480 11481 11482 11483 11484 11485 11486 11487 11488 11489 11490 11491 11492 11493 11494 11495 11496 11497 11498 11499 11500 11501 11502 11503 11504 11505 11506 11507 11508 11509 11510 11511 11512 11513 11514 11515 11516 11517 11518 11519 11520 11521 11522 11523 11524 11525 11526 11527 11528 11529 11530 11531 11532 11533 11534 11535 11536 11537 11538 11539 11540 11541 11542 11543 11544 11545 11546 11547 11548 11549 11550 11551 11552 11553 11554 11555 11556 11557 11558 11559 11560 11561 11562 11563 11564 11565 11566 11567 11568 11569 11570 11571 11572 11573 11574 11575 11576 11577 11578 11579 11580 11581 11582 11583 11584 11585 11586 11587 11588 11589 11590 11591 11592 11593 11594 11595 11596 11597 11598 11599 11600 11601 11602 11603 11604 11605 11606 11607 11608 11609 11610 11611 11612 11613 11614 11615 11616 11617 11618 11619 11620 11621 11622 11623 11624 11625 11626 11627 11628 11629 11630 11631 11632 11633 11634 11635 11636 11637 11638 11639 11640 11641 11642 11643 11644 11645 11646 11647 11648 11649 11650 11651 11652 11653 11654 11655 11656 11657 11658 11659 11660 11661 11662 11663 11664 11665 11666 11667 11668 11669 11670 11671 11672 11673 11674 11675 11676 11677 11678 11679 11680 11681 11682 11683 11684 11685 11686 11687 11688 11689 11690 11691 11692 11693 11694 11695 11696 11697 11698 11699 11700 11701 11702 11703 11704 11705 11706 11707 11708 11709 11710 11711 11712 11713 11714 11715 11716 11717 11718 11719 11720 11721 11722 11723 11724 11725 11726 11727 11728 11729 11730 11731 11732 11733 11734 11735 11736 11737 11738 11739 11740 11741 11742 11743 11744 11745 11746 11747 11748 11749 11750 11751 11752 11753 11754 11755 11756 11757 11758 11759 11760 11761 11762 11763 11764 11765 11766 11767 11768 11769 11770 11771 11772 11773 11774 11775 11776 11777 11778 11779 11780 11781 11782 11783 11784 11785 11786 11787 11788 11789 11790 11791 11792 11793 11794 11795 11796 11797 11798 11799 11800 11801 11802 11803 11804 11805 11806 11807 11808 11809 11810 11811 11812 11813 11814 11815 11816 11817 11818 11819 11820 11821 11822 11823 11824 11825 11826 11827 11828 11829 11830 11831 11832 11833 11834 11835 11836 11837 11838 11839 11840 11841 11842 11843 11844 11845 11846 11847 11848 11849 11850 11851 11852 11853 11854 11855 11856 11857 11858 11859 11860 11861 11862 11863 11864 11865 11866 11867 11868 11869 11870 11871 11872 11873 11874 11875 11876 11877 11878 11879 11880 11881 11882 11883 11884 11885 11886 11887 11888 11889 11890 11891 11892 11893 11894 11895 11896 11897 11898 11899 11900 11901 11902 11903 11904 11905 11906 11907 11908 11909 11910 11911 11912 11913 11914 11915 11916 11917 11918 11919 11920 11921 11922 11923 11924 11925 11926 11927 11928 11929 11930 11931 11932 11933 11934 11935 11936 11937 11938 11939 11940 11941 11942 11943 11944 11945 11946 11947 11948 11949 11950 11951 11952 11953 11954 11955 11956 11957 11958 11959 11960 11961 11962 11963 11964 11965 11966 11967 11968 11969 11970 11971 11972 11973 11974 11975 11976 11977 11978 11979 11980 11981 11982 11983 11984 11985 11986 11987 11988 11989 11990 11991 11992 11993 11994 11995 11996 11997 11998 11999 12000 12001 12002 12003 12004 12005 12006 12007 12008 12009 12010 12011 12012 12013 12014 12015 12016 12017 12018 12019 12020 12021 12022 12023 12024 12025 12026 12027 12028 12029 12030 12031 12032 12033 12034 12035 12036 12037 12038 12039 12040 12041 12042 12043 12044 12045 12046 12047 12048 12049 12050 12051 12052 12053 12054 12055 12056 12057 12058 12059 12060 12061 12062 12063 12064 12065 12066 12067 12068 12069 12070 12071 12072 12073 12074 12075 12076 12077 12078 12079 12080 12081 12082 12083 12084 12085 12086 12087 12088 12089 12090 12091 12092 12093 12094 12095 12096 12097 12098 12099 12100 12101 12102 12103 12104 12105 12106 12107 12108 12109 12110 12111 12112 12113 12114 12115 12116 12117 12118 12119 12120 12121 12122 12123 12124 12125 12126 12127 12128 12129 12130 12131 12132 12133 12134 12135 12136 12137 12138 12139 12140 12141 12142 12143 12144 12145 12146 12147 12148 12149 12150 12151 12152 12153 12154 12155 12156 12157 12158 12159 12160 12161 12162 12163 12164 12165 12166 12167 12168 12169 12170 12171 12172 12173 12174 12175 12176 12177 12178 12179 12180 12181 12182 12183 12184 12185 12186 12187 12188 12189 12190 12191 12192 12193 12194 12195 12196 12197 12198 12199 12200 12201 12202 12203 12204 12205 12206 12207 12208 12209 12210 12211 12212 12213 12214 12215 12216 12217 12218 12219 12220 12221 12222 12223 12224 12225 12226 12227 12228 12229 12230 12231 12232 12233 12234 12235 12236 12237 12238 12239 12240 12241 12242 12243 12244 12245 12246 12247 12248 12249 12250 12251 12252 12253 12254 12255 12256 12257 12258 12259 12260 12261 12262 12263 12264 12265 12266 12267 12268 12269 12270 12271 12272 12273 12274 12275 12276 12277 12278 12279 12280 12281 12282 12283 12284 12285 12286 12287 12288 12289 12290 12291 12292 12293 12294 12295 12296 12297 12298 12299 12300 12301 12302 12303 12304 12305 12306 12307 12308 12309 12310 12311 12312 12313 12314 12315 12316 12317 12318 12319 12320 12321 12322 12323 12324 12325 12326 12327 12328 12329 12330 12331 12332 12333 12334 12335 12336 12337 12338 12339 12340 12341 12342 12343 12344 12345 12346 12347 12348 12349 12350 12351 12352 12353 12354 12355 12356 12357 12358 12359 12360 12361 12362 12363 12364 12365 12366 12367 12368 12369 12370 12371 12372 12373 12374 12375 12376 12377 12378 12379 12380 12381 12382 12383 12384 12385 12386 12387 12388 12389 12390 12391 12392 12393 12394 12395 12396 12397 12398 12399 12400 12401 12402 12403 12404 12405 12406 12407 12408 12409 12410 12411 12412 12413 12414 12415 12416 12417 12418 12419 12420 12421 12422 12423 12424 12425 12426 12427 12428 12429 12430 12431 12432 12433 12434 12435 12436 12437 12438 12439 12440 12441 12442 12443 12444 12445 12446 12447 12448 12449 12450 12451 12452 12453 12454 12455 12456 12457 12458 12459 12460 12461 12462 12463 12464 12465 12466 12467 12468 12469 12470 12471 12472 12473 12474 12475 12476 12477 12478 12479 12480 12481 12482 12483 12484 12485 12486 12487 12488 12489 12490 12491 12492 12493 12494 12495 12496 12497 12498 12499 12500 12501 12502 12503 12504 12505 12506 12507 12508 12509 12510 12511 12512 12513 12514 12515 12516 12517 12518 12519 12520 12521 12522 12523 12524 12525 12526 12527 12528 12529 12530 12531 12532 12533 12534 12535 12536 12537 12538 12539 12540 12541 12542 12543 12544 12545 12546 12547 12548 12549 12550 12551 12552 12553 12554 12555 12556 12557 12558 12559 12560 12561 12562 12563 12564 12565 12566 12567 12568 12569 12570 12571 12572 12573 12574 12575 12576 12577 12578 12579 12580 12581 12582 12583 12584 12585 12586 12587 12588 12589 12590 12591 12592 12593 12594 12595 12596 12597 12598 12599 12600 12601 12602 12603 12604 12605 12606 12607 12608 12609 12610 12611 12612 12613 12614 12615 12616 12617 12618 12619 12620 12621 12622 12623 12624 12625 12626 12627 12628 12629 12630 12631 12632 12633 12634 12635 12636 12637 12638 12639 12640 12641 12642 12643 12644 12645 12646 12647 12648 12649 12650 12651 12652 12653 12654 12655 12656 12657 12658 12659 12660 12661 12662 12663 12664 12665 12666 12667 12668 12669 12670 12671 12672 12673 12674 12675 12676 12677 12678 12679 12680 12681 12682 12683 12684 12685 12686 12687 12688 12689 12690 12691 12692 12693 12694 12695 12696 12697 12698 12699 12700 12701 12702 12703 12704 12705 12706 12707 12708 12709 12710 12711 12712 12713 12714 12715 12716 12717 12718 12719 12720 12721 12722 12723 12724 12725 12726 12727 12728 12729 12730 12731 12732 12733 12734 12735 12736 12737 12738 12739 12740 12741 12742 12743 12744 12745 12746 12747 12748 12749 12750 12751 12752 12753 12754 12755 12756 12757 12758 12759 12760 12761 12762 12763 12764 12765 12766 12767 12768 12769 12770 12771 12772 12773 12774 12775 12776 12777 12778 12779 12780 12781 12782 12783 12784 12785 12786 12787 12788 12789 12790 12791 12792 12793 12794 12795 12796 12797 12798 12799 12800 12801 12802 12803 12804 12805 12806 12807 12808 12809 12810 12811 12812 12813 12814 12815 12816 12817 12818 12819 12820 12821 12822 12823 12824 12825 12826 12827 12828 12829 12830 12831 12832 12833 12834 12835 12836 12837 12838 12839 12840 12841 12842 12843 12844 12845 12846 12847 12848 12849 12850 12851 12852 12853 12854 12855 12856 12857 12858 12859 12860 12861 12862 12863 12864 12865 12866 12867 12868 12869 12870 12871 12872 12873 12874 12875 12876 12877 12878 12879 12880 12881 12882 12883 12884 12885 12886 12887 12888 12889 12890 12891 12892 12893 12894 12895 12896 12897 12898 12899 12900 12901 12902 12903 12904 12905 12906 12907 12908 12909 12910 12911 12912 12913 12914 12915 12916 12917 12918 12919 12920 12921 12922 12923 12924 12925 12926 12927 12928 12929 12930 12931 12932 12933 12934 12935 12936 12937 12938 12939 12940 12941 12942 12943 12944 12945 12946 12947 12948 12949 12950 12951 12952 12953 12954 12955 12956 12957 12958 12959 12960 12961 12962 12963 12964 12965 12966 12967 12968 12969 12970 12971 12972 12973 12974 12975 12976 12977 12978 12979 12980 12981 12982 12983 12984 12985 12986 12987 12988 12989 12990 12991 12992 12993 12994 12995 12996 12997 12998 12999 13000 13001 13002 13003 13004 13005 13006 13007 13008 13009 13010 13011 13012 13013 13014 13015 13016 13017 13018 13019 13020 13021 13022 13023 13024 13025 13026 13027 13028 13029 13030 13031 13032 13033 13034 13035 13036 13037 13038 13039 13040 13041 13042 13043 13044 13045 13046 13047 13048 13049 13050 13051 13052 13053 13054 13055 13056 13057 13058 13059 13060 13061 13062 13063 13064 13065 13066 13067 13068 13069 13070 13071 13072 13073 13074 13075 13076 13077 13078 13079 13080 13081 13082 13083 13084 13085 13086 13087 13088 13089 13090 13091 13092 13093 13094 13095 13096 13097 13098 13099 13100 13101 13102 13103 13104 13105 13106 13107 13108 13109 13110 13111 13112 13113 13114 13115 13116 13117 13118 13119 13120 13121 13122 13123 13124 13125 13126 13127 13128 13129 13130 13131 13132 13133 13134 13135 13136 13137 13138 13139 13140 13141 13142 13143 13144 13145 13146 13147 13148 13149 13150 13151 13152 13153 13154 13155 13156 13157 13158 13159 13160 13161 13162 13163 13164 13165 13166 13167 13168 13169 13170 13171 13172 13173 13174 13175 13176 13177 13178 13179 13180 13181 13182 13183 13184 13185 13186 13187 13188 13189 13190 13191 13192 13193 13194 13195 13196 13197 13198 13199 13200 13201 13202 13203 13204 13205 13206 13207 13208 13209 13210 13211 13212 13213 13214 13215 13216 13217 13218 13219 13220 13221 13222 13223 13224 13225 13226 13227 13228 13229 13230 13231 13232 13233 13234 13235 13236 13237 13238 13239 13240 13241 13242 13243 13244 13245 13246 13247 13248 13249 13250 13251 13252 13253 13254 13255 13256 13257 13258 13259 13260 13261 13262 13263 13264 13265 13266 13267 13268 13269 13270 13271 13272 13273 13274 13275 13276 13277 13278 13279 13280 13281 13282 13283 13284 13285 13286 13287 13288 13289 13290 13291 13292 13293 13294 13295 13296 13297 13298 13299 13300 13301 13302 13303 13304 13305 13306 13307 13308 13309 13310 13311 13312 13313 13314 13315 13316 13317 13318 13319 13320 13321 13322 13323 13324 13325 13326 13327 13328 13329 13330 13331 13332 13333 13334 13335 13336 13337 13338 13339 13340 13341 13342 13343 13344 13345 13346 13347 13348 13349 13350 13351 13352 13353 13354 13355 13356 13357 13358 13359 13360 13361 13362 13363 13364 13365 13366 13367 13368 13369 13370 13371 13372 13373 13374 13375 13376 13377 13378 13379 13380 13381 13382 13383 13384 13385 13386 13387 13388 13389 13390 13391 13392 13393 13394 13395 13396 13397 13398 13399 13400 13401 13402 13403 13404 13405 13406 13407 13408 13409 13410 13411 13412 13413 13414 13415 13416 13417 13418 13419 13420 13421 13422 13423 13424 13425 13426 13427 13428 13429 13430 13431 13432 13433 13434 13435 13436 13437 13438 13439 13440 13441 13442 13443 13444 13445 13446 13447 13448 13449 13450 13451 13452 13453 13454 13455 13456 13457 13458 13459 13460 13461 13462 13463 13464 13465 13466 13467 13468 13469 13470 13471 13472 13473 13474 13475 13476 13477 13478 13479 13480 13481 13482 13483 13484 13485 13486 13487 13488 13489 13490 13491 13492 13493 13494 13495 13496 13497 13498 13499 13500 13501 13502 13503 13504 13505 13506 13507 13508 13509 13510 13511 13512 13513 13514 13515 13516 13517 13518 13519 13520 13521 13522 13523 13524 13525 13526 13527 13528 13529 13530 13531 13532 13533 13534 13535 13536 13537 13538 13539 13540 13541 13542 13543 13544 13545 13546 13547 13548 13549 13550 13551 13552 13553 13554 13555 13556 13557 13558 13559 13560 13561 13562 13563 13564 13565 13566 13567 13568 13569 13570 13571 13572 13573 13574 13575 13576 13577 13578 13579 13580 13581 13582 13583 13584 13585 13586 13587 13588 13589 13590 13591 13592 13593 13594 13595 13596 13597 13598 13599 13600 13601 13602 13603 13604 13605 13606 13607 13608 13609 13610 13611 13612 13613 13614 13615 13616 13617 13618 13619 13620 13621 13622 13623 13624 13625 13626 13627 13628 13629 13630 13631 13632 13633 13634 13635 13636 13637 13638 13639 13640 13641 13642 13643 13644 13645 13646 13647 13648 13649 13650 13651 13652 13653 13654 13655 13656 13657 13658 13659 13660 13661 13662 13663 13664 13665 13666 13667 13668 13669 13670 13671 13672 13673 13674 13675 13676 13677 13678 13679 13680 13681 13682 13683 13684 13685 13686 13687 13688 13689 13690 13691 13692 13693 13694 13695 13696 13697 13698 13699 13700 13701 13702 13703 13704 13705 13706 13707 13708 13709 13710 13711 13712 13713 13714 13715 13716 13717 13718 13719 13720 13721 13722 13723 13724 13725 13726 13727 13728 13729 13730 13731 13732 13733 13734 13735 13736 13737 13738 13739 13740 13741 13742 13743 13744 13745 13746 13747 13748 13749 13750 13751 13752 13753 13754 13755 13756 13757 13758 13759 13760 13761 13762 13763 13764 13765 13766 13767 13768 13769 13770 13771 13772 13773 13774 13775 13776 13777 13778 13779 13780 13781 13782 13783 13784 13785 13786 13787 13788 13789 13790 13791 13792 13793 13794 13795 13796 13797 13798 13799 13800 13801 13802 13803 13804 13805 13806 13807 13808 13809 13810 13811 13812 13813 13814 13815 13816 13817 13818 13819 13820 13821 13822 13823 13824 13825 13826 13827 13828 13829 13830 13831 13832 13833 13834 13835 13836 13837 13838 13839 13840 13841 13842 13843 13844 13845 13846 13847 13848 13849 13850 13851 13852 13853 13854 13855 13856 13857 13858 13859 13860 13861 13862 13863 13864 13865 13866 13867 13868 13869 13870 13871 13872 13873 13874 13875 13876 13877 13878 13879 13880 13881 13882 13883 13884 13885 13886 13887 13888 13889 13890 13891 13892 13893 13894 13895 13896 13897 13898 13899 13900 13901 13902 13903 13904 13905 13906 13907 13908 13909 13910 13911 13912 13913 13914 13915 13916 13917 13918 13919 13920 13921 13922 13923 13924 13925 13926 13927 13928 13929 13930 13931 13932 13933 13934 13935 13936 13937 13938 13939 13940 13941 13942 13943 13944 13945 13946 13947 13948 13949 13950 13951 13952 13953 13954 13955 13956 13957 13958 13959 13960 13961 13962 13963 13964 13965 13966 13967 13968 13969 13970 13971 13972 13973 13974 13975 13976 13977 13978 13979 13980 13981 13982 13983 13984 13985 13986 13987 13988 13989 13990 13991 13992 13993 13994 13995 13996 13997 13998 13999 14000 14001 14002 14003 14004 14005 14006 14007 14008 14009 14010 14011 14012 14013 14014 14015 14016 14017 14018 14019 14020 14021 14022 14023 14024 14025 14026 14027 14028 14029 14030 14031 14032 14033 14034 14035 14036 14037 14038 14039 14040 14041 14042 14043 14044 14045 14046 14047 14048 14049 14050 14051 14052 14053 14054 14055 14056 14057 14058 14059 14060 14061 14062 14063 14064 14065 14066 14067 14068 14069 14070 14071 14072 14073 14074 14075 14076 14077 14078 14079 14080 14081 14082 14083 14084 14085 14086 14087 14088 14089 14090 14091 14092 14093 14094 14095 14096 14097 14098 14099 14100 14101 14102 14103 14104 14105 14106 14107 14108 14109 14110 14111 14112 14113 14114 14115 14116 14117 14118 14119 14120 14121 14122 14123 14124 14125 14126 14127 14128 14129 14130 14131 14132 14133 14134 14135 14136 14137 14138 14139 14140 14141 14142 14143 14144 14145 14146 14147 14148 14149 14150 14151 14152 14153 14154 14155 14156 14157 14158 14159 14160 14161 14162 14163 14164 14165 14166 14167 14168 14169 14170 14171 14172 14173 14174 14175 14176 14177 14178 14179 14180 14181 14182 14183 14184 14185 14186 14187 14188 14189 14190 14191 14192 14193 14194 14195 14196 14197 14198 14199 14200 14201 14202 14203 14204 14205 14206 14207 14208 14209 14210 14211 14212 14213 14214 14215 14216 14217 14218 14219 14220 14221 14222 14223 14224 14225 14226 14227 14228 14229 14230 14231 14232 14233 14234 14235 14236 14237 14238 14239 14240 14241 14242 14243 14244 14245 14246 14247 14248 14249 14250 14251 14252 14253 14254 14255 14256 14257 14258 14259 14260 14261 14262 14263 14264 14265 14266 14267 14268 14269 14270 14271 14272 14273 14274 14275 14276 14277 14278 14279 14280 14281 14282 14283 14284 14285 14286 14287 14288 14289 14290 14291 14292 14293 14294 14295 14296 14297 14298 14299 14300 14301 14302 14303 14304 14305 14306 14307 14308 14309 14310 14311 14312 14313 14314 14315 14316 14317 14318 14319 14320 14321 14322 14323 14324 14325 14326 14327 14328 14329 14330 14331 14332 14333 14334 14335 14336 14337 14338 14339 14340 14341 14342 14343 14344 14345 14346 14347 14348 14349 14350 14351 14352 14353 14354 14355 14356 14357 14358 14359 14360 14361 14362 14363 14364 14365 14366 14367 14368 14369 14370 14371 14372 14373 14374 14375 14376 14377 14378 14379 14380 14381 14382 14383 14384 14385 14386 14387 14388 14389 14390 14391 14392 14393 14394 14395 14396 14397 14398 14399 14400 14401 14402 14403 14404 14405 14406 14407 14408 14409 14410 14411 14412 14413 14414 14415 14416 14417 14418 14419 14420 14421 14422 14423 14424 14425 14426 14427 14428 14429 14430 14431 14432 14433 14434 14435 14436 14437 14438 14439 14440 14441 14442 14443 14444 14445 14446 14447 14448 14449 14450 14451 14452 14453 14454 14455 14456 14457 14458 14459 14460 14461 14462 14463 14464 14465 14466 14467 14468 14469 14470 14471 14472 14473 14474 14475 14476 14477 14478 14479 14480 14481 14482 14483 14484 14485 14486 14487 14488 14489 14490 14491 14492 14493 14494 14495 14496 14497 14498 14499 14500 14501 14502 14503 14504 14505 14506 14507 14508 14509 14510 14511 14512 14513 14514 14515 14516 14517 14518 14519 14520 14521 14522 14523 14524 14525 14526 14527 14528 14529 14530 14531 14532 14533 14534 14535 14536 14537 14538 14539 14540 14541 14542 14543 14544 14545 14546 14547 14548 14549 14550 14551 14552 14553 14554 14555 14556 14557 14558 14559 14560 14561 14562 14563 14564 14565 14566 14567 14568 14569 14570 14571 14572 14573 14574 14575 14576 14577 14578 14579 14580 14581 14582 14583 14584 14585 14586 14587 14588 14589 14590 14591 14592 14593 14594 14595 14596 14597 14598 14599 14600 14601 14602 14603 14604 14605 14606 14607 14608 14609 14610 14611 14612 14613 14614 14615 14616 14617 14618 14619 14620 14621 14622 14623 14624 14625 14626 14627 14628 14629 14630 14631 14632 14633 14634 14635 14636 14637 14638 14639 14640 14641 14642 14643 14644 14645 14646 14647 14648 14649 14650 14651 14652 14653 14654 14655 14656 14657 14658 14659 14660 14661 14662 14663 14664 14665 14666 14667 14668 14669 14670 14671 14672 14673 14674 14675 14676 14677 14678 14679 14680 14681 14682 14683 14684 14685 14686 14687 14688 14689 14690 14691 14692 14693 14694 14695 14696 14697 14698 14699 14700 14701 14702 14703 14704 14705 14706 14707 14708 14709 14710 14711 14712 14713 14714 14715 14716 14717 14718 14719 14720 14721 14722 14723 14724 14725 14726 14727 14728 14729 14730 14731 14732 14733 14734 14735 14736 14737 14738 14739 14740 14741 14742 14743 14744 14745 14746 14747 14748 14749 14750 14751 14752 14753 14754 14755 14756 14757 14758 14759 14760 14761 14762 14763 14764 14765 14766 14767 14768 14769 14770 14771 14772 14773 14774 14775 14776 14777 14778 14779 14780 14781 14782 14783 14784 14785 14786 14787 14788 14789 14790 14791 14792 14793 14794 14795 14796 14797 14798 14799 14800 14801 14802 14803 14804 14805 14806 14807 14808 14809 14810 14811 14812 14813 14814 14815 14816 14817 14818 14819 14820 14821 14822 14823 14824 14825 14826 14827 14828 14829 14830 14831 14832 14833 14834 14835 14836 14837 14838 14839 14840 14841 14842 14843 14844 14845 14846 14847 14848 14849 14850 14851 14852 14853 14854 14855 14856 14857 14858 14859 14860 14861 14862 14863 14864 14865 14866 14867 14868 14869 14870 14871 14872 14873 14874 14875 14876 14877 14878 14879 14880 14881 14882 14883 14884 14885 14886 14887 14888 14889 14890 14891 14892 14893 14894 14895 14896 14897 14898 14899 14900 14901 14902 14903 14904 14905 14906 14907 14908 14909 14910 14911 14912 14913 14914 14915 14916 14917 14918 14919 14920 14921 14922 14923 14924 14925 14926 14927 14928 14929 14930 14931 14932 14933 14934 14935 14936 14937 14938 14939 14940 14941 14942 14943 14944 14945 14946 14947 14948 14949 14950 14951 14952 14953 14954 14955 14956 14957 14958 14959 14960 14961 14962 14963 14964 14965 14966 14967 14968 14969 14970 14971 14972 14973 14974 14975 14976 14977 14978 14979 14980 14981 14982 14983 14984 14985 14986 14987 14988 14989 14990 14991 14992 14993 14994 14995 14996 14997 14998 14999 15000 15001 15002 15003 15004 15005 15006 15007 15008 15009 15010 15011 15012 15013 15014 15015 15016 15017 15018 15019 15020 15021 15022 15023 15024 15025 15026 15027 15028 15029 15030 15031 15032 15033 15034 15035 15036 15037 15038 15039 15040 15041 15042 15043 15044 15045 15046 15047 15048 15049 15050 15051 15052 15053 15054 15055 15056 15057 15058 15059 15060 15061 15062 15063 15064 15065 15066 15067 15068 15069 15070 15071 15072 15073 15074 15075 15076 15077 15078 15079 15080 15081 15082 15083 15084 15085 15086 15087 15088 15089 15090 15091 15092 15093 15094 15095 15096 15097 15098 15099 15100 15101 15102 15103 15104 15105 15106 15107 15108 15109 15110 15111 15112 15113 15114 15115 15116 15117 15118 15119 15120 15121 15122 15123 15124 15125 15126 15127 15128 15129 15130 15131 15132 15133 15134 15135 15136 15137 15138 15139 15140 15141 15142 15143 15144 15145 15146 15147 15148 15149 15150 15151 15152 15153 15154 15155 15156 15157 15158 15159 15160 15161 15162 15163 15164 15165 15166 15167 15168 15169 15170 15171 15172 15173 15174 15175 15176 15177 15178 15179 15180 15181 15182 15183 15184 15185 15186 15187 15188 15189 15190 15191 15192 15193 15194 15195 15196 15197 15198 15199 15200 15201 15202 15203 15204 15205 15206 15207 15208 15209 15210 15211 15212 15213 15214 15215 15216 15217 15218 15219 15220 15221 15222 15223 15224 15225 15226 15227 15228 15229 15230 15231 15232 15233 15234 15235 15236 15237 15238 15239 15240 15241 15242 15243 15244 15245 15246 15247 15248 15249 15250 15251 15252 15253 15254 15255 15256 15257 15258 15259 15260 15261 15262 15263 15264 15265 15266 15267 15268 15269 15270 15271 15272 15273 15274 15275 15276 15277 15278 15279 15280 15281 15282 15283 15284 15285 15286 15287 15288 15289 15290 15291 15292 15293 15294 15295 15296 15297 15298 15299 15300 15301 15302 15303 15304 15305 15306 15307 15308 15309 15310 15311 15312 15313 15314 15315 15316 15317 15318 15319 15320 15321 15322 15323 15324 15325 15326 15327 15328 15329 15330 15331 15332 15333 15334 15335 15336 15337 15338 15339 15340 15341 15342 15343 15344 15345 15346 15347 15348 15349 15350 15351 15352 15353 15354 15355 15356 15357 15358 15359 15360 15361 15362 15363 15364 15365 15366 15367 15368 15369 15370 15371 15372 15373 15374 15375 15376 15377 15378 15379 15380 15381 15382 15383 15384 15385 15386 15387 15388 15389 15390 15391 15392 15393 15394 15395 15396 15397 15398 15399 15400 15401 15402 15403 15404 15405 15406 15407 15408 15409 15410 15411 15412 15413 15414 15415 15416 15417 15418 15419 15420 15421 15422 15423 15424 15425 15426 15427 15428 15429 15430 15431 15432 15433 15434 15435 15436 15437 15438 15439 15440 15441 15442 15443 15444 15445 15446 15447 15448 15449 15450 15451 15452 15453 15454 15455 15456 15457 15458 15459 15460 15461 15462 15463 15464 15465 15466 15467 15468 15469 15470 15471 15472 15473 15474 15475 15476 15477 15478 15479 15480 15481 15482 15483 15484 15485 15486 15487 15488 15489 15490 15491 15492 15493 15494 15495 15496 15497 15498 15499 15500 15501 15502 15503 15504 15505 15506 15507 15508 15509 15510 15511 15512 15513 15514 15515 15516 15517 15518 15519 15520 15521 15522 15523 15524 15525 15526 15527 15528 15529 15530 15531 15532 15533 15534 15535 15536 15537 15538 15539 15540 15541 15542 15543 15544 15545 15546 15547 15548 15549 15550 15551 15552 15553 15554 15555 15556 15557 15558 15559 15560 15561 15562 15563 15564 15565 15566 15567 15568 15569 15570 15571 15572 15573 15574 15575 15576 15577 15578 15579 15580 15581 15582 15583 15584 15585 15586 15587 15588 15589 15590 15591 15592 15593 15594 15595 15596 15597 15598 15599 15600 15601 15602 15603 15604 15605 15606 15607 15608 15609 15610 15611 15612 15613 15614 15615 15616 15617 15618 15619 15620 15621 15622 15623 15624 15625 15626 15627 15628 15629 15630 15631 15632 15633 15634 15635 15636 15637 15638 15639 15640 15641 15642 15643 15644 15645 15646 15647 15648 15649 15650 15651 15652 15653 15654 15655 15656 15657 15658 15659 15660 15661 15662 15663 15664 15665 15666 15667 15668 15669 15670 15671 15672 15673 15674 15675 15676 15677 15678 15679 15680 15681 15682 15683 15684 15685 15686 15687 15688 15689 15690 15691 15692 15693 15694 15695 15696 15697 15698 15699 15700 15701 15702 15703 15704 15705 15706 15707 15708 15709 15710 15711 15712 15713 15714 15715 15716 15717 15718 15719 15720 15721 15722 15723 15724 15725 15726 15727 15728 15729 15730 15731 15732 15733 15734 15735 15736 15737 15738 15739 15740 15741 15742 15743 15744 15745 15746 15747 15748 15749 15750 15751 15752 15753 15754 15755 15756 15757 15758 15759 15760 15761 15762 15763 15764 15765 15766 15767 15768 15769 15770 15771 15772 15773 15774 15775 15776 15777 15778 15779 15780 15781 15782 15783 15784 15785 15786 15787 15788 15789 15790 15791 15792 15793 15794 15795 15796 15797 15798 15799 15800 15801 15802 15803 15804 15805 15806 15807 15808 15809 15810 15811 15812 15813 15814 15815 15816 15817 15818 15819 15820 15821 15822 15823 15824 15825 15826 15827 15828 15829 15830 15831 15832 15833 15834 15835 15836 15837 15838 15839 15840 15841 15842 15843 15844 15845 15846 15847 15848 15849 15850 15851 15852 15853 15854 15855 15856 15857 15858 15859 15860 15861 15862 15863 15864 15865 15866 15867 15868 15869 15870 15871 15872 15873 15874 15875 15876 15877 15878 15879 15880 15881 15882 15883 15884 15885 15886 15887 15888 15889 15890 15891 15892 15893 15894 15895 15896 15897 15898 15899 15900 15901 15902 15903 15904 15905 15906 15907 15908 15909 15910 15911 15912 15913 15914 15915 15916 15917 15918 15919 15920 15921 15922 15923 15924 15925 15926 15927 15928 15929 15930 15931 15932 15933 15934 15935 15936 15937 15938 15939 15940 15941 15942 15943 15944 15945 15946 15947 15948 15949 15950 15951 15952 15953 15954 15955 15956 15957 15958 15959 15960 15961 15962 15963 15964 15965 15966 15967 15968 15969 15970 15971 15972 15973 15974 15975 15976 15977 15978 15979 15980 15981 15982 15983 15984 15985 15986 15987 15988 15989 15990 15991 15992 15993 15994 15995 15996 15997 15998 15999 16000 16001 16002 16003 16004 16005 16006 16007 16008 16009 16010 16011 16012 16013 16014 16015 16016 16017 16018 16019 16020 16021 16022 16023 16024 16025 16026 16027 16028 16029 16030 16031 16032 16033 16034 16035 16036 16037 16038 16039 16040 16041 16042 16043 16044 16045 16046 16047 16048 16049 16050 16051 16052 16053 16054 16055 16056 16057 16058 16059 16060 16061 16062 16063 16064 16065 16066 16067 16068 16069 16070 16071 16072 16073 16074 16075 16076 16077 16078 16079 16080 16081 16082 16083 16084 16085 16086 16087 16088 16089 16090 16091 16092 16093 16094 16095 16096 16097 16098 16099 16100 16101 16102 16103 16104 16105 16106 16107 16108 16109 16110 16111 16112 16113 16114 16115 16116 16117 16118 16119 16120 16121 16122 16123 16124 16125 16126 16127 16128 16129 16130 16131 16132 16133 16134 16135 16136 16137 16138 16139 16140 16141 16142 16143 16144 16145 16146 16147 16148 16149 16150 16151 16152 16153 16154 16155 16156 16157 16158 16159 16160 16161 16162 16163 16164 16165 16166 16167 16168 16169 16170 16171 16172 16173 16174 16175 16176 16177 16178 16179 16180 16181 16182 16183 16184 16185 16186 16187 16188 16189 16190 16191 16192 16193 16194 16195 16196 16197 16198 16199 16200 16201 16202 16203 16204 16205 16206 16207 16208 16209 16210 16211 16212 16213 16214 16215 16216 16217 16218 16219 16220 16221 16222 16223 16224 16225 16226 16227 16228 16229 16230 16231 16232 16233 16234 16235 16236 16237 16238 16239 16240 16241 16242 16243 16244 16245 16246 16247 16248 16249 16250 16251 16252 16253 16254 16255 16256 16257 16258 16259 16260 16261 16262 16263 16264 16265 16266 16267 16268 16269 16270 16271 16272 16273 16274 16275 16276 16277 16278 16279 16280 16281 16282 16283 16284 16285 16286 16287 16288 16289 16290 16291 16292 16293 16294 16295 16296 16297 16298 16299 16300 16301 16302 16303 16304 16305 16306 16307 16308 16309 16310 16311 16312 16313 16314 16315 16316 16317 16318 16319 16320 16321 16322 16323 16324 16325 16326 16327 16328 16329 16330 16331 16332 16333 16334 16335 16336 16337 16338 16339 16340 16341 16342 16343 16344 16345 16346 16347 16348 16349 16350 16351 16352 16353 16354 16355 16356 16357 16358 16359 16360 16361 16362 16363 16364 16365 16366 16367 16368 16369 16370 16371 16372 16373 16374 16375 16376 16377 16378 16379 16380 16381 16382 16383 16384 16385 16386 16387 16388 16389 16390 16391 16392 16393 16394 16395 16396 16397 16398 16399 16400 16401 16402 16403 16404 16405 16406 16407 16408 16409 16410 16411 16412 16413 16414 16415 16416 16417 16418 16419 16420 16421 16422 16423 16424 16425 16426 16427 16428 16429 16430 16431 16432 16433 16434 16435 16436 16437 16438 16439 16440 16441 16442 16443 16444 16445 16446 16447 16448 16449 16450 16451 16452 16453 16454 16455 16456 16457 16458 16459 16460 16461 16462 16463 16464 16465 16466 16467 16468 16469 16470 16471 16472 16473 16474 16475 16476 16477 16478 16479 16480 16481 16482 16483 16484 16485 16486 16487 16488 16489 16490 16491 16492 16493 16494 16495 16496 16497 16498 16499 16500 16501 16502 16503 16504 16505 16506 16507 16508 16509 16510 16511 16512 16513 16514 16515 16516 16517 16518 16519 16520 16521 16522 16523 16524 16525 16526 16527 16528 16529 16530 16531 16532 16533 16534 16535 16536 16537 16538 16539 16540 16541 16542 16543 16544 16545 16546 16547 16548 16549 16550 16551 16552 16553 16554 16555 16556 16557 16558 16559 16560 16561 16562 16563 16564 16565 16566 16567 16568 16569 16570 16571 16572 16573 16574 16575 16576 16577 16578 16579 16580 16581 16582 16583 16584 16585 16586 16587 16588 16589 16590 16591 16592 16593 16594 16595 16596 16597 16598 16599 16600 16601 16602 16603 16604 16605 16606 16607 16608 16609 16610 16611 16612 16613 16614 16615 16616 16617 16618 16619 16620 16621 16622 16623 16624 16625 16626 16627 16628 16629 16630 16631 16632 16633 16634 16635 16636 16637 16638 16639 16640 16641 16642 16643 16644 16645 16646 16647 16648 16649 16650 16651 16652 16653 16654 16655 16656 16657 16658 16659 16660 16661 16662 16663 16664 16665 16666 16667 16668 16669 16670 16671 16672 16673 16674 16675 16676 16677 16678 16679 16680 16681 16682 16683 16684 16685 16686 16687 16688 16689 16690 16691 16692 16693 16694 16695 16696 16697 16698 16699 16700 16701 16702 16703 16704 16705 16706 16707 16708 16709 16710 16711 16712 16713 16714 16715 16716 16717 16718 16719 16720 16721 16722 16723 16724 16725 16726 16727 16728 16729 16730 16731 16732 16733 16734 16735 16736 16737 16738 16739 16740 16741 16742 16743 16744 16745 16746 16747 16748 16749 16750 16751 16752 16753 16754 16755 16756 16757 16758 16759 16760 16761 16762 16763 16764 16765 16766 16767 16768 16769 16770 16771 16772 16773 16774 16775 16776 16777 16778 16779 16780 16781 16782 16783 16784 16785 16786 16787 16788 16789 16790 16791 16792 16793 16794 16795 16796 16797 16798 16799 16800 16801 16802 16803 16804 16805 16806 16807 16808 16809 16810 16811 16812 16813 16814 16815 16816 16817 16818 16819 16820 16821 16822 16823 16824 16825 16826 16827 16828 16829 16830 16831 16832 16833 16834 16835 16836 16837 16838 16839 16840 16841 16842 16843 16844 16845 16846 16847 16848 16849 16850 16851 16852 16853 16854 16855 16856 16857 16858 16859 16860 16861 16862 16863 16864 16865 16866 16867 16868 16869 16870 16871 16872 16873 16874 16875 16876 16877 16878 16879 16880 16881 16882 16883 16884 16885 16886 16887 16888 16889 16890 16891 16892 16893 16894 16895 16896 16897 16898 16899 16900 16901 16902 16903 16904 16905 16906 16907 16908 16909 16910 16911 16912 16913 16914 16915 16916 16917 16918 16919 16920 16921 16922 16923 16924 16925 16926 16927 16928 16929 16930 16931 16932 16933 16934 16935 16936 16937 16938 16939 16940 16941 16942 16943 16944 16945 16946 16947 16948 16949 16950 16951 16952 16953 16954 16955 16956 16957 16958 16959 16960 16961 16962 16963 16964 16965 16966 16967 16968 16969 16970 16971 16972 16973 16974 16975 16976 16977 16978 16979 16980 16981 16982 16983 16984 16985 16986 16987 16988 16989 16990 16991 16992 16993 16994 16995 16996 16997 16998 16999 17000 17001 17002 17003 17004 17005 17006 17007 17008 17009 17010 17011 17012 17013 17014 17015 17016 17017 17018 17019 17020 17021 17022 17023 17024 17025 17026 17027 17028 17029 17030 17031 17032 17033 17034 17035 17036 17037 17038 17039 17040 17041 17042 17043 17044 17045 17046 17047 17048 17049 17050 17051 17052 17053 17054 17055 17056 17057 17058 17059 17060 17061 17062 17063 17064 17065 17066 17067 17068 17069 17070 17071 17072 17073 17074 17075 17076 17077 17078 17079 17080 17081 17082 17083 17084 17085 17086 17087 17088 17089 17090 17091 17092 17093 17094 17095 17096 17097 17098 17099 17100 17101 17102 17103 17104 17105 17106 17107 17108 17109 17110 17111 17112 17113 17114 17115 17116 17117 17118 17119 17120 17121 17122 17123 17124 17125 17126 17127 17128 17129 17130 17131 17132 17133 17134 17135 17136 17137 17138 17139 17140 17141 17142 17143 17144 17145 17146 17147 17148 17149 17150 17151 17152 17153 17154 17155 17156 17157 17158 17159 17160 17161 17162 17163 17164 17165 17166 17167 17168 17169 17170 17171 17172 17173 17174 17175 17176 17177 17178 17179 17180 17181 17182 17183 17184 17185 17186 17187 17188 17189 17190 17191 17192 17193 17194 17195 17196 17197 17198 17199 17200 17201 17202 17203 17204 17205 17206 17207 17208 17209 17210 17211 17212 17213 17214 17215 17216 17217 17218 17219 17220 17221 17222 17223 17224 17225 17226 17227 17228 17229 17230 17231 17232 17233 17234 17235 17236 17237 17238 17239 17240 17241 17242 17243 17244 17245 17246 17247 17248 17249 17250 17251 17252 17253 17254 17255 17256 17257 17258 17259 17260 17261 17262 17263 17264 17265 17266 17267 17268 17269 17270 17271 17272 17273 17274 17275 17276 17277 17278 17279 17280 17281 17282 17283 17284 17285 17286 17287 17288 17289 17290 17291 17292 17293 17294 17295 17296 17297 17298 17299 17300 17301 17302 17303 17304 17305 17306 17307 17308 17309 17310 17311 17312 17313 17314 17315 17316 17317 17318 17319 17320 17321 17322 17323 17324 17325 17326 17327 17328 17329 17330 17331 17332 17333 17334 17335 17336 17337 17338 17339 17340 17341 17342 17343 17344 17345 17346 17347 17348 17349 17350 17351 17352 17353 17354 17355 17356 17357 17358 17359 17360 17361 17362 17363 17364 17365 17366 17367 17368 17369 17370 17371 17372 17373 17374 17375 17376 17377 17378 17379 17380 17381 17382 17383 17384 17385 17386 17387 17388 17389 17390 17391 17392 17393 17394 17395 17396 17397 17398 17399 17400 17401 17402 17403 17404 17405 17406 17407 17408 17409 17410 17411 17412 17413 17414 17415 17416 17417 17418 17419 17420 17421 17422 17423 17424 17425 17426 17427 17428 17429 17430 17431 17432 17433 17434 17435 17436 17437 17438 17439 17440 17441 17442 17443 17444 17445 17446 17447 17448 17449 17450 17451 17452 17453 17454 17455 17456 17457 17458 17459 17460 17461 17462 17463 17464 17465 17466 17467 17468 17469 17470 17471 17472 17473 17474 17475 17476 17477 17478 17479 17480 17481 17482 17483 17484 17485 17486 17487 17488 17489 17490 17491 17492 17493 17494 17495 17496 17497 17498 17499 17500 17501 17502 17503 17504 17505 17506 17507 17508 17509 17510 17511 17512 17513 17514 17515 17516 17517 17518 17519 17520 17521 17522 17523 17524 17525 17526 17527 17528 17529 17530 17531 17532 17533 17534 17535 17536 17537 17538 17539 17540 17541 17542 17543 17544 17545 17546 17547 17548 17549 17550 17551 17552 17553 17554 17555 17556 17557 17558 17559 17560 17561 17562 17563 17564 17565 17566 17567 17568 17569 17570 17571 17572 17573 17574 17575 17576 17577 17578 17579 17580 17581 17582 17583 17584 17585 17586 17587 17588 17589 17590 17591 17592 17593 17594 17595 17596 17597 17598 17599 17600 17601 17602 17603 17604 17605 17606 17607 17608 17609 17610 17611 17612 17613 17614 17615 17616 17617 17618 17619 17620 17621 17622 17623 17624 17625 17626 17627 17628 17629 17630 17631 17632 17633 17634 17635 17636 17637 17638 17639 17640 17641 17642 17643 17644 17645 17646 17647 17648 17649 17650 17651 17652 17653 17654 17655 17656 17657 17658 17659 17660 17661 17662 17663 17664 17665 17666 17667 17668 17669 17670 17671 17672 17673 17674 17675 17676 17677 17678 17679 17680 17681 17682 17683 17684 17685 17686 17687 17688 17689 17690 17691 17692 17693 17694 17695 17696 17697 17698 17699 17700 17701 17702 17703 17704 17705 17706 17707 17708 17709 17710 17711 17712 17713 17714 17715 17716 17717 17718 17719 17720 17721 17722 17723 17724 17725 17726 17727 17728 17729 17730 17731 17732 17733 17734 17735 17736 17737 17738 17739 17740 17741 17742 17743 17744 17745 17746 17747 17748 17749 17750 17751 17752 17753 17754 17755 17756 17757 17758 17759 17760 17761 17762 17763 17764 17765 17766 17767 17768 17769 17770 17771 17772 17773 17774 17775 17776 17777 17778 17779 17780 17781 17782 17783 17784 17785 17786 17787 17788 17789 17790 17791 17792 17793 17794 17795 17796 17797 17798 17799 17800 17801 17802 17803 17804 17805 17806 17807 17808 17809 17810 17811 17812 17813 17814 17815 17816 17817 17818 17819 17820 17821 17822 17823 17824 17825 17826 17827 17828 17829 17830 17831 17832 17833 17834 17835 17836 17837 17838 17839 17840 17841 17842 17843 17844 17845 17846 17847 17848 17849 17850 17851 17852 17853 17854 17855 17856 17857 17858 17859 17860 17861 17862 17863 17864 17865 17866 17867 17868 17869 17870 17871 17872 17873 17874 17875 17876 17877 17878 17879 17880 17881 17882 17883 17884 17885 17886 17887 17888 17889 17890 17891 17892 17893 17894 17895 17896 17897 17898 17899 17900 17901 17902 17903 17904 17905 17906 17907 17908 17909 17910 17911 17912 17913 17914 17915 17916 17917 17918 17919 17920 17921 17922 17923 17924 17925 17926 17927 17928 17929 17930 17931 17932 17933 17934 17935 17936 17937 17938 17939 17940 17941 17942 17943 17944 17945 17946 17947 17948 17949 17950 17951 17952 17953 17954 17955 17956 17957 17958 17959 17960 17961 17962 17963 17964 17965 17966 17967 17968 17969 17970 17971 17972 17973 17974 17975 17976 17977 17978 17979 17980 17981 17982 17983 17984 17985 17986 17987 17988 17989 17990 17991 17992 17993 17994 17995 17996 17997 17998 17999 18000 18001 18002 18003 18004 18005 18006 18007 18008 18009 18010 18011 18012 18013 18014 18015 18016 18017 18018 18019 18020 18021 18022 18023 18024 18025 18026 18027 18028 18029 18030 18031 18032 18033 18034 18035 18036 18037 18038 18039 18040 18041 18042 18043 18044 18045 18046 18047 18048 18049 18050 18051 18052 18053 18054 18055 18056 18057 18058 18059 18060 18061 18062 18063 18064 18065 18066 18067 18068 18069 18070 18071 18072 18073 18074 18075 18076 18077 18078 18079 18080 18081 18082 18083 18084 18085 18086 18087 18088 18089 18090 18091 18092 18093 18094 18095 18096 18097 18098 18099 18100 18101 18102 18103 18104 18105 18106 18107 18108 18109 18110 18111 18112 18113 18114 18115 18116 18117 18118 18119 18120 18121 18122 18123 18124 18125 18126 18127 18128 18129 18130 18131 18132 18133 18134 18135 18136 18137 18138 18139 18140 18141 18142 18143 18144 18145 18146 18147 18148 18149 18150 18151 18152 18153 18154 18155 18156 18157 18158 18159 18160 18161 18162 18163 18164 18165 18166 18167 18168 18169 18170 18171 18172 18173 18174 18175 18176 18177 18178 18179 18180 18181 18182 18183 18184 18185 18186 18187 18188 18189 18190 18191 18192 18193 18194 18195 18196 18197 18198 18199 18200 18201 18202 18203 18204 18205 18206 18207 18208 18209 18210 18211 18212 18213 18214 18215 18216 18217 18218 18219 18220 18221 18222 18223 18224 18225 18226 18227 18228 18229 18230 18231 18232 18233 18234 18235 18236 18237 18238 18239 18240 18241 18242 18243 18244 18245 18246 18247 18248 18249 18250 18251 18252 18253 18254 18255 18256 18257 18258 18259 18260 18261 18262 18263 18264 18265 18266 18267 18268 18269 18270 18271 18272 18273 18274 18275 18276 18277 18278 18279 18280 18281 18282 18283 18284 18285 18286 18287 18288 18289 18290 18291 18292 18293 18294 18295 18296 18297 18298 18299 18300 18301 18302 18303 18304 18305 18306 18307 18308 18309 18310 18311 18312 18313 18314 18315 18316 18317 18318 18319 18320 18321 18322 18323 18324 18325 18326 18327 18328 18329 18330 18331 18332 18333 18334 18335 18336 18337 18338 18339 18340 18341 18342 18343 18344 18345 18346 18347 18348 18349 18350 18351 18352 18353 18354 18355 18356 18357 18358 18359 18360 18361 18362 18363 18364 18365 18366 18367 18368 18369 18370 18371 18372 18373 18374 18375 18376 18377 18378 18379 18380 18381 18382 18383 18384 18385 18386 18387 18388 18389 18390 18391 18392 18393 18394 18395 18396 18397 18398 18399 18400 18401 18402 18403 18404 18405 18406 18407 18408 18409 18410 18411 18412 18413 18414 18415 18416 18417 18418 18419 18420 18421 18422 18423 18424 18425 18426 18427 18428 18429 18430 18431 18432 18433 18434 18435 18436 18437 18438 18439 18440 18441 18442 18443 18444 18445 18446 18447 18448 18449 18450 18451 18452 18453 18454 18455 18456 18457 18458 18459 18460 18461 18462 18463 18464 18465 18466 18467 18468 18469 18470 18471 18472 18473 18474 18475 18476 18477 18478 18479 18480 18481 18482 18483 18484 18485 18486 18487 18488 18489 18490 18491 18492 18493 18494 18495 18496 18497 18498 18499 18500 18501 18502 18503 18504 18505 18506 18507 18508 18509 18510 18511 18512 18513 18514 18515 18516 18517 18518 18519 18520 18521 18522 18523 18524 18525 18526 18527 18528 18529 18530 18531 18532 18533 18534 18535 18536 18537 18538 18539 18540 18541 18542 18543 18544 18545 18546 18547 18548 18549 18550 18551 18552 18553 18554 18555 18556 18557 18558 18559 18560 18561 18562 18563 18564 18565 18566 18567 18568 18569 18570 18571 18572 18573 18574 18575 18576 18577 18578 18579 18580 18581 18582 18583 18584 18585 18586 18587 18588 18589 18590 18591 18592 18593 18594 18595 18596 18597 18598 18599 18600 18601 18602 18603 18604 18605 18606 18607 18608 18609 18610 18611 18612 18613 18614 18615 18616 18617 18618 18619 18620 18621 18622 18623 18624 18625 18626 18627 18628 18629 18630 18631 18632 18633 18634 18635 18636 18637 18638 18639 18640 18641 18642 18643 18644 18645 18646 18647 18648 18649 18650 18651 18652 18653 18654 18655 18656 18657 18658 18659 18660 18661 18662 18663 18664 18665 18666 18667 18668 18669 18670 18671 18672 18673 18674 18675 18676 18677 18678 18679 18680 18681 18682 18683 18684 18685 18686 18687 18688 18689 18690 18691 18692 18693 18694 18695 18696 18697 18698 18699 18700 18701 18702 18703 18704 18705 18706 18707 18708 18709 18710 18711 18712 18713 18714 18715 18716 18717 18718 18719 18720 18721 18722 18723 18724 18725 18726 18727 18728 18729 18730 18731 18732 18733 18734 18735 18736 18737 18738 18739 18740 18741 18742 18743 18744 18745 18746 18747 18748 18749 18750 18751 18752 18753 18754 18755 18756 18757 18758 18759 18760 18761 18762 18763 18764 18765 18766 18767 18768 18769 18770 18771 18772 18773 18774 18775 18776 18777 18778 18779 18780 18781 18782 18783 18784 18785 18786 18787 18788 18789 18790 18791 18792 18793 18794 18795 18796 18797 18798 18799 18800 18801 18802 18803 18804 18805 18806 18807 18808 18809 18810 18811 18812 18813 18814 18815 18816 18817 18818 18819 18820 18821 18822 18823 18824 18825 18826 18827 18828 18829 18830 18831 18832 18833 18834 18835 18836 18837 18838 18839 18840 18841 18842 18843 18844 18845 18846 18847 18848 18849 18850 18851 18852 18853 18854 18855 18856 18857 18858 18859 18860 18861 18862 18863 18864 18865 18866 18867 18868 18869 18870 18871 18872 18873 18874 18875 18876 18877 18878 18879 18880 18881 18882 18883 18884 18885 18886 18887 18888 18889 18890 18891 18892 18893 18894 18895 18896 18897 18898 18899 18900 18901 18902 18903 18904 18905 18906 18907 18908 18909 18910 18911 18912 18913 18914 18915 18916 18917 18918 18919 18920 18921 18922 18923 18924 18925 18926 18927 18928 18929 18930 18931 18932 18933 18934 18935 18936 18937 18938 18939 18940 18941 18942 18943 18944 18945 18946 18947 18948 18949 18950 18951 18952 18953 18954 18955 18956 18957 18958 18959 18960 18961 18962 18963 18964 18965 18966 18967 18968 18969 18970 18971 18972 18973 18974 18975 18976 18977 18978 18979 18980 18981 18982 18983 18984 18985 18986 18987 18988 18989 18990 18991 18992 18993 18994 18995 18996 18997 18998 18999 19000 19001 19002 19003 19004 19005 19006 19007 19008 19009 19010 19011 19012 19013 19014 19015 19016 19017 19018 19019 19020 19021 19022 19023 19024 19025 19026 19027 19028 19029 19030 19031 19032 19033 19034 19035 19036 19037 19038 19039 19040 19041 19042 19043 19044 19045 19046 19047 19048 19049 19050 19051 19052 19053 19054 19055 19056 19057 19058 19059 19060 19061 19062 19063 19064 19065 19066 19067 19068 19069 19070 19071 19072 19073 19074 19075 19076 19077 19078 19079 19080 19081 19082 19083 19084 19085 19086 19087 19088 19089 19090 19091 19092 19093 19094 19095 19096 19097 19098 19099 19100 19101 19102 19103 19104 19105 19106 19107 19108 19109 19110 19111 19112 19113 19114 19115 19116 19117 19118 19119 19120 19121 19122 19123 19124 19125 19126 19127 19128 19129 19130 19131 19132 19133 19134 19135 19136 19137 19138 19139 19140 19141 19142 19143 19144 19145 19146 19147 19148 19149 19150 19151 19152 19153 19154 19155 19156 19157 19158 19159 19160 19161 19162 19163 19164 19165 19166 19167 19168 19169 19170 19171 19172 19173 19174 19175 19176 19177 19178 19179 19180 19181 19182 19183 19184 19185 19186 19187 19188 19189 19190 19191 19192 19193 19194 19195 19196 19197 19198 19199 19200 19201 19202 19203 19204 19205 19206 19207 19208 19209 19210 19211 19212 19213 19214 19215 19216 19217 19218 19219 19220 19221 19222 19223 19224 19225 19226 19227 19228 19229 19230 19231 19232 19233 19234 19235 19236 19237 19238 19239 19240 19241 19242 19243 19244 19245 19246 19247 19248 19249 19250 19251 19252 19253 19254 19255 19256 19257 19258 19259 19260 19261 19262 19263 19264 19265 19266 19267 19268 19269 19270 19271 19272 19273 19274 19275 19276 19277 19278 19279 19280 19281 19282 19283 19284 19285 19286 19287 19288 19289 19290 19291 19292 19293 19294 19295 19296 19297 19298 19299 19300 19301 19302 19303 19304 19305 19306 19307 19308 19309 19310 19311 19312 19313 19314 19315 19316 19317 19318 19319 19320 19321 19322 19323 19324 19325 19326 19327 19328 19329 19330 19331 19332 19333 19334 19335 19336 19337 19338 19339 19340 19341 19342 19343 19344 19345 19346 19347 19348 19349 19350 19351 19352 19353 19354 19355 19356 19357 19358 19359 19360 19361 19362 19363 19364 19365 19366 19367 19368 19369 19370 19371 19372 19373 19374 19375 19376 19377 19378 19379 19380 19381 19382 19383 19384 19385 19386 19387 19388 19389 19390 19391 19392 19393 19394 19395 19396 19397 19398 19399 19400 19401 19402 19403 19404 19405 19406 19407 19408 19409 19410 19411 19412 19413 19414 19415 19416 19417 19418 19419 19420 19421 19422 19423 19424 19425 19426 19427 19428 19429 19430 19431 19432 19433 19434 19435 19436 19437 19438 19439 19440 19441 19442 19443 19444 19445 19446 19447 19448 19449 19450 19451 19452 19453 19454 19455 19456 19457 19458 19459 19460 19461 19462 19463 19464 19465 19466 19467 19468 19469 19470 19471 19472 19473 19474 19475 19476 19477 19478 19479 19480 19481 19482 19483 19484 19485 19486 19487 19488 19489 19490 19491 19492 19493 19494 19495 19496 19497 19498 19499 19500 19501 19502 19503 19504 19505 19506 19507 19508 19509 19510 19511 19512 19513 19514 19515 19516 19517 19518 19519 19520 19521 19522 19523 19524 19525 19526 19527 19528 19529 19530 19531 19532 19533 19534 19535 19536 19537 19538 19539 19540 19541 19542 19543 19544 19545 19546 19547 19548 19549 19550 19551 19552 19553 19554 19555 19556 19557 19558 19559 19560 19561 19562 19563 19564 19565 19566 19567 19568 19569 19570 19571 19572 19573 19574 19575 19576 19577 19578 19579 19580 19581 19582 19583 19584 19585 19586 19587 19588 19589 19590 19591 19592 19593 19594 19595 19596 19597 19598 19599 19600 19601 19602 19603 19604 19605 19606 19607 19608 19609 19610 19611 19612 19613 19614 19615 19616 19617 19618 19619 19620 19621 19622 19623 19624 19625 19626 19627 19628 19629 19630 19631 19632 19633 19634 19635 19636 19637 19638 19639 19640 19641 19642 19643 19644 19645 19646 19647 19648 19649 19650 19651 19652 19653 19654 19655 19656 19657 19658 19659 19660 19661 19662 19663 19664 19665 19666 19667 19668 19669 19670 19671 19672 19673 19674 19675 19676 19677 19678 19679 19680 19681 19682 19683 19684 19685 19686 19687 19688 19689 19690 19691 19692 19693 19694 19695 19696 19697 19698 19699 19700 19701 19702 19703 19704 19705 19706 19707 19708 19709 19710 19711 19712 19713 19714 19715 19716 19717 19718 19719 19720 19721 19722 19723 19724 19725 19726 19727 19728 19729 19730 19731 19732 19733 19734 19735 19736 19737 19738 19739 19740 19741 19742 19743 19744 19745 19746 19747 19748 19749 19750 19751 19752 19753 19754 19755 19756 19757 19758 19759 19760 19761 19762 19763 19764 19765 19766 19767 19768 19769 19770 19771 19772 19773 19774 19775 19776 19777 19778 19779 19780 19781 19782 19783 19784 19785 19786 19787 19788 19789 19790 19791 19792 19793 19794 19795 19796 19797 19798 19799 19800 19801 19802 19803 19804 19805 19806 19807 19808 19809 19810 19811 19812 19813 19814 19815 19816 19817 19818 19819 19820 19821 19822 19823 19824 19825 19826 19827 19828 19829 19830 19831 19832 19833 19834 19835 19836 19837 19838 19839 19840 19841 19842 19843 19844 19845 19846 19847 19848 19849 19850 19851 19852 19853 19854 19855 19856 19857 19858 19859 19860 19861 19862 19863 19864 19865 19866 19867 19868 19869 19870 19871 19872 19873 19874 19875 19876 19877 19878 19879 19880 19881 19882 19883 19884 19885 19886 19887 19888 19889 19890 19891 19892 19893 19894 19895 19896 19897 19898 19899 19900 19901 19902 19903 19904 19905 19906 19907 19908 19909 19910 19911 19912 19913 19914 19915 19916 19917 19918 19919 19920 19921 19922 19923 19924 19925 19926 19927 19928 19929 19930 19931 19932 19933 19934 19935 19936 19937 19938 19939 19940 19941 19942 19943 19944 19945 19946 19947 19948 19949 19950 19951 19952 19953 19954 19955 19956 19957 19958 19959 19960 19961 19962 19963 19964 19965 19966 19967 19968 19969 19970 19971 19972 19973 19974 19975 19976 19977 19978 19979 19980 19981 19982 19983 19984 19985 19986 19987 19988 19989 19990 19991 19992 19993 19994 19995 19996 19997 19998 19999 20000 20001 20002 20003 20004 20005 20006 20007 20008 20009 20010 20011 20012 20013 20014 20015 20016 20017 20018 20019 20020 20021 20022 20023 20024 20025 20026 20027 20028 20029 20030 20031 20032 20033 20034 20035 20036 20037 20038 20039 20040 20041 20042 20043 20044 20045 20046 20047 20048 20049 20050 20051 20052 20053 20054 20055 20056 20057 20058 20059 20060 20061 20062 20063 20064 20065 20066 20067 20068 20069 20070 20071 20072 20073 20074 20075 20076 20077 20078 20079 20080 20081 20082 20083 20084 20085 20086 20087 20088 20089 20090 20091 20092 20093 20094 20095 20096 20097 20098 20099 20100 20101 20102 20103 20104 20105 20106 20107 20108 20109 20110 20111 20112 20113 20114 20115 20116 20117 20118 20119 20120 20121 20122 20123 20124 20125 20126 20127 20128 20129 20130 20131 20132 20133 20134 20135 20136 20137 20138 20139 20140 20141 20142 20143 20144 20145 20146 20147 20148 20149 20150 20151 20152 20153 20154 20155 20156 20157 20158 20159 20160 20161 20162 20163 20164 20165 20166 20167 20168 20169 20170 20171 20172 20173 20174 20175 20176 20177 20178 20179 20180 20181 20182 20183 20184 20185 20186 20187 20188 20189 20190 20191 20192 20193 20194 20195 20196 20197 20198 20199 20200 20201 20202 20203 20204 20205 20206 20207 20208 20209 20210 20211 20212 20213 20214 20215 20216 20217 20218 20219 20220 20221 20222 20223 20224 20225 20226 20227 20228 20229 20230 20231 20232 20233 20234 20235 20236 20237 20238 20239 20240 20241 20242 20243 20244 20245 20246 20247 20248 20249 20250 20251 20252 20253 20254 20255 20256 20257 20258 20259 20260 20261 20262 20263 20264 20265 20266 20267 20268 20269 20270 20271 20272 20273 20274 20275 20276 20277 20278 20279 20280 20281 20282 20283 20284 20285 20286 20287 20288 20289 20290 20291 20292 20293 20294 20295 20296 20297 20298 20299 20300 20301 20302 20303 20304 20305 20306 20307 20308 20309 20310 20311 20312 20313 20314 20315 20316 20317 20318 20319 20320 20321 20322 20323 20324 20325 20326 20327 20328 20329 20330 20331 20332 20333 20334 20335 20336 20337 20338 20339 20340 20341 20342 20343 20344 20345 20346 20347 20348 20349 20350 20351 20352 20353 20354 20355 20356 20357 20358 20359 20360 20361 20362 20363 20364 20365 20366 20367 20368 20369 20370 20371 20372 20373 20374 20375 20376 20377 20378 20379 20380 20381 20382 20383 20384 20385 20386 20387 20388 20389 20390 20391 20392 20393 20394 20395 20396 20397 20398 20399 20400 20401 20402 20403 20404 20405 20406 20407 20408 20409 20410 20411 20412 20413 20414 20415 20416 20417 20418 20419 20420 20421 20422 20423 20424 20425 20426 20427 20428 20429 20430 20431 20432 20433 20434 20435 20436 20437 20438 20439 20440 20441 20442 20443 20444 20445 20446 20447 20448 20449 20450 20451 20452 20453 20454 20455 20456 20457 20458 20459 20460 20461 20462 20463 20464 20465 20466 20467 20468 20469 20470 20471 20472 20473 20474 20475 20476 20477 20478 20479 20480 20481 20482 20483 20484 20485 20486 20487 20488 20489 20490 20491 20492 20493 20494 20495 20496 20497 20498 20499 20500 20501 20502 20503 20504 20505 20506 20507 20508 20509 20510 20511 20512 20513 20514 20515 20516 20517 20518 20519 20520 20521 20522 20523 20524 20525 20526 20527 20528 20529 20530 20531 20532 20533 20534 20535 20536 20537 20538 20539 20540 20541 20542 20543 20544 20545 20546 20547 20548 20549 20550 20551 20552 20553 20554 20555 20556 20557 20558 20559 20560 20561 20562 20563 20564 20565 20566 20567 20568 20569 20570 20571 20572 20573 20574 20575 20576 20577 20578 20579 20580 20581 20582 20583 20584 20585 20586 20587 20588 20589 20590 20591 20592 20593 20594 20595 20596 20597 20598 20599 20600 20601 20602 20603 20604 20605 20606 20607 20608 20609 20610 20611 20612 20613 20614 20615 20616 20617 20618 20619 20620 20621 20622 20623 20624 20625 20626 20627 20628 20629 20630 20631 20632 20633 20634 20635 20636 20637 20638 20639 20640 20641 20642 20643 20644 20645 20646 20647 20648 20649 20650 20651 20652 20653 20654 20655 20656 20657 20658 20659 20660 20661 20662 20663 20664 20665 20666 20667 20668 20669 20670 20671 20672 20673 20674 20675 20676 20677 20678 20679 20680 20681 20682 20683 20684 20685 20686 20687 20688 20689 20690 20691 20692 20693 20694 20695 20696 20697 20698 20699 20700 20701 20702 20703 20704 20705 20706 20707 20708 20709 20710 20711 20712 20713 20714 20715 20716 20717 20718 20719 20720 20721 20722 20723 20724 20725 20726 20727 20728 20729 20730 20731 20732 20733 20734 20735 20736 20737 20738 20739 20740 20741 20742 20743 20744 20745 20746 20747 20748 20749 20750 20751 20752 20753 20754 20755 20756 20757 20758 20759 20760 20761 20762 20763 20764 20765 20766 20767 20768 20769 20770 20771 20772 20773 20774 20775 20776 20777 20778 20779 20780 20781 20782 20783 20784 20785 20786 20787 20788 20789 20790 20791 20792 20793 20794 20795 20796 20797 20798 20799 20800 20801 20802 20803 20804 20805 20806 20807 20808 20809 20810 20811 20812 20813 20814 20815 20816 20817 20818 20819 20820 20821 20822 20823 20824 20825 20826 20827 20828 20829 20830 20831 20832 20833 20834 20835 20836 20837 20838 20839 20840 20841 20842 20843 20844 20845 20846 20847 20848 20849 20850 20851 20852 20853 20854 20855 20856 20857 20858 20859 20860 20861 20862 20863 20864 20865 20866 20867 20868 20869 20870 20871 20872 20873 20874 20875 20876 20877 20878 20879 20880 20881 20882 20883 20884 20885 20886 20887 20888 20889 20890 20891 20892 20893 20894 20895 20896 20897 20898 20899 20900 20901 20902 20903 20904 20905 20906 20907 20908 20909 20910 20911 20912 20913 20914 20915 20916 20917 20918 20919 20920 20921 20922 20923 20924 20925 20926 20927 20928 20929 20930 20931 20932 20933 20934 20935 20936 20937 20938 20939 20940 20941 20942 20943 20944 20945 20946 20947 20948 20949 20950 20951 20952 20953 20954 20955 20956 20957 20958 20959 20960 20961 20962 20963 20964 20965 20966 20967 20968 20969 20970 20971 20972 20973 20974 20975 20976 20977 20978 20979 20980 20981 20982 20983 20984 20985 20986 20987 20988 20989 20990 20991 20992 20993 20994 20995 20996 20997 20998 20999 21000 21001 21002 21003 21004 21005 21006 21007 21008 21009 21010 21011 21012 21013 21014 21015 21016 21017 21018 21019 21020 21021 21022 21023 21024 21025 21026 21027 21028 21029 21030 21031 21032 21033 21034 21035 21036 21037 21038 21039 21040 21041 21042 21043 21044 21045 21046 21047 21048 21049 21050 21051 21052 21053 21054 21055 21056 21057 21058 21059 21060 21061 21062 21063 21064 21065 21066 21067 21068 21069 21070 21071 21072 21073 21074 21075 21076 21077 21078 21079 21080 21081 21082 21083 21084 21085 21086 21087 21088 21089 21090 21091 21092 21093 21094 21095 21096 21097 21098 21099 21100 21101 21102 21103 21104 21105 21106 21107 21108 21109 21110 21111 21112 21113 21114 21115 21116 21117 21118 21119 21120 21121 21122 21123 21124 21125 21126 21127 21128 21129 21130 21131 21132 21133 21134 21135 21136 21137 21138 21139 21140 21141 21142 21143 21144 21145 21146 21147 21148 21149 21150 21151 21152 21153 21154 21155 21156 21157 21158 21159 21160 21161 21162 21163 21164 21165 21166 21167 21168 21169 21170 21171 21172 21173 21174 21175 21176 21177 21178 21179 21180 21181 21182 21183 21184 21185 21186 21187 21188 21189 21190 21191 21192 21193 21194 21195 21196 21197 21198 21199 21200 21201 21202 21203 21204 21205 21206 21207 21208 21209 21210 21211 21212 21213 21214 21215 21216 21217 21218 21219 21220 21221 21222 21223 21224 21225 21226 21227 21228 21229 21230 21231 21232 21233 21234 21235 21236 21237 21238 21239 21240 21241 21242 21243 21244 21245 21246 21247 21248 21249 21250 21251 21252 21253 21254 21255 21256 21257 21258 21259 21260 21261 21262 21263 21264 21265 21266 21267 21268 21269 21270 21271 21272 21273 21274 21275 21276 21277 21278 21279 21280 21281 21282 21283 21284 21285 21286 21287 21288 21289 21290 21291 21292 21293 21294 21295 21296 21297 21298 21299 21300 21301 21302 21303 21304 21305 21306 21307 21308 21309 21310 21311 21312 21313 21314 21315 21316 21317 21318 21319 21320 21321 21322 21323 21324 21325 21326 21327 21328 21329 21330 21331 21332 21333 21334 21335 21336 21337 21338 21339 21340 21341 21342 21343 21344 21345 21346 21347 21348 21349 21350 21351 21352 21353 21354 21355 21356 21357 21358 21359 21360 21361 21362 21363 21364 21365 21366 21367 21368 21369 21370 21371 21372 21373 21374 21375 21376 21377 21378 21379 21380 21381 21382 21383 21384 21385 21386 21387 21388 21389 21390 21391 21392 21393 21394 21395 21396 21397 21398 21399 21400 21401 21402 21403 21404 21405 21406 21407 21408 21409 21410 21411 21412 21413 21414 21415 21416 21417 21418 21419 21420 21421 21422 21423 21424 21425 21426 21427 21428 21429 21430 21431 21432 21433 21434 21435 21436 21437 21438 21439 21440 21441 21442 21443 21444 21445 21446 21447 21448 21449 21450 21451 21452 21453 21454 21455 21456 21457 21458 21459 21460 21461 21462 21463 21464 21465 21466 21467 21468 21469 21470 21471 21472 21473 21474 21475 21476 21477 21478 21479 21480 21481 21482 21483 21484 21485 21486 21487 21488 21489 21490 21491 21492 21493 21494 21495 21496 21497 21498 21499 21500 21501 21502 21503 21504 21505 21506 21507 21508 21509 21510 21511 21512 21513 21514 21515 21516 21517 21518 21519 21520 21521 21522 21523 21524 21525 21526 21527 21528 21529 21530 21531 21532 21533 21534 21535 21536 21537 21538 21539 21540 21541 21542 21543 21544 21545 21546 21547 21548 21549 21550 21551 21552 21553 21554 21555 21556 21557 21558 21559 21560 21561 21562 21563 21564 21565 21566 21567 21568 21569 21570 21571 21572 21573 21574 21575 21576 21577 21578 21579 21580 21581 21582 21583 21584 21585 21586 21587 21588 21589 21590 21591 21592 21593 21594 21595 21596 21597 21598 21599 21600 21601 21602 21603 21604 21605 21606 21607 21608 21609 21610 21611 21612 21613 21614 21615 21616 21617 21618 21619 21620 21621 21622 21623 21624 21625 21626 21627 21628 21629 21630 21631 21632 21633 21634 21635 21636 21637 21638 21639 21640 21641 21642 21643 21644 21645 21646 21647 21648 21649 21650 21651 21652 21653 21654 21655 21656 21657 21658 21659 21660 21661 21662 21663 21664 21665 21666 21667 21668 21669 21670 21671 21672 21673 21674 21675 21676 21677 21678 21679 21680 21681 21682 21683 21684 21685 21686 21687 21688 21689 21690 21691 21692 21693 21694 21695 21696 21697 21698 21699 21700 21701 21702 21703 21704 21705 21706 21707 21708 21709 21710 21711 21712 21713 21714 21715 21716 21717 21718 21719 21720 21721 21722 21723 21724 21725 21726 21727 21728 21729 21730 21731 21732 21733 21734 21735 21736 21737 21738 21739 21740 21741 21742 21743 21744 21745 21746 21747 21748 21749 21750 21751 21752 21753 21754 21755 21756 21757 21758 21759 21760 21761 21762 21763 21764 21765 21766 21767 21768 21769 21770 21771 21772 21773 21774 21775 21776 21777 21778 21779 21780 21781 21782 21783 21784 21785 21786 21787 21788 21789 21790 21791 21792 21793 21794 21795 21796 21797 21798 21799 21800 21801 21802 21803 21804 21805 21806 21807 21808 21809 21810 21811 21812 21813 21814 21815 21816 21817 21818 21819 21820 21821 21822 21823 21824 21825 21826 21827 21828 21829 21830 21831 21832 21833 21834 21835 21836 21837 21838 21839 21840 21841 21842 21843 21844 21845 21846 21847 21848 21849 21850 21851 21852 21853 21854 21855 21856 21857 21858 21859 21860 21861 21862 21863 21864 21865 21866 21867 21868 21869 21870 21871 21872 21873 21874 21875 21876 21877 21878 21879 21880 21881 21882 21883 21884 21885 21886 21887 21888 21889 21890 21891 21892 21893 21894 21895 21896 21897 21898 21899 21900 21901 21902 21903 21904 21905 21906 21907 21908 21909 21910 21911 21912 21913 21914 21915 21916 21917 21918 21919 21920 21921 21922 21923 21924 21925 21926 21927 21928 21929 21930 21931 21932 21933 21934 21935 21936 21937 21938 21939 21940 21941 21942 21943 21944 21945 21946 21947 21948 21949 21950 21951 21952 21953 21954 21955 21956 21957 21958 21959 21960 21961 21962 21963 21964 21965 21966 21967 21968 21969 21970 21971 21972 21973 21974 21975 21976 21977 21978 21979 21980 21981 21982 21983 21984 21985 21986 21987 21988 21989 21990 21991 21992 21993 21994 21995 21996 21997 21998 21999 22000 22001 22002 22003 22004 22005 22006 22007 22008 22009 22010 22011 22012 22013 22014 22015 22016 22017 22018 22019 22020 22021 22022 22023 22024 22025 22026 22027 22028 22029 22030 22031 22032 22033 22034 22035 22036 22037 22038 22039 22040 22041 22042 22043 22044 22045 22046 22047 22048 22049 22050 22051 22052 22053 22054 22055 22056 22057 22058 22059 22060 22061 22062 22063 22064 22065 22066 22067 22068 22069 22070 22071 22072 22073 22074 22075 22076 22077 22078 22079 22080 22081 22082 22083 22084 22085 22086 22087 22088 22089 22090 22091 22092 22093 22094 22095 22096 22097 22098 22099 22100 22101 22102 22103 22104 22105 22106 22107 22108 22109 22110 22111 22112 22113 22114 22115 22116 22117 22118 22119 22120 22121 22122 22123 22124 22125 22126 22127 22128 22129 22130 22131 22132 22133 22134 22135 22136 22137 22138 22139 22140 22141 22142 22143 22144 22145 22146 22147 22148 22149 22150 22151 22152 22153 22154 22155 22156 22157 22158 22159 22160 22161 22162 22163 22164 22165 22166 22167 22168 22169 22170 22171 22172 22173 22174 22175 22176 22177 22178 22179 22180 22181 22182 22183 22184 22185 22186 22187 22188 22189 22190 22191 22192 22193 22194 22195 22196 22197 22198 22199 22200 22201 22202 22203 22204 22205 22206 22207 22208 22209 22210 22211 22212 22213 22214 22215 22216 22217 22218 22219 22220 22221 22222 22223 22224 22225 22226 22227 22228 22229 22230 22231 22232 22233 22234 22235 22236 22237 22238 22239 22240 22241 22242 22243 22244 22245 22246 22247 22248 22249 22250 22251 22252 22253 22254 22255 22256 22257 22258 22259 22260 22261 22262 22263 22264 22265 22266 22267 22268 22269 22270 22271 22272 22273 22274 22275 22276 22277 22278 22279 22280 22281 22282 22283 22284 22285 22286 22287 22288 22289 22290 22291 22292 22293 22294 22295 22296 22297 22298 22299 22300 22301 22302 22303 22304 22305 22306 22307 22308 22309 22310 22311 22312 22313 22314 22315 22316 22317 22318 22319 22320 22321 22322 22323 22324 22325 22326 22327 22328 22329 22330 22331 22332 22333 22334 22335 22336 22337 22338 22339 22340 22341 22342 22343 22344 22345 22346 22347 22348 22349 22350 22351 22352 22353 22354 22355 22356 22357 22358 22359 22360 22361 22362 22363 22364 22365 22366 22367 22368 22369 22370 22371 22372 22373 22374 22375 22376 22377 22378 22379 22380 22381 22382 22383 22384 22385 22386 22387 22388 22389 22390 22391 22392 22393 22394 22395 22396 22397 22398 22399 22400 22401 22402 22403 22404 22405 22406 22407 22408 22409 22410 22411 22412 22413 22414 22415 22416 22417 22418 22419 22420 22421 22422 22423 22424 22425 22426 22427 22428 22429 22430 22431 22432 22433 22434 22435 22436 22437 22438 22439 22440 22441 22442 22443 22444 22445 22446 22447 22448 22449 22450 22451 22452 22453 22454 22455 22456 22457 22458 22459 22460 22461 22462 22463 22464 22465 22466 22467 22468 22469 22470 22471 22472 22473 22474 22475 22476 22477 22478 22479 22480 22481 22482 22483 22484 22485 22486 22487 22488 22489 22490 22491 22492 22493 22494 22495 22496 22497 22498 22499 22500 22501 22502 22503 22504 22505 22506 22507 22508 22509 22510 22511 22512 22513 22514 22515 22516 22517 22518 22519 22520 22521 22522 22523 22524 22525 22526 22527 22528 22529 22530 22531 22532 22533 22534 22535 22536 22537 22538 22539 22540 22541 22542 22543 22544 22545 22546 22547 22548 22549 22550 22551 22552 22553 22554 22555 22556 22557 22558 22559 22560 22561 22562 22563 22564 22565 22566 22567 22568 22569 22570 22571 22572 22573 22574 22575 22576 22577 22578 22579 22580 22581 22582 22583 22584 22585 22586 22587 22588 22589 22590 22591 22592 22593 22594 22595 22596 22597 22598 22599 22600 22601 22602 22603 22604 22605 22606 22607 22608 22609 22610 22611 22612 22613 22614 22615 22616 22617 22618 22619 22620 22621 22622 22623 22624 22625 22626 22627 22628 22629 22630 22631 22632 22633 22634 22635 22636 22637 22638 22639 22640 22641 22642 22643 22644 22645 22646 22647 22648 22649 22650 22651 22652 22653 22654 22655 22656 22657 22658 22659 22660 22661 22662 22663 22664 22665 22666 22667 22668 22669 22670 22671 22672 22673 22674 22675 22676 22677 22678 22679 22680 22681 22682 22683 22684 22685 22686 22687 22688 22689 22690 22691 22692 22693 22694 22695 22696 22697 22698 22699 22700 22701 22702 22703 22704 22705 22706 22707 22708 22709 22710 22711 22712 22713 22714 22715 22716 22717 22718 22719 22720 22721 22722 22723 22724 22725 22726 22727 22728 22729 22730 22731 22732 22733 22734 22735 22736 22737 22738 22739 22740 22741 22742 22743 22744 22745 22746 22747 22748 22749 22750 22751 22752 22753 22754 22755 22756 22757 22758 22759 22760 22761 22762 22763 22764 22765 22766 22767 22768 22769 22770 22771 22772 22773 22774 22775 22776 22777 22778 22779 22780 22781 22782 22783 22784 22785 22786 22787 22788 22789 22790 22791 22792 22793 22794 22795 22796 22797 22798 22799 22800 22801 22802 22803 22804 22805 22806 22807 22808 22809 22810 22811 22812 22813 22814 22815 22816 22817 22818 22819 22820 22821 22822 22823 22824 22825 22826 22827 22828 22829 22830 22831 22832 22833 22834 22835 22836 22837 22838 22839 22840 22841 22842 22843 22844 22845 22846 22847 22848 22849 22850 22851 22852 22853 22854 22855 22856 22857 22858 22859 22860 22861 22862 22863 22864 22865 22866 22867 22868 22869 22870 22871 22872 22873 22874 22875 22876 22877 22878 22879 22880 22881 22882 22883 22884 22885 22886 22887 22888 22889 22890 22891 22892 22893 22894 22895 22896 22897 22898 22899 22900 22901 22902 22903 22904 22905 22906 22907 22908 22909 22910 22911 22912 22913 22914 22915 22916 22917 22918 22919 22920 22921 22922 22923 22924 22925 22926 22927 22928 22929 22930 22931 22932 22933 22934 22935 22936 22937 22938 22939 22940 22941 22942 22943 22944 22945 22946 22947 22948 22949 22950 22951 22952 22953 22954 22955 22956 22957 22958 22959 22960 22961 22962 22963 22964 22965 22966 22967 22968 22969 22970 22971 22972 22973 22974 22975 22976 22977 22978 22979 22980 22981 22982 22983 22984 22985 22986 22987 22988 22989 22990 22991 22992 22993 22994 22995 22996 22997 22998 22999 23000 23001 23002 23003 23004 23005 23006 23007 23008 23009 23010 23011 23012 23013 23014 23015 23016 23017 23018 23019 23020 23021 23022 23023 23024 23025 23026 23027 23028 23029 23030 23031 23032 23033 23034 23035 23036 23037 23038 23039 23040 23041 23042 23043 23044 23045 23046 23047 23048 23049 23050 23051 23052 23053 23054 23055 23056 23057 23058 23059 23060 23061 23062 23063 23064 23065 23066 23067 23068 23069 23070 23071 23072 23073 23074 23075 23076 23077 23078 23079 23080 23081 23082 23083 23084 23085 23086 23087 23088 23089 23090 23091 23092 23093 23094 23095 23096 23097 23098 23099 23100 23101 23102 23103 23104 23105 23106 23107 23108 23109 23110 23111 23112 23113 23114 23115 23116 23117 23118 23119 23120 23121 23122 23123 23124 23125 23126 23127 23128 23129 23130 23131 23132 23133 23134 23135 23136 23137 23138 23139 23140 23141 23142 23143 23144 23145 23146 23147 23148 23149 23150 23151 23152 23153 23154 23155 23156 23157 23158 23159 23160 23161 23162 23163 23164 23165 23166 23167 23168 23169 23170 23171 23172 23173 23174 23175 23176 23177 23178 23179 23180 23181 23182 23183 23184 23185 23186 23187 23188 23189 23190 23191 23192 23193 23194 23195 23196 23197 23198 23199 23200 23201 23202 23203 23204 23205 23206 23207 23208 23209 23210 23211 23212 23213 23214 23215 23216 23217 23218 23219 23220 23221 23222 23223 23224 23225 23226 23227 23228 23229 23230 23231 23232 23233 23234 23235 23236 23237 23238 23239 23240 23241 23242 23243 23244 23245 23246 23247 23248 23249 23250 23251 23252 23253 23254 23255 23256 23257 23258 23259 23260 23261 23262 23263 23264 23265 23266 23267 23268 23269 23270 23271 23272 23273 23274 23275 23276 23277 23278 23279 23280 23281 23282 23283 23284 23285 23286 23287 23288 23289 23290 23291 23292 23293 23294 23295 23296 23297 23298 23299 23300 23301 23302 23303 23304 23305 23306 23307 23308 23309 23310 23311 23312 23313 23314 23315 23316 23317 23318 23319 23320 23321 23322 23323 23324 23325 23326 23327 23328 23329 23330 23331 23332 23333 23334 23335 23336 23337 23338 23339 23340 23341 23342 23343 23344 23345 23346 23347 23348 23349 23350 23351 23352 23353 23354 23355 23356 23357 23358 23359 23360 23361 23362 23363 23364 23365 23366 23367 23368 23369 23370 23371 23372 23373 23374 23375 23376 23377 23378 23379 23380 23381 23382 23383 23384 23385 23386 23387 23388 23389 23390 23391 23392 23393 23394 23395 23396 23397 23398 23399 23400 23401 23402 23403 23404 23405 23406 23407 23408 23409 23410 23411 23412 23413 23414 23415 23416 23417 23418 23419 23420 23421 23422 23423 23424 23425 23426 23427 23428 23429 23430 23431 23432 23433 23434 23435 23436 23437 23438 23439 23440 23441 23442 23443 23444 23445 23446 23447 23448 23449 23450 23451 23452 23453 23454 23455 23456 23457 23458 23459 23460 23461 23462 23463 23464 23465 23466 23467 23468 23469 23470 23471 23472 23473 23474 23475 23476 23477 23478 23479 23480 23481 23482 23483 23484 23485 23486 23487 23488 23489 23490 23491 23492 23493 23494 23495 23496 23497 23498 23499 23500 23501 23502 23503 23504 23505 23506 23507 23508 23509 23510 23511 23512 23513 23514 23515 23516 23517 23518 23519 23520 23521 23522 23523 23524 23525 23526 23527 23528 23529 23530 23531 23532 23533 23534 23535 23536 23537 23538 23539 23540 23541 23542 23543 23544 23545 23546 23547 23548 23549 23550 23551 23552 23553 23554 23555 23556 23557 23558 23559 23560 23561 23562 23563 23564 23565 23566 23567 23568 23569 23570 23571 23572 23573 23574 23575 23576 23577 23578 23579 23580 23581 23582 23583 23584 23585 23586 23587 23588 23589 23590 23591 23592 23593 23594 23595 23596 23597 23598 23599 23600 23601 23602 23603 23604 23605 23606 23607 23608 23609 23610 23611 23612 23613 23614 23615 23616 23617 23618 23619 23620 23621 23622 23623 23624 23625 23626 23627 23628 23629 23630 23631 23632 23633 23634 23635 23636 23637 23638 23639 23640 23641 23642 23643 23644 23645 23646 23647 23648 23649 23650 23651 23652 23653 23654 23655 23656 23657 23658 23659 23660 23661 23662 23663 23664 23665 23666 23667 23668 23669 23670 23671 23672 23673 23674 23675 23676 23677 23678 23679 23680 23681 23682 23683 23684 23685 23686 23687 23688 23689 23690 23691 23692 23693 23694 23695 23696 23697 23698 23699 23700 23701 23702 23703 23704 23705 23706 23707 23708 23709 23710 23711 23712 23713 23714 23715 23716 23717 23718 23719 23720 23721 23722 23723 23724 23725 23726 23727 23728 23729 23730 23731 23732 23733 23734 23735 23736 23737 23738 23739 23740 23741 23742 23743 23744 23745 23746 23747 23748 23749 23750 23751 23752 23753 23754 23755 23756 23757 23758 23759 23760 23761 23762 23763 23764 23765 23766 23767 23768 23769 23770 23771 23772 23773 23774 23775 23776 23777 23778 23779 23780 23781 23782 23783 23784 23785 23786 23787 23788 23789 23790 23791 23792 23793 23794 23795 23796 23797 23798 23799 23800 23801 23802 23803 23804 23805 23806 23807 23808 23809 23810 23811 23812 23813 23814 23815 23816 23817 23818 23819 23820 23821 23822 23823 23824 23825 23826 23827 23828 23829 23830 23831 23832 23833 23834 23835 23836 23837 23838 23839 23840 23841 23842 23843 23844 23845 23846 23847 23848 23849 23850 23851 23852 23853 23854 23855 23856 23857 23858 23859 23860 23861 23862 23863 23864 23865 23866 23867 23868 23869 23870 23871 23872 23873 23874 23875 23876 23877 23878 23879 23880 23881 23882 23883 23884 23885 23886 23887 23888 23889 23890 23891 23892 23893 23894 23895 23896 23897 23898 23899 23900 23901 23902 23903 23904 23905 23906 23907 23908 23909 23910 23911 23912 23913 23914 23915 23916 23917 23918 23919 23920 23921 23922 23923 23924 23925 23926 23927 23928 23929 23930 23931 23932 23933 23934 23935 23936 23937 23938 23939 23940 23941 23942 23943 23944 23945 23946 23947 23948 23949 23950 23951 23952 23953 23954 23955 23956 23957 23958 23959 23960 23961 23962 23963 23964 23965 23966 23967 23968 23969 23970 23971 23972 23973 23974 23975 23976 23977 23978 23979 23980 23981 23982 23983 23984 23985 23986 23987 23988 23989 23990 23991 23992 23993 23994 23995 23996 23997 23998 23999 24000 24001 24002 24003 24004 24005 24006 24007 24008 24009 24010 24011 24012 24013 24014 24015 24016 24017 24018 24019 24020 24021 24022 24023 24024 24025 24026 24027 24028 24029 24030 24031 24032 24033 24034 24035 24036 24037 24038 24039 24040 24041 24042 24043 24044 24045 24046 24047 24048 24049 24050 24051 24052 24053 24054 24055 24056 24057 24058 24059 24060 24061 24062 24063 24064 24065 24066 24067 24068 24069 24070 24071 24072 24073 24074 24075 24076 24077 24078 24079 24080 24081 24082 24083 24084 24085 24086 24087 24088 24089 24090 24091 24092 24093 24094 24095 24096 24097 24098 24099 24100 24101 24102 24103 24104 24105 24106 24107 24108 24109 24110 24111 24112 24113 24114 24115 24116 24117 24118 24119 24120 24121 24122 24123 24124 24125 24126 24127 24128 24129 24130 24131 24132 24133 24134 24135 24136 24137 24138 24139 24140 24141 24142 24143 24144 24145 24146 24147 24148 24149 24150 24151 24152 24153 24154 24155 24156 24157 24158 24159 24160 24161 24162 24163 24164 24165 24166 24167 24168 24169 24170 24171 24172 24173 24174 24175 24176 24177 24178 24179 24180 24181 24182 24183 24184 24185 24186 24187 24188 24189 24190 24191 24192 24193 24194 24195 24196 24197 24198 24199 24200 24201 24202 24203 24204 24205 24206 24207 24208 24209 24210 24211 24212 24213 24214 24215 24216 24217 24218 24219 24220 24221 24222 24223 24224 24225 24226 24227 24228 24229 24230 24231 24232 24233 24234 24235 24236 24237 24238 24239 24240 24241 24242 24243 24244 24245 24246 24247 24248 24249 24250 24251 24252 24253 24254 24255 24256 24257 24258 24259 24260 24261 24262 24263 24264 24265 24266 24267 24268 24269 24270 24271 24272 24273 24274 24275 24276 24277 24278 24279 24280 24281 24282 24283 24284 24285 24286 24287 24288 24289 24290 24291 24292 24293 24294 24295 24296 24297 24298 24299 24300 24301 24302 24303 24304 24305 24306 24307 24308 24309 24310 24311 24312 24313 24314 24315 24316 24317 24318 24319 24320 24321 24322 24323 24324 24325 24326 24327 24328 24329 24330 24331 24332 24333 24334 24335 24336 24337 24338 24339 24340 24341 24342 24343 24344 24345 24346 24347 24348 24349 24350 24351 24352 24353 24354 24355 24356 24357 24358 24359 24360 24361 24362 24363 24364 24365 24366 24367 24368 24369 24370 24371 24372 24373 24374 24375 24376 24377 24378 24379 24380 24381 24382 24383 24384 24385 24386 24387 24388 24389 24390 24391 24392 24393 24394 24395 24396 24397 24398 24399 24400 24401 24402 24403 24404 24405 24406 24407 24408 24409 24410 24411 24412 24413 24414 24415 24416 24417 24418 24419 24420 24421 24422 24423 24424 24425 24426 24427 24428 24429 24430 24431 24432 24433 24434 24435 24436 24437 24438 24439 24440 24441 24442 24443 24444 24445 24446 24447 24448 24449 24450 24451 24452 24453 24454 24455 24456 24457 24458 24459 24460 24461 24462 24463 24464 24465 24466 24467 24468 24469 24470 24471 24472 24473 24474 24475 24476 24477 24478 24479 24480 24481 24482 24483 24484 24485 24486 24487 24488 24489 24490 24491 24492 24493 24494 24495 24496 24497 24498 24499 24500 24501 24502 24503 24504 24505 24506 24507 24508 24509 24510 24511 24512 24513 24514 24515 24516 24517 24518 24519 24520 24521 24522 24523 24524 24525 24526 24527 24528 24529 24530 24531 24532 24533 24534 24535 24536 24537 24538 24539 24540 24541 24542 24543 24544 24545 24546 24547 24548 24549 24550 24551 24552 24553 24554 24555 24556 24557 24558 24559 24560 24561 24562 24563 24564 24565 24566 24567 24568 24569 24570 24571 24572 24573 24574 24575 24576 24577 24578 24579 24580 24581 24582 24583 24584 24585 24586 24587 24588 24589 24590 24591 24592 24593 24594 24595 24596 24597 24598 24599 24600 24601 24602 24603 24604 24605 24606 24607 24608 24609 24610 24611 24612 24613 24614 24615 24616 24617 24618 24619 24620 24621 24622 24623 24624 24625 24626 24627 24628 24629 24630 24631 24632 24633 24634 24635 24636 24637 24638 24639 24640 24641 24642 24643 24644 24645 24646 24647 24648 24649 24650 24651 24652 24653 24654 24655 24656 24657 24658 24659 24660 24661 24662 24663 24664 24665 24666 24667 24668 24669 24670 24671 24672 24673 24674 24675 24676 24677 24678 24679 24680 24681 24682 24683 24684 24685 24686 24687 24688 24689 24690 24691 24692 24693 24694 24695 24696 24697 24698 24699 24700 24701 24702 24703 24704 24705 24706 24707 24708 24709 24710 24711 24712 24713 24714 24715 24716 24717 24718 24719 24720 24721 24722 24723 24724 24725 24726 24727 24728 24729 24730 24731 24732 24733 24734 24735 24736 24737 24738 24739 24740 24741 24742 24743 24744 24745 24746 24747 24748 24749 24750 24751 24752 24753 24754 24755 24756 24757 24758 24759 24760 24761 24762 24763 24764 24765 24766 24767 24768 24769 24770 24771 24772 24773 24774 24775 24776 24777 24778 24779 24780 24781 24782 24783 24784 24785 24786 24787 24788 24789 24790 24791 24792 24793 24794 24795 24796 24797 24798 24799 24800 24801 24802 24803 24804 24805 24806 24807 24808 24809 24810 24811 24812 24813 24814 24815 24816 24817 24818 24819 24820 24821 24822 24823 24824 24825 24826 24827 24828 24829 24830 24831 24832 24833 24834 24835 24836 24837 24838 24839 24840 24841 24842 24843 24844 24845 24846 24847 24848 24849 24850 24851 24852 24853 24854 24855 24856 24857 24858 24859 24860 24861 24862 24863 24864 24865 24866 24867 24868 24869 24870 24871 24872 24873 24874 24875 24876 24877 24878 24879 24880 24881 24882 24883 24884 24885 24886 24887 24888 24889 24890 24891 24892 24893 24894 24895 24896 24897 24898 24899 24900 24901 24902 24903 24904 24905 24906 24907 24908 24909 24910 24911 24912 24913 24914 24915 24916 24917 24918 24919 24920 24921 24922 24923 24924 24925 24926 24927 24928 24929 24930 24931 24932 24933 24934 24935 24936 24937 24938 24939 24940 24941 24942 24943 24944 24945 24946 24947 24948 24949 24950 24951 24952 24953 24954 24955 24956 24957 24958 24959 24960 24961 24962 24963 24964 24965 24966 24967 24968 24969 24970 24971 24972 24973 24974 24975 24976 24977 24978 24979 24980 24981 24982 24983 24984 24985 24986 24987 24988 24989 24990 24991 24992 24993 24994 24995 24996 24997 24998 24999 25000 25001 25002 25003 25004 25005 25006 25007 25008 25009 25010 25011 25012 25013 25014 25015 25016 25017 25018 25019 25020 25021 25022 25023 25024 25025 25026 25027 25028 25029 25030 25031 25032 25033 25034 25035 25036 25037 25038 25039 25040 25041 25042 25043 25044 25045 25046 25047 25048 25049 25050 25051 25052 25053 25054 25055 25056 25057 25058 25059 25060 25061 25062 25063 25064 25065 25066 25067 25068 25069 25070 25071 25072 25073 25074 25075 25076 25077 25078 25079 25080 25081 25082 25083 25084 25085 25086 25087 25088 25089 25090 25091 25092 25093 25094 25095 25096 25097 25098 25099 25100 25101 25102 25103 25104 25105 25106 25107 25108 25109 25110 25111 25112 25113 25114 25115 25116 25117 25118 25119 25120 25121 25122 25123 25124 25125 25126 25127 25128 25129 25130 25131 25132 25133 25134 25135 25136 25137 25138 25139 25140 25141 25142 25143 25144 25145 25146 25147 25148 25149 25150 25151 25152 25153 25154 25155 25156 25157 25158 25159 25160 25161 25162 25163 25164 25165 25166 25167 25168 25169 25170 25171 25172 25173 25174 25175 25176 25177 25178 25179 25180 25181 25182 25183 25184 25185 25186 25187 25188 25189 25190 25191 25192 25193 25194 25195 25196 25197 25198 25199 25200 25201 25202 25203 25204 25205 25206 25207 25208 25209 25210 25211 25212 25213 25214 25215 25216 25217 25218 25219 25220 25221 25222 25223 25224 25225 25226 25227 25228 25229 25230 25231 25232 25233 25234 25235 25236 25237 25238 25239 25240 25241 25242 25243 25244 25245 25246 25247 25248 25249 25250 25251 25252 25253 25254 25255 25256 25257 25258 25259 25260 25261 25262 25263 25264 25265 25266 25267 25268 25269 25270 25271 25272 25273 25274 25275 25276 25277 25278 25279 25280 25281 25282 25283 25284 25285 25286 25287 25288 25289 25290 25291 25292 25293 25294 25295 25296 25297 25298 25299 25300 25301 25302 25303 25304 25305 25306 25307 25308 25309 25310 25311 25312 25313 25314 25315 25316 25317 25318 25319 25320 25321 25322 25323 25324 25325 25326 25327 25328 25329 25330 25331 25332 25333 25334 25335 25336 25337 25338 25339 25340 25341 25342 25343 25344 25345 25346 25347 25348 25349 25350 25351 25352 25353 25354 25355 25356 25357 25358 25359 25360 25361 25362 25363 25364 25365 25366 25367 25368 25369 25370 25371 25372 25373 25374 25375 25376 25377 25378 25379 25380 25381 25382 25383 25384 25385 25386 25387 25388 25389 25390 25391 25392 25393 25394 25395 25396 25397 25398 25399 25400 25401 25402 25403 25404 25405 25406 25407 25408 25409 25410 25411 25412 25413 25414 25415 25416 25417 25418 25419 25420 25421 25422 25423 25424 25425 25426 25427 25428 25429 25430 25431 25432 25433 25434 25435 25436 25437 25438 25439 25440 25441 25442 25443 25444 25445 25446 25447 25448 25449 25450 25451 25452 25453 25454 25455 25456 25457 25458 25459 25460 25461 25462 25463 25464 25465 25466 25467 25468 25469 25470 25471 25472 25473 25474 25475 25476 25477 25478 25479 25480 25481 25482 25483 25484 25485 25486 25487 25488 25489 25490 25491 25492 25493 25494 25495 25496 25497 25498 25499 25500 25501 25502 25503 25504 25505 25506 25507 25508 25509 25510 25511 25512 25513 25514 25515 25516 25517 25518 25519 25520 25521 25522 25523 25524 25525 25526 25527 25528 25529 25530 25531 25532 25533 25534 25535 25536 25537 25538 25539 25540 25541 25542 25543 25544 25545 25546 25547 25548 25549 25550 25551 25552 25553 25554 25555 25556 25557 25558 25559 25560 25561 25562 25563 25564 25565 25566 25567 25568 25569 25570 25571 25572 25573 25574 25575 25576 25577 25578 25579 25580 25581 25582 25583 25584 25585 25586 25587 25588 25589 25590 25591 25592 25593 25594 25595 25596 25597 25598 25599 25600 25601 25602 25603 25604 25605 25606 25607 25608 25609 25610 25611 25612 25613 25614 25615 25616 25617 25618 25619 25620 25621 25622 25623 25624 25625 25626 25627 25628 25629 25630 25631 25632 25633 25634 25635 25636 25637 25638 25639 25640 25641 25642 25643 25644 25645 25646 25647 25648 25649 25650 25651 25652 25653 25654 25655 25656 25657 25658 25659 25660 25661 25662 25663 25664 25665 25666 25667 25668 25669 25670 25671 25672 25673 25674 25675 25676 25677 25678 25679 25680 25681 25682 25683 25684 25685 25686 25687 25688 25689 25690 25691 25692 25693 25694 25695 25696 25697 25698 25699 25700 25701 25702 25703 25704 25705 25706 25707 25708 25709 25710 25711 25712 25713 25714 25715 25716 25717 25718 25719 25720 25721 25722 25723 25724 25725 25726 25727 25728 25729 25730 25731 25732 25733 25734 25735 25736 25737 25738 25739 25740 25741 25742 25743 25744 25745 25746 25747 25748 25749 25750 25751 25752 25753 25754 25755 25756 25757 25758 25759 25760 25761 25762 25763 25764 25765 25766 25767 25768 25769 25770 25771 25772 25773 25774 25775 25776 25777 25778 25779 25780 25781 25782 25783 25784 25785 25786 25787 25788 25789 25790 25791 25792 25793 25794 25795 25796 25797 25798 25799 25800 25801 25802 25803 25804 25805 25806 25807 25808 25809 25810 25811 25812 25813 25814 25815 25816 25817 25818 25819 25820 25821 25822 25823 25824 25825 25826 25827 25828 25829 25830 25831 25832 25833 25834 25835 25836 25837 25838 25839 25840 25841 25842 25843 25844 25845 25846 25847 25848 25849 25850 25851 25852 25853 25854 25855 25856 25857 25858 25859 25860 25861 25862 25863 25864 25865 25866 25867 25868 25869 25870 25871 25872 25873 25874 25875 25876 25877 25878 25879 25880 25881 25882 25883 25884 25885 25886 25887 25888 25889 25890 25891 25892 25893 25894 25895 25896 25897 25898 25899 25900 25901 25902 25903 25904 25905 25906 25907 25908 25909 25910 25911 25912 25913 25914 25915 25916 25917 25918 25919 25920 25921 25922 25923 25924 25925 25926 25927 25928 25929 25930 25931 25932 25933 25934 25935 25936 25937 25938 25939 25940 25941 25942 25943 25944 25945 25946 25947 25948 25949 25950 25951 25952 25953 25954 25955 25956 25957 25958 25959 25960 25961 25962 25963 25964 25965 25966 25967 25968 25969 25970 25971 25972 25973 25974 25975 25976 25977 25978 25979 25980 25981 25982 25983 25984 25985 25986 25987 25988 25989 25990 25991 25992 25993 25994 25995 25996 25997 25998 25999 26000 26001 26002 26003 26004 26005 26006 26007 26008 26009 26010 26011 26012 26013 26014 26015 26016 26017 26018 26019 26020 26021 26022 26023 26024 26025 26026 26027 26028 26029 26030 26031 26032 26033 26034 26035 26036 26037 26038 26039 26040 26041 26042 26043 26044 26045 26046 26047 26048 26049 26050 26051 26052 26053 26054 26055 26056 26057 26058 26059 26060 26061 26062 26063 26064 26065 26066 26067 26068 26069 26070 26071 26072 26073 26074 26075 26076 26077 26078 26079 26080 26081 26082 26083 26084 26085 26086 26087 26088 26089 26090 26091 26092 26093 26094 26095 26096 26097 26098 26099 26100 26101 26102 26103 26104 26105 26106 26107 26108 26109 26110 26111 26112 26113 26114 26115 26116 26117 26118 26119 26120 26121 26122 26123 26124 26125 26126 26127 26128 26129 26130 26131 26132 26133 26134 26135 26136 26137 26138 26139 26140 26141 26142 26143 26144 26145 26146 26147 26148 26149 26150 26151 26152 26153 26154 26155 26156 26157 26158 26159 26160 26161 26162 26163 26164 26165 26166 26167 26168 26169 26170 26171 26172 26173 26174 26175 26176 26177 26178 26179 26180 26181 26182 26183 26184 26185 26186 26187 26188 26189 26190 26191 26192 26193 26194 26195 26196 26197 26198 26199 26200 26201 26202 26203 26204 26205 26206 26207 26208 26209 26210 26211 26212 26213 26214 26215 26216 26217 26218 26219 26220 26221 26222 26223 26224 26225 26226 26227 26228 26229 26230 26231 26232 26233 26234 26235 26236 26237 26238 26239 26240 26241 26242 26243 26244 26245 26246 26247 26248 26249 26250 26251 26252 26253 26254 26255 26256 26257 26258 26259 26260 26261 26262 26263 26264 26265 26266 26267 26268 26269 26270 26271 26272 26273 26274 26275 26276 26277 26278 26279 26280 26281 26282 26283 26284 26285 26286 26287 26288 26289 26290 26291 26292 26293 26294 26295 26296 26297 26298 26299 26300 26301 26302 26303 26304 26305 26306 26307 26308 26309 26310 26311 26312 26313 26314 26315 26316 26317 26318 26319 26320 26321 26322 26323 26324 26325 26326 26327 26328 26329 26330 26331 26332 26333 26334 26335 26336 26337 26338 26339 26340 26341 26342 26343 26344 26345 26346 26347 26348 26349 26350 26351 26352 26353 26354 26355 26356 26357 26358 26359 26360 26361 26362 26363 26364 26365 26366 26367 26368 26369 26370 26371 26372 26373 26374 26375 26376 26377 26378 26379 26380 26381 26382 26383 26384 26385 26386 26387 26388 26389 26390 26391 26392 26393 26394 26395 26396 26397 26398 26399 26400 26401 26402 26403 26404 26405 26406 26407 26408 26409 26410 26411 26412 26413 26414 26415 26416 26417 26418 26419 26420 26421 26422 26423 26424 26425 26426 26427 26428 26429 26430 26431 26432 26433 26434 26435 26436 26437 26438 26439 26440 26441 26442 26443 26444 26445 26446 26447 26448 26449 26450 26451 26452 26453 26454 26455 26456 26457 26458 26459 26460 26461 26462 26463 26464 26465 26466 26467 26468 26469 26470 26471 26472 26473 26474 26475 26476 26477 26478 26479 26480 26481 26482 26483 26484 26485 26486 26487 26488 26489 26490 26491 26492 26493 26494 26495 26496 26497 26498 26499 26500 26501 26502 26503 26504 26505 26506 26507 26508 26509 26510 26511 26512 26513 26514 26515 26516 26517 26518 26519 26520 26521 26522 26523 26524 26525 26526 26527 26528 26529 26530 26531 26532 26533 26534 26535 26536 26537 26538 26539 26540 26541 26542 26543 26544 26545 26546 26547 26548 26549 26550 26551 26552 26553 26554 26555 26556 26557 26558 26559 26560 26561 26562 26563 26564 26565 26566 26567 26568 26569 26570 26571 26572 26573 26574 26575 26576 26577 26578 26579 26580 26581 26582 26583 26584 26585 26586 26587 26588 26589 26590 26591 26592 26593 26594 26595 26596 26597 26598 26599 26600 26601 26602 26603 26604 26605 26606 26607 26608 26609 26610 26611 26612 26613 26614 26615 26616 26617 26618 26619 26620 26621 26622 26623 26624 26625 26626 26627 26628 26629 26630 26631 26632 26633 26634 26635 26636 26637 26638 26639 26640 26641 26642 26643 26644 26645 26646 26647 26648 26649 26650 26651 26652 26653 26654 26655 26656 26657 26658 26659 26660 26661 26662 26663 26664 26665 26666 26667 26668 26669 26670 26671 26672 26673 26674 26675 26676 26677 26678 26679 26680 26681 26682 26683 26684 26685 26686 26687 26688 26689 26690 26691 26692 26693 26694 26695 26696 26697 26698 26699 26700 26701 26702 26703 26704 26705 26706 26707 26708 26709 26710 26711 26712 26713 26714 26715 26716 26717 26718 26719 26720 26721 26722 26723 26724 26725 26726 26727 26728 26729 26730 26731 26732 26733 26734 26735 26736 26737 26738 26739 26740 26741 26742 26743 26744 26745 26746 26747 26748 26749 26750 26751 26752 26753 26754 26755 26756 26757 26758 26759 26760 26761 26762 26763 26764 26765 26766 26767 26768 26769 26770 26771 26772 26773 26774 26775 26776 26777 26778 26779 26780 26781 26782 26783 26784 26785 26786 26787 26788 26789 26790 26791 26792 26793 26794 26795 26796 26797 26798 26799 26800 26801 26802 26803 26804 26805 26806 26807 26808 26809 26810 26811 26812 26813 26814 26815 26816 26817 26818 26819 26820 26821 26822 26823 26824 26825 26826 26827 26828 26829 26830 26831 26832 26833 26834 26835 26836 26837 26838 26839 26840 26841 26842 26843 26844 26845 26846 26847 26848 26849 26850 26851 26852 26853 26854 26855 26856 26857 26858 26859 26860 26861 26862 26863 26864 26865 26866 26867 26868 26869 26870 26871 26872 26873 26874 26875 26876 26877 26878 26879 26880 26881 26882 26883 26884 26885 26886 26887 26888 26889 26890 26891 26892 26893 26894 26895 26896 26897 26898 26899 26900 26901 26902 26903 26904 26905 26906 26907 26908 26909 26910 26911 26912 26913 26914 26915 26916 26917 26918 26919 26920 26921 26922 26923 26924 26925 26926 26927 26928 26929 26930 26931 26932 26933 26934 26935 26936 26937 26938 26939 26940 26941 26942 26943 26944 26945 26946 26947 26948 26949 26950 26951 26952 26953 26954 26955 26956 26957 26958 26959 26960 26961 26962 26963 26964 26965 26966 26967 26968 26969 26970 26971 26972 26973 26974 26975 26976 26977 26978 26979 26980 26981 26982 26983 26984 26985 26986 26987 26988 26989 26990 26991 26992 26993 26994 26995 26996 26997 26998 26999 27000 27001 27002 27003 27004 27005 27006 27007 27008 27009 27010 27011 27012 27013 27014 27015 27016 27017 27018 27019 27020 27021 27022 27023 27024 27025 27026 27027 27028 27029 27030 27031 27032 27033 27034 27035 27036 27037 27038 27039 27040 27041 27042 27043 27044 27045 27046 27047 27048 27049 27050 27051 27052 27053 27054 27055 27056 27057 27058 27059 27060 27061 27062 27063 27064 27065 27066 27067 27068 27069 27070 27071 27072 27073 27074 27075 27076 27077 27078 27079 27080 27081 27082 27083 27084 27085 27086 27087 27088 27089 27090 27091 27092 27093 27094 27095 27096 27097 27098 27099 27100 27101 27102 27103 27104 27105 27106 27107 27108 27109 27110 27111 27112 27113 27114 27115 27116 27117 27118 27119 27120 27121 27122 27123 27124 27125 27126 27127 27128 27129 27130 27131 27132 27133 27134 27135 27136 27137 27138 27139 27140 27141 27142 27143 27144 27145 27146 27147 27148 27149 27150 27151 27152 27153 27154 27155 27156 27157 27158 27159 27160 27161 27162 27163 27164 27165 27166 27167 27168 27169 27170 27171 27172 27173 27174 27175 27176 27177 27178 27179 27180 27181 27182 27183 27184 27185 27186 27187 27188 27189 27190 27191 27192 27193 27194 27195 27196 27197 27198 27199 27200 27201 27202 27203 27204 27205 27206 27207 27208 27209 27210 27211 27212 27213 27214 27215 27216 27217 27218 27219 27220 27221 27222 27223 27224 27225 27226 27227 27228 27229 27230 27231 27232 27233 27234 27235 27236 27237 27238 27239 27240 27241 27242 27243 27244 27245 27246 27247 27248 27249 27250 27251 27252 27253 27254 27255 27256 27257 27258 27259 27260 27261 27262 27263 27264 27265 27266 27267 27268 27269 27270 27271 27272 27273 27274 27275 27276 27277 27278 27279 27280 27281 27282 27283 27284 27285 27286 27287 27288 27289 27290 27291 27292 27293 27294 27295 27296 27297 27298 27299 27300 27301 27302 27303 27304 27305 27306 27307 27308 27309 27310 27311 27312 27313 27314 27315 27316 27317 27318 27319 27320 27321 27322 27323 27324 27325 27326 27327 27328 27329 27330 27331 27332 27333 27334 27335 27336 27337 27338 27339 27340 27341 27342 27343 27344 27345 27346 27347 27348 27349 27350 27351 27352 27353 27354 27355 27356 27357 27358 27359 27360 27361 27362 27363 27364 27365 27366 27367 27368 27369 27370 27371 27372 27373 27374 27375 27376 27377 27378 27379 27380 27381 27382 27383 27384 27385 27386 27387 27388 27389 27390 27391 27392 27393 27394 27395 27396 27397 27398 27399 27400 27401 27402 27403 27404 27405 27406 27407 27408 27409 27410 27411 27412 27413 27414 27415 27416 27417 27418 27419 27420 27421 27422 27423 27424 27425 27426 27427 27428 27429 27430 27431 27432 27433 27434 27435 27436 27437 27438 27439 27440 27441 27442 27443 27444 27445 27446 27447 27448 27449 27450 27451 27452 27453 27454 27455 27456 27457 27458 27459 27460 27461 27462 27463 27464 27465 27466 27467 27468 27469 27470 27471 27472 27473 27474 27475 27476 27477 27478 27479 27480 27481 27482 27483 27484 27485 27486 27487 27488 27489 27490 27491 27492 27493 27494 27495 27496 27497 27498 27499 27500 27501 27502 27503 27504 27505 27506 27507 27508 27509 27510 27511 27512 27513 27514 27515 27516 27517 27518 27519 27520 27521 27522 27523 27524 27525 27526 27527 27528 27529 27530 27531 27532 27533 27534 27535 27536 27537 27538 27539 27540 27541 27542 27543 27544 27545 27546 27547 27548 27549 27550 27551 27552 27553 27554 27555 27556 27557 27558 27559 27560 27561 27562 27563 27564 27565 27566 27567 27568 27569 27570 27571 27572 27573 27574 27575 27576 27577 27578 27579 27580 27581 27582 27583 27584 27585 27586 27587 27588 27589 27590 27591 27592 27593 27594 27595 27596 27597 27598 27599 27600 27601 27602 27603 27604 27605 27606 27607 27608 27609 27610 27611 27612 27613 27614 27615 27616 27617 27618 27619 27620 27621 27622 27623 27624 27625 27626 27627 27628 27629 27630 27631 27632 27633 27634 27635 27636 27637 27638 27639 27640 27641 27642 27643 27644 27645 27646 27647 27648 27649 27650 27651 27652 27653 27654 27655 27656 27657 27658 27659 27660 27661 27662 27663 27664 27665 27666 27667 27668 27669 27670 27671 27672 27673 27674 27675 27676 27677 27678 27679 27680 27681 27682 27683 27684 27685 27686 27687 27688 27689 27690 27691 27692 27693 27694 27695 27696 27697 27698 27699 27700 27701 27702 27703 27704 27705 27706 27707 27708 27709 27710 27711 27712 27713 27714 27715 27716 27717 27718 27719 27720 27721 27722 27723 27724 27725 27726 27727 27728 27729 27730 27731 27732 27733 27734 27735 27736 27737 27738 27739 27740 27741 27742 27743 27744 27745 27746 27747 27748 27749 27750 27751 27752 27753 27754 27755 27756 27757 27758 27759 27760 27761 27762 27763 27764 27765 27766 27767 27768 27769 27770 27771 27772 27773 27774 27775 27776 27777 27778 27779 27780 27781 27782 27783 27784 27785 27786 27787 27788 27789 27790 27791 27792 27793 27794 27795 27796 27797 27798 27799 27800 27801 27802 27803 27804 27805 27806 27807 27808 27809 27810 27811 27812 27813 27814 27815 27816 27817 27818 27819 27820 27821 27822 27823 27824 27825 27826 27827 27828 27829 27830 27831 27832 27833 27834 27835 27836 27837 27838 27839 27840 27841 27842 27843 27844 27845 27846 27847 27848 27849 27850 27851 27852 27853 27854 27855 27856 27857 27858 27859 27860 27861 27862 27863 27864 27865 27866 27867 27868 27869 27870 27871 27872 27873 27874 27875 27876 27877 27878 27879 27880 27881 27882 27883 27884 27885 27886 27887 27888 27889 27890 27891 27892 27893 27894 27895 27896 27897 27898 27899 27900 27901 27902 27903 27904 27905 27906 27907 27908 27909 27910 27911 27912 27913 27914 27915 27916 27917 27918 27919 27920 27921 27922 27923 27924 27925 27926 27927 27928 27929 27930 27931 27932 27933 27934 27935 27936 27937 27938 27939 27940 27941 27942 27943 27944 27945 27946 27947 27948 27949 27950 27951 27952 27953 27954 27955 27956 27957 27958 27959 27960 27961 27962 27963 27964 27965 27966 27967 27968 27969 27970 27971 27972 27973 27974 27975 27976 27977 27978 27979 27980 27981 27982 27983 27984 27985 27986 27987 27988 27989 27990 27991 27992 27993 27994 27995 27996 27997 27998 27999 28000 28001 28002 28003 28004 28005 28006 28007 28008 28009 28010 28011 28012 28013 28014 28015 28016 28017 28018 28019 28020 28021 28022 28023 28024 28025 28026 28027 28028 28029 28030 28031 28032 28033 28034 28035 28036 28037 28038 28039 28040 28041 28042 28043 28044 28045 28046 28047 28048 28049 28050 28051 28052 28053 28054 28055 28056 28057 28058 28059 28060 28061 28062 28063 28064 28065 28066 28067 28068 28069 28070 28071 28072 28073 28074 28075 28076 28077 28078 28079 28080 28081 28082 28083 28084 28085 28086 28087 28088 28089 28090 28091 28092 28093 28094 28095 28096 28097 28098 28099 28100 28101 28102 28103 28104 28105 28106 28107 28108 28109 28110 28111 28112 28113 28114 28115 28116 28117 28118 28119 28120 28121 28122 28123 28124 28125 28126 28127 28128 28129 28130 28131 28132 28133 28134 28135 28136 28137 28138 28139 28140 28141 28142 28143 28144 28145 28146 28147 28148 28149 28150 28151 28152 28153 28154 28155 28156 28157 28158 28159 28160 28161 28162 28163 28164 28165 28166 28167 28168 28169 28170 28171 28172 28173 28174 28175 28176 28177 28178 28179 28180 28181 28182 28183 28184 28185 28186 28187 28188 28189 28190 28191 28192 28193 28194 28195 28196 28197 28198 28199 28200 28201 28202 28203 28204 28205 28206 28207 28208 28209 28210 28211 28212 28213 28214 28215 28216 28217 28218 28219 28220 28221 28222 28223 28224 28225 28226 28227 28228 28229 28230 28231 28232 28233 28234 28235 28236 28237 28238 28239 28240 28241 28242 28243 28244 28245 28246 28247 28248 28249 28250 28251 28252 28253 28254 28255 28256 28257 28258 28259 28260 28261 28262 28263 28264 28265 28266 28267 28268 28269 28270 28271 28272 28273 28274 28275 28276 28277 28278 28279 28280 28281 28282 28283 28284 28285 28286 28287 28288 28289 28290 28291 28292 28293 28294 28295 28296 28297 28298 28299 28300 28301 28302 28303 28304 28305 28306 28307 28308 28309 28310 28311 28312 28313 28314 28315 28316 28317 28318 28319 28320 28321 28322 28323 28324 28325 28326 28327 28328 28329 28330 28331 28332 28333 28334 28335 28336 28337 28338 28339 28340 28341 28342 28343 28344 28345 28346 28347 28348 28349 28350 28351 28352 28353 28354 28355 28356 28357 28358 28359 28360 28361 28362 28363 28364 28365 28366 28367 28368 28369 28370 28371 28372 28373 28374 28375 28376 28377 28378 28379 28380 28381 28382 28383 28384 28385 28386 28387 28388 28389 28390 28391 28392 28393 28394 28395 28396 28397 28398 28399 28400 28401 28402 28403 28404 28405 28406 28407 28408 28409 28410 28411 28412 28413 28414 28415 28416 28417 28418 28419 28420 28421 28422 28423 28424 28425 28426 28427 28428 28429 28430 28431 28432 28433 28434 28435 28436 28437 28438 28439 28440 28441 28442 28443 28444 28445 28446 28447 28448 28449 28450 28451 28452 28453 28454 28455 28456 28457 28458 28459 28460 28461 28462 28463 28464 28465 28466 28467 28468 28469 28470 28471 28472 28473 28474 28475 28476 28477 28478 28479 28480 28481 28482 28483 28484 28485 28486 28487 28488 28489 28490 28491 28492 28493 28494 28495 28496 28497 28498 28499 28500 28501 28502 28503 28504 28505 28506 28507 28508 28509 28510 28511 28512 28513 28514 28515 28516 28517 28518 28519 28520 28521 28522 28523 28524 28525 28526 28527 28528 28529 28530 28531 28532 28533 28534 28535 28536 28537 28538 28539 28540 28541 28542 28543 28544 28545 28546 28547 28548 28549 28550 28551 28552 28553 28554 28555 28556 28557 28558 28559 28560 28561 28562 28563 28564 28565 28566 28567 28568 28569 28570 28571 28572 28573 28574 28575 28576 28577 28578 28579 28580 28581 28582 28583 28584 28585 28586 28587 28588 28589 28590 28591 28592 28593 28594 28595 28596 28597 28598 28599 28600 28601 28602 28603 28604 28605 28606 28607 28608 28609 28610 28611 28612 28613 28614 28615 28616 28617 28618 28619 28620 28621 28622 28623 28624 28625 28626 28627 28628 28629 28630 28631 28632 28633 28634 28635 28636 28637 28638 28639 28640 28641 28642 28643 28644 28645 28646 28647 28648 28649 28650 28651 28652 28653 28654 28655 28656 28657 28658 28659 28660 28661 28662 28663 28664 28665 28666 28667 28668 28669 28670 28671 28672 28673 28674 28675 28676 28677 28678 28679 28680 28681 28682 28683 28684 28685 28686 28687 28688 28689 28690 28691 28692 28693 28694 28695 28696 28697 28698 28699 28700 28701 28702 28703 28704 28705 28706 28707 28708 28709 28710 28711 28712 28713 28714 28715 28716 28717 28718 28719 28720 28721 28722 28723 28724 28725 28726 28727 28728 28729 28730 28731 28732 28733 28734 28735 28736 28737 28738 28739 28740 28741 28742 28743 28744 28745 28746 28747 28748 28749 28750 28751 28752 28753 28754 28755 28756 28757 28758 28759 28760 28761 28762 28763 28764 28765 28766 28767 28768 28769 28770 28771 28772 28773 28774 28775 28776 28777 28778 28779 28780 28781 28782 28783 28784 28785 28786 28787 28788 28789 28790 28791 28792 28793 28794 28795 28796 28797 28798 28799 28800 28801 28802 28803 28804 28805 28806 28807 28808 28809 28810 28811 28812 28813 28814 28815 28816 28817 28818 28819 28820 28821 28822 28823 28824 28825 28826 28827 28828 28829 28830 28831 28832 28833 28834 28835 28836 28837 28838 28839 28840 28841 28842 28843 28844 28845 28846 28847 28848 28849 28850 28851 28852 28853 28854 28855 28856 28857 28858 28859 28860 28861 28862 28863 28864 28865 28866 28867 28868 28869 28870 28871 28872 28873 28874 28875 28876 28877 28878 28879 28880 28881 28882 28883 28884 28885 28886 28887 28888 28889 28890 28891 28892 28893 28894 28895 28896 28897 28898 28899 28900 28901 28902 28903 28904 28905 28906 28907 28908 28909 28910 28911 28912 28913 28914 28915 28916 28917 28918 28919 28920 28921 28922 28923 28924 28925 28926 28927 28928 28929 28930 28931 28932 28933 28934 28935 28936 28937 28938 28939 28940 28941 28942 28943 28944 28945 28946 28947 28948 28949 28950 28951 28952 28953 28954 28955 28956 28957 28958 28959 28960 28961 28962 28963 28964 28965 28966 28967 28968 28969 28970 28971 28972 28973 28974 28975 28976 28977 28978 28979 28980 28981 28982 28983 28984 28985 28986 28987 28988 28989 28990 28991 28992 28993 28994 28995 28996 28997 28998 28999 29000 29001 29002 29003 29004 29005 29006 29007 29008 29009 29010 29011 29012 29013 29014 29015 29016 29017 29018 29019 29020 29021 29022 29023 29024 29025 29026 29027 29028 29029 29030 29031 29032 29033 29034 29035 29036 29037 29038 29039 29040 29041 29042 29043 29044 29045 29046 29047 29048 29049 29050 29051 29052 29053 29054 29055 29056 29057 29058 29059 29060 29061 29062 29063 29064 29065 29066 29067 29068 29069 29070 29071 29072 29073 29074 29075 29076 29077 29078 29079 29080 29081 29082 29083 29084 29085 29086 29087 29088 29089 29090 29091 29092 29093 29094 29095 29096 29097 29098 29099 29100 29101 29102 29103 29104 29105 29106 29107 29108 29109 29110 29111 29112 29113 29114 29115 29116 29117 29118 29119 29120 29121 29122 29123 29124 29125 29126 29127 29128 29129 29130 29131 29132 29133 29134 29135 29136 29137 29138 29139 29140 29141 29142 29143 29144 29145 29146 29147 29148 29149 29150 29151 29152 29153 29154 29155 29156 29157 29158 29159 29160 29161 29162 29163 29164 29165 29166 29167 29168 29169 29170 29171 29172 29173 29174 29175 29176 29177 29178 29179 29180 29181 29182 29183 29184 29185 29186 29187 29188 29189 29190 29191 29192 29193 29194 29195 29196 29197 29198 29199 29200 29201 29202 29203 29204 29205 29206 29207 29208 29209 29210 29211 29212 29213 29214 29215 29216 29217 29218 29219 29220 29221 29222 29223 29224 29225 29226 29227 29228 29229 29230 29231 29232 29233 29234 29235 29236 29237 29238 29239 29240 29241 29242 29243 29244 29245 29246 29247 29248 29249 29250 29251 29252 29253 29254 29255 29256 29257 29258 29259 29260 29261 29262 29263 29264 29265 29266 29267 29268 29269 29270 29271 29272 29273 29274 29275 29276 29277 29278 29279 29280 29281 29282 29283 29284 29285 29286 29287 29288 29289 29290 29291 29292 29293 29294 29295 29296 29297 29298 29299 29300 29301 29302 29303 29304 29305 29306 29307 29308 29309 29310 29311 29312 29313 29314 29315 29316 29317 29318 29319 29320 29321 29322 29323 29324 29325 29326 29327 29328 29329 29330 29331 29332 29333 29334 29335 29336 29337 29338 29339 29340 29341 29342 29343 29344 29345 29346 29347 29348 29349 29350 29351 29352 29353 29354 29355 29356 29357 29358 29359 29360 29361 29362 29363 29364 29365 29366 29367 29368 29369 29370 29371 29372 29373 29374 29375 29376 29377 29378 29379 29380 29381 29382 29383 29384 29385 29386 29387 29388 29389 29390 29391 29392 29393 29394 29395 29396 29397 29398 29399 29400 29401 29402 29403 29404 29405 29406 29407 29408 29409 29410 29411 29412 29413 29414 29415 29416 29417 29418 29419 29420 29421 29422 29423 29424 29425 29426 29427 29428 29429 29430 29431 29432 29433 29434 29435 29436 29437 29438 29439 29440 29441 29442 29443 29444 29445 29446 29447 29448 29449 29450 29451 29452 29453 29454 29455 29456 29457 29458 29459 29460 29461 29462 29463 29464 29465 29466 29467 29468 29469 29470 29471 29472 29473 29474 29475 29476 29477 29478 29479 29480 29481 29482 29483 29484 29485 29486 29487 29488 29489 29490 29491 29492 29493 29494 29495 29496 29497 29498 29499 29500 29501 29502 29503 29504 29505 29506 29507 29508 29509 29510 29511 29512 29513 29514 29515 29516 29517 29518 29519 29520 29521 29522 29523 29524 29525 29526 29527 29528 29529 29530 29531 29532 29533 29534 29535 29536 29537 29538 29539 29540 29541 29542 29543 29544 29545 29546 29547 29548 29549 29550 29551 29552 29553 29554 29555 29556 29557 29558 29559 29560 29561 29562 29563 29564 29565 29566 29567 29568 29569 29570 29571 29572 29573 29574 29575 29576 29577 29578 29579 29580 29581 29582 29583 29584 29585 29586 29587 29588 29589 29590 29591 29592 29593 29594 29595 29596 29597 29598 29599 29600 29601 29602 29603 29604 29605 29606 29607 29608 29609 29610 29611 29612 29613 29614 29615 29616 29617 29618 29619 29620 29621 29622 29623 29624 29625 29626 29627 29628 29629 29630 29631 29632 29633 29634 29635 29636 29637 29638 29639 29640 29641 29642 29643 29644 29645 29646 29647 29648 29649 29650 29651 29652 29653 29654 29655 29656 29657 29658 29659 29660 29661 29662 29663 29664 29665 29666 29667 29668 29669 29670 29671 29672 29673 29674 29675 29676 29677 29678 29679 29680 29681 29682 29683 29684 29685 29686 29687 29688 29689 29690 29691 29692 29693 29694 29695 29696 29697 29698 29699 29700 29701 29702 29703 29704 29705 29706 29707 29708 29709 29710 29711 29712 29713 29714 29715 29716 29717 29718 29719 29720 29721 29722 29723 29724 29725 29726 29727 29728 29729 29730 29731 29732 29733 29734 29735 29736 29737 29738 29739 29740 29741 29742 29743 29744 29745 29746 29747 29748 29749 29750 29751 29752 29753 29754 29755 29756 29757 29758 29759 29760 29761 29762 29763 29764 29765 29766 29767 29768 29769 29770 29771 29772 29773 29774 29775 29776 29777 29778 29779 29780 29781 29782 29783 29784 29785 29786 29787 29788 29789 29790 29791 29792 29793 29794 29795 29796 29797 29798 29799 29800 29801 29802 29803 29804 29805 29806 29807 29808 29809 29810 29811 29812 29813 29814 29815 29816 29817 29818 29819 29820 29821 29822 29823 29824 29825 29826 29827 29828 29829 29830 29831 29832 29833 29834 29835 29836 29837 29838 29839 29840 29841 29842 29843 29844 29845 29846 29847 29848 29849 29850 29851 29852 29853 29854 29855 29856 29857 29858 29859 29860 29861 29862 29863 29864 29865 29866 29867 29868 29869 29870 29871 29872 29873 29874 29875 29876 29877 29878 29879 29880 29881 29882 29883 29884 29885 29886 29887 29888 29889 29890 29891 29892 29893 29894 29895 29896 29897 29898 29899 29900 29901 29902 29903 29904 29905 29906 29907 29908 29909 29910 29911 29912 29913 29914 29915 29916 29917 29918 29919 29920 29921 29922 29923 29924 29925 29926 29927 29928 29929 29930 29931 29932 29933 29934 29935 29936 29937 29938 29939 29940 29941 29942 29943 29944 29945 29946 29947 29948 29949 29950 29951 29952 29953 29954 29955 29956 29957 29958 29959 29960 29961 29962 29963 29964 29965 29966 29967 29968 29969 29970 29971 29972 29973 29974 29975 29976 29977 29978 29979 29980 29981 29982 29983 29984 29985 29986 29987 29988 29989 29990 29991 29992 29993 29994 29995 29996 29997 29998 29999 30000 30001 30002 30003 30004 30005 30006 30007 30008 30009 30010 30011 30012 30013 30014 30015 30016 30017 30018 30019 30020 30021 30022 30023 30024 30025 30026 30027 30028 30029 30030 30031 30032 30033 30034 30035 30036 30037 30038 30039 30040 30041 30042 30043 30044 30045 30046 30047 30048 30049 30050 30051 30052 30053 30054 30055 30056 30057 30058 30059 30060 30061 30062 30063 30064 30065 30066 30067 30068 30069 30070 30071 30072 30073 30074 30075 30076 30077 30078 30079 30080 30081 30082 30083 30084 30085 30086 30087 30088 30089 30090 30091 30092 30093 30094 30095 30096 30097 30098 30099 30100 30101 30102 30103 30104 30105 30106 30107 30108 30109 30110 30111 30112 30113 30114 30115 30116 30117 30118 30119 30120 30121 30122 30123 30124 30125 30126 30127 30128 30129 30130 30131 30132 30133 30134 30135 30136 30137 30138 30139 30140 30141 30142 30143 30144 30145 30146 30147 30148 30149 30150 30151 30152 30153 30154 30155 30156 30157 30158 30159 30160 30161 30162 30163 30164 30165 30166 30167 30168 30169 30170 30171 30172 30173 30174 30175 30176 30177 30178 30179 30180 30181 30182 30183 30184 30185 30186 30187 30188 30189 30190 30191 30192 30193 30194 30195 30196 30197 30198 30199 30200 30201 30202 30203 30204 30205 30206 30207 30208 30209 30210 30211 30212 30213 30214 30215 30216 30217 30218 30219 30220 30221 30222 30223 30224 30225 30226 30227 30228 30229 30230 30231 30232 30233 30234 30235 30236 30237 30238 30239 30240 30241 30242 30243 30244 30245 30246 30247 30248 30249 30250 30251 30252 30253 30254 30255 30256 30257 30258 30259 30260 30261 30262 30263 30264 30265 30266 30267 30268 30269 30270 30271 30272 30273 30274 30275 30276 30277 30278 30279 30280 30281 30282 30283 30284 30285 30286 30287 30288 30289 30290 30291 30292 30293 30294 30295 30296 30297 30298 30299 30300 30301 30302 30303 30304 30305 30306 30307 30308 30309 30310 30311 30312 30313 30314 30315 30316 30317 30318 30319 30320 30321 30322 30323 30324 30325 30326 30327 30328 30329 30330 30331 30332 30333 30334 30335 30336 30337 30338 30339 30340 30341 30342 30343 30344 30345 30346 30347 30348 30349 30350 30351 30352 30353 30354 30355 30356 30357 30358 30359 30360 30361 30362 30363 30364 30365 30366 30367 30368 30369 30370 30371 30372 30373 30374 30375 30376 30377 30378 30379 30380 30381 30382 30383 30384 30385 30386 30387 30388 30389 30390 30391 30392 30393 30394 30395 30396 30397 30398 30399 30400 30401 30402 30403 30404 30405 30406 30407 30408 30409 30410 30411 30412 30413 30414 30415 30416 30417 30418 30419 30420 30421 30422 30423 30424 30425 30426 30427 30428 30429 30430 30431 30432 30433 30434 30435 30436 30437 30438 30439 30440 30441 30442 30443 30444 30445 30446 30447 30448 30449 30450 30451 30452 30453 30454 30455 30456 30457 30458 30459 30460 30461 30462 30463 30464 30465 30466 30467 30468 30469 30470 30471 30472 30473 30474 30475 30476 30477 30478 30479 30480 30481 30482 30483 30484 30485 30486 30487 30488 30489 30490 30491 30492 30493 30494 30495 30496 30497 30498 30499 30500 30501 30502 30503 30504 30505 30506 30507 30508 30509 30510 30511 30512 30513 30514 30515 30516 30517 30518 30519 30520 30521 30522 30523 30524 30525 30526 30527 30528 30529 30530 30531 30532 30533 30534 30535 30536 30537 30538 30539 30540 30541 30542 30543 30544 30545 30546 30547 30548 30549 30550 30551 30552 30553 30554 30555 30556 30557 30558 30559 30560 30561 30562 30563 30564 30565 30566 30567 30568 30569 30570 30571 30572 30573 30574 30575 30576 30577 30578 30579 30580 30581 30582 30583 30584 30585 30586 30587 30588 30589 30590 30591 30592 30593 30594 30595 30596 30597 30598 30599 30600 30601 30602 30603 30604 30605 30606 30607 30608 30609 30610 30611 30612 30613 30614 30615 30616 30617 30618 30619 30620 30621 30622 30623 30624 30625 30626 30627 30628 30629 30630 30631 30632 30633 30634 30635 30636 30637 30638 30639 30640 30641 30642 30643 30644 30645 30646 30647 30648 30649 30650 30651 30652 30653 30654 30655 30656 30657 30658 30659 30660 30661 30662 30663 30664 30665 30666 30667 30668 30669 30670 30671 30672 30673 30674 30675 30676 30677 30678 30679 30680 30681 30682 30683 30684 30685 30686 30687 30688 30689 30690 30691 30692 30693 30694 30695 30696 30697 30698 30699 30700 30701 30702 30703 30704 30705 30706 30707 30708 30709 30710 30711 30712 30713 30714 30715 30716 30717 30718 30719 30720 30721 30722 30723 30724 30725 30726 30727 30728 30729 30730 30731 30732 30733 30734 30735 30736 30737 30738 30739 30740 30741 30742 30743 30744 30745 30746 30747 30748 30749 30750 30751 30752 30753 30754 30755 30756 30757 30758 30759 30760 30761 30762 30763 30764 30765 30766 30767 30768 30769 30770 30771 30772 30773 30774 30775 30776 30777 30778 30779 30780 30781 30782 30783 30784 30785 30786 30787 30788 30789 30790 30791 30792 30793 30794 30795 30796 30797 30798 30799 30800 30801 30802 30803 30804 30805 30806 30807 30808 30809 30810 30811 30812 30813 30814 30815 30816 30817 30818 30819 30820 30821 30822 30823 30824 30825 30826 30827 30828 30829 30830 30831 30832 30833 30834 30835 30836 30837 30838 30839 30840 30841 30842 30843 30844 30845 30846 30847 30848 30849 30850 30851 30852 30853 30854 30855 30856 30857 30858 30859 30860 30861 30862 30863 30864 30865 30866 30867 30868 30869 30870 30871 30872 30873 30874 30875 30876 30877 30878 30879 30880 30881 30882 30883 30884 30885 30886 30887 30888 30889 30890 30891 30892 30893 30894 30895 30896 30897 30898 30899 30900 30901 30902 30903 30904 30905 30906 30907 30908 30909 30910 30911 30912 30913 30914 30915 30916 30917 30918 30919 30920 30921 30922 30923 30924 30925 30926 30927 30928 30929 30930 30931 30932 30933 30934 30935 30936 30937 30938 30939 30940 30941 30942 30943 30944 30945 30946 30947 30948 30949 30950 30951 30952 30953 30954 30955 30956 30957 30958 30959 30960 30961 30962 30963 30964 30965 30966 30967 30968 30969 30970 30971 30972 30973 30974 30975 30976 30977 30978 30979 30980 30981 30982 30983 30984 30985 30986 30987 30988 30989 30990 30991 30992 30993 30994 30995 30996 30997 30998 30999 31000 31001 31002 31003 31004 31005 31006 31007 31008 31009 31010 31011 31012 31013 31014 31015 31016 31017 31018 31019 31020 31021 31022 31023 31024 31025 31026 31027 31028 31029 31030 31031 31032 31033 31034 31035 31036 31037 31038 31039 31040 31041 31042 31043 31044 31045 31046 31047 31048 31049 31050 31051 31052 31053 31054 31055 31056 31057 31058 31059 31060 31061 31062 31063 31064 31065 31066 31067 31068 31069 31070 31071 31072 31073 31074 31075 31076 31077 31078 31079 31080 31081 31082 31083 31084 31085 31086 31087 31088 31089 31090 31091 31092 31093 31094 31095 31096 31097 31098 31099 31100 31101 31102 31103 31104 31105 31106 31107 31108 31109 31110 31111 31112 31113 31114 31115 31116 31117 31118 31119 31120 31121 31122 31123 31124 31125 31126 31127 31128 31129 31130 31131 31132 31133 31134 31135 31136 31137 31138 31139 31140 31141 31142 31143 31144 31145 31146 31147 31148 31149 31150 31151 31152 31153 31154 31155 31156 31157 31158 31159 31160 31161 31162 31163 31164 31165 31166 31167 31168 31169 31170 31171 31172 31173 31174 31175 31176 31177 31178 31179 31180 31181 31182 31183 31184 31185 31186 31187 31188 31189 31190 31191 31192 31193 31194 31195 31196 31197 31198 31199 31200 31201 31202 31203 31204 31205 31206 31207 31208 31209 31210 31211 31212 31213 31214 31215 31216 31217 31218 31219 31220 31221 31222 31223 31224 31225 31226 31227 31228 31229 31230 31231 31232 31233 31234 31235 31236 31237 31238 31239 31240 31241 31242 31243 31244 31245 31246 31247 31248 31249 31250 31251 31252 31253 31254 31255 31256 31257 31258 31259 31260 31261 31262 31263 31264 31265 31266 31267 31268 31269 31270 31271 31272 31273 31274 31275 31276 31277 31278 31279 31280 31281 31282 31283 31284 31285 31286 31287 31288 31289 31290 31291 31292 31293 31294 31295 31296 31297 31298 31299 31300 31301 31302 31303 31304 31305 31306 31307 31308 31309 31310 31311 31312 31313 31314 31315 31316 31317 31318 31319 31320 31321 31322 31323 31324 31325 31326 31327 31328 31329 31330 31331 31332 31333 31334 31335 31336 31337 31338 31339 31340 31341 31342 31343 31344 31345 31346 31347 31348 31349 31350 31351 31352 31353 31354 31355 31356 31357 31358 31359 31360 31361 31362 31363 31364 31365 31366 31367 31368 31369 31370 31371 31372 31373 31374 31375 31376 31377 31378 31379 31380 31381 31382 31383 31384 31385 31386 31387 31388 31389 31390 31391 31392 31393 31394 31395 31396 31397 31398 31399 31400 31401 31402 31403 31404 31405 31406 31407 31408 31409 31410 31411 31412 31413 31414 31415 31416 31417 31418 31419 31420 31421 31422 31423 31424 31425 31426 31427 31428 31429 31430 31431 31432 31433 31434 31435 31436 31437 31438 31439 31440 31441 31442 31443 31444 31445 31446 31447 31448 31449 31450 31451 31452 31453 31454 31455 31456 31457 31458 31459 31460 31461 31462 31463 31464 31465 31466 31467 31468 31469 31470 31471 31472 31473 31474 31475 31476 31477 31478 31479 31480 31481 31482 31483 31484 31485 31486 31487 31488 31489 31490 31491 31492 31493 31494 31495 31496 31497 31498 31499 31500 31501 31502 31503 31504 31505 31506 31507 31508 31509 31510 31511 31512 31513 31514 31515 31516 31517 31518 31519 31520 31521 31522 31523 31524 31525 31526 31527 31528 31529 31530 31531 31532 31533 31534 31535 31536 31537 31538 31539 31540 31541 31542 31543 31544 31545 31546 31547 31548 31549 31550 31551 31552 31553 31554 31555 31556 31557 31558 31559 31560 31561 31562 31563 31564 31565 31566 31567 31568 31569 31570 31571 31572 31573 31574 31575 31576 31577 31578 31579 31580 31581 31582 31583 31584 31585 31586 31587 31588 31589 31590 31591 31592 31593 31594 31595 31596 31597 31598 31599 31600 31601 31602 31603 31604 31605 31606 31607 31608 31609 31610 31611 31612 31613 31614 31615 31616 31617 31618 31619 31620 31621 31622 31623 31624 31625 31626 31627 31628 31629 31630 31631 31632 31633 31634 31635 31636 31637 31638 31639 31640 31641 31642 31643 31644 31645 31646 31647 31648 31649 31650 31651 31652 31653 31654 31655 31656 31657 31658 31659 31660 31661 31662 31663 31664 31665 31666 31667 31668 31669 31670 31671 31672 31673 31674 31675 31676 31677 31678 31679 31680 31681 31682 31683 31684 31685 31686 31687 31688 31689 31690 31691 31692 31693 31694 31695 31696 31697 31698 31699 31700 31701 31702 31703 31704 31705 31706 31707 31708 31709 31710 31711 31712 31713 31714 31715 31716 31717 31718 31719 31720 31721 31722 31723 31724 31725 31726 31727 31728 31729 31730 31731 31732 31733 31734 31735 31736 31737 31738 31739 31740 31741 31742 31743 31744 31745 31746 31747 31748 31749 31750 31751 31752 31753 31754 31755 31756 31757 31758 31759 31760 31761 31762 31763 31764 31765 31766 31767 31768 31769 31770 31771 31772 31773 31774 31775 31776 31777 31778 31779 31780 31781 31782 31783 31784 31785 31786 31787 31788 31789 31790 31791 31792 31793 31794 31795 31796 31797 31798 31799 31800 31801 31802 31803 31804 31805 31806 31807 31808 31809 31810 31811 31812 31813 31814 31815 31816 31817 31818 31819 31820 31821 31822 31823 31824 31825 31826 31827 31828 31829 31830 31831 31832 31833 31834 31835 31836 31837 31838 31839 31840 31841 31842 31843 31844 31845 31846 31847 31848 31849 31850 31851 31852 31853 31854 31855 31856 31857 31858 31859 31860 31861 31862 31863 31864 31865 31866 31867 31868 31869 31870 31871 31872 31873 31874 31875 31876 31877 31878 31879 31880 31881 31882 31883 31884 31885 31886 31887 31888 31889 31890 31891 31892 31893 31894 31895 31896 31897 
</DataArray>
<DataArray type="UInt32" Name="offsets" format="ascii">
3 6 9 12 15 17 20 23 26 29 32 35 38 40 43 46 49 52 54 57 60 62 65 68 71 74 76 79 82 85 88 90 93 96 99 102 105 108 111 114 117 120 123 126 129 131 134 137 139 142 145 148 151 154 156 159 162 165 168 171 174 177 179 182 185 188 191 193 196 199 202 205 208 211 214 217 220 222 225 228 230 233 236 238 241 244 247 250 252 255 258 261 264 267 270 273 275 277 279 282 285 287 290 293 296 299 302 304 307 310 313 316 319 322 325 328 331 334 337 340 343 345 348 351 354 356 359 362 365 368 371 374 376 379 382 385 388 391 394 397 400 403 406 409 412 415 418 421 424 427 430 433 436 439 442 445 448 451 453 456 459 462 464 467 470 472 475 478 481 484 487 490 493 496 499 502 505 507 510 513 516 519 522 525 528 531 533 536 539 542 545 548 551 554 557 559 562 565 568 571 574 577 580 583 586 588 591 594 597 600 603 606 609 612 615 618 621 624 627 630 633 636 639 642 645 648 651 654 657 659 662 665 668 670 673 675 678 680 683 686 688 691 694 697 699 702 704 707 709 712 714 716 719 721 724 727 729 732 734 737 740 743 745 748 750 752 755 758 760 763 766 769 771 774 776 778 780 783 785 788 791 794 796 799 801 803 805 808 811 813 815 818 821 824 827 829 832 834 837 840 842 845 848 851 853 856 858 860 862 865 868 871 873 876 878 880 882 884 887 890 893 895 897 900 903 905 907 909 912 914 917 920 923 926 928 931 934 937 940 943 946 949 951 954 957 960 963 966 969 971 973 976 979 982 984 987 990 993 995 998 1000 1003 1005 1007 1010 1013 1016 1019 1021 1024 1027 1029 1032 1035 1038 1041 1043 1046 1048 1051 1054 1057 1060 1063 1065 1067 1070 1073 1076 1079 1082 1085 1088 1091 1093 1096 1099 1102 1104 1107 1110 1112 1115 1117 1120 1123 1126 1129 1132 1135 1138 1141 1144 1147 1150 1152 1155 1157 1160 1162 1165 1168 1171 1173 1176 1178 1181 1183 1186 1189 1192 1195 1198 1201 1203 1206 1208 1211 1214 1217 1219 1222 1225 1228 1230 1233 1235 1237 1240 1243 1246 1249 1251 1254 1257 1260 1263 1265 1267 1270 1273 1275 1278 1280 1283 1285 1287 1290 1293 1296 1298 1301 1304 1307 1310 1312 1315 1318 1321 1324 1327 1330 1333 1336 1339 1342 1345 1347 1350 1353 1356 1359 1361 1364 1367 1370 1372 1375 1377 1379 1381 1384 1387 1390 1392 1394 1397 1399 1402 1405 1407 1410 1413 1416 1419 1421 1424 1427 1430 1433 1436 1439 1442 1445 1448 1451 1454 1456 1458 1461 1464 1466 1469 1472 1475 1477 1480 1483 1486 1489 1492 1495 1497 1500 1503 1506 1508 1511 1514 1517 1519 1522 1525 1528 1531 1534 1537 1540 1543 1546 1549 1552 1554 1557 1560 1563 1565 1568 1571 1574 1577 1580 1583 1586 1588 1591 1594 1597 1600 1603 1605 1608 1611 1614 1617 1620 1623 1626 1629 1632 1635 1638 1641 1644 1647 1650 1653 1656 1659 1662 1664 1667 1670 1673 1676 1678 1681 1684 1686 1689 1692 1695 1698 1701 1704 1707 1709 1712 1715 1718 1721 1724 1727 1730 1733 1735 1738 1740 1743 1746 1748 1751 1754 1757 1759 1762 1765 1767 1770 1773 1776 1778 1781 1783 1786 1789 1791 1794 1796 1799 1802 1805 1808 1811 1814 1817 1820 1823 1826 1829 1832 1835 1838 1841 1844 1847 1850 1853 1856 1859 1862 1864 1867 1869 1872 1874 1877 1880 1883 1886 1889 1892 1895 1898 1901 1904 1907 1910 1913 1916 1919 1921 1924 1927 1930 1933 1936 1939 1942 1945 1948 1950 1953 1956 1959 1962 1965 1968 1971 1974 1977 1980 1983 1986 1989 1992 1995 1998 2001 2004 2007 2010 2013 2016 2019 2022 2025 2028 2031 2034 2037 2039 2042 2045 2047 2050 2053 2056 2058 2060 2063 2065 2068 2071 2074 2077 2080 2082 2085 2088 2091 2094 2097 2099 2102 2105 2108 2111 2114 2117 2120 2123 2126 2129 2132 2135 2138 2141 2144 2147 2150 2153 2156 2159 2162 2165 2168 2171 2174 2177 2180 2183 2186 2189 2192 2195 2198 2201 2204 2207 2210 2213 2216 2219 2222 2225 2228 2231 2234 2237 2240 2243 2246 2248 2251 2254 2257 2260 2263 2266 2269 2272 2275 2278 2281 2284 2287 2290 2293 2295 2298 2301 2304 2307 2309 2312 2315 2318 2321 2324 2327 2330 2333 2336 2339 2342 2345 2348 2351 2354 2357 2360 2363 2366 2369 2372 2375 2378 2381 2384 2387 2390 2392 2395 2398 2400 2403 2405 2407 2409 2411 2414 2417 2419 2422 2425 2428 2431 2434 2437 2440 2443 2446 2449 2452 2455 2458 2461 2464 2467 2470 2472 2475 2478 2480 2483 2485 2488 2491 2494 2497 2499 2502 2504 2507 2510 2513 2516 2518 2521 2524 2527 2529 2532 2535 2538 2541 2544 2546 2549 2551 2554 2557 2559 2561 2564 2566 2569 2572 2575 2578 2581 2584 2587 2590 2593 2596 2599 2601 2604 2607 2610 2612 2615 2618 2621 2623 2626 2629 2631 2633 2635 2638 2641 2644 2647 2650 2653 2656 2659 2662 2665 2668 2670 2673 2676 2679 2682 2685 2688 2691 2694 2696 2698 2700 2703 2706 2709 2712 2715 2718 2721 2724 2726 2728 2731 2734 2737 2739 2742 2745 2747 2750 2753 2756 2759 2762 2765 2768 2771 2774 2777 2780 2782 2785 2788 2791 2794 2797 2800 2803 2806 2808 2811 2814 2817 2820 2823 2826 2829 2832 2835 2838 2840 2843 2845 2847 2849 2852 2855 2858 2861 2864 2867 2870 2872 2874 2877 2879 2882 2885 2888 2891 2894 2896 2899 2901 2903 2906 2909 2912 2914 2917 2919 2922 2925 2928 2931 2933 2936 2939 2942 2945 2948 2951 2954 2957 2960 2963 2966 2969 2972 2975 2978 2981 2984 2986 2989 2992 2995 2997 3000 3003 3006 3009 3012 3014 3017 3020 3023 3026 3029 3032 3034 3037 3039 3042 3045 3048 3051 3054 3057 3060 3063 3065 3068 3071 3074 3076 3079 3082 3085 3088 3091 3094 3097 3100 3103 3106 3109 3112 3115 3118 3121 3124 3127 3130 3133 3136 3139 3142 3145 3148 3151 3153 3155 3157 3160 3163 3166 3169 3171 3174 3177 3180 3183 3185 3188 3191 3194 3197 3200 3203 3206 3208 3211 3214 3217 3220 3223 3226 3229 3232 3234 3237 3240 3243 3246 3249 3252 3255 3258 3261 3264 3267 3270 3272 3275 3278 3281 3284 3287 3290 3292 3295 3298 3301 3304 3307 3310 3313 3316 3318 3321 3324 3327 3329 3332 3335 3338 3341 3344 3347 3350 3353 3356 3359 3362 3365 3367 3370 3373 3376 3379 3382 3385 3388 3391 3394 3397 3400 3403 3406 3409 3412 3415 3418 3421 3424 3427 3430 3433 3436 3439 3442 3445 3448 3451 3454 3457 3460 3463 3466 3469 3472 3475 3478 3481 3484 3487 3490 3493 3496 3499 3502 3505 3508 3510 3513 3516 3519 3522 3525 3528 3531 3534 3537 3540 3543 3546 3549 3552 3555 3558 3561 3564 3567 3570 3573 3576 3579 3582 3584 3587 3590 3593 3596 3599 3602 3605 3608 3611 3614 3616 3619 3622 3624 3627 3630 3633 3636 3639 3642 3645 3648 3651 3653 3656 3658 3661 3664 3667 3670 3672 3675 3678 3680 3683 3685 3688 3691 3694 3697 3700 3702 3705 3708 3711 3714 3717 3720 3723 3726 3728 3731 3734 3737 3740 3743 3746 3749 3752 3755 3758 3761 3764 3767 3770 3772 3775 3777 3779 3782 3785 3788 3791 3794 3796 3799 3802 3805 3808 3811 3814 3817 3820 3823 3826 3829 3832 3835 3838 3841 3843 3846 3849 3852 3855 3858 3861 3864 3867 3870 3873 3876 3879 3882 3885 3888 3891 3893 3896 3899 3902 3905 3908 3910 3912 3915 3918 3920 3923 3926 3929 3932 3935 3938 3941 3944 3947 3950 3952 3955 3958 3961 3964 3967 3970 3973 3976 3979 3981 3984 3986 3989 3992 3995 3998 4001 4003 4006 4009 4012 4015 4017 4020 4023 4026 4028 4031 4034 4037 4039 4042 4045 4047 4050 4053 4056 4059 4062 4065 4068 4071 4074 4077 4080 4083 4086 4089 4092 4095 4097 4100 4103 4106 4109 4112 4115 4118 4120 4123 4126 4129 4132 4135 4138 4141 4144 4147 4150 4153 4156 4159 4162 4165 4168 4171 4174 4177 4180 4183 4186 4189 4192 4195 4198 4201 4203 4206 4209 4212 4215 4217 4220 4223 4226 4228 4231 4234 4237 4240 4243 4246 4249 4252 4255 4257 4260 4262 4265 4268 4271 4274 4277 4280 4283 4286 4289 4292 4295 4298 4301 4304 4307 4310 4313 4316 4318 4320 4323 4326 4329 4331 4334 4337 4339 4342 4345 4347 4350 4353 4356 4358 4361 4364 4366 4369 4372 4375 4378 4381 4384 4387 4390 4393 4396 4399 4402 4405 4408 4411 4414 4417 4420 4423 4426 4428 4431 4433 4436 4439 4442 4445 4448 4451 4454 4457 4460 4463 4466 4468 4471 4473 4476 4479 4482 4484 4487 4490 4493 4496 4499 4501 4504 4507 4510 4513 4516 4519 4521 4524 4527 4530 4533 4536 4539 4542 4545 4548 4551 4554 4556 4559 4562 4565 4568 4571 4574 4577 4580 4582 4585 4588 4591 4593 4596 4599 4601 4604 4607 4610 4613 4616 4618 4621 4624 4627 4630 4633 4636 4639 4642 4645 4647 4650 4653 4655 4658 4660 4663 4665 4667 4669 4672 4674 4677 4680 4683 4686 4689 4692 4694 4697 4700 4703 4706 4709 4712 4714 4717 4720 4723 4726 4729 4732 4735 4737 4740 4743 4746 4749 4751 4754 4757 4760 4763 4766 4768 4771 4773 4776 4779 4782 4785 4788 4791 4794 4797 4800 4803 4805 4808 4811 4814 4817 4820 4823 4826 4828 4831 4834 4837 4840 4843 4846 4849 4851 4854 4856 4859 4862 4865 4868 4871 4874 4877 4880 4882 4885 4888 4891 4893 4895 4898 4901 4904 4907 4910 4912 4914 4917 4919 4922 4925 4927 4930 4933 4935 4938 4941 4944 4947 4950 4953 4956 4959 4961 4964 4967 4970 4973 4976 4978 4981 4984 4987 4990 4992 4995 4998 5000 5003 5006 5009 5012 5015 5018 5021 5024 5027 5030 5033 5036 5039 5042 5045 5048 5051 5054 5057 5060 5063 5066 5069 5072 5075 5078 5081 5084 5087 5090 5093 5096 5099 5102 5105 5108 5111 5114 5117 5120 5123 5125 5128 5131 5133 5136 5139 5142 5145 5148 5150 5153 5156 5159 5162 5164 5167 5170 5173 5176 5179 5182 5185 5188 5191 5194 5197 5200 5203 5206 5209 5212 5215 5218 5221 5224 5227 5230 5233 5236 5238 5241 5244 5247 5249 5252 5255 5258 5261 5264 5267 5269 5272 5275 5278 5281 5284 5287 5290 5293 5296 5299 5302 5304 5307 5309 5311 5314 5317 5319 5322 5325 5328 5331 5334 5337 5340 5343 5346 5349 5352 5354 5357 5360 5362 5365 5368 5371 5374 5377 5380 5383 5386 5389 5392 5395 5398 5401 5404 5407 5409 5412 5415 5418 5421 5424 5427 5430 5432 5435 5437 5440 5443 5446 5449 5451 5454 5456 5459 5462 5465 5468 5471 5474 5477 5480 5483 5485 5488 5491 5494 5497 5500 5503 5506 5509 5512 5515 5518 5521 5524 5527 5530 5533 5536 5538 5541 5544 5547 5550 5553 5556 5559 5562 5565 5568 5571 5574 5577 5580 5583 5586 5589 5592 5595 5598 5601 5604 5607 5610 5613 5615 5617 5620 5623 5626 5629 5632 5635 5638 5641 5644 5647 5650 5652 5655 5658 5661 5664 5666 5669 5672 5675 5678 5680 5683 5686 5689 5692 5695 5698 5701 5704 5706 5709 5712 5715 5718 5721 5724 5727 5730 5733 5735 5738 5741 5744 5747 5750 5753 5756 5759 5762 5765 5768 5771 5774 5777 5780 5783 5786 5789 5792 5795 5797 5800 5803 5806 5809 5812 5815 5818 5821 5824 5827 5830 5833 5836 5839 5841 5844 5846 5849 5852 5855 5858 5861 5864 5867 5870 5872 5875 5878 5880 5883 5886 5889 5892 5895 5898 5901 5904 5907 5910 5913 5916 5919 5922 5925 5928 5931 5934 5937 5940 5943 5946 5949 5952 5955 5958 5961 5964 5967 5970 5973 5976 5979 5982 5985 5988 5990 5993 5996 5998 6001 6004 6007 6010 6012 6015 6017 6020 6023 6025 6028 6030 6033 6036 6039 6042 6045 6047 6050 6053 6056 6059 6062 6065 6068 6071 6074 6077 6080 6083 6085 6088 6091 6094 6096 6099 6102 6105 6108 6111 6114 6117 6120 6123 6125 6128 6131 6134 6137 6139 6141 6144 6147 6150 6153 6156 6159 6162 6165 6167 6170 6173 6176 6179 6182 6184 6187 6190 6193 6195 6198 6201 6204 6206 6209 6212 6215 6218 6220 6223 6226 6229 6232 6235 6238 6241 6244 6247 6250 6253 6256 6259 6262 6264 6267 6270 6273 6276 6279 6282 6284 6287 6289 6291 6294 6296 6299 6301 6304 6307 6310 6313 6315 6318 6321 6324 6327 6329 6332 6335 6338 6341 6344 6347 6350 6353 6356 6358 6361 6364 6367 6370 6373 6376 6379 6382 6385 6388 6391 6394 6397 6400 6402 6405 6408 6411 6413 6416 6419 6422 6424 6427 6429 6432 6435 6438 6441 6444 6447 6450 6453 6456 6459 6462 6465 6468 6471 6474 6477 6479 6482 6485 6488 6491 6494 6497 6499 6502 6505 6508 6511 6514 6517 6520 6523 6526 6529 6532 6535 6538 6541 6544 6547 6550 6553 6555 6558 6561 6564 6567 6570 6573 6576 6579 6582 6585 6588 6591 6594 6597 6600 6603 6606 6609 6612 6615 6618 6621 6624 6627 6630 6633 6636 6639 6642 6645 6648 6651 6654 6657 6659 6662 6665 6668 6671 6673 6676 6679 6682 6685 6688 6691 6694 6696 6699 6702 6705 6708 6711 6714 6717 6720 6723 6725 6728 6731 6733 6736 6739 6742 6745 6748 6750 6753 6756 6759 6761 6764 6767 6769 6772 6775 6778 6781 6784 6787 6790 6793 6796 6799 6802 6805 6808 6811 6814 6817 6820 6823 6826 6829 6831 6834 6837 6840 6843 6846 6849 6852 6855 6858 6861 6863 6865 6868 6870 6873 6876 6879 6882 6885 6887 6890 6893 6896 6899 6901 6904 6907 6910 6913 6916 6918 6921 6923 6926 6929 6931 6934 6937 6940 6943 6946 6949 6952 6955 6957 6960 6963 6966 6969 6972 6975 6977 6980 6983 6986 6989 6992 6995 6997 7000 7003 7006 7009 7011 7014 7017 7019 7022 7024 7027 7030 7032 7035 7038 7041 7044 7047 7050 7052 7055 7058 7061 7064 7066 7069 7072 7075 7078 7081 7084 7087 7090 7092 7094 7097 7100 7103 7106 7109 7112 7115 7118 7120 7123 7126 7129 7132 7135 7138 7140 7143 7146 7149 7152 7155 7158 7161 7163 7166 7169 7172 7174 7177 7180 7183 7186 7189 7192 7195 7198 7201 7204 7207 7210 7212 7215 7218 7221 7224 7226 7229 7232 7234 7237 7240 7243 7246 7248 7251 7254 7257 7259 7261 7264 7267 7270 7272 7275 7278 7281 7283 7286 7289 7292 7295 7298 7301 7304 7307 7310 7312 7315 7318 7321 7323 7326 7329 7332 7335 7338 7341 7344 7347 7350 7353 7356 7359 7361 7364 7366 7369 7372 7374 7377 7380 7382 7385 7388 7391 7394 7397 7400 7403 7405 7408 7411 7414 7417 7420 7422 7425 7427 7430 7433 7436 7438 7440 7443 7445 7447 7450 7452 7455 7458 7461 7464 7467 7470 7472 7475 7477 7480 7483 7486 7489 7492 7495 7498 7501 7504 7507 7510 7513 7516 7518 7521 7524 7526 7529 7531 7534 7537 7539 7542 7545 7548 7550 7552 7555 7558 7560 7563 7566 7569 7572 7575 7578 7581 7584 7587 7590 7593 7596 7599 7602 7605 7608 7611 7614 7617 7620 7623 7626 7629 7631 7633 7636 7638 7641 7643 7646 7649 7651 7653 7656 7659 7661 7664 7667 7669 7672 7675 7677 7680 7682 7685 7688 7691 7694 7696 7699 7702 7705 7708 7710 7713 7715 7717 7720 7722 7725 7728 7730 7732 7735 7738 7741 7743 7746 7749 7752 7755 7757 7759 7762 7765 7768 7771 7774 7776 7779 7782 7785 7788 7791 7794 7797 7800 7803 7806 7809 7811 7814 7816 7819 7821 7824 7827 7829 7832 7834 7837 7840 7843 7846 7849 7852 7855 7858 7860 7863 7866 7868 7871 7874 7877 7880 7882 7885 7888 7891 7894 7897 7900 7903 7906 7909 7912 7915 7918 7920 7923 7926 7929 7932 7935 7938 7941 7944 7947 7950 7953 7955 7958 7961 7964 7967 7970 7973 7975 7978 7980 7983 7986 7988 7991 7994 7997 8000 8003 8006 8009 8012 8015 8018 8021 8024 8027 8030 8033 8036 8039 8041 8043 8046 8049 8052 8054 8057 8060 8062 8065 8068 8071 8074 8077 8080 8083 8086 8089 8092 8095 8098 8101 8104 8107 8110 8113 8116 8119 8122 8125 8128 8131 8134 8137 8139 8141 8144 8147 8150 8153 8156 8159 8162 8165 8168 8171 8174 8176 8179 8182 8185 8188 8191 8194 8197 8200 8203 8206 8209 8212 8215 8218 8221 8224 8227 8230 8233 8236 8239 8242 8245 8248 8251 8254 8257 8260 8263 8266 8269 8272 8275 8277 8280 8283 8286 8289 8292 8294 8297 8300 8302 8305 8308 8310 8312 8315 8318 8321 8324 8327 8330 8333 8336 8339 8342 8345 8348 8351 8353 8356 8359 8361 8364 8367 8370 8373 8376 8379 8381 8384 8387 8389 8392 8395 8398 8401 8404 8407 8410 8413 8416 8419 8422 8425 8428 8430 8433 8436 8439 8442 8445 8448 8451 8453 8456 8459 8462 8465 8468 8471 8474 8477 8480 8483 8486 8489 8491 8494 8497 8499 8502 8505 8508 8511 8514 8517 8520 8523 8526 8529 8532 8535 8538 8541 8544 8547 8550 8553 8556 8559 8561 8564 8567 8569 8572 8574 8577 8580 8583 8585 8588 8591 8593 8596 8598 8601 8604 8607 8609 8612 8615 8618 8621 8623 8626 8629 8632 8635 8638 8641 8644 8646 8649 8652 8655 8657 8660 8663 8666 8669 8672 8675 8678 8681 8684 8687 8690 8693 8695 8698 8701 8704 8707 8710 8713 8716 8719 8721 8724 8727 8730 8733 8736 8739 8742 8745 8748 8751 8754 8756 8759 8762 8765 8768 8771 8774 8777 8780 8783 8786 8789 8792 8795 8798 8801 8804 8807 8810 8813 8815 8817 8820 8823 8826 8828 8831 8834 8837 8840 8843 8846 8849 8852 8855 8858 8861 8864 8866 8869 8872 8875 8878 8881 8884 8887 8890 8893 8895 8898 8901 8904 8907 8910 8913 8916 8919 8922 8925 8928 8931 8934 8937 8940 8943 8945 8948 8950 8953 8956 8959 8962 8965 8967 8970 8973 8976 8979 8981 8984 8987 8990 8992 8995 8998 9001 9003 9006 9009 9012 9015 9018 9021 9024 9027 9030 9032 9035 9038 9041 9043 9046 9049 9051 9054 9057 9060 9063 9066 9069 9071 9074 9077 9080 9083 9086 9089 9092 9095 9097 9100 9103 9106 9108 9111 9114 9117 9120 9123 9126 9129 9132 9135 9138 9141 9144 9147 9150 9153 9156 9159 9162 9165 9168 9171 9174 9177 9180 9183 9186 9189 9191 9194 9197 9200 9203 9206 9209 9212 9214 9217 9220 9223 9226 9229 9232 9235 9238 9241 9244 9247 9250 9253 9256 9259 9262 9265 9268 9271 9274 9277 9280 9283 9286 9289 9291 9294 9296 9299 9302 9305 9308 9311 9314 9316 9319 9322 9325 9327 9330 9333 9335 9338 9341 9344 9347 9350 9353 9356 9359 9362 9365 9368 9371 9373 9376 9379 9382 9385 9388 9390 9393 9396 9399 9402 9405 9408 9411 9414 9417 9420 9423 9426 9429 9431 9434 9437 9440 9442 9445 9448 9451 9454 9457 9460 9463 9466 9469 9472 9475 9478 9480 9482 9485 9488 9491 9494 9496 9499 9502 9505 9508 9511 9514 9517 9520 9523 9525 9527 9530 9533 9536 9539 9542 9544 9547 9550 9553 9556 9559 9561 9564 9567 9570 9573 9576 9578 9581 9583 9586 9589 9592 9595 9597 9600 9602 9605 9607 9609 9612 9615 9618 9621 9624 9627 9630 9632 9634 9637 9640 9643 9646 9649 9652 9654 9656 9658 9661 9663 9665 9668 9671 9674 9676 9679 9682 9685 9688 9691 9693 9695 9697 9700 9702 9705 9708 9711 9713 9716 9718 9720 9723 9726 9729 9732 9735 9738 9741 9743 9745 9748 9751 9753 9755 9757 9760 9763 9766 9769 9772 9775 9778 9781 9784 9787 9790 9793 9796 9799 9802 9805 9808 9811 9814 9817 9820 9823 9826 9829 9832 9835 9838 9841 9844 9847 9850 9853 9856 9859 9862 9865 9868 9871 9874 9877 9879 9882 9885 9888 9891 9894 9897 9900 9903 9906 9909 9911 9914 9917 9920 9923 9926 9929 9931 9934 9937 9939 9942 9945 9948 9951 9954 9957 9960 9963 9966 9969 9972 9975 9978 9980 9983 9985 9988 9991 9994 9997 9999 10002 10005 10008 10010 10013 10016 10018 10021 10024 10027 10029 10032 10035 10037 10040 10043 10046 10049 10052 10054 10057 10060 10063 10066 10069 10072 10075 10077 10080 10083 10086 10089 10092 10095 10098 10100 10103 10106 10108 10111 10114 10117 10120 10122 10125 10127 10130 10133 10136 10139 10142 10144 10147 10150 10153 10156 10158 10161 10164 10167 10170 10173 10176 10178 10180 10183 10186 10189 10192 10195 10197 10200 10203 10205 10208 10211 10214 10217 10220 10223 10226 10229 10232 10235 10237 10240 10243 10246 10249 10252 10255 10258 10261 10264 10267 10270 10273 10276 10279 10282 10285 10288 10291 10293 10296 10299 10302 10305 10308 10311 10313 10316 10319 10322 10325 10328 10331 10334 10336 10338 10341 10344 10347 10350 10352 10355 10358 10361 10364 10367 10370 10373 10375 10378 10381 10383 10386 10388 10390 10392 10395 10398 10401 10404 10407 10410 10412 10415 10418 10421 10424 10427 10429 10432 10435 10438 10441 10443 10446 10449 10452 10454 10457 10460 10463 10465 10468 10471 10474 10477 10480 10483 10486 10489 10492 10495 10498 10501 10504 10507 10510 10513 10516 10519 10522 10525 10528 10531 10534 10537 10540 10542 10545 10548 10551 10554 10557 10560 10563 10565 10568 10570 10573 10576 10579 10582 10585 10588 10590 10593 10596 10598 10601 10604 10607 10609 10612 10615 10617 10620 10623 10626 10629 10632 10634 10637 10640 10643 10645 10647 10650 10653 10656 10659 10662 10665 10668 10671 10674 10677 10680 10683 10685 10688 10691 10694 10697 10700 10703 10706 10709 10712 10714 10717 10720 10723 10726 10729 10731 10733 10736 10739 10742 10745 10748 10751 10754 10757 10760 10762 10765 10768 10771 10774 10777 10780 10783 10786 10788 10791 10794 10797 10800 10803 10806 10809 10812 10815 10818 10821 10824 10827 10830 10833 10836 10839 10842 10844 10847 10850 10853 10856 10858 10861 10863 10866 10868 10871 10874 10877 10880 10883 10886 10889 10892 10895 10898 10901 10904 10907 10910 10913 10916 10919 10921 10924 10927 10930 10933 10936 10938 10941 10944 10947 10949 10951 10954 10957 10960 10963 10966 10968 10971 10974 10977 10980 10982 10985 10988 10991 10994 10997 11000 11003 11006 11008 11011 11014 11017 11020 11023 11026 11029 11031 11034 11037 11040 11043 11046 11049 11052 11055 11058 11060 11063 11066 11069 11072 11075 11078 11081 11084 11087 11090 11093 11096 11099 11102 11105 11108 11111 11114 11116 11119 11122 11125 11128 11131 11134 11137 11140 11143 11146 11149 11152 11155 11157 11160 11163 11166 11169 11172 11175 11177 11180 11183 11185 11188 11191 11193 11196 11199 11202 11205 11208 11211 11214 11217 11220 11223 11226 11229 11232 11235 11238 11241 11244 11247 11250 11253 11256 11259 11262 11265 11268 11271 11273 11276 11278 11281 11283 11285 11288 11291 11294 11296 11299 11302 11305 11308 11311 11314 11317 11320 11323 11325 11327 11330 11332 11335 11338 11341 11344 11347 11350 11353 11356 11359 11362 11365 11368 11371 11374 11376 11379 11381 11383 11386 11388 11391 11394 11397 11400 11403 11406 11409 11412 11415 11417 11419 11422 11425 11428 11431 11434 11437 11440 11443 11446 11449 11452 11455 11458 11461 11464 11467 11470 11473 11476 11479 11482 11485 11487 11490 11493 11496 11499 11502 11504 11507 11510 11513 11516 11519 11521 11524 11527 11530 11532 11535 11538 11541 11544 11547 11550 11553 11556 11559 11561 11564 11567 11570 11573 11575 11578 11581 11584 11587 11590 11593 11595 11598 11601 11604 11607 11610 11613 11616 11618 11621 11624 11627 11630 11632 11635 11638 11641 11644 11647 11650 11653 11656 11659 11662 11664 11667 11670 11673 11676 11678 11681 11684 11687 11689 11692 11695 11698 11701 11704 11706 11709 11712 11715 11718 11721 11724 11727 11730 11733 11736 11739 11742 11745 11748 11750 11752 11755 11758 11760 11763 11766 11769 11772 11775 11778 11781 11783 11786 11789 11792 11795 11798 11801 11803 11806 11809 11812 11815 11818 11821 11824 11827 11830 11833 11836 11839 11842 11845 11848 11851 11854 11857 11860 11863 11866 11869 11872 11874 11877 11880 11883 11886 11889 11892 11895 11898 11900 11903 11906 11909 11912 11914 11917 11920 11923 11926 11929 11931 11934 11936 11939 11941 11944 11947 11950 11953 11956 11959 11962 11964 11967 11970 11973 11975 11978 11981 11984 11987 11990 11992 11995 11998 12001 12004 12007 12009 12012 12014 12017 12020 12022 12025 12027 12030 12033 12036 12039 12042 12044 12047 12050 12053 12055 12058 12061 12064 12067 12070 12073 12076 12079 12082 12085 12087 12090 12093 12096 12099 12102 12105 12108 12111 12114 12117 12120 12123 12126 12129 12132 12135 12138 12141 12144 12147 12150 12153 12155 12158 12161 12164 12167 12170 12173 12176 12179 12182 12185 12188 12191 12194 12197 12200 12203 12206 12209 12211 12214 12217 12220 12222 12225 12228 12231 12234 12237 12240 12242 12245 12248 12251 12253 12255 12258 12260 12263 12265 12267 12270 12272 12275 12278 12280 12283 12286 12288 12290 12293 12296 12299 12302 12305 12308 12311 12314 12316 12319 12321 12324 12327 12330 12333 12336 12339 12342 12345 12348 12351 12354 12357 12360 12363 12366 12369 12372 12375 12378 12381 12384 12387 12389 12392 12395 12398 12401 12404 12407 12410 12413 12415 12418 12421 12423 12426 12429 12431 12433 12436 12439 12441 12444 12447 12450 12453 12456 12459 12462 12465 12468 12471 12474 12477 12480 12483 12486 12489 12492 12495 12498 12501 12504 12507 12510 12513 12516 12519 12522 12525 12528 12531 12534 12537 12540 12543 12546 12549 12552 12555 12558 12560 12563 12565 12568 12571 12574 12577 12580 12583 12586 12589 12592 12595 12598 12601 12604 12607 12610 12613 12616 12619 12622 12625 12628 12631 12634 12637 12640 12643 12646 12649 12652 12655 12658 12661 12664 12667 12670 12673 12676 12679 12682 12685 12687 12690 12693 12695 12698 12701 12704 12707 12710 12712 12715 12717 12720 12723 12725 12728 12731 12734 12737 12740 12743 12745 12748 12751 12754 12757 12760 12763 12766 12769 12772 12775 12778 12780 12783 12786 12788 12790 12793 12795 12798 12801 12803 12806 12809 12812 12815 12817 12820 12823 12826 12829 12832 12835 12838 12841 12844 12846 12849 12851 12854 12857 12860 12863 12866 12869 12872 12874 12877 12879 12882 12885 12888 12891 12894 12897 12900 12903 12906 12908 12911 12913 12916 12919 12922 12925 12928 12931 12934 12937 12940 12943 12945 12948 12951 12954 12956 12959 12962 12964 12967 12970 12972 12975 12978 12981 12984 12986 12989 12992 12995 12997 13000 13003 13006 13009 13012 13015 13018 13021 13024 13027 13030 13033 13036 13039 13041 13044 13047 13050 13053 13056 13059 13061 13064 13066 13069 13071 13074 13077 13080 13082 13085 13088 13091 13094 13097 13100 13103 13106 13108 13111 13114 13117 13120 13123 13125 13128 13131 13133 13136 13139 13142 13145 13148 13151 13154 13157 13160 13162 13165 13168 13171 13173 13176 13179 13182 13185 13188 13191 13193 13196 13199 13202 13205 13208 13211 13214 13217 13220 13223 13226 13229 13232 13235 13238 13241 13244 13247 13250 13253 13256 13259 13262 13265 13268 13271 13274 13277 13280 13283 13286 13288 13291 13294 13297 13300 13303 13305 13308 13311 13313 13315 13318 13321 13324 13327 13329 13332 13335 13338 13341 13344 13346 13349 13352 13355 13358 13361 13364 13367 13370 13373 13376 13379 13382 13385 13388 13391 13394 13396 13399 13402 13405 13408 13411 13414 13417 13420 13422 13424 13427 13430 13433 13436 13439 13442 13444 13447 13450 13453 13456 13458 13461 13464 13467 13470 13473 13476 13479 13482 13485 13488 13491 13494 13497 13500 13503 13506 13509 13512 13515 13518 13521 13524 13527 13530 13532 13535 13538 13540 13543 13546 13549 13552 13555 13558 13561 13564 13567 13570 13573 13576 13579 13582 13585 13588 13591 13594 13597 13600 13603 13606 13609 13612 13615 13618 13621 13623 13626 13628 13631 13634 13637 13640 13643 13645 13648 13651 13654 13657 13660 13663 13666 13669 13672 13675 13678 13681 13684 13687 13690 13693 13696 13699 13702 13705 13707 13709 13712 13714 13717 13720 13723 13726 13729 13732 13735 13738 13741 13744 13747 13750 13753 13756 13759 13762 13764 13767 13770 13773 13775 13778 13781 13784 13787 13790 13793 13796 13799 13802 13805 13808 13811 13814 13816 13819 13822 13825 13828 13831 13834 13837 13840 13843 13846 13849 13852 13855 13858 13861 13864 13867 13870 13873 13876 13879 13882 13884 13887 13890 13893 13896 13899 13902 13905 13908 13911 13914 13917 13920 13923 13925 13928 13930 13933 13936 13938 13940 13943 13946 13949 13952 13955 13958 13961 13964 13967 13970 13973 13976 13979 13982 13985 13988 13991 13994 13997 14000 14002 14005 14008 14010 14013 14016 14019 14021 14024 14027 14030 14033 14036 14039 14041 14044 14047 14050 14052 14055 14058 14061 14064 14067 14070 14073 14076 14078 14081 14084 14086 14089 14092 14094 14097 14099 14102 14105 14108 14111 14113 14115 14118 14121 14123 14125 14128 14131 14133 14136 14139 14142 14145 14147 14150 14153 14155 14157 14160 14162 14165 14168 14171 14174 14177 14180 14183 14186 14189 14192 14195 14198 14201 14204 14207 14210 14213 14216 14219 14222 14224 14227 14230 14233 14236 14238 14241 14244 14247 14250 14252 14254 14257 14260 14263 14266 14269 14272 14275 14278 14281 14284 14287 14290 14292 14295 14298 14301 14303 14306 14309 14312 14315 14318 14321 14324 14326 14329 14332 14335 14337 14340 14343 14345 14347 14350 14353 14356 14358 14361 14364 14367 14369 14372 14375 14378 14381 14384 14387 14390 14393 14396 14399 14402 14405 14408 14411 14414 14417 14420 14423 14425 14428 14431 14434 14437 14440 14443 14446 14449 14452 14455 14458 14461 14464 14467 14470 14473 14476 14479 14481 14483 14486 14489 14492 14495 14498 14500 14502 14505 14507 14510 14513 14516 14519 14522 14525 14528 14531 14534 14536 14539 14542 14545 14547 14550 14553 14556 14559 14562 14565 14568 14571 14574 14577 14580 14583 14586 14589 14591 14594 14597 14600 14603 14606 14609 14612 14614 14617 14620 14622 14625 14628 14631 14634 14637 14640 14642 14645 14648 14651 14654 14656 14659 14662 14665 14668 14671 14674 14676 14679 14682 14685 14688 14691 14694 14697 14700 14702 14704 14707 14710 14713 14715 14717 14720 14723 14726 14729 14732 14734 14737 14740 14743 14746 14749 14752 14754 14757 14760 14763 14766 14768 14771 14774 14777 14780 14783 14785 14788 14791 14794 14797 14799 14802 14805 14808 14811 14814 14817 14820 14823 14826 14829 14832 14835 14838 14841 14844 14847 14850 14853 14856 14859 14862 14865 14868 14871 14874 14876 14879 14882 14885 14888 14890 14893 14895 14898 14900 14903 14906 14908 14911 14914 14916 14919 14922 14924 14927 14930 14933 14936 14939 14942 14944 14947 14950 14952 14955 14957 14959 14961 14964 14967 14969 14972 14974 14976 14979 14982 14985 14987 14990 14992 14995 14998 15001 15004 15007 15010 15012 15015 15018 15021 15023 15026 15029 15032 15035 15038 15041 15044 15046 15049 15052 15055 15057 15060 15062 15064 15067 15070 15073 15076 15079 15082 15085 15087 15090 15093 15096 15099 15102 15105 15108 15111 15113 15115 15118 15121 15124 15127 15129 15132 15135 15137 15140 15143 15146 15148 15151 15154 15157 15159 15161 15164 15167 15170 15173 15175 15178 15181 15184 15187 15190 15192 15194 15197 15200 15203 15206 15209 15212 15215 15218 15221 15224 15227 15230 15233 15236 15239 15242 15245 15248 15251 15254 15257 15260 15263 15266 15269 15272 15275 15278 15281 15284 15287 15289 15292 15295 15298 15300 15303 15306 15309 15312 15315 15318 15321 15324 15327 15330 15333 15336 15339 15342 15345 15347 15350 15352 15354 15357 15360 15362 15365 15368 15371 15374 15377 15380 15383 15386 15389 15392 15395 15398 15401 15404 15407 15410 15413 15416 15419 15422 15425 15428 15431 15433 15436 15439 15441 15443 15446 15449 15452 15455 15458 15461 15464 15466 15469 15472 15475 15477 15480 15483 15486 15489 15491 15493 15496 15499 15502 15505 15508 15511 15514 15516 15519 15522 15525 15528 15530 15533 15536 15539 15542 15544 15547 15550 15553 15556 15559 15562 15565 15568 15571 15574 15577 15580 15583 15586 15589 15592 15595 15598 15601 15603 15606 15609 15612 15615 15618 15621 15624 15627 15630 15633 15636 15639 15642 15645 15648 15651 15653 15656 15659 15662 15664 15667 15670 15673 15676 15679 15682 15685 15688 15691 15693 15696 15699 15702 15705 15708 15711 15714 15717 15720 15723 15726 15729 15732 15735 15738 15741 15744 15747 15750 15753 15756 15758 15761 15764 15767 15770 15773 15776 15779 15782 15785 15788 15791 15794 15797 15800 15803 15806 15809 15811 15814 15817 15820 15823 15826 15828 15831 15834 15837 15840 15843 15846 15849 15852 15855 15858 15861 15864 15867 15870 15873 15876 15879 15882 15885 15888 15891 15894 15897 15900 15903 15906 15909 15911 15914 15917 15919 15922 15925 15928 15930 15933 15936 15939 15942 15945 15948 15951 15954 15957 15960 15963 15966 15969 15972 15975 15977 15980 15982 15985 15988 15991 15994 15997 16000 16003 16006 16009 16011 16014 16017 16020 16023 16026 16029 16032 16035 16038 16040 16042 16045 16048 16051 16054 16057 16060 16063 16066 16069 16072 16075 16078 16081 16084 16087 16090 16093 16096 16099 16102 16105 16108 16111 16114 16117 16120 16123 16126 16129 16132 16135 16138 16141 16144 16147 16150 16153 16156 16159 16162 16165 16168 16171 16174 16177 16180 16183 16186 16189 16192 16195 16198 16201 16204 16207 16210 16213 16216 16219 16222 16225 16228 16231 16234 16237 16240 16243 16246 16249 16252 16255 16257 16260 16263 16266 16269 16272 16275 16277 16280 16283 16286 16289 16292 16295 16298 16301 16304 16306 16309 16311 16314 16317 16320 16323 16326 16329 16332 16335 16338 16341 16344 16347 16350 16353 16356 16359 16362 16365 16368 16371 16374 16377 16380 16383 16386 16389 16392 16395 16398 16401 16404 16407 16410 16413 16415 16418 16421 16424 16426 16428 16431 16434 16437 16440 16443 16446 16449 16452 16455 16458 16461 16464 16467 16470 16473 16476 16479 16482 16485 16488 16491 16494 16496 16498 16501 16504 16507 16510 16513 16516 16519 16522 16524 16527 16530 16533 16536 16539 16542 16544 16547 16550 16553 16556 16559 16561 16564 16567 16570 16573 16575 16578 16581 16584 16586 16589 16592 16595 16597 16600 16603 16605 16608 16611 16614 16617 16620 16623 16626 16629 16632 16635 16638 16641 16644 16646 16649 16652 16655 16658 16661 16664 16667 16670 16672 16675 16678 16681 16684 16687 16690 16693 16696 16699 16702 16705 16707 16710 16713 16716 16718 16721 16724 16727 16730 16732 16735 16738 16741 16744 16747 16750 16753 16756 16758 16761 16763 16766 16769 16771 16774 16777 16780 16783 16786 16788 16791 16794 16797 16800 16803 16806 16809 16812 16815 16818 16821 16824 16826 16829 16832 16835 16838 16841 16844 16847 16850 16853 16855 16858 16861 16864 16867 16870 16873 16875 16878 16881 16884 16887 16890 16893 16896 16898 16901 16904 16907 16910 16913 16915 16918 16921 16924 16927 16930 16933 16936 16939 16942 16945 16948 16951 16954 16957 16960 16963 16966 16969 16972 16975 16978 16981 16984 16987 16990 16993 16996 16999 17002 17005 17008 17011 17014 17017 17020 17023 17026 17029 17032 17035 17038 17041 17044 17047 17050 17053 17056 17058 17061 17063 17066 17069 17072 17075 17078 17081 17084 17087 17090 17093 17096 17099 17102 17105 17107 17110 17113 17116 17119 17122 17125 17128 17131 17134 17137 17140 17143 17146 17149 17152 17154 17157 17160 17162 17165 17167 17170 17173 17176 17179 17182 17184 17187 17190 17193 17196 17199 17202 17205 17208 17211 17214 17217 17220 17223 17226 17229 17232 17235 17238 17241 17244 17246 17249 17252 17255 17258 17261 17264 17267 17270 17273 17276 17279 17281 17284 17286 17289 17292 17294 17297 17299 17302 17305 17308 17311 17314 17317 17320 17322 17325 17327 17330 17333 17336 17339 17341 17344 17347 17350 17353 17355 17357 17360 17363 17365 17368 17371 17374 17377 17380 17383 17386 17389 17392 17395 17398 17401 17404 17407 17410 17413 17415 17418 17421 17424 17427 17430 17433 17436 17439 17442 17445 17448 17451 17454 17457 17459 17462 17464 17467 17470 17473 17476 17479 17482 17485 17487 17490 17492 17495 17498 17501 17504 17507 17510 17513 17516 17519 17521 17523 17526 17529 17532 17534 17537 17540 17543 17546 17548 17551 17553 17556 17559 17561 17564 17566 17568 17570 17573 17576 17578 17581 17584 17587 17589 17591 17593 17596 17599 17602 17605 17608 17611 17614 17617 17620 17623 17626 17628 17631 17634 17637 17640 17643 17646 17648 17651 17654 17657 17659 17662 17665 17668 17671 17674 17677 17680 17683 17685 17688 17691 17694 17696 17699 17702 17705 17708 17711 17714 17717 17720 17723 17726 17729 17732 17735 17738 17741 17744 17747 17750 17753 17756 17759 17762 17765 17768 17771 17774 17777 17780 17783 17786 17789 17792 17795 17798 17801 17804 17807 17810 17813 17816 17819 17822 17825 17828 17831 17834 17837 17840 17843 17846 17849 17852 17855 17858 17861 17864 17867 17870 17873 17876 17878 17881 17884 17887 17890 17893 17895 17898 17901 17904 17907 17909 17912 17915 17918 17920 17923 17926 17929 17932 17935 17938 17941 17944 17947 17950 17953 17956 17959 17962 17965 17968 17971 17974 17977 17980 17983 17986 17989 17992 17995 17998 18001 18004 18007 18010 18013 18016 18019 18022 18025 18028 18031 18034 18037 18040 18042 18045 18048 18050 18053 18056 18059 18062 18065 18068 18071 18073 18076 18079 18082 18085 18088 18091 18094 18097 18100 18103 18106 18108 18111 18114 18116 18119 18121 18124 18127 18130 18132 18135 18138 18141 18144 18147 18150 18153 18156 18158 18161 18164 18167 18170 18172 18175 18178 18181 18184 18186 18189 18191 18194 18197 18200 18203 18206 18209 18212 18215 18218 18221 18224 18227 18229 18232 18234 18237 18240 18243 18246 18249 18252 18255 18258 18261 18264 18267 18270 18273 18275 18278 18281 18284 18287 18290 18293 18296 18299 18302 18304 18307 18310 18313 18315 18318 18321 18324 18327 18330 18333 18336 18339 18342 18345 18348 18351 18354 18357 18360 18363 18366 18369 18372 18375 18378 18381 18384 18387 18390 18393 18396 18399 18402 18405 18408 18411 18414 18417 18420 18422 18425 18428 18430 18433 18436 18439 18442 18444 18447 18450 18453 18456 18459 18462 18465 18468 18471 18474 18477 18480 18483 18486 18489 18491 18494 18497 18500 18503 18506 18509 18512 18515 18518 18520 18523 18525 18528 18531 18534 18537 18540 18543 18546 18548 18551 18554 18557 18560 18563 18566 18569 18572 18575 18578 18581 18584 18587 18590 18592 18595 18598 18601 18604 18607 18610 18613 18616 18619 18622 18625 18627 18630 18633 18636 18639 18642 18645 18648 18651 18654 18657 18660 18663 18666 18669 18672 18675 18678 18681 18684 18687 18690 18693 18696 18698 18701 18703 18706 18709 18712 18715 18718 18721 18723 18726 18728 18731 18734 18737 18739 18742 18745 18748 18750 18753 18756 18759 18761 18764 18767 18769 18772 18775 18778 18781 18784 18787 18790 18792 18795 18798 18801 18804 18807 18810 18813 18815 18818 18821 18824 18827 18830 18833 18836 18839 18842 18845 18848 18851 18854 18856 18859 18862 18865 18868 18871 18874 18877 18880 18882 18885 18888 18891 18894 18897 18900 18903 18906 18909 18912 18915 18918 18921 18924 18927 18930 18933 18936 18939 18942 18944 18947 18950 18953 18956 18959 18962 18965 18968 18971 18974 18977 18980 18983 18986 18989 18992 18995 18998 19001 19004 19007 19010 19013 19016 19019 19022 19025 19028 19031 19034 19037 19040 19043 19046 19049 19052 19055 19058 19061 19064 19067 19070 19073 19076 19079 19082 19085 19088 19091 19094 19096 19099 19101 19104 19107 19110 19112 19115 19118 19120 19122 19125 19127 19130 19133 19136 19139 19142 19145 19148 19151 19154 19157 19160 19163 19166 19169 19172 19175 19178 19181 19184 19187 19190 19193 19196 19199 19202 19205 19208 19211 19214 19217 19220 19223 19226 19229 19232 19234 19237 19240 19243 19246 19248 19251 19254 19256 19259 19262 19265 19267 19270 19273 19276 19279 19281 19284 19286 19288 19291 19294 19297 19300 19302 19305 19308 19311 19313 19316 19319 19322 19324 19327 19330 19333 19336 19339 19342 19344 19347 19350 19353 19356 19359 19362 19365 19368 19371 19374 19377 19380 19383 19386 19389 19392 19395 19398 19401 19404 19406 19409 19412 19415 19418 19421 19424 19427 19430 19433 19436 19439 19442 19445 19448 19451 19454 19457 19460 19462 19465 19468 19470 19473 19476 19478 19481 19484 19487 19490 19493 19496 19499 19502 19505 19508 19511 19513 19516 19519 19522 19525 19527 19530 19533 19536 19539 19541 19544 19547 19550 19552 19555 19558 19561 19564 19567 19570 19573 19576 19579 19582 19585 19588 19591 19594 19597 19600 19603 19606 19609 19612 19615 19618 19621 19624 19627 19629 19632 19635 19638 19641 19644 19647 19650 19653 19655 19658 19661 19664 19666 19669 19672 19675 19678 19681 19684 19687 19690 19693 19696 19699 19702 19705 19708 19711 19714 19717 19720 19723 19726 19729 19732 19735 19738 19740 19743 19746 19749 19751 19754 19757 19760 19763 19766 19769 19772 19775 19777 19780 19783 19785 19788 19791 19794 19797 19799 19802 19805 19808 19811 19814 19817 19820 19822 19825 19827 19830 19833 19835 19838 19841 19843 19845 19848 19851 19854 19857 19860 19863 19866 19869 19872 19875 19878 19881 19884 19887 19890 19893 19896 19899 19902 19905 19908 19910 19913 19916 19919 19922 19924 19927 19930 19933 19936 19939 19942 19945 19948 19951 19954 19957 19960 19963 19965 19968 19971 19973 19976 19979 19982 19985 19988 19991 19994 19997 20000 20003 20006 20009 20012 20015 20018 20021 20024 20027 20030 20033 20036 20039 20042 20045 20048 20051 20054 20057 20060 20063 20066 20069 20072 20075 20078 20081 20084 20087 20090 20093 20096 20099 20102 20105 20108 20111 20114 20117 20120 20123 20126 20129 20132 20135 20138 20141 20144 20147 20150 20153 20156 20159 20162 20165 20168 20171 20174 20177 20180 20183 20186 20189 20192 20195 20198 20201 20204 20207 20210 20213 20216 20219 20222 20225 20228 20231 20234 20237 20240 20243 20246 20249 20252 20255 20258 20261 20264 20267 20270 20273 20276 20279 20282 20285 20288 20291 20294 20297 20300 20303 20306 20309 20312 20315 20318 20321 20324 20327 20330 20333 20336 20339 20342 20345 20348 20351 20354 20357 20359 20362 20365 20368 20371 20374 20377 20380 20382 20385 20388 20391 20394 20397 20400 20403 20406 20409 20411 20414 20416 20419 20422 20425 20427 20430 20433 20435 20438 20441 20444 20447 20450 20453 20456 20459 20462 20465 20468 20471 20474 20477 20480 20483 20486 20489 20492 20495 20498 20501 20504 20507 20510 20513 20516 20519 20522 20525 20528 20531 20534 20537 20540 20543 20546 20548 20551 20554 20556 20558 20561 20564 20566 20569 20572 20574 20577 20580 20583 20585 20588 20591 20594 20597 20600 20603 20606 20609 20612 20614 20617 20620 20623 20626 20629 20632 20634 20637 20640 20643 20646 20649 20652 20655 20658 20661 20664 20667 20670 20673 20676 20679 20682 20685 20688 20691 20694 20697 20700 20703 20706 20709 20712 20715 20718 20721 20724 20727 20729 20732 20735 20738 20741 20744 20747 20750 20753 20756 20759 20762 20765 20768 20771 20774 20777 20780 20783 20786 20789 20792 20795 20798 20801 20804 20807 20810 20813 20816 20819 20822 20825 20828 20831 20834 20837 20840 20843 20846 20849 20852 20855 20858 20861 20864 20867 20869 20872 20874 20877 20880 20883 20886 20888 20891 20894 20897 20900 20902 20905 20908 20911 20914 20916 20919 20922 20925 20928 20931 20934 20937 20940 20942 20945 20948 20950 20953 20955 20958 20961 20964 20967 20969 20972 20975 20977 20979 20982 20985 20988 20991 20994 20997 20999 21002 21005 21008 21011 21014 21017 21020 21023 21026 21029 21031 21033 21036 21039 21042 21045 21048 21050 21053 21056 21058 21061 21064 21067 21070 21072 21075 21078 21080 21083 21086 21089 21092 21095 21098 21101 21104 21107 21110 21113 21116 21119 21122 21125 21128 21131 21134 21137 21140 21143 21146 21149 21152 21155 21158 21161 21164 21167 21169 21172 21174 21177 21180 21183 21186 21189 21192 21195 21198 21201 21204 21207 21210 21213 21215 21218 21221 21224 21227 21229 21231 21234 21237 21240 21243 21246 21249 21252 21255 21258 21261 21264 21267 21270 21273 21276 21279 21282 21285 21288 21291 21294 21297 21300 21303 21306 21309 21312 21315 21318 21321 21324 21327 21330 21333 21336 21339 21342 21345 21348 21351 21354 21357 21359 21362 21365 21368 21370 21373 21376 21379 21382 21385 21388 21391 21394 21397 21400 21403 21406 21409 21412 21415 21418 21421 21424 21427 21430 21432 21435 21438 21440 21443 21446 21449 21452 21455 21458 21461 21464 21467 21469 21472 21475 21478 21481 21484 21486 21489 21492 21495 21498 21501 21503 21506 21508 21511 21514 21517 21520 21523 21526 21529 21532 21535 21538 21541 21544 21547 21549 21552 21555 21558 21560 21562 21565 21568 21571 21574 21577 21580 21583 21586 21588 21591 21594 21596 21599 21602 21604 21606 21609 21612 21615 21618 21621 21623 21626 21629 21632 21635 21638 21641 21644 21646 21649 21652 21654 21656 21659 21662 21665 21668 21671 21674 21676 21678 21681 21684 21687 21689 21692 21695 21698 21701 21704 21707 21710 21712 21715 21718 21721 21724 21727 21730 21733 21736 21739 21742 21745 21748 21751 21754 21757 21760 21763 21766 21769 21772 21775 21778 21781 21784 21787 21790 21792 21795 21798 21801 21804 21807 21810 21813 21815 21818 21821 21824 21827 21830 21833 21836 21839 21842 21845 21848 21850 21853 21856 21859 21862 21865 21868 21871 21874 21876 21879 21882 21885 21888 21891 21894 21897 21900 21903 21906 21909 21912 21915 21918 21921 21924 21926 21929 21932 21935 21937 21940 21943 21946 21949 21952 21954 21957 21960 21963 21966 21969 21972 21975 21978 21981 21984 21987 21990 21993 21996 21998 22001 22004 22007 22010 22012 22015 22018 22020 22023 22026 22029 22032 22035 22037 22040 22043 22046 22049 22052 22055 22058 22061 22064 22067 22070 22073 22076 22079 22081 22084 22086 22089 22092 22095 22097 22100 22102 22105 22107 22110 22113 22116 22119 22122 22125 22127 22129 22132 22135 22138 22141 22144 22147 22149 22152 22154 22157 22160 22163 22166 22169 22172 22175 22178 22181 22184 22187 22190 22193 22196 22199 22202 22205 22207 22210 22213 22216 22218 22220 22223 22226 22229 22232 22235 22237 22240 22243 22245 22247 22250 22253 22256 22259 22262 22265 22268 22271 22274 22277 22280 22283 22286 22289 22292 22295 22298 22301 22304 22307 22310 22313 22316 22319 22322 22325 22328 22331 22334 22337 22340 22343 22346 22349 22352 22355 22358 22361 22364 22367 22370 22373 22376 22379 22381 22384 22387 22389 22391 22393 22396 22399 22402 22405 22408 22411 22413 22416 22419 22422 22425 22428 22431 22434 22437 22440 22442 22445 22448 22451 22453 22456 22459 22462 22465 22468 22471 22474 22477 22480 22483 22486 22489 22492 22495 22498 22501 22504 22507 22510 22513 22515 22518 22521 22524 22527 22529 22532 22535 22538 22541 22544 22547 22550 22553 22556 22559 22562 22565 22568 22571 22574 22577 22580 22583 22586 22589 22592 22595 22598 22601 22604 22607 22610 22613 22616 22619 22622 22625 22628 22631 22633 22636 22638 22641 22644 22647 22650 22653 22656 22659 22662 22664 22667 22670 22673 22675 22678 22680 22683 22686 22689 22692 22695 22698 22701 22704 22706 22709 22712 22715 22718 22720 22723 22726 22729 22732 22734 22737 22740 22743 22746 22749 22752 22755 22757 22760 22763 22766 22769 22771 22774 22777 22780 22783 22786 22789 22792 22795 22798 22801 22804 22807 22810 22813 22816 22819 22822 22825 22828 22831 22834 22837 22840 22843 22846 22849 22852 22855 22858 22861 22864 22867 22870 22873 22876 22879 22882 22885 22888 22891 22894 22897 22900 22903 22906 22909 22911 22914 22917 22920 22923 22925 22927 22930 22933 22935 22937 22940 22943 22946 22949 22952 22955 22958 22961 22964 22967 22970 22973 22976 22979 22982 22985 22988 22991 22994 22996 22999 23002 23005 23007 23009 23012 23015 23018 23021 23024 23027 23030 23033 23036 23039 23042 23045 23048 23051 23054 23057 23060 23063 23066 23069 23072 23075 23078 23081 23084 23087 23090 23092 23095 23098 23101 23104 23107 23110 23113 23115 23118 23121 23124 23127 23130 23133 23136 23139 23142 23145 23148 23151 23154 23157 23160 23162 23165 23168 23171 23174 23177 23180 23183 23186 23188 23191 23193 23195 23198 23201 23204 23207 23210 23213 23216 23219 23222 23225 23228 23231 23233 23236 23239 23242 23245 23248 23251 23254 23257 23260 23263 23266 23269 23272 23275 23278 23281 23284 23287 23289 23292 23295 23298 23300 23303 23306 23309 23312 23315 23318 23321 23324 23326 23329 23332 23335 23338 23341 23344 23347 23350 23353 23356 23359 23362 23365 23368 23371 23373 23376 23379 23382 23384 23387 23390 23393 23396 23399 23402 23405 23408 23411 23414 23417 23420 23423 23426 23429 23432 23435 23438 23441 23444 23447 23450 23453 23456 23459 23462 23465 23468 23471 23474 23477 23480 23483 23485 23488 23490 23493 23496 23499 23502 23505 23508 23511 23514 23516 23519 23522 23525 23528 23531 23534 23537 23540 23543 23545 23548 23551 23553 23556 23559 23562 23565 23568 23570 23573 23576 23579 23582 23584 23587 23590 23593 23596 23598 23601 23604 23607 23609 23612 23614 23617 23620 23622 23625 23628 23631 23634 23637 23640 23643 23646 23649 23652 23655 23658 23661 23664 23666 23669 23672 23674 23677 23679 23682 23685 23688 23690 23693 23696 23698 23701 23704 23707 23710 23712 23715 23717 23720 23723 23726 23729 23732 23735 23737 23740 23742 23745 23748 23751 23754 23757 23759 23762 23765 23768 23771 23773 23776 23779 23782 23785 23788 23791 23793 23796 23799 23802 23805 23808 23811 23814 23817 23820 23823 23826 23829 23832 23835 23838 23841 23844 23847 23850 23853 23856 23859 23862 23865 23868 23871 23874 23877 23880 23883 23886 23889 23892 23894 23896 23899 23902 23905 23908 23911 23914 23917 23920 23923 23926 23928 23931 23934 23936 23938 23941 23943 23946 23949 23952 23955 23958 23961 23964 23966 23969 23972 23975 23978 23981 23984 23987 23990 23993 23996 23999 24002 24004 24007 24010 24013 24016 24018 24021 24024 24027 24030 24033 24036 24039 24042 24045 24048 24051 24054 24056 24059 24062 24065 24068 24071 24074 24077 24080 24083 24086 24089 24092 24095 24098 24101 24104 24107 24109 24112 24115 24118 24121 24124 24126 24129 24132 24135 24137 24140 24143 24146 24149 24152 24155 24157 24160 24162 24165 24168 24171 24173 24176 24179 24182 24185 24188 24191 24194 24197 24200 24202 24205 24208 24210 24213 24216 24219 24222 24225 24228 24231 24233 24236 24239 24242 24245 24248 24251 24254 24257 24260 24263 24266 24269 24272 24274 24277 24280 24282 24285 24288 24291 24294 24297 24300 24302 24305 24308 24311 24314 24317 24320 24322 24325 24328 24331 24334 24337 24340 24343 24345 24348 24351 24354 24357 24360 24363 24366 24369 24372 24375 24378 24381 24384 24387 24390 24393 24396 24399 24402 24405 24408 24411 24413 24416 24419 24422 24425 24428 24431 24434 24437 24440 24443 24445 24448 24451 24454 24457 24459 24461 24464 24467 24470 24473 24475 24478 24481 24484 24487 24490 24493 24496 24499 24502 24504 24507 24510 24513 24516 24519 24522 24525 24528 24531 24534 24537 24539 24542 24545 24548 24550 24553 24556 24559 24561 24564 24567 24570 24573 24576 24579 24582 24585 24588 24591 24594 24597 24599 24602 24605 24608 24611 24614 24616 24619 24622 24624 24627 24630 24633 24636 24639 24642 24645 24648 24651 24654 24657 24660 24663 24666 24668 24671 24674 24677 24680 24683 24686 24689 24691 24694 24697 24700 24702 24705 24708 24711 24714 24717 24719 24722 24725 24728 24731 24734 24737 24740 24743 24746 24748 24751 24754 24757 24760 24763 24766 24769 24772 24774 24777 24780 24783 24786 24789 24791 24794 24797 24800 24803 24806 24809 24812 24814 24817 24820 24823 24826 24829 24832 24835 24838 24841 24844 24847 24850 24853 24856 24859 24862 24865 24868 24871 24874 24877 24880 24883 24886 24889 24892 24895 24898 24901 24904 24907 24910 24913 24916 24919 24922 24925 24928 24931 24934 24937 24940 24943 24946 24949 24952 24955 24958 24960 24963 24966 24969 24972 24975 24978 24981 24983 24986 24989 24992 24995 24998 25001 25004 25007 25010 25013 25016 25019 25022 25025 25028 25031 25034 25037 25040 25043 25046 25049 25051 25053 25056 25059 25061 25063 25066 25069 25072 25075 25078 25081 25084 25086 25089 25092 25095 25098 25101 25104 25107 25110 25113 25116 25119 25122 25125 25128 25130 25133 25136 25139 25142 25145 25148 25151 25154 25156 25159 25162 25164 25167 25170 25173 25175 25178 25181 25184 25187 25190 25193 25196 25199 25202 25205 25208 25211 25214 25217 25220 25223 25226 25229 25232 25235 25238 25241 25244 25247 25250 25253 25256 25259 25261 25264 25267 25270 25273 25276 25279 25282 25285 25287 25290 25293 25296 25299 25302 25305 25307 25309 25312 25315 25318 25321 25323 25326 25329 25331 25334 25337 25339 25342 25345 25348 25351 25354 25357 25359 25362 25365 25368 25371 25374 25377 25380 25383 25385 25388 25391 25394 25397 25400 25403 25406 25409 25412 25415 25418 25420 25423 25426 25428 25431 25434 25437 25440 25443 25446 25449 25451 25454 25457 25460 25462 25465 25467 25470 25472 25475 25478 25481 25484 25487 25490 25493 25496 25499 25502 25505 25508 25511 25514 25517 25520 25523 25525 25528 25530 25533 25536 25539 25542 25545 25548 25551 25554 25557 25560 25562 25565 25568 25571 25574 25577 25580 25583 25585 25588 25591 25594 25596 25599 25601 25603 25606 25609 25611 25614 25617 25620 25623 25625 25628 25631 25634 25636 25639 25642 25645 25647 25650 25652 25654 25657 25660 25663 25666 25669 25672 25674 25677 25680 25683 25686 25689 25692 25695 25698 25700 25702 25704 25707 25709 25712 25715 25717 25719 25722 25725 25727 25730 25733 25736 25739 25742 25745 25748 25751 25754 25757 25760 25762 25765 25768 25771 25774 25777 25780 25783 25786 25789 25792 25795 25798 25801 25803 25805 25808 25811 25814 25817 25819 25822 25825 25828 25830 25833 25836 25839 25842 25845 25847 25849 25852 25855 25858 25860 25863 25866 25869 25872 25875 25878 25881 25884 25887 25890 25893 25896 25899 25902 25905 25907 25910 25913 25916 25918 25921 25924 25927 25929 25932 25935 25938 25941 25944 25947 25949 25952 25955 25958 25961 25964 25966 25969 25972 25975 25978 25981 25984 25987 25990 25992 25995 25998 26001 26004 26007 26010 26013 26016 26019 26021 26024 26027 26030 26033 26035 26038 26040 26043 26046 26048 26051 26053 26056 26059 26062 26065 26068 26071 26073 26076 26078 26080 26083 26086 26089 26092 26095 26098 26101 26104 26106 26109 26111 26114 26116 26119 26121 26124 26127 26130 26133 26136 26139 26142 26145 26148 26151 26154 26156 26159 26162 26165 26167 26170 26173 26176 26179 26182 26185 26188 26191 26193 26196 26199 26202 26205 26208 26211 26214 26217 26220 26222 26225 26228 26231 26234 26236 26239 26242 26244 26247 26250 26253 26256 26259 26262 26265 26268 26271 26273 26276 26279 26282 26284 26287 26290 26293 26296 26299 26302 26305 26308 26311 26314 26317 26320 26323 26326 26329 26332 26335 26338 26341 26343 26346 26349 26352 26355 26358 26361 26364 26367 26370 26373 26375 26378 26381 26384 26387 26390 26393 26396 26399 26402 26405 26408 26411 26414 26417 26420 26423 26426 26429 26432 26435 26438 26441 26444 26447 26450 26453 26456 26459 26462 26465 26468 26471 26474 26477 26480 26483 26486 26489 26492 26495 26498 26501 26504 26507 26510 26512 26514 26517 26520 26523 26526 26529 26532 26535 26538 26541 26544 26547 26550 26553 26555 26557 26560 26563 26566 26568 26571 26574 26576 26579 26582 26585 26587 26590 26593 26596 26598 26601 26604 26607 26610 26613 26616 26619 26622 26624 26627 26630 26632 26635 26637 26639 26642 26645 26648 26651 26654 26657 26659 26662 26664 26666 26668 26671 26674 26676 26679 26682 26684 26686 26689 26692 26695 26698 26701 26704 26707 26710 26713 26716 26719 26722 26725 26728 26731 26734 26737 26740 26743 26746 26749 26751 26754 26757 26760 26763 26766 26769 26772 26775 26778 26780 26783 26786 26789 26792 26795 26798 26801 26803 26805 26808 26811 26814 26817 26820 26823 26826 26829 26832 26835 26838 26841 26844 26847 26850 26853 26856 26859 26862 26865 26868 26871 26874 26876 26879 26881 26884 26887 26890 26893 26896 26899 26902 26904 26907 26910 26913 26915 26917 26920 26923 26925 26928 26931 26934 26937 26939 26942 26945 26948 26950 26953 26956 26959 26961 26964 26967 26970 26973 26976 26979 26982 26985 26988 26990 26992 26995 26998 27001 27004 27007 27009 27012 27015 27017 27019 27021 27024 27027 27030 27033 27036 27038 27041 27044 27047 27050 27053 27056 27059 27062 27065 27067 27070 27072 27075 27078 27081 27084 27087 27090 27093 27096 27099 27102 27105 27108 27111 27114 27117 27120 27123 27126 27129 27132 27135 27138 27141 27144 27146 27149 27152 27155 27158 27160 27162 27165 27168 27171 27173 27176 27179 27182 27185 27188 27191 27194 27197 27200 27203 27206 27209 27212 27215 27218 27221 27223 27226 27229 27232 27234 27237 27240 27242 27245 27248 27251 27254 27257 27260 27263 27266 27269 27272 27275 27278 27281 27283 27286 27289 27291 27294 27297 27300 27302 27305 27307 27310 27312 27315 27317 27319 27321 27324 27327 27330 27333 27336 27339 27342 27345 27347 27350 27353 27356 27359 27362 27365 27368 27371 27373 27376 27379 27381 27384 27387 27390 27393 27396 27399 27402 27405 27408 27411 27414 27417 27420 27423 27426 27429 27432 27435 27438 27441 27444 27446 27449 27452 27455 27458 27461 27464 27467 27470 27473 27476 27478 27481 27483 27486 27489 27491 27494 27496 27499 27501 27504 27507 27509 27512 27514 27517 27520 27522 27525 27528 27531 27533 27536 27539 27542 27545 27548 27551 27554 27557 27560 27563 27566 27569 27572 27575 27578 27581 27584 27587 27590 27593 27596 27599 27602 27605 27608 27611 27614 27617 27620 27623 27626 27629 27632 27635 27638 27641 27644 27647 27650 27653 27656 27659 27662 27665 27668 27671 27674 27677 27680 27683 27686 27689 27692 27695 27698 27701 27704 27707 27710 27713 27716 27718 27721 27724 27726 27729 27732 27735 27738 27741 27744 27746 27748 27751 27754 27757 27760 27763 27766 27769 27772 27775 27778 27781 27784 27787 27790 27793 27796 27799 27802 27804 27807 27810 27813 27815 27818 27821 27824 27827 27830 27833 27836 27839 27842 27845 27848 27851 27854 27857 27860 27863 27865 27868 27871 27874 27877 27880 27883 27886 27888 27891 27894 27897 27900 27903 27906 27909 27912 27914 27917 27919 27922 27925 27928 27931 27934 27937 27940 27943 27946 27949 27952 27955 27958 27961 27964 27967 27969 27972 27975 27978 27981 27984 27987 27990 27992 27995 27998 28001 28004 28006 28009 28012 28015 28018 28021 28024 28027 28029 28032 28035 28037 28039 28042 28045 28047 28050 28053 28056 28059 28062 28065 28067 28070 28073 28076 28079 28082 28085 28088 28091 28094 28096 28099 28102 28104 28107 28110 28112 28115 28118 28120 28123 28126 28129 28132 28135 28137 28140 28143 28146 28149 28152 28155 28158 28161 28163 28166 28169 28172 28175 28178 28181 28184 28186 28189 28192 28195 28198 28201 28204 28207 28210 28213 28216 28219 28222 28224 28227 28230 28233 28236 28239 28242 28245 28247 28249 28252 28254 28257 28259 28262 28265 28268 28271 28274 28277 28280 28283 28286 28289 28292 28295 28298 28301 28304 28306 28309 28311 28314 28317 28320 28323 28326 28329 28332 28335 28337 28340 28342 28345 28347 28350 28352 28355 28357 28360 28363 28365 28368 28371 28374 28377 28380 28382 28385 28388 28391 28394 28397 28400 28403 28406 28408 28411 28414 28417 28420 28423 28425 28428 28431 28433 28436 28438 28440 28443 28446 28449 28452 28455 28458 28461 28464 28466 28469 28472 28475 28478 28481 28484 28487 28490 28493 28496 28499 28502 28505 28507 28510 28513 28516 28519 28522 28525 28528 28530 28533 28536 28539 28541 28544 28547 28550 28553 28556 28559 28562 28565 28568 28571 28574 28577 28580 28583 28586 28589 28592 28594 28597 28600 28603 28606 28609 28612 28615 28617 28620 28623 28625 28628 28631 28634 28637 28640 28643 28646 28649 28652 28655 28658 28661 28664 28667 28670 28672 28675 28678 28681 28684 28686 28689 28692 28695 28698 28701 28704 28707 28710 28713 28716 28719 28722 28725 28728 28731 28734 28737 28740 28743 28746 28749 28752 28755 28758 28761 28763 28766 28769 28772 28775 28778 28781 28783 28786 28789 28792 28795 28798 28801 28804 28807 28810 28812 28814 28817 28820 28823 28825 28828 28830 28833 28836 28839 28842 28845 28848 28851 28854 28857 28860 28863 28866 28869 28872 28875 28877 28880 28883 28886 28889 28892 28895 28898 28901 28904 28907 28910 28913 28915 28917 28920 28923 28926 28929 28932 28935 28938 28941 28943 28946 28949 28951 28954 28957 28959 28961 28964 28967 28970 28973 28976 28979 28982 28984 28987 28990 28993 28996 28999 29002 29005 29008 29011 29013 29016 29019 29022 29024 29027 29030 29033 29036 29039 29041 29044 29047 29050 29053 29056 29059 29062 29065 29068 29071 29074 29077 29079 29082 29085 29088 29090 29093 29096 29099 29101 29104 29107 29110 29113 29116 29119 29122 29125 29128 29131 29134 29137 29140 29143 29146 29149 29152 29155 29158 29161 29164 29167 29170 29173 29176 29179 29182 29185 29188 29191 29194 29197 29199 29202 29205 29208 29211 29214 29217 29220 29223 29226 29229 29232 29235 29238 29241 29244 29247 29250 29253 29256 29259 29262 29265 29268 29271 29273 29276 29278 29281 29284 29286 29289 29292 29295 29298 29301 29304 29307 29310 29313 29315 29318 29321 29324 29327 29330 29333 29336 29339 29342 29345 29348 29351 29354 29357 29359 29362 29365 29368 29371 29373 29376 29379 29382 29384 29387 29390 29393 29396 29399 29402 29405 29408 29411 29414 29417 29420 29423 29426 29429 29432 29435 29438 29441 29444 29447 29450 29453 29456 29459 29462 29465 29468 29471 29474 29477 29480 29483 29486 29489 29492 29495 29498 29501 29504 29507 29510 29513 29516 29519 29522 29525 29528 29531 29534 29537 29540 29543 29546 29549 29552 29555 29558 29561 29564 29567 29570 29573 29576 29579 29582 29585 29588 29591 29594 29597 29600 29603 29606 29609 29612 29615 29618 29621 29624 29627 29630 29633 29636 29639 29642 29645 29648 29651 29654 29657 29660 29663 29666 29669 29672 29675 29678 29681 29684 29687 29690 29693 29696 29699 29702 29705 29708 29711 29714 29717 29720 29723 29726 29729 29732 29735 29738 29741 29744 29747 29750 29753 29756 29759 29762 29765 29768 29771 29774 29777 29780 29783 29786 29789 29792 29795 29798 29801 29804 29807 29810 29813 29816 29819 29822 29825 29828 29831 29834 29837 29840 29843 29846 29849 29852 29855 29858 29861 29864 29867 29870 29873 29876 29879 29882 29885 29888 29891 29894 29897 29900 29903 29906 29909 29912 29915 29918 29921 29924 29927 29930 29933 29936 29939 29942 29945 29948 29951 29953 29956 29959 29962 29965 29968 29971 29974 29977 29980 29983 29986 29989 29992 29995 29998 30001 30003 30006 30009 30012 30015 30018 30021 30024 30027 30029 30032 30035 30038 30041 30043 30046 30049 30052 30055 30058 30061 30064 30067 30070 30073 30076 30079 30082 30085 30088 30091 30094 30097 30100 30103 30106 30109 30111 30114 30117 30120 30123 30126 30129 30132 30135 30138 30141 30144 30147 30150 30152 30154 30157 30160 30163 30166 30169 30171 30174 30176 30179 30182 30185 30188 30191 30194 30197 30200 30203 30206 30209 30211 30214 30217 30220 30223 30226 30229 30232 30234 30237 30240 30243 30246 30249 30252 30255 30258 30261 30264 30267 30270 30273 30276 30279 30281 30283 30286 30289 30292 30295 30298 30301 30304 30307 30310 30313 30316 30319 30321 30324 30327 30330 30333 30336 30339 30342 30345 30348 30351 30354 30357 30360 30363 30366 30369 30371 30374 30377 30380 30383 30386 30389 30392 30394 30397 30400 30403 30406 30409 30412 30415 30418 30421 30424 30426 30428 30431 30434 30437 30440 30443 30446 30449 30452 30455 30458 30461 30464 30467 30470 30473 30476 30479 30482 30485 30488 30491 30494 30497 30500 30503 30506 30509 30512 30515 30518 30520 30523 30526 30529 30532 30535 30537 30540 30543 30546 30549 30552 30555 30558 30561 30564 30567 30569 30572 30575 30578 30581 30583 30586 30589 30592 30595 30598 30601 30604 30607 30610 30613 30615 30618 30620 30623 30626 30629 30632 30635 30638 30641 30644 30647 30650 30653 30656 30659 30662 30665 30668 30671 30674 30677 30680 30683 30686 30689 30692 30695 30698 30701 30704 30707 30710 30713 30715 30718 30721 30724 30727 30730 30732 30735 30738 30741 30744 30747 30750 30753 30756 30759 30762 30765 30768 30771 30774 30777 30780 30783 30786 30788 30791 30794 30796 30799 30802 30805 30807 30810 30813 30816 30819 30822 30824 30827 30830 30833 30836 30839 30842 30845 30848 30851 30854 30856 30859 30862 30865 30868 30871 30874 30876 30879 30882 30885 30888 30891 30893 30895 30898 30901 30903 30906 30909 30911 30914 30917 30920 30923 30926 30929 30932 30935 30938 30941 30943 30946 30949 30951 30954 30957 30959 30962 30965 30967 30970 30973 30975 30978 30981 30983 30986 30989 30992 30995 30998 31001 31003 31006 31009 31012 31015 31018 31021 31024 31027 31030 31033 31036 31038 31041 31044 31047 31050 31053 31056 31059 31061 31064 31067 31070 31073 31075 31078 31081 31084 31086 31089 31092 31095 31098 31101 31104 31107 31110 31113 31116 31119 31121 31124 31127 31130 31133 31136 31139 31142 31145 31148 31151 31154 31157 31160 31163 31166 31169 31172 31175 31178 31181 31184 31187 31190 31193 31195 31198 31201 31204 31207 31210 31212 31215 31218 31221 31224 31227 31230 31233 31236 31239 31242 31245 31248 31251 31254 31256 31259 31262 31264 31267 31269 31272 31275 31278 31281 31283 31286 31288 31290 31293 31295 31298 31301 31304 31307 31310 31313 31316 31318 31321 31323 31326 31329 31332 31335 31338 31341 31343 31346 31349 31352 31355 31358 31361 31363 31366 31369 31372 31375 31377 31380 31383 31386 31389 31392 31394 31397 31400 31402 31405 31408 31411 31414 31416 31419 31422 31425 31428 31430 31433 31436 31439 31442 31445 31448 31450 31453 31456 31459 31462 31465 31468 31471 31474 31477 31479 31482 31485 31488 31491 31494 31497 31499 31502 31505 31508 31511 31513 31516 31519 31522 31525 31528 31531 31534 31537 31540 31543 31546 31549 31552 31555 31558 31561 31563 31566 31569 31572 31574 31577 31580 31582 31585 31588 31591 31594 31597 31600 31603 31606 31609 31612 31615 31618 31621 31624 31627 31630 31632 31635 31637 31640 31643 31646 31649 31652 31655 31658 31661 31664 31667 31670 31673 31676 31679 31682 31685 31688 31691 31694 31697 31700 31703 31706 31709 31712 31715 31717 31720 31723 31725 31728 31731 31734 31737 31740 31743 31746 31749 31752 31755 31757 31760 31763 31766 31769 31771 31774 31777 31780 31783 31785 31788 31791 31794 31797 31800 31803 31806 31809 31812 31814 31817 31820 31823 31826 31829 31832 31835 31838 31841 31844 31847 31850 31853 31856 31859 31862 31865 31868 31871 31874 31877 31880 31883 31886 31889 31892 31895 31898 
</DataArray>
<DataArray type="UInt32" Name="types" format="ascii">
5 5 5 5 5 3 5 5 5 5 5 5 5 3 5 5 5 5 3 5 5 3 5 5 5 5 3 5 5 5 5 3 5 5 5 5 5 5 5 5 5 5 5 5 5 3 5 5 3 5 5 5 5 5 3 5 5 5 5 5 5 5 3 5 5 5 5 3 5 5 5 5 5 5 5 5 5 3 5 5 3 5 5 3 5 5 5 5 3 5 5 5 5 5 5 5 3 3 3 5 5 3 5 5 5 5 5 3 5 5 5 5 5 5 5 5 5 5 5 5 5 3 5 5 5 3 5 5 5 5 5 5 3 5 5 5 5 5 5 5 5 5 5 5 5 5 5 5 5 5 5 5 5 5 5 5 5 5 3 5 5 5 3 5 5 3 5 5 5 5 5 5 5 5 5 5 5 3 5 5 5 5 5 5 5 5 3 5 5 5 5 5 5 5 5 3 5 5 5 5 5 5 5 5 5 3 5 5 5 5 5 5 5 5 5 5 5 5 5 5 5 5 5 5 5 5 5 5 5 3 5 5 5 3 5 3 5 3 5 5 3 5 5 5 3 5 3 5 3 5 3 3 5 3 5 5 3 5 3 5 5 5 3 5 3 3 5 5 3 5 5 5 3 5 3 3 3 5 3 5 5 5 3 5 3 3 3 5 5 3 3 5 5 5 5 3 5 3 5 5 3 5 5 5 3 5 3 3 3 5 5 5 3 5 3 3 3 3 5 5 5 3 3 5 5 3 3 3 5 3 5 5 5 5 3 5 5 5 5 5 5 5 3 5 5 5 5 5 5 3 3 5 5 5 3 5 5 5 3 5 3 5 3 3 5 5 5 5 3 5 5 3 5 5 5 5 3 5 3 5 5 5 5 5 3 3 5 5 5 5 5 5 5 5 3 5 5 5 3 5 5 3 5 3 5 5 5 5 5 5 5 5 5 5 5 3 5 3 5 3 5 5 5 3 5 3 5 3 5 5 5 5 5 5 3 5 3 5 5 5 3 5 5 5 3 5 3 3 5 5 5 5 3 5 5 5 5 3 3 5 5 3 5 3 5 3 3 5 5 5 3 5 5 5 5 3 5 5 5 5 5 5 5 5 5 5 5 3 5 5 5 5 3 5 5 5 3 5 3 3 3 5 5 5 3 3 5 3 5 5 3 5 5 5 5 3 5 5 5 5 5 5 5 5 5 5 5 3 3 5 5 3 5 5 5 3 5 5 5 5 5 5 3 5 5 5 3 5 5 5 3 5 5 5 5 5 5 5 5 5 5 5 3 5 5 5 3 5 5 5 5 5 5 5 3 5 5 5 5 5 3 5 5 5 5 5 5 5 5 5 5 5 5 5 5 5 5 5 5 5 3 5 5 5 5 3 5 5 3 5 5 5 5 5 5 5 3 5 5 5 5 5 5 5 5 3 5 3 5 5 3 5 5 5 3 5 5 3 5 5 5 3 5 3 5 5 3 5 3 5 5 5 5 5 5 5 5 5 5 5 5 5 5 5 5 5 5 5 5 5 5 3 5 3 5 3 5 5 5 5 5 5 5 5 5 5 5 5 5 5 5 3 5 5 5 5 5 5 5 5 5 3 5 5 5 5 5 5 5 5 5 5 5 5 5 5 5 5 5 5 5 5 5 5 5 5 5 5 5 5 5 3 5 5 3 5 5 5 3 3 5 3 5 5 5 5 5 3 5 5 5 5 5 3 5 5 5 5 5 5 5 5 5 5 5 5 5 5 5 5 5 5 5 5 5 5 5 5 5 5 5 5 5 5 5 5 5 5 5 5 5 5 5 5 5 5 5 5 5 5 5 5 5 3 5 5 5 5 5 5 5 5 5 5 5 5 5 5 5 3 5 5 5 5 3 5 5 5 5 5 5 5 5 5 5 5 5 5 5 5 5 5 5 5 5 5 5 5 5 5 5 5 3 5 5 3 5 3 3 3 3 5 5 3 5 5 5 5 5 5 5 5 5 5 5 5 5 5 5 5 5 3 5 5 3 5 3 5 5 5 5 3 5 3 5 5 5 5 3 5 5 5 3 5 5 5 5 5 3 5 3 5 5 3 3 5 3 5 5 5 5 5 5 5 5 5 5 5 3 5 5 5 3 5 5 5 3 5 5 3 3 3 5 5 5 5 5 5 5 5 5 5 5 3 5 5 5 5 5 5 5 5 3 3 3 5 5 5 5 5 5 5 5 3 3 5 5 5 3 5 5 3 5 5 5 5 5 5 5 5 5 5 5 3 5 5 5 5 5 5 5 5 3 5 5 5 5 5 5 5 5 5 5 3 5 3 3 3 5 5 5 5 5 5 5 3 3 5 3 5 5 5 5 5 3 5 3 3 5 5 5 3 5 3 5 5 5 5 3 5 5 5 5 5 5 5 5 5 5 5 5 5 5 5 5 5 3 5 5 5 3 5 5 5 5 5 3 5 5 5 5 5 5 3 5 3 5 5 5 5 5 5 5 5 3 5 5 5 3 5 5 5 5 5 5 5 5 5 5 5 5 5 5 5 5 5 5 5 5 5 5 5 5 5 3 3 3 5 5 5 5 3 5 5 5 5 3 5 5 5 5 5 5 5 3 5 5 5 5 5 5 5 5 3 5 5 5 5 5 5 5 5 5 5 5 5 3 5 5 5 5 5 5 3 5 5 5 5 5 5 5 5 3 5 5 5 3 5 5 5 5 5 5 5 5 5 5 5 5 3 5 5 5 5 5 5 5 5 5 5 5 5 5 5 5 5 5 5 5 5 5 5 5 5 5 5 5 5 5 5 5 5 5 5 5 5 5 5 5 5 5 5 5 5 5 5 5 3 5 5 5 5 5 5 5 5 5 5 5 5 5 5 5 5 5 5 5 5 5 5 5 5 3 5 5 5 5 5 5 5 5 5 5 3 5 5 3 5 5 5 5 5 5 5 5 5 3 5 3 5 5 5 5 3 5 5 3 5 3 5 5 5 5 5 3 5 5 5 5 5 5 5 5 3 5 5 5 5 5 5 5 5 5 5 5 5 5 5 3 5 3 3 5 5 5 5 5 3 5 5 5 5 5 5 5 5 5 5 5 5 5 5 5 3 5 5 5 5 5 5 5 5 5 5 5 5 5 5 5 5 3 5 5 5 5 5 3 3 5 5 3 5 5 5 5 5 5 5 5 5 5 3 5 5 5 5 5 5 5 5 5 3 5 3 5 5 5 5 5 3 5 5 5 5 3 5 5 5 3 5 5 5 3 5 5 3 5 5 5 5 5 5 5 5 5 5 5 5 5 5 5 5 3 5 5 5 5 5 5 5 3 5 5 5 5 5 5 5 5 5 5 5 5 5 5 5 5 5 5 5 5 5 5 5 5 5 5 5 3 5 5 5 5 3 5 5 5 3 5 5 5 5 5 5 5 5 5 3 5 3 5 5 5 5 5 5 5 5 5 5 5 5 5 5 5 5 5 5 3 3 5 5 5 3 5 5 3 5 5 3 5 5 5 3 5 5 3 5 5 5 5 5 5 5 5 5 5 5 5 5 5 5 5 5 5 5 5 3 5 3 5 5 5 5 5 5 5 5 5 5 5 3 5 3 5 5 5 3 5 5 5 5 5 3 5 5 5 5 5 5 3 5 5 5 5 5 5 5 5 5 5 5 3 5 5 5 5 5 5 5 5 3 5 5 5 3 5 5 3 5 5 5 5 5 3 5 5 5 5 5 5 5 5 5 3 5 5 3 5 3 5 3 3 3 5 3 5 5 5 5 5 5 3 5 5 5 5 5 5 3 5 5 5 5 5 5 5 3 5 5 5 5 3 5 5 5 5 5 3 5 3 5 5 5 5 5 5 5 5 5 5 3 5 5 5 5 5 5 5 3 5 5 5 5 5 5 5 3 5 3 5 5 5 5 5 5 5 5 3 5 5 5 3 3 5 5 5 5 5 3 3 5 3 5 5 3 5 5 3 5 5 5 5 5 5 5 5 3 5 5 5 5 5 3 5 5 5 5 3 5 5 3 5 5 5 5 5 5 5 5 5 5 5 5 5 5 5 5 5 5 5 5 5 5 5 5 5 5 5 5 5 5 5 5 5 5 5 5 5 5 5 5 5 3 5 5 3 5 5 5 5 5 3 5 5 5 5 3 5 5 5 5 5 5 5 5 5 5 5 5 5 5 5 5 5 5 5 5 5 5 5 5 3 5 5 5 3 5 5 5 5 5 5 3 5 5 5 5 5 5 5 5 5 5 5 3 5 3 3 5 5 3 5 5 5 5 5 5 5 5 5 5 5 3 5 5 3 5 5 5 5 5 5 5 5 5 5 5 5 5 5 5 3 5 5 5 5 5 5 5 3 5 3 5 5 5 5 3 5 3 5 5 5 5 5 5 5 5 5 3 5 5 5 5 5 5 5 5 5 5 5 5 5 5 5 5 5 3 5 5 5 5 5 5 5 5 5 5 5 5 5 5 5 5 5 5 5 5 5 5 5 5 5 3 3 5 5 5 5 5 5 5 5 5 5 5 3 5 5 5 5 3 5 5 5 5 3 5 5 5 5 5 5 5 5 3 5 5 5 5 5 5 5 5 5 3 5 5 5 5 5 5 5 5 5 5 5 5 5 5 5 5 5 5 5 5 3 5 5 5 5 5 5 5 5 5 5 5 5 5 5 3 5 3 5 5 5 5 5 5 5 5 3 5 5 3 5 5 5 5 5 5 5 5 5 5 5 5 5 5 5 5 5 5 5 5 5 5 5 5 5 5 5 5 5 5 5 5 5 5 5 5 3 5 5 3 5 5 5 5 3 5 3 5 5 3 5 3 5 5 5 5 5 3 5 5 5 5 5 5 5 5 5 5 5 5 3 5 5 5 3 5 5 5 5 5 5 5 5 5 3 5 5 5 5 3 3 5 5 5 5 5 5 5 5 3 5 5 5 5 5 3 5 5 5 3 5 5 5 3 5 5 5 5 3 5 5 5 5 5 5 5 5 5 5 5 5 5 5 3 5 5 5 5 5 5 3 5 3 3 5 3 5 3 5 5 5 5 3 5 5 5 5 3 5 5 5 5 5 5 5 5 5 3 5 5 5 5 5 5 5 5 5 5 5 5 5 5 3 5 5 5 3 5 5 5 3 5 3 5 5 5 5 5 5 5 5 5 5 5 5 5 5 5 5 3 5 5 5 5 5 5 3 5 5 5 5 5 5 5 5 5 5 5 5 5 5 5 5 5 5 3 5 5 5 5 5 5 5 5 5 5 5 5 5 5 5 5 5 5 5 5 5 5 5 5 5 5 5 5 5 5 5 5 5 5 3 5 5 5 5 3 5 5 5 5 5 5 5 3 5 5 5 5 5 5 5 5 5 3 5 5 3 5 5 5 5 5 3 5 5 5 3 5 5 3 5 5 5 5 5 5 5 5 5 5 5 5 5 5 5 5 5 5 5 5 3 5 5 5 5 5 5 5 5 5 5 3 3 5 3 5 5 5 5 5 3 5 5 5 5 3 5 5 5 5 5 3 5 3 5 5 3 5 5 5 5 5 5 5 5 3 5 5 5 5 5 5 3 5 5 5 5 5 5 3 5 5 5 5 3 5 5 3 5 3 5 5 3 5 5 5 5 5 5 3 5 5 5 5 3 5 5 5 5 5 5 5 5 3 3 5 5 5 5 5 5 5 5 3 5 5 5 5 5 5 3 5 5 5 5 5 5 5 3 5 5 5 3 5 5 5 5 5 5 5 5 5 5 5 5 3 5 5 5 5 3 5 5 3 5 5 5 5 3 5 5 5 3 3 5 5 5 3 5 5 5 3 5 5 5 5 5 5 5 5 5 3 5 5 5 3 5 5 5 5 5 5 5 5 5 5 5 5 3 5 3 5 5 3 5 5 3 5 5 5 5 5 5 5 3 5 5 5 5 5 3 5 3 5 5 5 3 3 5 3 3 5 3 5 5 5 5 5 5 3 5 3 5 5 5 5 5 5 5 5 5 5 5 5 5 3 5 5 3 5 3 5 5 3 5 5 5 3 3 5 5 3 5 5 5 5 5 5 5 5 5 5 5 5 5 5 5 5 5 5 5 5 5 5 5 3 3 5 3 5 3 5 5 3 3 5 5 3 5 5 3 5 5 3 5 3 5 5 5 5 3 5 5 5 5 3 5 3 3 5 3 5 5 3 3 5 5 5 3 5 5 5 5 3 3 5 5 5 5 5 3 5 5 5 5 5 5 5 5 5 5 5 3 5 3 5 3 5 5 3 5 3 5 5 5 5 5 5 5 5 3 5 5 3 5 5 5 5 3 5 5 5 5 5 5 5 5 5 5 5 5 3 5 5 5 5 5 5 5 5 5 5 5 3 5 5 5 5 5 5 3 5 3 5 5 3 5 5 5 5 5 5 5 5 5 5 5 5 5 5 5 5 5 3 3 5 5 5 3 5 5 3 5 5 5 5 5 5 5 5 5 5 5 5 5 5 5 5 5 5 5 5 5 5 5 5 5 3 3 5 5 5 5 5 5 5 5 5 5 5 3 5 5 5 5 5 5 5 5 5 5 5 5 5 5 5 5 5 5 5 5 5 5 5 5 5 5 5 5 5 5 5 5 5 3 5 5 5 5 5 3 5 5 3 5 5 3 3 5 5 5 5 5 5 5 5 5 5 5 5 5 3 5 5 3 5 5 5 5 5 5 3 5 5 3 5 5 5 5 5 5 5 5 5 5 5 5 5 3 5 5 5 5 5 5 5 3 5 5 5 5 5 5 5 5 5 5 5 5 3 5 5 3 5 5 5 5 5 5 5 5 5 5 5 5 5 5 5 5 5 5 5 5 3 5 5 3 5 3 5 5 5 3 5 5 3 5 3 5 5 5 3 5 5 5 5 3 5 5 5 5 5 5 5 3 5 5 5 3 5 5 5 5 5 5 5 5 5 5 5 5 3 5 5 5 5 5 5 5 5 3 5 5 5 5 5 5 5 5 5 5 5 3 5 5 5 5 5 5 5 5 5 5 5 5 5 5 5 5 5 5 5 3 3 5 5 5 3 5 5 5 5 5 5 5 5 5 5 5 5 3 5 5 5 5 5 5 5 5 5 3 5 5 5 5 5 5 5 5 5 5 5 5 5 5 5 5 3 5 3 5 5 5 5 5 3 5 5 5 5 3 5 5 5 3 5 5 5 3 5 5 5 5 5 5 5 5 5 3 5 5 5 3 5 5 3 5 5 5 5 5 5 3 5 5 5 5 5 5 5 5 3 5 5 5 3 5 5 5 5 5 5 5 5 5 5 5 5 5 5 5 5 5 5 5 5 5 5 5 5 5 5 5 3 5 5 5 5 5 5 5 3 5 5 5 5 5 5 5 5 5 5 5 5 5 5 5 5 5 5 5 5 5 5 5 5 5 3 5 3 5 5 5 5 5 5 3 5 5 5 3 5 5 3 5 5 5 5 5 5 5 5 5 5 5 5 3 5 5 5 5 5 3 5 5 5 5 5 5 5 5 5 5 5 5 5 3 5 5 5 3 5 5 5 5 5 5 5 5 5 5 5 5 3 3 5 5 5 5 3 5 5 5 5 5 5 5 5 5 3 3 5 5 5 5 5 3 5 5 5 5 5 3 5 5 5 5 5 3 5 3 5 5 5 5 3 5 3 5 3 3 5 5 5 5 5 5 5 3 3 5 5 5 5 5 5 3 3 3 5 3 3 5 5 5 3 5 5 5 5 5 3 3 3 5 3 5 5 5 3 5 3 3 5 5 5 5 5 5 5 3 3 5 5 3 3 3 5 5 5 5 5 5 5 5 5 5 5 5 5 5 5 5 5 5 5 5 5 5 5 5 5 5 5 5 5 5 5 5 5 5 5 5 5 5 5 5 3 5 5 5 5 5 5 5 5 5 5 3 5 5 5 5 5 5 3 5 5 3 5 5 5 5 5 5 5 5 5 5 5 5 5 3 5 3 5 5 5 5 3 5 5 5 3 5 5 3 5 5 5 3 5 5 3 5 5 5 5 5 3 5 5 5 5 5 5 5 3 5 5 5 5 5 5 5 3 5 5 3 5 5 5 5 3 5 3 5 5 5 5 5 3 5 5 5 5 3 5 5 5 5 5 5 3 3 5 5 5 5 5 3 5 5 3 5 5 5 5 5 5 5 5 5 5 3 5 5 5 5 5 5 5 5 5 5 5 5 5 5 5 5 5 5 3 5 5 5 5 5 5 3 5 5 5 5 5 5 5 3 3 5 5 5 5 3 5 5 5 5 5 5 5 3 5 5 3 5 3 3 3 5 5 5 5 5 5 3 5 5 5 5 5 3 5 5 5 5 3 5 5 5 3 5 5 5 3 5 5 5 5 5 5 5 5 5 5 5 5 5 5 5 5 5 5 5 5 5 5 5 5 5 3 5 5 5 5 5 5 5 3 5 3 5 5 5 5 5 5 3 5 5 3 5 5 5 3 5 5 3 5 5 5 5 5 3 5 5 5 3 3 5 5 5 5 5 5 5 5 5 5 5 5 3 5 5 5 5 5 5 5 5 5 3 5 5 5 5 5 3 3 5 5 5 5 5 5 5 5 5 3 5 5 5 5 5 5 5 5 3 5 5 5 5 5 5 5 5 5 5 5 5 5 5 5 5 5 5 3 5 5 5 5 3 5 3 5 3 5 5 5 5 5 5 5 5 5 5 5 5 5 5 5 5 5 3 5 5 5 5 5 3 5 5 5 3 3 5 5 5 5 5 3 5 5 5 5 3 5 5 5 5 5 5 5 5 3 5 5 5 5 5 5 5 3 5 5 5 5 5 5 5 5 5 3 5 5 5 5 5 5 5 5 5 5 5 5 5 5 5 5 5 5 3 5 5 5 5 5 5 5 5 5 5 5 5 5 3 5 5 5 5 5 5 3 5 5 3 5 5 3 5 5 5 5 5 5 5 5 5 5 5 5 5 5 5 5 5 5 5 5 5 5 5 5 5 5 3 5 3 5 3 3 5 5 5 3 5 5 5 5 5 5 5 5 5 3 3 5 3 5 5 5 5 5 5 5 5 5 5 5 5 5 5 3 5 3 3 5 3 5 5 5 5 5 5 5 5 5 3 3 5 5 5 5 5 5 5 5 5 5 5 5 5 5 5 5 5 5 5 5 5 5 3 5 5 5 5 5 3 5 5 5 5 5 3 5 5 5 3 5 5 5 5 5 5 5 5 5 3 5 5 5 5 3 5 5 5 5 5 5 3 5 5 5 5 5 5 5 3 5 5 5 5 3 5 5 5 5 5 5 5 5 5 5 3 5 5 5 5 3 5 5 5 3 5 5 5 5 5 3 5 5 5 5 5 5 5 5 5 5 5 5 5 5 3 3 5 5 3 5 5 5 5 5 5 5 3 5 5 5 5 5 5 3 5 5 5 5 5 5 5 5 5 5 5 5 5 5 5 5 5 5 5 5 5 5 5 3 5 5 5 5 5 5 5 5 3 5 5 5 5 3 5 5 5 5 5 3 5 3 5 3 5 5 5 5 5 5 5 3 5 5 5 3 5 5 5 5 5 3 5 5 5 5 5 3 5 3 5 5 3 5 3 5 5 5 5 5 3 5 5 5 3 5 5 5 5 5 5 5 5 5 5 3 5 5 5 5 5 5 5 5 5 5 5 5 5 5 5 5 5 5 5 5 5 5 3 5 5 5 5 5 5 5 5 5 5 5 5 5 5 5 5 5 5 3 5 5 5 3 5 5 5 5 5 5 3 5 5 5 3 3 5 3 5 3 3 5 3 5 5 3 5 5 3 3 5 5 5 5 5 5 5 5 3 5 3 5 5 5 5 5 5 5 5 5 5 5 5 5 5 5 5 5 5 5 5 5 5 3 5 5 5 5 5 5 5 5 3 5 5 3 5 5 3 3 5 5 3 5 5 5 5 5 5 5 5 5 5 5 5 5 5 5 5 5 5 5 5 5 5 5 5 5 5 5 5 5 5 5 5 5 5 5 5 5 5 5 3 5 3 5 5 5 5 5 5 5 5 5 5 5 5 5 5 5 5 5 5 5 5 5 5 5 5 5 5 5 5 5 5 5 5 5 5 5 5 5 5 5 5 3 5 5 3 5 5 5 5 5 3 5 3 5 5 3 5 5 5 5 5 5 3 5 5 5 5 5 5 5 5 5 5 5 3 5 5 3 3 5 3 5 5 3 5 5 5 5 3 5 5 5 5 5 5 5 5 5 3 5 3 5 5 5 5 5 5 5 3 5 3 5 5 5 5 5 5 5 5 5 3 5 3 5 5 5 5 5 5 5 5 5 5 3 5 5 5 3 5 5 3 5 5 3 5 5 5 5 3 5 5 5 3 5 5 5 5 5 5 5 5 5 5 5 5 5 5 3 5 5 5 5 5 5 3 5 3 5 3 5 5 5 3 5 5 5 5 5 5 5 5 3 5 5 5 5 5 3 5 5 3 5 5 5 5 5 5 5 5 5 3 5 5 5 3 5 5 5 5 5 5 3 5 5 5 5 5 5 5 5 5 5 5 5 5 5 5 5 5 5 5 5 5 5 5 5 5 5 5 5 5 5 5 3 5 5 5 5 5 3 5 5 3 3 5 5 5 5 3 5 5 5 5 5 3 5 5 5 5 5 5 5 5 5 5 5 5 5 5 5 5 3 5 5 5 5 5 5 5 5 3 3 5 5 5 5 5 5 3 5 5 5 5 3 5 5 5 5 5 5 5 5 5 5 5 5 5 5 5 5 5 5 5 5 5 5 5 5 3 5 5 3 5 5 5 5 5 5 5 5 5 5 5 5 5 5 5 5 5 5 5 5 5 5 5 5 5 5 5 3 5 3 5 5 5 5 5 3 5 5 5 5 5 5 5 5 5 5 5 5 5 5 5 5 5 5 5 5 3 3 5 3 5 5 5 5 5 5 5 5 5 5 5 5 5 5 5 5 3 5 5 5 3 5 5 5 5 5 5 5 5 5 5 5 5 5 3 5 5 5 5 5 5 5 5 5 5 5 5 5 5 5 5 5 5 5 5 5 5 3 5 5 5 5 5 5 5 5 5 5 5 5 5 3 5 3 5 5 3 3 5 5 5 5 5 5 5 5 5 5 5 5 5 5 5 5 5 5 5 5 3 5 5 3 5 5 5 3 5 5 5 5 5 5 3 5 5 5 3 5 5 5 5 5 5 5 5 3 5 5 3 5 5 3 5 3 5 5 5 5 3 3 5 5 3 3 5 5 3 5 5 5 5 3 5 5 3 3 5 3 5 5 5 5 5 5 5 5 5 5 5 5 5 5 5 5 5 5 5 5 3 5 5 5 5 3 5 5 5 5 3 3 5 5 5 5 5 5 5 5 5 5 5 5 3 5 5 5 3 5 5 5 5 5 5 5 3 5 5 5 3 5 5 3 3 5 5 5 3 5 5 5 3 5 5 5 5 5 5 5 5 5 5 5 5 5 5 5 5 5 5 3 5 5 5 5 5 5 5 5 5 5 5 5 5 5 5 5 5 5 3 3 5 5 5 5 5 3 3 5 3 5 5 5 5 5 5 5 5 5 3 5 5 5 3 5 5 5 5 5 5 5 5 5 5 5 5 5 5 3 5 5 5 5 5 5 5 3 5 5 3 5 5 5 5 5 5 3 5 5 5 5 3 5 5 5 5 5 5 3 5 5 5 5 5 5 5 5 3 3 5 5 5 3 3 5 5 5 5 5 3 5 5 5 5 5 5 3 5 5 5 5 3 5 5 5 5 5 3 5 5 5 5 3 5 5 5 5 5 5 5 5 5 5 5 5 5 5 5 5 5 5 5 5 5 5 5 5 5 3 5 5 5 5 3 5 3 5 3 5 5 3 5 5 3 5 5 3 5 5 5 5 5 5 3 5 5 3 5 3 3 3 5 5 3 5 3 3 5 5 5 3 5 3 5 5 5 5 5 5 3 5 5 5 3 5 5 5 5 5 5 5 3 5 5 5 3 5 3 3 5 5 5 5 5 5 5 3 5 5 5 5 5 5 5 5 3 3 5 5 5 5 3 5 5 3 5 5 5 3 5 5 5 3 3 5 5 5 5 3 5 5 5 5 5 3 3 5 5 5 5 5 5 5 5 5 5 5 5 5 5 5 5 5 5 5 5 5 5 5 5 5 5 5 5 5 5 5 3 5 5 5 3 5 5 5 5 5 5 5 5 5 5 5 5 5 5 5 3 5 3 3 5 5 3 5 5 5 5 5 5 5 5 5 5 5 5 5 5 5 5 5 5 5 5 5 5 5 3 5 5 3 3 5 5 5 5 5 5 5 3 5 5 5 3 5 5 5 5 3 3 5 5 5 5 5 5 5 3 5 5 5 5 3 5 5 5 5 3 5 5 5 5 5 5 5 5 5 5 5 5 5 5 5 5 5 5 5 3 5 5 5 5 5 5 5 5 5 5 5 5 5 5 5 5 3 5 5 5 3 5 5 5 5 5 5 5 5 5 3 5 5 5 5 5 5 5 5 5 5 5 5 5 5 5 5 5 5 5 5 5 3 5 5 5 5 5 5 5 5 5 5 5 5 5 5 5 5 5 3 5 5 5 5 5 3 5 5 5 5 5 5 5 5 5 5 5 5 5 5 5 5 5 5 5 5 5 5 5 5 5 5 5 3 5 5 3 5 5 5 3 5 5 5 5 5 5 5 5 5 5 5 5 5 5 5 3 5 3 5 5 5 5 5 5 5 5 5 3 5 5 5 5 5 5 5 5 5 3 3 5 5 5 5 5 5 5 5 5 5 5 5 5 5 5 5 5 5 5 5 5 5 5 5 5 5 5 5 5 5 5 5 5 5 5 5 5 5 5 5 5 5 5 5 5 5 5 5 5 5 5 5 5 5 5 5 5 5 5 5 5 5 5 5 5 5 5 5 5 5 5 3 5 5 5 5 5 5 3 5 5 5 5 5 5 5 5 5 3 5 3 5 5 5 5 5 5 5 5 5 5 5 5 5 5 5 5 5 5 5 5 5 5 5 5 5 5 5 5 5 5 5 5 5 5 3 5 5 5 3 3 5 5 5 5 5 5 5 5 5 5 5 5 5 5 5 5 5 5 5 5 5 5 3 3 5 5 5 5 5 5 5 5 3 5 5 5 5 5 5 3 5 5 5 5 5 3 5 5 5 5 3 5 5 5 3 5 5 5 3 5 5 3 5 5 5 5 5 5 5 5 5 5 5 5 5 3 5 5 5 5 5 5 5 5 3 5 5 5 5 5 5 5 5 5 5 5 3 5 5 5 3 5 5 5 5 3 5 5 5 5 5 5 5 5 3 5 3 5 5 3 5 5 5 5 5 3 5 5 5 5 5 5 5 5 5 5 5 5 3 5 5 5 5 5 5 5 5 5 3 5 5 5 5 5 5 3 5 5 5 5 5 5 5 3 5 5 5 5 5 3 5 5 5 5 5 5 5 5 5 5 5 5 5 5 5 5 5 5 5 5 5 5 5 5 5 5 5 5 5 5 5 5 5 5 5 5 5 5 5 5 5 5 5 5 5 5 5 3 5 3 5 5 5 5 5 5 5 5 5 5 5 5 5 5 3 5 5 5 5 5 5 5 5 5 5 5 5 5 5 5 3 5 5 3 5 3 5 5 5 5 5 3 5 5 5 5 5 5 5 5 5 5 5 5 5 5 5 5 5 5 5 5 3 5 5 5 5 5 5 5 5 5 5 5 3 5 3 5 5 3 5 3 5 5 5 5 5 5 5 3 5 3 5 5 5 5 3 5 5 5 5 3 3 5 5 3 5 5 5 5 5 5 5 5 5 5 5 5 5 5 5 5 3 5 5 5 5 5 5 5 5 5 5 5 5 5 5 3 5 3 5 5 5 5 5 5 5 3 5 3 5 5 5 5 5 5 5 5 5 3 3 5 5 5 3 5 5 5 5 3 5 3 5 5 3 5 3 3 3 5 5 3 5 5 5 3 3 3 5 5 5 5 5 5 5 5 5 5 5 3 5 5 5 5 5 5 3 5 5 5 3 5 5 5 5 5 5 5 5 3 5 5 5 3 5 5 5 5 5 5 5 5 5 5 5 5 5 5 5 5 5 5 5 5 5 5 5 5 5 5 5 5 5 5 5 5 5 5 5 5 5 5 5 5 5 5 5 5 5 5 5 5 5 5 5 5 5 5 5 5 5 5 5 5 3 5 5 5 5 5 3 5 5 5 5 3 5 5 5 3 5 5 5 5 5 5 5 5 5 5 5 5 5 5 5 5 5 5 5 5 5 5 5 5 5 5 5 5 5 5 5 5 5 5 5 5 5 5 5 5 3 5 5 3 5 5 5 5 5 5 5 3 5 5 5 5 5 5 5 5 5 5 5 3 5 5 3 5 3 5 5 5 3 5 5 5 5 5 5 5 5 3 5 5 5 5 3 5 5 5 5 3 5 3 5 5 5 5 5 5 5 5 5 5 5 5 3 5 3 5 5 5 5 5 5 5 5 5 5 5 5 5 3 5 5 5 5 5 5 5 5 5 3 5 5 5 3 5 5 5 5 5 5 5 5 5 5 5 5 5 5 5 5 5 5 5 5 5 5 5 5 5 5 5 5 5 5 5 5 5 5 5 3 5 5 3 5 5 5 5 3 5 5 5 5 5 5 5 5 5 5 5 5 5 5 5 3 5 5 5 5 5 5 5 5 5 3 5 3 5 5 5 5 5 5 5 3 5 5 5 5 5 5 5 5 5 5 5 5 5 5 3 5 5 5 5 5 5 5 5 5 5 5 3 5 5 5 5 5 5 5 5 5 5 5 5 5 5 5 5 5 5 5 5 5 5 5 3 5 3 5 5 5 5 5 5 3 5 3 5 5 5 3 5 5 5 3 5 5 5 3 5 5 3 5 5 5 5 5 5 5 3 5 5 5 5 5 5 5 3 5 5 5 5 5 5 5 5 5 5 5 5 5 3 5 5 5 5 5 5 5 5 3 5 5 5 5 5 5 5 5 5 5 5 5 5 5 5 5 5 5 5 5 3 5 5 5 5 5 5 5 5 5 5 5 5 5 5 5 5 5 5 5 5 5 5 5 5 5 5 5 5 5 5 5 5 5 5 5 5 5 5 5 5 5 5 5 5 5 5 5 5 5 5 3 5 3 5 5 5 3 5 5 3 3 5 3 5 5 5 5 5 5 5 5 5 5 5 5 5 5 5 5 5 5 5 5 5 5 5 5 5 5 5 5 5 5 5 5 5 5 5 3 5 5 5 5 3 5 5 3 5 5 5 3 5 5 5 5 3 5 3 3 5 5 5 5 3 5 5 5 3 5 5 5 3 5 5 5 5 5 5 3 5 5 5 5 5 5 5 5 5 5 5 5 5 5 5 5 5 5 5 5 3 5 5 5 5 5 5 5 5 5 5 5 5 5 5 5 5 5 5 3 5 5 3 5 5 3 5 5 5 5 5 5 5 5 5 5 5 3 5 5 5 5 3 5 5 5 5 3 5 5 5 3 5 5 5 5 5 5 5 5 5 5 5 5 5 5 5 5 5 5 5 5 5 5 5 5 5 3 5 5 5 5 5 5 5 5 3 5 5 5 3 5 5 5 5 5 5 5 5 5 5 5 5 5 5 5 5 5 5 5 5 5 5 5 5 3 5 5 5 3 5 5 5 5 5 5 5 5 3 5 5 3 5 5 5 5 3 5 5 5 5 5 5 5 3 5 3 5 5 3 5 5 3 3 5 5 5 5 5 5 5 5 5 5 5 5 5 5 5 5 5 5 5 5 5 3 5 5 5 5 3 5 5 5 5 5 5 5 5 5 5 5 5 5 3 5 5 3 5 5 5 5 5 5 5 5 5 5 5 5 5 5 5 5 5 5 5 5 5 5 5 5 5 5 5 5 5 5 5 5 5 5 5 5 5 5 5 5 5 5 5 5 5 5 5 5 5 5 5 5 5 5 5 5 5 5 5 5 5 5 5 5 5 5 5 5 5 5 5 5 5 5 5 5 5 5 5 5 5 5 5 5 5 5 5 5 5 5 5 5 5 5 5 5 5 5 5 5 5 5 5 5 5 5 5 5 5 5 5 5 5 5 5 5 5 5 5 5 5 5 5 5 5 5 5 5 3 5 5 5 5 5 5 5 3 5 5 5 5 5 5 5 5 5 3 5 3 5 5 5 3 5 5 3 5 5 5 5 5 5 5 5 5 5 5 5 5 5 5 5 5 5 5 5 5 5 5 5 5 5 5 5 5 5 5 5 5 5 5 5 5 3 5 5 3 3 5 5 3 5 5 3 5 5 5 3 5 5 5 5 5 5 5 5 5 3 5 5 5 5 5 5 3 5 5 5 5 5 5 5 5 5 5 5 5 5 5 5 5 5 5 5 5 5 5 5 5 5 5 5 5 5 5 5 3 5 5 5 5 5 5 5 5 5 5 5 5 5 5 5 5 5 5 5 5 5 5 5 5 5 5 5 5 5 5 5 5 5 5 5 5 5 5 5 5 5 5 5 5 5 5 3 5 3 5 5 5 5 3 5 5 5 5 3 5 5 5 5 3 5 5 5 5 5 5 5 5 3 5 5 3 5 3 5 5 5 5 3 5 5 3 3 5 5 5 5 5 5 3 5 5 5 5 5 5 5 5 5 5 3 3 5 5 5 5 5 3 5 5 3 5 5 5 5 3 5 5 3 5 5 5 5 5 5 5 5 5 5 5 5 5 5 5 5 5 5 5 5 5 5 5 5 5 5 5 5 5 3 5 3 5 5 5 5 5 5 5 5 5 5 5 5 5 3 5 5 5 5 3 3 5 5 5 5 5 5 5 5 5 5 5 5 5 5 5 5 5 5 5 5 5 5 5 5 5 5 5 5 5 5 5 5 5 5 5 5 5 5 5 5 5 5 3 5 5 5 3 5 5 5 5 5 5 5 5 5 5 5 5 5 5 5 5 5 5 5 5 3 5 5 3 5 5 5 5 5 5 5 5 5 3 5 5 5 5 5 3 5 5 5 5 5 3 5 3 5 5 5 5 5 5 5 5 5 5 5 5 5 3 5 5 5 3 3 5 5 5 5 5 5 5 5 3 5 5 3 5 5 3 3 5 5 5 5 5 3 5 5 5 5 5 5 5 3 5 5 3 3 5 5 5 5 5 5 3 3 5 5 5 3 5 5 5 5 5 5 5 3 5 5 5 5 5 5 5 5 5 5 5 5 5 5 5 5 5 5 5 5 5 5 5 5 5 5 3 5 5 5 5 5 5 5 3 5 5 5 5 5 5 5 5 5 5 5 3 5 5 5 5 5 5 5 5 3 5 5 5 5 5 5 5 5 5 5 5 5 5 5 5 5 3 5 5 5 3 5 5 5 5 5 3 5 5 5 5 5 5 5 5 5 5 5 5 5 5 3 5 5 5 5 3 5 5 3 5 5 5 5 5 3 5 5 5 5 5 5 5 5 5 5 5 5 5 5 3 5 3 5 5 5 3 5 3 5 3 5 5 5 5 5 5 3 3 5 5 5 5 5 5 3 5 3 5 5 5 5 5 5 5 5 5 5 5 5 5 5 5 5 5 3 5 5 5 3 3 5 5 5 5 5 3 5 5 3 3 5 5 5 5 5 5 5 5 5 5 5 5 5 5 5 5 5 5 5 5 5 5 5 5 5 5 5 5 5 5 5 5 5 5 5 5 5 5 5 5 5 5 5 5 3 5 5 3 3 3 5 5 5 5 5 5 3 5 5 5 5 5 5 5 5 5 3 5 5 5 3 5 5 5 5 5 5 5 5 5 5 5 5 5 5 5 5 5 5 5 5 3 5 5 5 5 3 5 5 5 5 5 5 5 5 5 5 5 5 5 5 5 5 5 5 5 5 5 5 5 5 5 5 5 5 5 5 5 5 5 5 3 5 3 5 5 5 5 5 5 5 5 3 5 5 5 3 5 3 5 5 5 5 5 5 5 5 3 5 5 5 5 3 5 5 5 5 3 5 5 5 5 5 5 5 3 5 5 5 5 3 5 5 5 5 5 5 5 5 5 5 5 5 5 5 5 5 5 5 5 5 5 5 5 5 5 5 5 5 5 5 5 5 5 5 5 5 5 5 5 5 5 5 5 5 5 5 3 5 5 5 5 3 3 5 5 3 3 5 5 5 5 5 5 5 5 5 5 5 5 5 5 5 5 5 5 5 3 5 5 5 3 3 5 5 5 5 5 5 5 5 5 5 5 5 5 5 5 5 5 5 5 5 5 5 5 5 5 5 5 3 5 5 5 5 5 5 5 3 5 5 5 5 5 5 5 5 5 5 5 5 5 5 5 3 5 5 5 5 5 5 5 5 3 5 3 3 5 5 5 5 5 5 5 5 5 5 5 5 3 5 5 5 5 5 5 5 5 5 5 5 5 5 5 5 5 5 5 3 5 5 5 3 5 5 5 5 5 5 5 5 3 5 5 5 5 5 5 5 5 5 5 5 5 5 5 5 3 5 5 5 3 5 5 5 5 5 5 5 5 5 5 5 5 5 5 5 5 5 5 5 5 5 5 5 5 5 5 5 5 5 5 5 5 5 3 5 3 5 5 5 5 5 5 5 5 3 5 5 5 5 5 5 5 5 5 3 5 5 3 5 5 5 5 5 3 5 5 5 5 3 5 5 5 5 3 5 5 5 3 5 3 5 5 3 5 5 5 5 5 5 5 5 5 5 5 5 5 5 3 5 5 3 5 3 5 5 5 3 5 5 3 5 5 5 5 3 5 3 5 5 5 5 5 5 3 5 3 5 5 5 5 5 3 5 5 5 5 3 5 5 5 5 5 5 3 5 5 5 5 5 5 5 5 5 5 5 5 5 5 5 5 5 5 5 5 5 5 5 5 5 5 5 5 5 5 5 5 5 3 3 5 5 5 5 5 5 5 5 5 5 3 5 5 3 3 5 3 5 5 5 5 5 5 5 3 5 5 5 5 5 5 5 5 5 5 5 5 3 5 5 5 5 3 5 5 5 5 5 5 5 5 5 5 5 5 3 5 5 5 5 5 5 5 5 5 5 5 5 5 5 5 5 5 3 5 5 5 5 5 3 5 5 5 3 5 5 5 5 5 5 3 5 3 5 5 5 3 5 5 5 5 5 5 5 5 5 3 5 5 3 5 5 5 5 5 5 5 3 5 5 5 5 5 5 5 5 5 5 5 5 5 3 5 5 3 5 5 5 5 5 5 3 5 5 5 5 5 5 3 5 5 5 5 5 5 5 3 5 5 5 5 5 5 5 5 5 5 5 5 5 5 5 5 5 5 5 5 5 5 3 5 5 5 5 5 5 5 5 5 5 3 5 5 5 5 3 3 5 5 5 5 3 5 5 5 5 5 5 5 5 5 3 5 5 5 5 5 5 5 5 5 5 5 3 5 5 5 3 5 5 5 3 5 5 5 5 5 5 5 5 5 5 5 5 3 5 5 5 5 5 3 5 5 3 5 5 5 5 5 5 5 5 5 5 5 5 5 5 3 5 5 5 5 5 5 5 3 5 5 5 3 5 5 5 5 5 3 5 5 5 5 5 5 5 5 5 3 5 5 5 5 5 5 5 5 3 5 5 5 5 5 3 5 5 5 5 5 5 5 3 5 5 5 5 5 5 5 5 5 5 5 5 5 5 5 5 5 5 5 5 5 5 5 5 5 5 5 5 5 5 5 5 5 5 5 5 5 5 5 5 5 5 5 5 5 5 5 5 3 5 5 5 5 5 5 5 3 5 5 5 5 5 5 5 5 5 5 5 5 5 5 5 5 5 5 5 5 5 5 3 3 5 5 3 3 5 5 5 5 5 5 5 3 5 5 5 5 5 5 5 5 5 5 5 5 5 5 3 5 5 5 5 5 5 5 5 3 5 5 3 5 5 5 3 5 5 5 5 5 5 5 5 5 5 5 5 5 5 5 5 5 5 5 5 5 5 5 5 5 5 5 5 3 5 5 5 5 5 5 5 5 3 5 5 5 5 5 5 3 3 5 5 5 5 3 5 5 3 5 5 3 5 5 5 5 5 5 3 5 5 5 5 5 5 5 5 3 5 5 5 5 5 5 5 5 5 5 5 3 5 5 3 5 5 5 5 5 5 5 3 5 5 5 3 5 3 5 3 5 5 5 5 5 5 5 5 5 5 5 5 5 5 5 5 5 3 5 3 5 5 5 5 5 5 5 5 5 5 3 5 5 5 5 5 5 5 3 5 5 5 3 5 3 3 5 5 3 5 5 5 5 3 5 5 5 3 5 5 5 3 5 3 3 5 5 5 5 5 5 3 5 5 5 5 5 5 5 5 3 3 3 5 3 5 5 3 3 5 5 3 5 5 5 5 5 5 5 5 5 5 5 3 5 5 5 5 5 5 5 5 5 5 5 5 5 3 3 5 5 5 5 3 5 5 5 3 5 5 5 5 5 3 3 5 5 5 3 5 5 5 5 5 5 5 5 5 5 5 5 5 5 5 3 5 5 5 3 5 5 5 3 5 5 5 5 5 5 3 5 5 5 5 5 3 5 5 5 5 5 5 5 5 3 5 5 5 5 5 5 5 5 5 3 5 5 5 5 3 5 3 5 5 3 5 3 5 5 5 5 5 5 3 5 3 3 5 5 5 5 5 5 5 5 3 5 3 5 3 5 3 5 5 5 5 5 5 5 5 5 5 5 3 5 5 5 3 5 5 5 5 5 5 5 5 3 5 5 5 5 5 5 5 5 5 3 5 5 5 5 3 5 5 3 5 5 5 5 5 5 5 5 5 3 5 5 5 3 5 5 5 5 5 5 5 5 5 5 5 5 5 5 5 5 5 5 5 3 5 5 5 5 5 5 5 5 5 5 3 5 5 5 5 5 5 5 5 5 5 5 5 5 5 5 5 5 5 5 5 5 5 5 5 5 5 5 5 5 5 5 5 5 5 5 5 5 5 5 5 5 5 5 5 5 3 3 5 5 5 5 5 5 5 5 5 5 5 5 5 3 3 5 5 5 3 5 5 3 5 5 5 3 5 5 5 3 5 5 5 5 5 5 5 5 3 5 5 3 5 3 3 5 5 5 5 5 5 3 5 3 3 3 5 5 3 5 5 3 3 5 5 5 5 5 5 5 5 5 5 5 5 5 5 5 5 5 5 5 5 5 3 5 5 5 5 5 5 5 5 5 3 5 5 5 5 5 5 5 3 3 5 5 5 5 5 5 5 5 5 5 5 5 5 5 5 5 5 5 5 5 5 5 5 3 5 3 5 5 5 5 5 5 5 3 5 5 5 3 3 5 5 3 5 5 5 5 3 5 5 5 3 5 5 5 3 5 5 5 5 5 5 5 5 5 3 3 5 5 5 5 5 3 5 5 3 3 3 5 5 5 5 5 3 5 5 5 5 5 5 5 5 5 3 5 3 5 5 5 5 5 5 5 5 5 5 5 5 5 5 5 5 5 5 5 5 5 5 5 5 3 5 5 5 5 3 3 5 5 5 3 5 5 5 5 5 5 5 5 5 5 5 5 5 5 5 5 3 5 5 5 3 5 5 3 5 5 5 5 5 5 5 5 5 5 5 5 5 3 5 5 3 5 5 5 3 5 3 5 3 5 3 3 3 5 5 5 5 5 5 5 5 3 5 5 5 5 5 5 5 5 3 5 5 3 5 5 5 5 5 5 5 5 5 5 5 5 5 5 5 5 5 5 5 5 5 3 5 5 5 5 5 5 5 5 5 5 3 5 3 5 5 3 5 3 5 3 5 5 3 5 3 5 5 3 5 5 5 3 5 5 5 5 5 5 5 5 5 5 5 5 5 5 5 5 5 5 5 5 5 5 5 5 5 5 5 5 5 5 5 5 5 5 5 5 5 5 5 5 5 5 5 5 5 5 5 5 5 5 5 5 5 5 5 5 5 5 5 5 5 3 5 5 3 5 5 5 5 5 5 3 3 5 5 5 5 5 5 5 5 5 5 5 5 5 5 5 5 5 5 3 5 5 5 3 5 5 5 5 5 5 5 5 5 5 5 5 5 5 5 5 3 5 5 5 5 5 5 5 3 5 5 5 5 5 5 5 5 3 5 3 5 5 5 5 5 5 5 5 5 5 5 5 5 5 5 5 3 5 5 5 5 5 5 5 3 5 5 5 5 3 5 5 5 5 5 5 5 3 5 5 3 3 5 5 3 5 5 5 5 5 5 3 5 5 5 5 5 5 5 5 5 3 5 5 3 5 5 3 5 5 3 5 5 5 5 5 3 5 5 5 5 5 5 5 5 3 5 5 5 5 5 5 5 3 5 5 5 5 5 5 5 5 5 5 5 5 3 5 5 5 5 5 5 5 3 3 5 3 5 3 5 5 5 5 5 5 5 5 5 5 5 5 5 5 5 3 5 3 5 5 5 5 5 5 5 5 3 5 3 5 3 5 3 5 3 5 5 3 5 5 5 5 5 3 5 5 5 5 5 5 5 5 3 5 5 5 5 5 3 5 5 3 5 3 3 5 5 5 5 5 5 5 5 3 5 5 5 5 5 5 5 5 5 5 5 5 5 3 5 5 5 5 5 5 5 3 5 5 5 3 5 5 5 5 5 5 5 5 5 5 5 5 5 5 5 5 5 3 5 5 5 5 5 5 5 3 5 5 3 5 5 5 5 5 5 5 5 5 5 5 5 5 5 5 3 5 5 5 5 3 5 5 5 5 5 5 5 5 5 5 5 5 5 5 5 5 5 5 5 5 5 5 5 5 5 3 5 5 5 5 5 5 3 5 5 5 5 5 5 5 5 5 3 3 5 5 5 3 5 3 5 5 5 5 5 5 5 5 5 5 5 5 5 5 5 3 5 5 5 5 5 5 5 5 5 5 5 5 3 3 5 5 5 5 5 5 5 5 3 5 5 3 5 5 3 3 5 5 5 5 5 5 5 3 5 5 5 5 5 5 5 5 5 3 5 5 5 3 5 5 5 5 5 3 5 5 5 5 5 5 5 5 5 5 5 5 3 5 5 5 3 5 5 5 3 5 5 5 5 5 5 5 5 5 5 5 5 5 5 5 5 5 5 5 5 5 5 5 5 5 5 5 5 5 5 5 5 3 5 5 5 5 5 5 5 5 5 5 5 5 5 5 5 5 5 5 5 5 5 5 5 5 3 5 3 5 5 3 5 5 5 5 5 5 5 5 5 3 5 5 5 5 5 5 5 5 5 5 5 5 5 5 3 5 5 5 5 3 5 5 5 3 5 5 5 5 5 5 5 5 5 5 5 5 5 5 5 5 5 5 5 5 5 5 5 5 5 5 5 5 5 5 5 5 5 5 5 5 5 5 5 5 5 5 5 5 5 5 5 5 5 5 5 5 5 5 5 5 5 5 5 5 5 5 5 5 5 5 5 5 5 5 5 5 5 5 5 5 5 5 5 5 5 5 5 5 5 5 5 5 5 5 5 5 5 5 5 5 5 5 5 5 5 5 5 5 5 5 5 5 5 5 5 5 5 5 5 5 5 5 5 5 5 5 5 5 5 5 5 5 5 5 5 5 5 5 5 5 5 5 5 5 5 5 5 5 5 5 5 5 5 5 5 5 5 5 5 5 5 5 5 5 5 5 5 5 5 5 5 5 5 5 5 5 5 5 5 5 5 5 5 5 5 5 5 5 5 5 5 5 5 3 5 5 5 5 5 5 5 5 5 5 5 5 5 5 5 5 3 5 5 5 5 5 5 5 5 3 5 5 5 5 3 5 5 5 5 5 5 5 5 5 5 5 5 5 5 5 5 5 5 5 5 5 5 3 5 5 5 5 5 5 5 5 5 5 5 5 5 3 3 5 5 5 5 5 3 5 3 5 5 5 5 5 5 5 5 5 5 5 3 5 5 5 5 5 5 5 3 5 5 5 5 5 5 5 5 5 5 5 5 5 5 5 3 3 5 5 5 5 5 5 5 5 5 5 5 5 3 5 5 5 5 5 5 5 5 5 5 5 5 5 5 5 5 3 5 5 5 5 5 5 5 3 5 5 5 5 5 5 5 5 5 5 3 3 5 5 5 5 5 5 5 5 5 5 5 5 5 5 5 5 5 5 5 5 5 5 5 5 5 5 5 5 5 5 3 5 5 5 5 5 3 5 5 5 5 5 5 5 5 5 5 3 5 5 5 5 3 5 5 5 5 5 5 5 5 5 5 3 5 3 5 5 5 5 5 5 5 5 5 5 5 5 5 5 5 5 5 5 5 5 5 5 5 5 5 5 5 5 5 5 5 3 5 5 5 5 5 3 5 5 5 5 5 5 5 5 5 5 5 5 5 5 5 5 5 5 3 5 5 3 5 5 5 3 5 5 5 5 5 3 5 5 5 5 5 5 5 5 5 5 3 5 5 5 5 5 5 3 5 5 5 5 5 3 3 5 5 3 5 5 3 5 5 5 5 5 5 5 5 5 5 3 5 5 3 5 5 3 5 5 3 5 5 3 5 5 3 5 5 5 5 5 5 3 5 5 5 5 5 5 5 5 5 5 5 3 5 5 5 5 5 5 5 3 5 5 5 5 3 5 5 5 3 5 5 5 5 5 5 5 5 5 5 5 3 5 5 5 5 5 5 5 5 5 5 5 5 5 5 5 5 5 5 5 5 5 5 5 5 3 5 5 5 5 5 3 5 5 5 5 5 5 5 5 5 5 5 5 5 5 3 5 5 3 5 3 5 5 5 5 3 5 3 3 5 3 5 5 5 5 5 5 5 3 5 3 5 5 5 5 5 5 3 5 5 5 5 5 5 3 5 5 5 5 3 5 5 5 5 5 3 5 5 3 5 5 5 5 3 5 5 5 5 3 5 5 5 5 5 5 3 5 5 5 5 5 5 5 5 5 3 5 5 5 5 5 5 3 5 5 5 5 3 5 5 5 5 5 5 5 5 5 5 5 5 5 5 5 5 3 5 5 5 3 5 5 3 5 5 5 5 5 5 5 5 5 5 5 5 5 5 5 5 3 5 3 5 5 5 5 5 5 5 5 5 5 5 5 5 5 5 5 5 5 5 5 5 5 5 5 5 5 3 5 5 3 5 5 5 5 5 5 5 5 5 5 3 5 5 5 5 3 5 5 5 5 3 5 5 5 5 5 5 5 5 5 3 5 5 5 5 5 5 5 5 5 5 5 5 5 5 5 5 5 5 5 5 5 5 5 5 5 5 5 5 
</DataArray>
</Cells>
<PointData Scalars="" Vectors="displacement," Tensors="">
<DataArray type="Float64" Name="displacement" NumberOfComponents="3" format="ascii">
0.094992178589879545 7.2535679595729181e-07 0 0.092595205709089426 0.00048014738566672419 0 0.094993641873945267 2.0085552665776861e-06 0 0.094992178589879545 7.2535679595729181e-07 0 0.090840300047995676 0.00031746817105542119 0 0.092595205709089426 0.00048014738566672419 0 0.094992178589879545 7.2535679595729181e-07 0 0.090840300047995676 0.00031746817105542119 0 0.085239999041070241 6.9622341696636774e-07 0 0.090840300047995676 0.00031746817105542119 0 0.085239999041070241 6.9622341696636774e-07 0 0.089143938609790377 -0.00023226838635593614 0 0.085239999041070241 6.9622341696636774e-07 0 0.089143938609790377 -0.00023226838635593614 0 0.08470711706891132 0.00018229450985434771 0 0.090028247370525089 -0.00061719577349574376 0 0.090482549073795007 -0.00062607994407408581 0 0.089143938609790377 -0.00023226838635593614 0 0.087469137329380345 -0.00097756636188709388 0 0.087317611151953342 -0.00031629289963484516 0 0.089143938609790377 -0.00023226838635593614 0 0.087317611151953342 -0.00031629289963484516 0 0.087481745763733021 -2.9270650726144751e-05 0 0.090840300047995676 0.00031746817105542119 0 0.089143938609790377 -0.00023226838635593614 0 0.092595205709089426 0.00048014738566672419 0 0.089143938609790377 -0.00023226838635593614 0 0.092595205709089426 0.00048014738566672419 0 0.093489969372847384 -0.00074150249617671463 0 0.092595205709089426 0.00048014738566672419 0 0.094689052088312492 7.5198909227932982e-05 0 0.093489969372847384 -0.00074150249617671463 0 0.092595205709089426 0.00048014738566672419 0 0.094993641873945267 2.0085552665776861e-06 0 0.094689052088312492 7.5198909227932982e-05 0 0.094999996697049824 -2.7913960497991551e-10 0 0.094995873202835521 1.2061127983756947e-06 0 0.094999994987208611 1.5439876850523708e-09 0 0.09499697872322875 -1.2055495092768524e-06 0 0.093508153745440623 -0.00039247392830673048 0 0.094999994987208611 1.5439876850523708e-09 0 0.094995098230013827 2.2218170832640306e-06 0 0.094997948920858291 3.7136122739382053e-06 0 0.094999994987208611 1.5439876850523708e-09 0 0.09499999167443611 5.5704124307371088e-09 0 0.094997948920858291 3.7136122739382053e-06 0 0.094995873202835521 1.2061127983756947e-06 0 0.094999994987208611 1.5439876850523708e-09 0 0.094995098230013827 2.2218170832640306e-06 0 0.094995873202835521 1.2061127983756947e-06 0 0.094995098230013827 2.2218170832640306e-06 0 0.09498976958498058 1.6646901544639494e-06 0 0.093508153745440623 -0.00039247392830673048 0 0.091214223058187965 -0.00049387132224194819 0 0.094995098230013827 2.2218170832640306e-06 0 0.094993907068751035 2.402838477514444e-06 0 0.09498976958498058 1.6646901544639494e-06 0 0.094995098230013827 2.2218170832640306e-06 0 0.094993907068751035 2.402838477514444e-06 0 0.094997948920858291 3.7136122739382053e-06 0 0.092629887743166564 -0.00021677393998659997 0 0.091214223058187965 -0.00049387132224194819 0 0.090578093616477298 -0.00042510362865809902 0 0.090046644372642384 -0.0010532354101526907 0 0.089290118095636917 -0.00074594950244153638 0 0.090578093616477298 -0.00042510362865809902 0 0.090046644372642384 -0.0010532354101526907 0 0.090724131921423548 -0.0012051203401456892 0 0.090046644372642384 -0.0010532354101526907 0 0.089290118095636917 -0.00074594950244153638 0 0.089907073162035195 -0.0018276208660018211 0 0.086574863646517064 -0.0011554403654452604 0 0.086230070266757192 -0.00059097282171700102 0 0.0869069813897375 -0.00069398572124959221 0 0.091214223058187965 -0.00049387132224194819 0 0.0887315026769879 -0.0011260227435925133 0 0.086230070266757192 -0.00059097282171700102 0 0.0869069813897375 -0.00069398572124959221 0 0.086713468958055512 -0.00034756771051822532 0 0.089907073162035195 -0.0018276208660018211 0 0.090724131921423548 -0.0012051203401456892 0 0.090929536388613702 -0.0018772010550374067 0 0.090046644372642384 -0.0010532354101526907 0 0.089907073162035195 -0.0018276208660018211 0 0.090724131921423548 -0.0012051203401456892 0 0.086574863646517064 -0.0011554403654452604 0 0.087469137329380345 -0.00097756636188709388 0 0.0869069813897375 -0.00069398572124959221 0 0.091214223058187965 -0.00049387132224194819 0 0.090482549073795007 -0.00062607994407408581 0 0.094689052088312492 7.5198909227932982e-05 0 0.095022899939028543 -0.00066069901065652118 0 0.093489969372847384 -0.00074150249617671463 0 0.0869069813897375 -0.00069398572124959221 0 0.087317611151953342 -0.00031629289963484516 0 0.087043767038513159 -0.00037837654328006865 0 0.0869069813897375 -0.00069398572124959221 0 0.087043767038513159 -0.00037837654328006865 0 0.086713468958055512 -0.00034756771051822532 0 0.087469137329380345 -0.00097756636188709388 0 0.0869069813897375 -0.00069398572124959221 0 0.087317611151953342 -0.00031629289963484516 0 0.087317611151953342 -0.00031629289963484516 0 0.087315344977645204 -0.00018372118140512096 0 0.087481745763733021 -2.9270650726144751e-05 0 0.087315344977645204 -0.00018372118140512096 0 0.08733434746867455 -0.00029410903468492483 0 0.087481745763733021 -2.9270650726144751e-05 0 0.087315344977645204 -0.00018372118140512096 0 0.087238464271826494 -0.00019605304147215014 0 0.087265682254390797 -0.0002241831085735477 0 0.087315344977645204 -0.00018372118140512096 0 0.087199148530757511 -0.00023952327435594384 0 0.087238464271826494 -0.00019605304147215014 0 0.087317611151953342 -0.00031629289963484516 0 0.087315344977645204 -0.00018372118140512096 0 0.087199148530757511 -0.00023952327435594384 0 0.087317611151953342 -0.00031629289963484516 0 0.087043767038513159 -0.00037837654328006865 0 0.087199148530757511 -0.00023952327435594384 0 0.087043767038513159 -0.00037837654328006865 0 0.087199148530757511 -0.00023952327435594384 0 0.087058442760583957 -0.00020223842266684538 0 0.087043767038513159 -0.00037837654328006865 0 0.087058442760583957 -0.00020223842266684538 0 0.086713468958055512 -0.00034756771051822532 0 0.087058442760583957 -0.00020223842266684538 0 0.086713468958055512 -0.00034756771051822532 0 0.086710332093892589 -2.1947429255094596e-05 0 0.078151365127452799 -0.0023152265495975208 0 0.077860410229806207 -0.0024801687382322644 0 0.087058442760583957 -0.00020223842266684538 0 0.087167979313389363 -0.00016211378530979134 0 0.087076536739294635 -4.8122246461200907e-06 0 0.087058442760583957 -0.00020223842266684538 0 0.086982653862114956 0.0001381061842813271 0 0.086710332093892589 -2.1947429255094596e-05 0 0.078136944413627771 -0.0025694698695648637 0 0.077860410229806207 -0.0024801687382322644 0 0.087167979313389363 -0.00016211378530979134 0 0.087265682254390797 -0.0002241831085735477 0 0.087279009562121201 -0.00023634162660569774 0 0.087199148530757511 -0.00023952327435594384 0 0.087238464271826494 -0.00019605304147215014 0 0.087167979313389363 -0.00016211378530979134 0 0.087199148530757511 -0.00023952327435594384 0 0.087058442760583957 -0.00020223842266684538 0 0.087167979313389363 -0.00016211378530979134 0 0.087238464271826494 -0.00019605304147215014 0 0.087167979313389363 -0.00016211378530979134 0 0.087265682254390797 -0.0002241831085735477 0 0.087265682254390797 -0.0002241831085735477 0 0.087279009562121201 -0.00023634162660569774 0 0.087285471999237252 -0.00030395332462703818 0 0.077860410229806207 -0.0024801687382322644 0 0.07578582864363384 -0.0019863071056847904 0 0.087279009562121201 -0.00023634162660569774 0 0.087285471999237252 -0.00030395332462703818 0 0.0873098973482129 -0.00037935222925806095 0 0.087285471999237252 -0.00030395332462703818 0 0.08733434746867455 -0.00029410903468492483 0 0.087258370952479819 -0.00040251814566493659 0 0.08733434746867455 -0.00029410903468492483 0 0.087258370952479819 -0.00040251814566493659 0 0.087289077721204214 -0.00047819575701980031 0 0.087265682254390797 -0.0002241831085735477 0 0.087285471999237252 -0.00030395332462703818 0 0.08733434746867455 -0.00029410903468492483 0 0.087315344977645204 -0.00018372118140512096 0 0.087265682254390797 -0.0002241831085735477 0 0.08733434746867455 -0.00029410903468492483 0 0.086230070266757192 -0.00059097282171700102 0 0.08580065524042671 2.7208587309295029e-05 0 0.086346269437138981 -6.3351429719856036e-05 0 0.089907073162035195 -0.0018276208660018211 0 0.090517567953636607 -0.0028683650017606228 0 0.090929536388613702 -0.0018772010550374067 0 0.0887315026769879 -0.0011260227435925133 0 0.08677615573100847 -0.0021582081479814977 0 0.08580065524042671 2.7208587309295029e-05 0 0.086346269437138981 -6.3351429719856036e-05 0 0.086122633457792433 0.00025008624129352352 0 0.086230070266757192 -0.00059097282171700102 0 0.086346269437138981 -6.3351429719856036e-05 0 0.086713468958055512 -0.00034756771051822532 0 0.086346269437138981 -6.3351429719856036e-05 0 0.086713468958055512 -0.00034756771051822532 0 0.086710332093892589 -2.1947429255094596e-05 0 0.086982653862114956 0.0001381061842813271 0 0.086485508772927738 0.00036786972078138168 0 0.086510810858770618 0.00091871211648453114 0 0.077860410229806207 -0.0024801687382322644 0 0.075994080318150442 -0.0028193388754297797 0 0.086346269437138981 -6.3351429719856036e-05 0 0.086710332093892589 -2.1947429255094596e-05 0 0.086485508772927738 0.00036786972078138168 0 0.086982653862114956 0.0001381061842813271 0 0.086710332093892589 -2.1947429255094596e-05 0 0.086485508772927738 0.00036786972078138168 0 0.086346269437138981 -6.3351429719856036e-05 0 0.086485508772927738 0.00036786972078138168 0 0.086122633457792433 0.00025008624129352352 0 0.086485508772927738 0.00036786972078138168 0 0.086122633457792433 0.00025008624129352352 0 0.085859886469031407 0.00067285519346092315 0 0.08580065524042671 2.7208587309295029e-05 0 0.085859886469031407 0.00067285519346092315 0 0.085397990263951895 0.0006791150620595979 0 0.08580065524042671 2.7208587309295029e-05 0 0.086122633457792433 0.00025008624129352352 0 0.085859886469031407 0.00067285519346092315 0 0.085859886469031407 0.00067285519346092315 0 0.085985807289847727 0.001146381794666324 0 0.086510810858770618 0.00091871211648453114 0 0.085859886469031407 0.00067285519346092315 0 0.085985807289847727 0.001146381794666324 0 0.08555728832289497 0.0012048444720703139 0 0.086485508772927738 0.00036786972078138168 0 0.085859886469031407 0.00067285519346092315 0 0.086510810858770618 0.00091871211648453114 0 0.075994080318150442 -0.0028193388754297797 0 0.071084382958711556 -0.0033749170034389113 0 0.074182623137066347 -0.0025529325026970471 0 0.074410929231737449 -0.0016981176634682353 0 0.073692339358072803 -0.0017097632346170409 0 0.074182623137066347 -0.0025529325026970471 0 0.074410929231737449 -0.0016981176634682353 0 0.074542409252711231 -0.0025472177770753585 0 0.071396531985674916 -0.0013510425902413213 0 0.071084382958711556 -0.0033749170034389113 0 0.086008065824512911 0.0017971859680018703 0 0.08555728832289497 0.0012048444720703139 0 0.085312873913296061 0.0018001217338344717 0 0.085985807289847727 0.001146381794666324 0 0.086008065824512911 0.0017971859680018703 0 0.08555728832289497 0.0012048444720703139 0 0.071084382958711556 -0.0033749170034389113 0 0.075127560345028113 -0.0031414784139185072 0 0.085985807289847727 0.001146381794666324 0 0.086510810858770618 0.00091871211648453114 0 0.086008065824512911 0.0017971859680018703 0 0.074677830897085351 -0.0033947987007696351 0 0.074182623137066347 -0.0025529325026970471 0 0.074542409252711231 -0.0025472177770753585 0 0.087285471999237252 -0.00030395332462703818 0 0.087258370952479819 -0.00040251814566493659 0 0.0873098973482129 -0.00037935222925806095 0 0.087280734965897472 -0.00044778271249489509 0 0.087258370952479819 -0.00040251814566493659 0 0.0873098973482129 -0.00037935222925806095 0 0.071396531985674916 -0.0013510425902413213 0 0.07578582864363384 -0.0019863071056847904 0 0.087280734965897472 -0.00044778271249489509 0 0.087258370952479819 -0.00040251814566493659 0 0.08722983369612311 -0.00045299755200935192 0 0.087258370952479819 -0.00040251814566493659 0 0.087240454863504069 -0.00043346672279067603 0 0.08722983369612311 -0.00045299755200935192 0 0.087240454863504069 -0.00043346672279067603 0 0.087175966453575865 -0.00046850387015540807 0 0.08722983369612311 -0.00045299755200935192 0 0.087258370952479819 -0.00040251814566493659 0 0.087240454863504069 -0.00043346672279067603 0 0.087289077721204214 -0.00047819575701980031 0 0.087240454863504069 -0.00043346672279067603 0 0.08723790381281428 -0.00044395681608795764 0 0.087289077721204214 -0.00047819575701980031 0 0.085990990469984485 -0.0016759291504909093 0 0.080619140050749022 -0.0019902902890015454 0 0.084318716707761157 -0.00057525838221373726 0 0.064511321389328039 -0.0044985375125149787 0 0.06508574381384627 -0.0023148336020609125 0 0.067651494360118414 -0.0028476287695598725 0 0.076818240499147913 0.0015284506523213749 0 0.074374191827112884 0.00011952450321724202 0 0.076818240499147913 0.0015284506523213749 0 0.076843581972153727 0.0015191947853242342 0 0.076818240499147913 0.0015284506523213749 0 0.074740157960926701 -0.00047955055409996277 0 0.087240454863504069 -0.00043346672279067603 0 0.08723790381281428 -0.00044395681608795764 0 0.087203536164202206 -0.00044340732043816373 0 0.087240454863504069 -0.00043346672279067603 0 0.087203536164202206 -0.00044340732043816373 0 0.087175966453575865 -0.00046850387015540807 0 0.074740157960926701 -0.00047955055409996277 0 0.072475434490964968 -0.0019890765013742323 0 0.06508574381384627 -0.0023148336020609125 0 0.066571410687256749 -0.0015116389386689354 0 0.065666910501283413 -7.5072806135309997e-05 0 0.066571410687256749 -0.0015116389386689354 0 0.067651494360118414 -0.0028476287695598725 0 0.06742238765127205 -2.0863199287935543e-05 0 0.067651494360118414 -0.0028476287695598725 0 0.069298468142629382 0.00034400789969644242 0 0.06742238765127205 -2.0863199287935543e-05 0 0.066571410687256749 -0.0015116389386689354 0 0.06742238765127205 -2.0863199287935543e-05 0 0.065666910501283413 -7.5072806135309997e-05 0 0.06508574381384627 -0.0023148336020609125 0 0.066571410687256749 -0.0015116389386689354 0 0.067651494360118414 -0.0028476287695598725 0 0.072383378465232379 -5.1591336283598762e-07 0 0.074374191827112884 0.00011952450321724202 0 0.072371941246392429 -4.8654211980973242e-06 0 0.067651494360118414 -0.0028476287695598725 0 0.069298468142629382 0.00034400789969644242 0 0.0723892847019771 -7.6746703200834195e-06 0 0.080619140050749022 -0.0019902902890015454 0 0.07789657392246073 1.3782667083352213e-06 0 0.080619140050749022 -0.0019902902890015454 0 0.084318716707761157 -0.00057525838221373726 0 0.07789657392246073 1.3782667083352213e-06 0 0.084318716707761157 -0.00057525838221373726 0 0.07789657392246073 1.3782667083352213e-06 0 0.08470711706891132 0.00018229450985434771 0 0.085239999041070241 6.9622341696636774e-07 0 0.07789657392246073 1.3782667083352213e-06 0 0.08470711706891132 0.00018229450985434771 0 0.084318716707761157 -0.00057525838221373726 0 0.08470711706891132 0.00018229450985434771 0 0.086673058913244103 -6.8337650839456608e-05 0 0.089143938609790377 -0.00023226838635593614 0 0.08470711706891132 0.00018229450985434771 0 0.086673058913244103 -6.8337650839456608e-05 0 0.089143938609790377 -0.00023226838635593614 0 0.086673058913244103 -6.8337650839456608e-05 0 0.087481745763733021 -2.9270650726144751e-05 0 0.086673058913244103 -6.8337650839456608e-05 0 0.087481745763733021 -2.9270650726144751e-05 0 0.086686466793921446 -0.00037991638231407525 0 0.087481745763733021 -2.9270650726144751e-05 0 0.087289077721204214 -0.00047819575701980031 0 0.086686466793921446 -0.00037991638231407525 0 0.08733434746867455 -0.00029410903468492483 0 0.087481745763733021 -2.9270650726144751e-05 0 0.087289077721204214 -0.00047819575701980031 0 0.086101573249720065 -0.0015939613984837127 0 0.087289077721204214 -0.00047819575701980031 0 0.086154167066551143 -0.0013171520404021576 0 0.087289077721204214 -0.00047819575701980031 0 0.086154167066551143 -0.0013171520404021576 0 0.086686466793921446 -0.00037991638231407525 0 0.076818240499147913 0.0015284506523213749 0 0.079351030677958734 0.0021527000002586182 0 0.084318716707761157 -0.00057525838221373726 0 0.086154167066551143 -0.0013171520404021576 0 0.086686466793921446 -0.00037991638231407525 0 0.085990990469984485 -0.0016759291504909093 0 0.084318716707761157 -0.00057525838221373726 0 0.086154167066551143 -0.0013171520404021576 0 0.084318716707761157 -0.00057525838221373726 0 0.086673058913244103 -6.8337650839456608e-05 0 0.086686466793921446 -0.00037991638231407525 0 0.087043530841888456 -0.00082924560215678791 0 0.082603926958052964 -0.0031865745706293452 0 0.094404891314639888 0.0011911739634884865 0 0.094559330088931942 0.0047665001095562936 0 0.092658159162445408 0.0018950890043683672 0 0.094817882637200229 -0.00029986220065534908 0 0.094889084850009561 -0.00022736056151618711 0 0.094902763069897922 -0.00039561878796572379 0 0.094817882637200229 -0.00029986220065534908 0 0.094800470920076416 -0.00044136042443569781 0 0.094902763069897922 -0.00039561878796572379 0 0.094817882637200229 -0.00029986220065534908 0 0.094723136023516438 -0.0004287423498309116 0 0.094800470920076416 -0.00044136042443569781 0 0.094817882637200229 -0.00029986220065534908 0 0.094833391220026861 -0.00015691636169122835 0 0.094842462369564492 -0.00014755798624126464 0 0.094817882637200229 -0.00029986220065534908 0 0.094833391220026861 -0.00015691636169122835 0 0.094889084850009561 -0.00022736056151618711 0 0.087043530841888456 -0.00082924560215678791 0 0.088375823435538958 -0.00063014941047241776 0 0.094833391220026861 -0.00015691636169122835 0 0.094889084850009561 -0.00022736056151618711 0 0.09470796205110743 -0.00014043104243146893 0 0.094404891314639888 0.0011911739634884865 0 0.09470796205110743 -0.00014043104243146893 0 0.092836565184688941 -6.7786442499000201e-05 0 0.09470796205110743 -0.00014043104243146893 0 0.094999779483363758 -3.1556515007734967e-07 0 0.094887016062614807 -9.1353318969023236e-05 0 0.09470796205110743 -0.00014043104243146893 0 0.094999779483363758 -3.1556515007734967e-07 0 0.094175047708272133 -0.00019025409335557368 0 0.094999779483363758 -3.1556515007734967e-07 0 0.094887016062614807 -9.1353318969023236e-05 0 0.09499979284951264 2.0346632600825889e-08 0 0.094833391220026861 -0.00015691636169122835 0 0.09470796205110743 -0.00014043104243146893 0 0.094887016062614807 -9.1353318969023236e-05 0 0.094833391220026861 -0.00015691636169122835 0 0.094887016062614807 -9.1353318969023236e-05 0 0.094842462369564492 -0.00014755798624126464 0 0.094842462369564492 -0.00014755798624126464 0 0.094896642877871265 -2.389725708820861e-05 0 0.094799377255437606 -0.00011128978487261145 0 0.094887016062614807 -9.1353318969023236e-05 0 0.094842462369564492 -0.00014755798624126464 0 0.094896642877871265 -2.389725708820861e-05 0 0.09499979284951264 2.0346632600825889e-08 0 0.094896642877871265 -2.389725708820861e-05 0 0.094999792030163399 -2.5742674147191496e-08 0 0.094887016062614807 -9.1353318969023236e-05 0 0.09499979284951264 2.0346632600825889e-08 0 0.094896642877871265 -2.389725708820861e-05 0 0.094896642877871265 -2.389725708820861e-05 0 0.094999792030163399 -2.5742674147191496e-08 0 0.094846948574665649 3.1895616693741977e-05 0 0.094846948574665649 3.1895616693741977e-05 0 0.094799377255437606 -0.00011128978487261145 0 0.094549986877557141 -9.3626438881854878e-05 0 0.094896642877871265 -2.389725708820861e-05 0 0.094846948574665649 3.1895616693741977e-05 0 0.094799377255437606 -0.00011128978487261145 0 0.094799377255437606 -0.00011128978487261145 0 0.094623328667427953 -0.00026595186313381323 0 0.094549986877557141 -9.3626438881854878e-05 0 0.094623328667427953 -0.00026595186313381323 0 0.094609164571243465 -0.00041232429510387075 0 0.0944680902393253 -0.00040087209902609487 0 0.094623328667427953 -0.00026595186313381323 0 0.094757305647136303 -0.0002756700962049657 0 0.094609164571243465 -0.00041232429510387075 0 0.094799377255437606 -0.00011128978487261145 0 0.094623328667427953 -0.00026595186313381323 0 0.094757305647136303 -0.0002756700962049657 0 0.094817882637200229 -0.00029986220065534908 0 0.094842462369564492 -0.00014755798624126464 0 0.094757305647136303 -0.0002756700962049657 0 0.094842462369564492 -0.00014755798624126464 0 0.094799377255437606 -0.00011128978487261145 0 0.094757305647136303 -0.0002756700962049657 0 0.094817882637200229 -0.00029986220065534908 0 0.094757305647136303 -0.0002756700962049657 0 0.094723136023516438 -0.0004287423498309116 0 0.094757305647136303 -0.0002756700962049657 0 0.094723136023516438 -0.0004287423498309116 0 0.094609164571243465 -0.00041232429510387075 0 0.094723136023516438 -0.0004287423498309116 0 0.094609164571243465 -0.00041232429510387075 0 0.094576395508919275 -0.00055549661950888619 0 0.094609164571243465 -0.00041232429510387075 0 0.094406169579680246 -0.00053199663376760629 0 0.094576395508919275 -0.00055549661950888619 0 0.094609164571243465 -0.00041232429510387075 0 0.0944680902393253 -0.00040087209902609487 0 0.094406169579680246 -0.00053199663376760629 0 0.088259613624549496 -0.0032791779406204221 0 0.088961419169465858 -0.0029191098478214541 0 0.09427837391291298 -0.00062432081607295947 0 0.094094408828894305 -0.00063758847572058827 0 0.09421121660751991 -0.00039936664454873726 0 0.0944680902393253 -0.00040087209902609487 0 0.094406169579680246 -0.00053199663376760629 0 0.09421121660751991 -0.00039936664454873726 0 0.093587098240257099 -0.0025498746663094396 0 0.093364044054250098 -0.0017321465109927756 0 0.094119273791665681 -0.00023328748363518574 0 0.08826200217807717 -0.0029848975348770053 0 0.089836710302012443 -0.0029663158806642886 0 0.093587098240257099 -0.0025498746663094396 0 0.093364044054250098 -0.0017321465109927756 0 0.092528705359602947 -0.0016447357871121465 0 0.093364044054250098 -0.0017321465109927756 0 0.094119273791665681 -0.00023328748363518574 0 0.093568677183802143 -0.00061011839606433616 0 0.08826200217807717 -0.0029848975348770053 0 0.090297324600072087 -0.00077255464826302004 0 0.094094408828894305 -0.00063758847572058827 0 0.094119273791665681 -0.00023328748363518574 0 0.09421121660751991 -0.00039936664454873726 0 0.093364044054250098 -0.0017321465109927756 0 0.093232504716043496 -0.0010240898855218676 0 0.092816619490599245 -0.0011505750387562914 0 0.093364044054250098 -0.0017321465109927756 0 0.093232504716043496 -0.0010240898855218676 0 0.093568677183802143 -0.00061011839606433616 0 0.093232504716043496 -0.0010240898855218676 0 0.093070437608103185 -0.00056777418375365135 0 0.092816619490599245 -0.0011505750387562914 0 0.093232504716043496 -0.0010240898855218676 0 0.093070437608103185 -0.00056777418375365135 0 0.093568677183802143 -0.00061011839606433616 0 0.094119273791665681 -0.00023328748363518574 0 0.094409666686535554 -0.00029144639520647394 0 0.094549986877557141 -9.3626438881854878e-05 0 0.094119273791665681 -0.00023328748363518574 0 0.09421121660751991 -0.00039936664454873726 0 0.094409666686535554 -0.00029144639520647394 0 0.094623328667427953 -0.00026595186313381323 0 0.0944680902393253 -0.00040087209902609487 0 0.094409666686535554 -0.00029144639520647394 0 0.0944680902393253 -0.00040087209902609487 0 0.09421121660751991 -0.00039936664454873726 0 0.094409666686535554 -0.00029144639520647394 0 0.094623328667427953 -0.00026595186313381323 0 0.094409666686535554 -0.00029144639520647394 0 0.094549986877557141 -9.3626438881854878e-05 0 0.094846948574665649 3.1895616693741977e-05 0 0.094549986877557141 -9.3626438881854878e-05 0 0.094075508973207017 0.0002629958400167251 0 0.094437631440363795 0.00010119321309282007 0 0.094194615527567097 7.1846937610303894e-05 0 0.094846948574665649 3.1895616693741977e-05 0 0.094961843582103536 7.9626961137064837e-06 0 0.095001755188701159 3.3342013261263405e-05 0 0.094119273791665681 -0.00023328748363518574 0 0.094549986877557141 -9.3626438881854878e-05 0 0.094075508973207017 0.0002629958400167251 0 0.094999792030163399 -2.5742674147191496e-08 0 0.095000037725425299 1.1468122692848941e-08 0 0.094990770143154782 4.4512617461821748e-06 0 0.094999792030163399 -2.5742674147191496e-08 0 0.094961843582103536 7.9626961137064837e-06 0 0.094990770143154782 4.4512617461821748e-06 0 0.094999792030163399 -2.5742674147191496e-08 0 0.094846948574665649 3.1895616693741977e-05 0 0.094961843582103536 7.9626961137064837e-06 0 0.094961843582103536 7.9626961137064837e-06 0 0.094990770143154782 4.4512617461821748e-06 0 0.095001755188701159 3.3342013261263405e-05 0 0.094990770143154782 4.4512617461821748e-06 0 0.095001755188701159 3.3342013261263405e-05 0 0.095002271607823402 8.1789646570987708e-06 0 0.095000037725425299 1.1468122692848941e-08 0 0.094990770143154782 4.4512617461821748e-06 0 0.095002271607823402 8.1789646570987708e-06 0 0.094194615527567097 7.1846937610303894e-05 0 0.093526816914425256 -4.2451834513970755e-05 0 0.095001755188701159 3.3342013261263405e-05 0 0.094999851550229122 7.9200209854714481e-06 0 0.095002271607823402 8.1789646570987708e-06 0 0.093070437608103185 -0.00056777418375365135 0 0.094075508973207017 0.0002629958400167251 0 0.092210344939401792 1.5193728758646475e-05 0 0.094119273791665681 -0.00023328748363518574 0 0.093568677183802143 -0.00061011839606433616 0 0.094075508973207017 0.0002629958400167251 0 0.093070437608103185 -0.00056777418375365135 0 0.093568677183802143 -0.00061011839606433616 0 0.094075508973207017 0.0002629958400167251 0 0.094999851550229122 7.9200209854714481e-06 0 0.095002271607823402 8.1789646570987708e-06 0 0.094997948920858291 3.7136122739382053e-06 0 0.095000037725425299 1.1468122692848941e-08 0 0.095002271607823402 8.1789646570987708e-06 0 0.09499999167443611 5.5704124307371088e-09 0 0.095002271607823402 8.1789646570987708e-06 0 0.09499999167443611 5.5704124307371088e-09 0 0.094997948920858291 3.7136122739382053e-06 0 0.094993907068751035 2.402838477514444e-06 0 0.094999851550229122 7.9200209854714481e-06 0 0.094997948920858291 3.7136122739382053e-06 0 0.092629887743166564 -0.00021677393998659997 0 0.093526816914425256 -4.2451834513970755e-05 0 0.090578093616477298 -0.00042510362865809902 0 0.090724131921423548 -0.0012051203401456892 0 0.091481940380866045 -0.00074137569722020796 0 0.090578093616477298 -0.00042510362865809902 0 0.092210344939401792 1.5193728758646475e-05 0 0.091481940380866045 -0.00074137569722020796 0 0.090724131921423548 -0.0012051203401456892 0 0.091481940380866045 -0.00074137569722020796 0 0.091374841055019349 -0.0013390515137988498 0 0.092210344939401792 1.5193728758646475e-05 0 0.091481940380866045 -0.00074137569722020796 0 0.092374543633024636 -0.0008281308945498108 0 0.093070437608103185 -0.00056777418375365135 0 0.092210344939401792 1.5193728758646475e-05 0 0.092374543633024636 -0.0008281308945498108 0 0.093070437608103185 -0.00056777418375365135 0 0.092374543633024636 -0.0008281308945498108 0 0.092816619490599245 -0.0011505750387562914 0 0.092374543633024636 -0.0008281308945498108 0 0.092816619490599245 -0.0011505750387562914 0 0.092528705359602947 -0.0016447357871121465 0 0.091481940380866045 -0.00074137569722020796 0 0.092086018383199492 -0.0014101767504757867 0 0.091374841055019349 -0.0013390515137988498 0 0.091481940380866045 -0.00074137569722020796 0 0.092374543633024636 -0.0008281308945498108 0 0.092528705359602947 -0.0016447357871121465 0 0.090089077880579668 -0.0027620111735357036 0 0.089836710302012443 -0.0029663158806642886 0 0.092086018383199492 -0.0014101767504757867 0 0.09164417838201018 -0.0016957637748199175 0 0.091374841055019349 -0.0013390515137988498 0 0.093364044054250098 -0.0017321465109927756 0 0.092816619490599245 -0.0011505750387562914 0 0.092528705359602947 -0.0016447357871121465 0 0.092086018383199492 -0.0014101767504757867 0 0.092156295754972251 -0.001745929497898124 0 0.09164417838201018 -0.0016957637748199175 0 0.09270683810188976 -0.0019802100183173351 0 0.092086018383199492 -0.0014101767504757867 0 0.092156295754972251 -0.001745929497898124 0 0.092156295754972251 -0.001745929497898124 0 0.091823003065587327 -0.0020499200129374018 0 0.091978893766499828 -0.0024362561613751514 0 0.092156295754972251 -0.001745929497898124 0 0.091823003065587327 -0.0020499200129374018 0 0.09164417838201018 -0.0016957637748199175 0 0.091823003065587327 -0.0020499200129374018 0 0.09164417838201018 -0.0016957637748199175 0 0.091356680116360153 -0.0023625172316628158 0 0.09164417838201018 -0.0016957637748199175 0 0.090929536388613702 -0.0018772010550374067 0 0.091356680116360153 -0.0023625172316628158 0 0.090724131921423548 -0.0012051203401456892 0 0.090929536388613702 -0.0018772010550374067 0 0.091374841055019349 -0.0013390515137988498 0 0.09164417838201018 -0.0016957637748199175 0 0.090929536388613702 -0.0018772010550374067 0 0.091374841055019349 -0.0013390515137988498 0 0.090517567953636607 -0.0028683650017606228 0 0.090929536388613702 -0.0018772010550374067 0 0.091356680116360153 -0.0023625172316628158 0 0.090517567953636607 -0.0028683650017606228 0 0.091356680116360153 -0.0023625172316628158 0 0.091268338646182653 -0.0030936297695867438 0 0.091356680116360153 -0.0023625172316628158 0 0.09174985627607174 -0.0029123530984318923 0 0.091268338646182653 -0.0030936297695867438 0 0.092156295754972251 -0.001745929497898124 0 0.091978893766499828 -0.0024362561613751514 0 0.092571995333790499 -0.00278923046998667 0 0.091823003065587327 -0.0020499200129374018 0 0.091356680116360153 -0.0023625172316628158 0 0.091978893766499828 -0.0024362561613751514 0 0.091978893766499828 -0.0024362561613751514 0 0.092177973051180306 -0.0028820003925467959 0 0.09174985627607174 -0.0029123530984318923 0 0.091978893766499828 -0.0024362561613751514 0 0.092177973051180306 -0.0028820003925467959 0 0.092571995333790499 -0.00278923046998667 0 0.091356680116360153 -0.0023625172316628158 0 0.091978893766499828 -0.0024362561613751514 0 0.09174985627607174 -0.0029123530984318923 0 0.09174985627607174 -0.0029123530984318923 0 0.091665158368291991 -0.0034153744281490883 0 0.091268338646182653 -0.0030936297695867438 0 0.091665158368291991 -0.0034153744281490883 0 0.091083876037390932 -0.0038687487982797422 0 0.092281769217774534 -0.003893846673798388 0 0.09174985627607174 -0.0029123530984318923 0 0.092096920348965106 -0.0031742836095431516 0 0.091665158368291991 -0.0034153744281490883 0 0.092177973051180306 -0.0028820003925467959 0 0.09174985627607174 -0.0029123530984318923 0 0.092096920348965106 -0.0031742836095431516 0 0.092177973051180306 -0.0028820003925467959 0 0.092096920348965106 -0.0031742836095431516 0 0.092497294865416746 -0.0031005499371357 0 0.085945558559177251 -0.0041383964305415225 0 0.085346322584443204 -0.0042456371286821266 0 0.092096920348965106 -0.0031742836095431516 0 0.091665158368291991 -0.0034153744281490883 0 0.092281769217774534 -0.003893846673798388 0 0.092096920348965106 -0.0031742836095431516 0 0.092281769217774534 -0.003893846673798388 0 0.092465934574011963 -0.0031062795117204104 0 0.090517567953636607 -0.0028683650017606228 0 0.091268338646182653 -0.0030936297695867438 0 0.091083876037390932 -0.0038687487982797422 0 0.08677615573100847 -0.0021582081479814977 0 0.084230973341502965 -0.0035045541523432335 0 0.091665158368291991 -0.0034153744281490883 0 0.091268338646182653 -0.0030936297695867438 0 0.091083876037390932 -0.0038687487982797422 0 0.084581374495633382 -0.0032030252040592842 0 0.084230973341502965 -0.0035045541523432335 0 0.085859886469031407 0.00067285519346092315 0 0.085261748259008771 0.00066505805785070009 0 0.08555728832289497 0.0012048444720703139 0 0.084230973341502965 -0.0035045541523432335 0 0.080391603095015737 -0.0031766692603951425 0 0.085261748259008771 0.00066505805785070009 0 0.08555728832289497 0.0012048444720703139 0 0.084928364425854552 0.0012242709492813158 0 0.08555728832289497 0.0012048444720703139 0 0.084928364425854552 0.0012242709492813158 0 0.085312873913296061 0.0018001217338344717 0 0.075127560345028113 -0.0031414784139185072 0 0.076315015627211408 -0.0036588940661422941 0 0.084928364425854552 0.0012242709492813158 0 0.085312873913296061 0.0018001217338344717 0 0.084592573984169708 0.0017887965383972478 0 0.080276264640545797 -0.00366363085690682 0 0.080122640081789293 -0.0034465951603878842 0 0.080033472798684918 -0.0038707941577586012 0 0.078082713489448008 -0.0052705295192928825 0 0.078280374890527388 -0.0044549956582260438 0 0.078468644917294356 -0.0048954343456419098 0 0.076213005688559862 -0.0038634313469976338 0 0.082589207817679755 -0.003921264215615148 0 0.076024682870124316 -0.0038459590106777563 0 0.075146153274922134 -0.0038579807616628769 0 0.076075091863525887 -0.0036303753748663146 0 0.076213005688559862 -0.0038634313469976338 0 0.074879504527759835 -0.0050784491253769107 0 0.07585912324163098 -0.0033653962148463704 0 0.075259329915134482 -0.0033741086062211933 0 0.075681323010732729 -0.0041286014510496715 0 0.076213005688559862 -0.0038634313469976338 0 0.076315015627211408 -0.0036588940661422941 0 0.080276264640545797 -0.00366363085690682 0 0.080122640081789293 -0.0034465951603878842 0 0.080147961761062911 -0.0034462232144875072 0 0.080391603095015737 -0.0031766692603951425 0 0.076315015627211408 -0.0036588940661422941 0 0.084230973341502965 -0.0035045541523432335 0 0.082589207817679755 -0.003921264215615148 0 0.080403938633060584 -0.003881449671994535 0 0.080276264640545797 -0.00366363085690682 0 0.080033472798684918 -0.0038707941577586012 0 0.082589207817679755 -0.003921264215615148 0 0.080972746494703221 -0.0049869175967843515 0 0.07870885458757243 -0.0044680869609218946 0 0.078468644917294356 -0.0048954343456419098 0 0.078937056093866087 -0.0050168144857155013 0 0.078280374890527388 -0.0044549956582260438 0 0.07870885458757243 -0.0044680869609218946 0 0.078468644917294356 -0.0048954343456419098 0 0.074879504527759835 -0.0050784491253769107 0 0.073941227901612491 -0.0079436836477748147 0 0.078468644917294356 -0.0048954343456419098 0 0.078333064569549943 -0.0052672972443870824 0 0.078937056093866087 -0.0050168144857155013 0 0.074879504527759835 -0.0050784491253769107 0 0.076132239300931395 -0.0066523546278753776 0 0.078082713489448008 -0.0052705295192928825 0 0.078468644917294356 -0.0048954343456419098 0 0.078333064569549943 -0.0052672972443870824 0 0.075285497627059383 -0.0069820926048590149 0 0.074757499630648899 -0.0069925323536816882 0 0.074835039298265738 -0.0071717703824937234 0 0.075342214420539635 -0.0088215217127666466 0 0.075481436057381848 -0.0091433588084020093 0 0.074652510822449378 -0.009135954606078963 0 0.073941227901612491 -0.0079436836477748147 0 0.076132239300931395 -0.0066523546278753776 0 0.07882712307805613 -0.0058230645927536007 0 0.078780333701484448 -0.0057231832119697471 0 0.078667446568785146 -0.0058198416065084434 0 0.080972746494703221 -0.0049869175967843515 0 0.076132239300931395 -0.0066523546278753776 0 0.080972746494703221 -0.0049869175967843515 0 0.08014385017975538 -0.0063351080265792873 0 0.082993490282774515 -0.0050979309788300002 0 0.082841048932659173 -0.0052293533492843878 0 0.082606647057238095 -0.0050889362238168692 0 0.082841048932659173 -0.0052293533492843878 0 0.083092091872253207 -0.0053198492058183803 0 0.082817834866317233 -0.0053708572572630691 0 0.084990225057720914 -0.0043974435553383396 0 0.085815368606589226 -0.0044812706936017827 0 0.082841048932659173 -0.0052293533492843878 0 0.082817834866317233 -0.0053708572572630691 0 0.082694910620822765 -0.0052694020025043677 0 0.082975510958199161 -0.004960837488422137 0 0.083402537706604982 -0.0040081953531556427 0 0.083190278556243349 -0.004047592630359806 0 0.082975510958199161 -0.004960837488422137 0 0.083815756809169362 -0.0049839178376940105 0 0.083402537706604982 -0.0040081953531556427 0 0.080972746494703221 -0.0049869175967843515 0 0.084990225057720914 -0.0043974435553383396 0 0.082993490282774515 -0.0050979309788300002 0 0.082841048932659173 -0.0052293533492843878 0 0.083092091872253207 -0.0053198492058183803 0 0.082589207817679755 -0.003921264215615148 0 0.085346322584443204 -0.0042456371286821266 0 0.085346322584443204 -0.0042456371286821266 0 0.085971831932474679 -0.0041113195164113525 0 0.084990225057720914 -0.0043974435553383396 0 0.085971831932474679 -0.0041113195164113525 0 0.086333123923036464 -0.004924255627862438 0 0.085717394142172873 -0.0050388468768161904 0 0.085951979409940538 -0.0040321050295510667 0 0.084990225057720914 -0.0043974435553383396 0 0.085346322584443204 -0.0042456371286821266 0 0.09270683810188976 -0.0019802100183173351 0 0.092156295754972251 -0.001745929497898124 0 0.092527824591366215 -0.0026886029186033436 0 0.086968464286817149 -0.0040370356987060232 0 0.0870775469359166 -0.0035601680957691533 0 0.086346527964326875 -0.0035145600972131164 0 0.087004861592721333 -0.0033922868995936348 0 0.0870775469359166 -0.0035601680957691533 0 0.086346527964326875 -0.0035145600972131164 0 0.087079660100933029 -0.0039654822809572941 0 0.085971831932474679 -0.0041113195164113525 0 0.092177973051180306 -0.0028820003925467959 0 0.092497294865416746 -0.0031005499371357 0 0.092571995333790499 -0.00278923046998667 0 0.08826200217807717 -0.0029848975348770053 0 0.085971831932474679 -0.0041113195164113525 0 0.08826200217807717 -0.0029848975348770053 0 0.085815368606589226 -0.0044812706936017827 0 0.088259613624549496 -0.0032791779406204221 0 0.085886325380645223 -0.0043011467439519457 0 0.09427837391291298 -0.00062432081607295947 0 0.094094408828894305 -0.00063758847572058827 0 0.094287777840772774 -0.00081718290348120897 0 0.09427837391291298 -0.00062432081607295947 0 0.094287777840772774 -0.00081718290348120897 0 0.094337865772719659 -0.00080816888530254899 0 0.085815368606589226 -0.0044812706936017827 0 0.085886325380645223 -0.0043011467439519457 0 0.085886325380645223 -0.0043011467439519457 0 0.085248969464952556 -0.0037891333670257111 0 0.094406169579680246 -0.00053199663376760629 0 0.094486199858956593 -0.00070063929559236197 0 0.094576395508919275 -0.00055549661950888619 0 0.083159380675745478 -0.0046738808989042757 0 0.083292902986802045 -0.0046480166789838297 0 0.083188884720570747 -0.0047425877867770814 0 0.094486199858956593 -0.00070063929559236197 0 0.094576395508919275 -0.00055549661950888619 0 0.094701866950006292 -0.00066172127399671918 0 0.094723136023516438 -0.0004287423498309116 0 0.094576395508919275 -0.00055549661950888619 0 0.094701866950006292 -0.00066172127399671918 0 0.085248969464952556 -0.0037891333670257111 0 0.085443728491287133 -0.0033064433956785117 0 0.080624871580129737 -0.0065054684170320759 0 0.080247332861005827 -0.0061502313116506462 0 0.079928761348316738 -0.0066325419676663373 0 0.086062965052737403 -0.0027316410889087236 0 0.085248969464952556 -0.0037891333670257111 0 0.094723136023516438 -0.0004287423498309116 0 0.094705052905236176 -0.00048485433597740595 0 0.094800470920076416 -0.00044136042443569781 0 0.080624871580129737 -0.0065054684170320759 0 0.080247332861005827 -0.0061502313116506462 0 0.080689231489736835 -0.005779877698333491 0 0.085248969464952556 -0.0037891333670257111 0 0.081327586493841045 -0.0055261950860836899 0 0.080247332861005827 -0.0061502313116506462 0 0.080284901733898073 -0.0058056608983005371 0 0.080689231489736835 -0.005779877698333491 0 0.081882197412228366 -0.0059937887272821112 0 0.081392714826915277 -0.004957381450988234 0 0.081041125527805916 -0.0052887396013909464 0 0.083292902986802045 -0.0046480166789838297 0 0.083188884720570747 -0.0047425877867770814 0 0.083272310106921002 -0.0048170573495237446 0 0.0836454524808629 -0.004977008939865058 0 0.081327586493841045 -0.0055261950860836899 0 0.082841048932659173 -0.0052293533492843878 0 0.082694910620822765 -0.0052694020025043677 0 0.082606647057238095 -0.0050889362238168692 0 0.0836454524808629 -0.004977008939865058 0 0.08014385017975538 -0.0063351080265792873 0 0.085815368606589226 -0.0044812706936017827 0 0.0836454524808629 -0.004977008939865058 0 0.085886325380645223 -0.0043011467439519457 0 0.0836454524808629 -0.004977008939865058 0 0.084757446909849321 -0.005412356978969207 0 0.084558064842743988 -0.0054491850674973944 0 0.084398291933391253 -0.0051100654274184648 0 0.078780333701484448 -0.0057231832119697471 0 0.078667446568785146 -0.0058198416065084434 0 0.078647388538515897 -0.0057794278413806363 0 0.081392714826915277 -0.004957381450988234 0 0.081072590699745262 -0.0049488821526239976 0 0.081041125527805916 -0.0052887396013909464 0 0.08014385017975538 -0.0063351080265792873 0 0.079868641950663441 -0.0066194293985555458 0 0.078855475382890755 -0.0065174912731786284 0 0.078893704200875103 -0.0066023987750296539 0 0.078902743249407783 -0.0065188532559865373 0 0.08014385017975538 -0.0063351080265792873 0 0.07846600518226611 -0.0071686963139511485 0 0.07846600518226611 -0.0071686963139511485 0 0.079868641950663441 -0.0066194293985555458 0 0.073941227901612491 -0.0079436836477748147 0 0.073431197256067574 -0.011702845853377934 0 0.076132239300931395 -0.0066523546278753776 0 0.07846600518226611 -0.0071686963139511485 0 0.075481436057381848 -0.0091433588084020093 0 0.074501883121477291 -0.0095479426909728399 0 0.074652510822449378 -0.009135954606078963 0 0.075342214420539635 -0.0088215217127666466 0 0.074652510822449378 -0.009135954606078963 0 0.07456654375578653 -0.0088361157997092193 0 0.074501883121477291 -0.0095479426909728399 0 0.074652510822449378 -0.009135954606078963 0 0.074554902194738371 -0.0089398345075411036 0 0.07846600518226611 -0.0071686963139511485 0 0.073766680851432245 -0.011508412188836843 0 0.07374964290307208 -0.011423571273951237 0 0.073766680851432245 -0.011508412188836843 0 0.074652510822449378 -0.009135954606078963 0 0.074556859404045606 -0.008939986975523416 0 0.07456654375578653 -0.0088361157997092193 0 0.073550180035878709 -0.012491766580868284 0 0.073613686109655366 -0.011826697879634696 0 0.073231954993820042 -0.011832287162752374 0 0.073766680851432245 -0.011508412188836843 0 0.073379210087650734 -0.011986746296389697 0 0.073766680851432245 -0.011508412188836843 0 0.073431197256067574 -0.011702845853377934 0 0.073431197256067574 -0.011702845853377934 0 0.073379210087650734 -0.011986746296389697 0 0.074874377507701137 -0.010355132422336159 0 0.074396016434802537 -0.010794478058710977 0 0.074096073587888986 -0.010738780071413668 0 0.073379210087650734 -0.011986746296389697 0 0.070555176700955777 -0.015634786231795959 0 0.074874377507701137 -0.010355132422336159 0 0.074096073587888986 -0.010738780071413668 0 0.073817003935064754 -0.010376701200316396 0 0.074933275706847574 -0.010475385242721702 0 0.074874377507701137 -0.010355132422336159 0 0.074651863417890083 -0.010726938943807498 0 0.074874377507701137 -0.010355132422336159 0 0.074651863417890083 -0.010726938943807498 0 0.074396016434802537 -0.010794478058710977 0 0.074875094748877505 -0.011182049465286229 0 0.074933275706847574 -0.010475385242721702 0 0.074651863417890083 -0.010726938943807498 0 0.07846600518226611 -0.0071686963139511485 0 0.078387016849496963 -0.0075331423280064203 0 0.074864177388943715 -0.011181444122690594 0 0.074651863417890083 -0.010726938943807498 0 0.074504526366626314 -0.011077033667210863 0 0.074651863417890083 -0.010726938943807498 0 0.074396016434802537 -0.010794478058710977 0 0.074504526366626314 -0.011077033667210863 0 0.074396016434802537 -0.010794478058710977 0 0.074234120204205001 -0.011001988349442739 0 0.074504526366626314 -0.011077033667210863 0 0.074234120204205001 -0.011001988349442739 0 0.073968816534123932 -0.011179125129373978 0 0.074096073587888986 -0.010738780071413668 0 0.074396016434802537 -0.010794478058710977 0 0.074234120204205001 -0.011001988349442739 0 0.074096073587888986 -0.010738780071413668 0 0.074298572857217027 -0.011253993864656467 0 0.074831860954785265 -0.011518326286832588 0 0.073955887771623818 -0.011493040480304034 0 0.074234120204205001 -0.011001988349442739 0 0.074298572857217027 -0.011253993864656467 0 0.073968816534123932 -0.011179125129373978 0 0.079868641950663441 -0.0066194293985555458 0 0.076684531924502627 -0.0084152115571172574 0 0.080704756342867445 -0.0056261438751509605 0 0.080565973117615666 -0.0056778732043964476 0 0.080045737033975092 -0.0056093951353891015 0 0.074234120204205001 -0.011001988349442739 0 0.074298572857217027 -0.011253993864656467 0 0.074504526366626314 -0.011077033667210863 0 0.074298572857217027 -0.011253993864656467 0 0.074504526366626314 -0.011077033667210863 0 0.074831860954785265 -0.011518326286832588 0 0.074864177388943715 -0.011181444122690594 0 0.074504526366626314 -0.011077033667210863 0 0.074831860954785265 -0.011518326286832588 0 0.080284901733898073 -0.0058056608983005371 0 0.080565973117615666 -0.0056778732043964476 0 0.080689231489736835 -0.005779877698333491 0 0.080704756342867445 -0.0056261438751509605 0 0.080565973117615666 -0.0056778732043964476 0 0.080691281332041717 -0.0057834799257745779 0 0.079868641950663441 -0.0066194293985555458 0 0.081327586493841045 -0.0055261950860836899 0 0.081313555014491126 -0.0055209829192314893 0 0.081327586493841045 -0.0055261950860836899 0 0.080284901733898073 -0.0058056608983005371 0 0.080565973117615666 -0.0056778732043964476 0 0.080045737033975092 -0.0056093951353891015 0 0.073968816534123932 -0.011179125129373978 0 0.073633933306471458 -0.010441240082633531 0 0.073129063957075094 -0.011462931055958024 0 0.073955887771623818 -0.011493040480304034 0 0.073968816534123932 -0.011179125129373978 0 0.073129063957075094 -0.011462931055958024 0 0.076684531924502627 -0.0084152115571172574 0 0.073056499843775255 -0.010161925562374779 0 0.080045737033975092 -0.0056093951353891015 0 0.079387601345016365 -0.0055943456771019575 0 0.079787921247485072 -0.0060319617621022959 0 0.074298572857217027 -0.011253993864656467 0 0.073955887771623818 -0.011493040480304034 0 0.073968816534123932 -0.011179125129373978 0 0.073968816534123932 -0.011179125129373978 0 0.073633933306471458 -0.010441240082633531 0 0.07381886956249703 -0.010439854966335442 0 0.070747897567732199 -0.014095500329567726 0 0.070555176700955777 -0.015634786231795959 0 0.073968816534123932 -0.011179125129373978 0 0.074096073587888986 -0.010738780071413668 0 0.073817003935064754 -0.010376701200316396 0 0.070175911799032015 -0.01611521699213312 0 0.070555176700955777 -0.015634786231795959 0 0.059350179911509454 -0.020060545664730686 0 0.063010249640093843 -0.017698819683943476 0 0.062620308746894171 -0.013380873168205722 0 0.070175911799032015 -0.01611521699213312 0 0.068625326213384866 -0.018224131714432084 0 0.070175911799032015 -0.01611521699213312 0 0.073056499843775255 -0.010161925562374779 0 0.059350179911509454 -0.020060545664730686 0 0.063010249640093843 -0.017698819683943476 0 0.066807805415711213 -0.019987534033394087 0 0.063010249640093843 -0.017698819683943476 0 0.065170516579384455 -0.01531969055804394 0 0.066807805415711213 -0.019987534033394087 0 0.063010249640093843 -0.017698819683943476 0 0.065170516579384455 -0.01531969055804394 0 0.062620308746894171 -0.013380873168205722 0 0.062837218806771733 -0.012959412253705562 0 0.065440993402499703 -0.012177718905345714 0 0.069512976157578857 -0.012981365642724597 0 0.073056499843775255 -0.010161925562374779 0 0.070890652221974673 -0.011021243715819253 0 0.065170516579384455 -0.01531969055804394 0 0.062620308746894171 -0.013380873168205722 0 0.067796759685649216 -0.013348691320169437 0 0.062837218806771733 -0.012959412253705562 0 0.065440993402499703 -0.012177718905345714 0 0.065142326039681869 -0.0082183873142453265 0 0.073056499843775255 -0.010161925562374779 0 0.075403697194372843 -0.0071275482087238308 0 0.079387601345016365 -0.0055943456771019575 0 0.079168727922653392 -0.0060474775825889501 0 0.079787921247485072 -0.0060319617621022959 0 0.079168727922653392 -0.0060474775825889501 0 0.079787921247485072 -0.0060319617621022959 0 0.079530041894581197 -0.0063671160351206841 0 0.064804426162290429 -0.0084554085365423099 0 0.065338130043537182 -0.0072818164195692673 0 0.063818283065718392 -0.00022033886099159125 0 0.065440993402499703 -0.012177718905345714 0 0.064915219666074997 -0.0083499333498902473 0 0.066948234562265091 -0.010180294911763619 0 0.074952238157517934 -0.0076501818818062893 0 0.075403697194372843 -0.0071275482087238308 0 0.064915219666074997 -0.0083499333498902473 0 0.065338130043537182 -0.0072818164195692673 0 0.067337499853354438 -0.0074856093349197532 0 0.075403697194372843 -0.0071275482087238308 0 0.075333357891790506 -0.0071845989666006185 0 0.080247332861005827 -0.0061502313116506462 0 0.079787921247485072 -0.0060319617621022959 0 0.079928761348316738 -0.0066325419676663373 0 0.080284901733898073 -0.0058056608983005371 0 0.080045737033975092 -0.0056093951353891015 0 0.079787921247485072 -0.0060319617621022959 0 0.080247332861005827 -0.0061502313116506462 0 0.080284901733898073 -0.0058056608983005371 0 0.079787921247485072 -0.0060319617621022959 0 0.079787921247485072 -0.0060319617621022959 0 0.079928761348316738 -0.0066325419676663373 0 0.079530041894581197 -0.0063671160351206841 0 0.079928761348316738 -0.0066325419676663373 0 0.079530041894581197 -0.0063671160351206841 0 0.079235825826829406 -0.0067559480435218549 0 0.075403697194372843 -0.0071275482087238308 0 0.082603926958052964 -0.0031865745706293452 0 0.085443728491287133 -0.0033064433956785117 0 0.082603926958052964 -0.0031865745706293452 0 0.079168727922653392 -0.0060474775825889501 0 0.079530041894581197 -0.0063671160351206841 0 0.079235825826829406 -0.0067559480435218549 0 0.065338130043537182 -0.0072818164195692673 0 0.063818283065718392 -0.00022033886099159125 0 0.066288285574808314 -0.0046856889898515023 0 0.067139086241548226 -0.026113998453835368 0 0.066107757043591966 -0.02600226448701759 0 0.067871001915508947 -0.026027903879475955 0 0.067139086241548226 -0.026113998453835368 0 0.067140414574440907 -0.026240423417697206 0 0.067366499847078001 -0.026330408411712899 0 0.067139086241548226 -0.026113998453835368 0 0.06747934169334209 -0.026154315125973406 0 0.067366499847078001 -0.026330408411712899 0 0.06747934169334209 -0.026154315125973406 0 0.067494068064114163 -0.025882028295658499 0 0.067366499847078001 -0.026330408411712899 0 0.067139086241548226 -0.026113998453835368 0 0.06747934169334209 -0.026154315125973406 0 0.067871001915508947 -0.026027903879475955 0 0.069275002426946702 -0.028209826807687369 0 0.07002510147224085 -0.027057762690571321 0 0.069251089055829509 -0.02634573042049446 0 0.069034477604839425 -0.024204641153754491 0 0.068694764894860497 -0.02516157283544793 0 0.067940073389542818 -0.026268547023316314 0 0.067871001915508947 -0.026027903879475955 0 0.068021584527430692 -0.025839576173018262 0 0.069275002426946702 -0.028209826807687369 0 0.069251089055829509 -0.02634573042049446 0 0.068021584527430692 -0.025839576173018262 0 0.067930203700246952 -0.026255047968229819 0 0.067940073389542818 -0.026268547023316314 0 0.067871001915508947 -0.026027903879475955 0 0.071079079443664678 -0.019363594046883491 0 0.071216765920666475 -0.023165861057715197 0 0.067930203700246952 -0.026255047968229819 0 0.06792670388667027 -0.026274875189229517 0 0.067871001915508947 -0.026027903879475955 0 0.06792490356925393 -0.026259721515661839 0 0.06792670388667027 -0.026274875189229517 0 0.067820297287391237 -0.026184638608059963 0 0.071079079443664678 -0.019363594046883491 0 0.071540480418438968 -0.018135621464017579 0 0.067930203700246952 -0.026255047968229819 0 0.06792490356925393 -0.026259721515661839 0 0.06792670388667027 -0.026274875189229517 0 0.071054125401772666 -0.019378216340097482 0 0.071079079443664678 -0.019363594046883491 0 0.066107757043591966 -0.02600226448701759 0 0.06677380605368792 -0.026072431327862369 0 0.066783402783507279 -0.025665980465910652 0 0.067139086241548226 -0.026113998453835368 0 0.066107757043591966 -0.02600226448701759 0 0.06677380605368792 -0.026072431327862369 0 0.067139086241548226 -0.026113998453835368 0 0.06677380605368792 -0.026072431327862369 0 0.067140414574440907 -0.026240423417697206 0 0.06677380605368792 -0.026072431327862369 0 0.067140414574440907 -0.026240423417697206 0 0.066783402783507279 -0.025665980465910652 0 0.067140414574440907 -0.026240423417697206 0 0.066783402783507279 -0.025665980465910652 0 0.067619830136266171 -0.025921513910340442 0 0.066107757043591966 -0.02600226448701759 0 0.066783402783507279 -0.025665980465910652 0 0.066149748544245213 -0.02440853746593865 0 0.066783402783507279 -0.025665980465910652 0 0.067108798262509331 -0.024328928771685146 0 0.067619830136266171 -0.025921513910340442 0 0.066783402783507279 -0.025665980465910652 0 0.066149748544245213 -0.02440853746593865 0 0.067108798262509331 -0.024328928771685146 0 0.065116369785913356 -0.022357414570690771 0 0.066135167939435524 -0.023181683467301088 0 0.067552423264181136 -0.021774691427205749 0 0.067108798262509331 -0.024328928771685146 0 0.066135167939435524 -0.023181683467301088 0 0.067552423264181136 -0.021774691427205749 0 0.066149748544245213 -0.02440853746593865 0 0.067108798262509331 -0.024328928771685146 0 0.066135167939435524 -0.023181683467301088 0 0.070188270322738347 -0.017628861274735234 0 0.071540480418438968 -0.018135621464017579 0 0.07025044487746987 -0.016233435381249477 0 0.071369771996698472 -0.016217412218198703 0 0.071065180222424806 -0.014571393475712582 0 0.070555176700955777 -0.015634786231795959 0 0.070188270322738347 -0.017628861274735234 0 0.065116369785913356 -0.022357414570690771 0 0.066135167939435524 -0.023181683467301088 0 0.064810853912077956 -0.022999024991852742 0 0.070175911799032015 -0.01611521699213312 0 0.070188270322738347 -0.017628861274735234 0 0.066149748544245213 -0.02440853746593865 0 0.066135167939435524 -0.023181683467301088 0 0.064810853912077956 -0.022999024991852742 0 0.066107757043591966 -0.02600226448701759 0 0.066149748544245213 -0.02440853746593865 0 0.064810853912077956 -0.022999024991852742 0 0.06792670388667027 -0.026274875189229517 0 0.06791681498030322 -0.025953671914045816 0 0.067820297287391237 -0.026184638608059963 0 0.069034477604839425 -0.024204641153754491 0 0.070188270322738347 -0.017628861274735234 0 0.071406090452821439 -0.015674543073261295 0 0.070620409589899805 -0.015252351064044394 0 0.071181356559889414 -0.016128195003373653 0 0.071540480418438968 -0.018135621464017579 0 0.071619430806207848 -0.017857331838397147 0 0.071801098724462234 -0.014902674278893907 0 0.072364229358990589 -0.015052908146073463 0 0.072116525771767512 -0.015569838274923123 0 0.073379210087650734 -0.011986746296389697 0 0.071540480418438968 -0.018135621464017579 0 0.071801098724462234 -0.014902674278893907 0 0.072335828437751451 -0.014900518991889544 0 0.072364229358990589 -0.015052908146073463 0 0.070780745276847232 -0.014352353260938143 0 0.071406090452821439 -0.015674543073261295 0 0.070620409589899805 -0.015252351064044394 0 0.070709005692584731 -0.014353116745991188 0 0.070780745276847232 -0.014352353260938143 0 0.070620409589899805 -0.015252351064044394 0 0.071744442374393633 -0.010274383734075417 0 0.072654055821687491 -0.0102645919696855 0 0.072335164831828974 -0.010676261194385171 0 0.071744442374393633 -0.010274383734075417 0 0.072335164831828974 -0.010676261194385171 0 0.072112023969514785 -0.011148417261695451 0 0.072654055821687491 -0.0102645919696855 0 0.072335164831828974 -0.010676261194385171 0 0.072568905613054027 -0.011143154206819337 0 0.073431197256067574 -0.011702845853377934 0 0.071527137657293113 -0.012883014709503524 0 0.072335164831828974 -0.010676261194385171 0 0.072112023969514785 -0.011148417261695451 0 0.072568905613054027 -0.011143154206819337 0 0.071286726909340695 -0.010070545779473802 0 0.069634402702347886 -0.013646772216704703 0 0.06770667236157038 -0.0078463259168159126 0 0.068181463405761991 -0.0089439166679120292 0 0.067565737001144446 -0.0086102089289811518 0 0.070620409589899805 -0.015252351064044394 0 0.070538493049906975 -0.016144037707162048 0 0.071181356559889414 -0.016128195003373653 0 0.072112023969514785 -0.011148417261695451 0 0.072568905613054027 -0.011143154206819337 0 0.072481057359723391 -0.012028776650909912 0 0.071527137657293113 -0.012883014709503524 0 0.069634402702347886 -0.013646772216704703 0 0.067650333499804205 -0.0091157665764212588 0 0.068181463405761991 -0.0089439166679120292 0 0.067565737001144446 -0.0086102089289811518 0 0.067650333499804205 -0.0091157665764212588 0 0.068181463405761991 -0.0089439166679120292 0 0.068108895638099812 -0.0097089611665477932 0 0.067650333499804205 -0.0091157665764212588 0 0.067754334921389547 -0.0097754098263075403 0 0.068108895638099812 -0.0097089611665477932 0 0.069634402702347886 -0.013646772216704703 0 0.067884120946301293 -0.014958327300713028 0 0.067773497916621711 -0.014312108085169452 0 0.068472628852455239 -0.015943469096157788 0 0.068644117847774563 -0.014148417798587354 0 0.069064489893231842 -0.016493485126192985 0 0.069634402702347886 -0.013646772216704703 0 0.071079079443664678 -0.019363594046883491 0 0.069064489893231842 -0.016493485126192985 0 0.071780302225245618 -0.016495897519062819 0 0.070774450019077062 -0.016684706736710075 0 0.071181356559889414 -0.016128195003373653 0 0.071780302225245618 -0.016495897519062819 0 0.071392866041663505 -0.015697956415087286 0 0.071181356559889414 -0.016128195003373653 0 0.070774450019077062 -0.016684706736710075 0 0.070538493049906975 -0.016144037707162048 0 0.071181356559889414 -0.016128195003373653 0 0.071236318534549911 -0.027814051174261174 0 0.07002510147224085 -0.027057762690571321 0 0.070656792519696129 -0.026467097318949046 0 0.069064489893231842 -0.016493485126192985 0 0.069965238451642611 -0.019806578909252446 0 0.069275002426946702 -0.028209826807687369 0 0.071236318534549911 -0.027814051174261174 0 0.07002510147224085 -0.027057762690571321 0 0.07002510147224085 -0.027057762690571321 0 0.070656792519696129 -0.026467097318949046 0 0.069920053902804938 -0.026110296092998718 0 0.07002510147224085 -0.027057762690571321 0 0.069920053902804938 -0.026110296092998718 0 0.069251089055829509 -0.02634573042049446 0 0.05713806298007517 -0.011786990190413868 0 0.057043926832972998 -0.011674116217584565 0 0.056867362970393125 -0.011908054659275679 0 0.067117457915842837 -0.015589851731182705 0 0.06577856237107492 -0.01387154764722451 0 0.06577856237107492 -0.01387154764722451 0 0.067884120946301293 -0.014958327300713028 0 0.066878325388726123 -0.012358824195512007 0 0.070301694874528628 -0.016349858148015432 0 0.066427344545413436 -0.017077489049285268 0 0.069184452192026763 -0.016744754865092949 0 0.069714483684511802 -0.017976326033509203 0 0.068624262775655281 -0.017426825730958388 0 0.069064489893231842 -0.016493485126192985 0 0.067884120946301293 -0.014958327300713028 0 0.069184452192026763 -0.016744754865092949 0 0.068624262775655281 -0.017426825730958388 0 0.068680527434493599 -0.016839140855833705 0 0.067117457915842837 -0.015589851731182705 0 0.067884120946301293 -0.014958327300713028 0 0.057043926832972998 -0.011674116217584565 0 0.056867362970393125 -0.011908054659275679 0 0.056622242598960523 -0.011741807233546354 0 0.06577856237107492 -0.01387154764722451 0 0.060116761877297822 -0.011094358510832798 0 0.060116761877297822 -0.011094358510832798 0 0.051405077431769239 -0.0088947469223579472 0 0.066446356038038085 -0.0098896979386090909 0 0.06565722810119376 -0.008598214971311571 0 0.065194636774820236 -0.010117827782188359 0 0.066446356038038085 -0.0098896979386090909 0 0.066726105314092829 -0.0085367046560616243 0 0.06565722810119376 -0.008598214971311571 0 0.067650333499804205 -0.0091157665764212588 0 0.067754334921389547 -0.0097754098263075403 0 0.066726105314092829 -0.0085367046560616243 0 0.06577856237107492 -0.01387154764722451 0 0.065308704662506378 -0.011795179715089796 0 0.067663006427485323 -0.0096649290542714546 0 0.066446356038038085 -0.0098896979386090909 0 0.066726105314092829 -0.0085367046560616243 0 0.067650333499804205 -0.0091157665764212588 0 0.067565737001144446 -0.0086102089289811518 0 0.066726105314092829 -0.0085367046560616243 0 0.06770667236157038 -0.0078463259168159126 0 0.067565737001144446 -0.0086102089289811518 0 0.066726105314092829 -0.0085367046560616243 0 0.06770667236157038 -0.0078463259168159126 0 0.066726105314092829 -0.0085367046560616243 0 0.066385985133686667 -0.0079603769365965745 0 0.073941227901612491 -0.0079436836477748147 0 0.071286726909340695 -0.010070545779473802 0 0.067255871676683912 -0.0067847315962316522 0 0.06770667236157038 -0.0078463259168159126 0 0.066579881238311212 -0.0073144590799433858 0 0.06770667236157038 -0.0078463259168159126 0 0.066579881238311212 -0.0073144590799433858 0 0.066385985133686667 -0.0079603769365965745 0 0.065907738981553152 -0.0068068436376511592 0 0.067255871676683912 -0.0067847315962316522 0 0.066579881238311212 -0.0073144590799433858 0 0.065907738981553152 -0.0068068436376511592 0 0.065839818220182131 -0.0072171608248740252 0 0.066579881238311212 -0.0073144590799433858 0 0.066579881238311212 -0.0073144590799433858 0 0.065800186595143306 -0.007656799359999765 0 0.066385985133686667 -0.0079603769365965745 0 0.065839818220182131 -0.0072171608248740252 0 0.066579881238311212 -0.0073144590799433858 0 0.065800186595143306 -0.007656799359999765 0 0.066726105314092829 -0.0085367046560616243 0 0.066385985133686667 -0.0079603769365965745 0 0.06565722810119376 -0.008598214971311571 0 0.065800186595143306 -0.007656799359999765 0 0.066385985133686667 -0.0079603769365965745 0 0.06565722810119376 -0.008598214971311571 0 0.065800186595143306 -0.007656799359999765 0 0.06565722810119376 -0.008598214971311571 0 0.065356428560833388 -0.0077655889303904352 0 0.06565722810119376 -0.008598214971311571 0 0.064901085333512895 -0.0080189855717442485 0 0.064510072967850746 -0.0088963105229891877 0 0.06565722810119376 -0.008598214971311571 0 0.064901085333512895 -0.0080189855717442485 0 0.065356428560833388 -0.0077655889303904352 0 0.074049564225138212 -0.0041104865328140099 0 0.074928418380065295 -0.0042562917287751528 0 0.065800186595143306 -0.007656799359999765 0 0.065356428560833388 -0.0077655889303904352 0 0.065344206912378328 -0.0071556279921153459 0 0.069918740241406652 -0.0022927105912242461 0 0.072052740484415984 -0.0022576160355265336 0 0.072144017988996126 -0.0027104195481354658 0 0.064901085333512895 -0.0080189855717442485 0 0.065356428560833388 -0.0077655889303904352 0 0.065344206912378328 -0.0071556279921153459 0 0.065907738981553152 -0.0068068436376511592 0 0.065839818220182131 -0.0072171608248740252 0 0.065394761096600168 -0.0070231532812620985 0 0.074879504527759835 -0.0050784491253769107 0 0.074928418380065295 -0.0042562917287751528 0 0.075146153274922134 -0.0038579807616628769 0 0.076075091863525887 -0.0036303753748663146 0 0.076115703862937631 -0.0034566128784057192 0 0.072052740484415984 -0.0022576160355265336 0 0.072191789614301824 -0.0025071290684227599 0 0.072144017988996126 -0.0027104195481354658 0 0.065839818220182131 -0.0072171608248740252 0 0.065800186595143306 -0.007656799359999765 0 0.065394761096600168 -0.0070231532812620985 0 0.076315015627211408 -0.0036588940661422941 0 0.075762810037920209 -0.0038222390381319905 0 0.065800186595143306 -0.007656799359999765 0 0.065344206912378328 -0.0071556279921153459 0 0.065378831570894427 -0.0070167956939112489 0 0.076213005688559862 -0.0038634313469976338 0 0.075762810037920209 -0.0038222390381319905 0 0.075762810037920209 -0.0038222390381319905 0 0.074928418380065295 -0.0042562917287751528 0 0.07489713969365637 -0.0042979971007853102 0 0.074928418380065295 -0.0042562917287751528 0 0.069918740241406652 -0.0022927105912242461 0 0.072144017988996126 -0.0027104195481354658 0 0.068795594614391081 -0.0041010924339752626 0 0.064901085333512895 -0.0080189855717442485 0 0.065344206912378328 -0.0071556279921153459 0 0.063812398671485512 -0.0076618129318660371 0 0.065344206912378328 -0.0071556279921153459 0 0.065378214030459431 -0.0070182177536729428 0 0.063812398671485512 -0.0076618129318660371 0 0.074928418380065295 -0.0042562917287751528 0 0.062597135499473697 -0.0038094833410954668 0 0.055608445701000674 -0.0064024237576795363 0 0.062597135499473697 -0.0038094833410954668 0 0.064901085333512895 -0.0080189855717442485 0 0.064510072967850746 -0.0088963105229891877 0 0.063812398671485512 -0.0076618129318660371 0 0.055608445701000674 -0.0064024237576795363 0 0.051405077431769239 -0.0088947469223579472 0 0.038328563453970878 -0.0076703605964769999 0 0.03752155096424075 -0.0062041934651475865 0 0.038889342828819624 -0.0068938580682410362 0 0.06565722810119376 -0.008598214971311571 0 0.064510072967850746 -0.0088963105229891877 0 0.065194636774820236 -0.010117827782188359 0 0.051405077431769239 -0.0088947469223579472 0 0.042831501690457421 -0.0081094191910003922 0 0.03752155096424075 -0.0062041934651475865 0 0.038883748488293547 -0.0059270605085448621 0 0.038889342828819624 -0.0068938580682410362 0 0.038396692241150034 -0.00538629980692061 0 0.037617738303052442 -0.0044008115607873039 0 0.038858896006366363 -0.0039856402776475442 0 0.037163410624035283 -0.0055625208291106105 0 0.038396692241150034 -0.00538629980692061 0 0.037617738303052442 -0.0044008115607873039 0 0.037163410624035283 -0.0055625208291106105 0 0.037617738303052442 -0.0044008115607873039 0 0.036368222379253794 -0.0040260299727781163 0 0.051405077431769239 -0.0088947469223579472 0 0.048725773477645666 -0.007542183484455187 0 0.037617738303052442 -0.0044008115607873039 0 0.0379052675275987 -0.0030324873288281313 0 0.036368222379253794 -0.0040260299727781163 0 0.037617738303052442 -0.0044008115607873039 0 0.0379052675275987 -0.0030324873288281313 0 0.038858896006366363 -0.0039856402776475442 0 0.0379052675275987 -0.0030324873288281313 0 0.03778851371852144 -0.0019391544542261036 0 0.036928376552427727 -0.0024242333854630374 0 0.0379052675275987 -0.0030324873288281313 0 0.03778851371852144 -0.0019391544542261036 0 0.038323011298003695 -0.0019214845667502132 0 0.03778851371852144 -0.0019391544542261036 0 0.038147813437124048 -0.0014587843543192708 0 0.037889004628778228 -0.0013517351835584011 0 0.03778851371852144 -0.0019391544542261036 0 0.038323011298003695 -0.0019214845667502132 0 0.038147813437124048 -0.0014587843543192708 0 0.03778851371852144 -0.0019391544542261036 0 0.036928376552427727 -0.0024242333854630374 0 0.037495571868980823 -0.0013885948844742572 0 0.036928376552427727 -0.0024242333854630374 0 0.037495571868980823 -0.0013885948844742572 0 0.036386981349512841 -0.0015106460691543329 0 0.0379052675275987 -0.0030324873288281313 0 0.036928376552427727 -0.0024242333854630374 0 0.036368222379253794 -0.0040260299727781163 0 0.056730203929077634 -0.012720820107058328 0 0.056831601370649493 -0.012587805832710684 0 0.056467996736729462 -0.012273216634036105 0 0.036928376552427727 -0.0024242333854630374 0 0.035618593989334028 -0.0025811365295417507 0 0.036368222379253794 -0.0040260299727781163 0 0.048904570327655023 -0.0077652073499363079 0 0.048725773477645666 -0.007542183484455187 0 0.048904570327655023 -0.0077652073499363079 0 0.042455203896556257 -0.0072770389249970143 0 0.036928376552427727 -0.0024242333854630374 0 0.035618593989334028 -0.0025811365295417507 0 0.036386981349512841 -0.0015106460691543329 0 0.045666397484584981 -0.007930498288673371 0 0.044752914070285171 -0.0092316882974300494 0 0.045757213959593056 -0.0095563327952519726 0 0.048904570327655023 -0.0077652073499363079 0 0.056291695377536657 -0.01449423239366365 0 0.056740901972815463 -0.012718192446941867 0 0.057025670911433367 -0.012693912547958007 0 0.056990981473375085 -0.013136379922202656 0 0.045666397484584981 -0.007930498288673371 0 0.045757213959593056 -0.0095563327952519726 0 0.046584727088793743 -0.0095328261475607877 0 0.056740901972815463 -0.012718192446941867 0 0.056831601370649493 -0.012587805832710684 0 0.057025670911433367 -0.012693912547958007 0 0.048904570327655023 -0.0077652073499363079 0 0.04918896876485402 -0.0078876784289998621 0 0.056831601370649493 -0.012587805832710684 0 0.056811763424586346 -0.012255067513003494 0 0.057078842102668712 -0.012246661747654767 0 0.056831601370649493 -0.012587805832710684 0 0.056811763424586346 -0.012255067513003494 0 0.056467996736729462 -0.012273216634036105 0 0.056867362970393125 -0.011908054659275679 0 0.056622242598960523 -0.011741807233546354 0 0.056467996736729462 -0.012273216634036105 0 0.056622242598960523 -0.011741807233546354 0 0.05619664021013844 -0.011812426318431157 0 0.056467996736729462 -0.012273216634036105 0 0.056867362970393125 -0.011908054659275679 0 0.056811763424586346 -0.012255067513003494 0 0.056467996736729462 -0.012273216634036105 0 0.056867362970393125 -0.011908054659275679 0 0.056811763424586346 -0.012255067513003494 0 0.057078842102668712 -0.012246661747654767 0 0.067117457915842837 -0.015589851731182705 0 0.064178615678036927 -0.017197857825177923 0 0.05713806298007517 -0.011786990190413868 0 0.056867362970393125 -0.011908054659275679 0 0.057078842102668712 -0.012246661747654767 0 0.071854904156268301 -0.026130900275089543 0 0.071223669994415026 -0.024954274091583527 0 0.072108130724313463 -0.023851699095380801 0 0.071223669994415026 -0.024954274091583527 0 0.071008651978211393 -0.024160308919250539 0 0.072108130724313463 -0.023851699095380801 0 0.067117457915842837 -0.015589851731182705 0 0.070132028260822293 -0.02099229040752237 0 0.071854904156268301 -0.026130900275089543 0 0.071223669994415026 -0.024954274091583527 0 0.070059390573807293 -0.024202640999423718 0 0.069714483684511802 -0.017976326033509203 0 0.068624262775655281 -0.017426825730958388 0 0.070244397558867105 -0.019209761198854352 0 0.070656792519696129 -0.026467097318949046 0 0.069920053902804938 -0.026110296092998718 0 0.070077582667412749 -0.025119091110850724 0 0.069965238451642611 -0.019806578909252446 0 0.070132028260822293 -0.02099229040752237 0 0.069920053902804938 -0.026110296092998718 0 0.070077582667412749 -0.025119091110850724 0 0.069581558150268022 -0.025571848053913177 0 0.071223669994415026 -0.024954274091583527 0 0.070735904984914111 -0.024289463019102127 0 0.071008651978211393 -0.024160308919250539 0 0.071223669994415026 -0.024954274091583527 0 0.070059390573807293 -0.024202640999423718 0 0.070735904984914111 -0.024289463019102127 0 0.070735904984914111 -0.024289463019102127 0 0.071008651978211393 -0.024160308919250539 0 0.070581477204624196 -0.02387366559587599 0 0.070059390573807293 -0.024202640999423718 0 0.070735904984914111 -0.024289463019102127 0 0.070581477204624196 -0.02387366559587599 0 0.070581477204624196 -0.02387366559587599 0 0.070947934677663221 -0.023542730015087457 0 0.070100478195603305 -0.02301828420100592 0 0.071008651978211393 -0.024160308919250539 0 0.070581477204624196 -0.02387366559587599 0 0.070947934677663221 -0.023542730015087457 0 0.070059390573807293 -0.024202640999423718 0 0.070581477204624196 -0.02387366559587599 0 0.070100478195603305 -0.02301828420100592 0 0.070947934677663221 -0.023542730015087457 0 0.070100478195603305 -0.02301828420100592 0 0.071008922045838807 -0.022437921489010068 0 0.070947934677663221 -0.023542730015087457 0 0.072108130724313463 -0.023851699095380801 0 0.071008922045838807 -0.022437921489010068 0 0.072108130724313463 -0.023851699095380801 0 0.07244372952734196 -0.021440961908194934 0 0.071008922045838807 -0.022437921489010068 0 0.064178615678036927 -0.017197857825177923 0 0.061189850876214986 -0.016392983198048914 0 0.071008651978211393 -0.024160308919250539 0 0.070947934677663221 -0.023542730015087457 0 0.072108130724313463 -0.023851699095380801 0 0.056831601370649493 -0.012587805832710684 0 0.057078842102668712 -0.012246661747654767 0 0.057025670911433367 -0.012693912547958007 0 0.07244372952734196 -0.021440961908194934 0 0.070871307476728318 -0.02054185831752987 0 0.071008922045838807 -0.022437921489010068 0 0.061189850876214986 -0.016392983198048914 0 0.056291695377536657 -0.01449423239366365 0 0.07244372952734196 -0.021440961908194934 0 0.070871307476728318 -0.02054185831752987 0 0.072793330803193543 -0.018853667538042462 0 0.070871307476728318 -0.02054185831752987 0 0.069850481221338273 -0.021598431091135625 0 0.069018674235211769 -0.019838334604252991 0 0.070871307476728318 -0.02054185831752987 0 0.069018674235211769 -0.019838334604252991 0 0.071061114936655609 -0.018754077344578207 0 0.070871307476728318 -0.02054185831752987 0 0.069850481221338273 -0.021598431091135625 0 0.071008922045838807 -0.022437921489010068 0 0.070100478195603305 -0.02301828420100592 0 0.069850481221338273 -0.021598431091135625 0 0.071008922045838807 -0.022437921489010068 0 0.069850481221338273 -0.021598431091135625 0 0.068253881498123392 -0.022120673638952697 0 0.069018674235211769 -0.019838334604252991 0 0.070100478195603305 -0.02301828420100592 0 0.069850481221338273 -0.021598431091135625 0 0.068253881498123392 -0.022120673638952697 0 0.06908818212386085 -0.021579823436801104 0 0.068014381443105301 -0.020811600084291358 0 0.068253881498123392 -0.022120673638952697 0 0.069018674235211769 -0.019838334604252991 0 0.066370834493101147 -0.020211781047729572 0 0.068654264368279594 -0.023030212375430192 0 0.066012707590871619 -0.022629521793947512 0 0.066370834493101147 -0.020211781047729572 0 0.068654264368279594 -0.023030212375430192 0 0.067259674030384131 -0.024458092585511522 0 0.066012707590871619 -0.022629521793947512 0 0.068654264368279594 -0.023030212375430192 0 0.067259674030384131 -0.024458092585511522 0 0.068126934104352138 -0.024803545309496071 0 0.070059390573807293 -0.024202640999423718 0 0.070100478195603305 -0.02301828420100592 0 0.068253881498123392 -0.022120673638952697 0 0.070132028260822293 -0.02099229040752237 0 0.06908818212386085 -0.021579823436801104 0 0.068654264368279594 -0.023030212375430192 0 0.068126934104352138 -0.024803545309496071 0 0.069031284765104242 -0.02521290710619889 0 0.070077582667412749 -0.025119091110850724 0 0.068654264368279594 -0.023030212375430192 0 0.069031284765104242 -0.02521290710619889 0 0.068126934104352138 -0.024803545309496071 0 0.069031284765104242 -0.02521290710619889 0 0.068476829714371759 -0.025404504891970697 0 0.068476829714371759 -0.025404504891970697 0 0.069117218784693138 -0.025623764788099787 0 0.068727034493531666 -0.025795751699745992 0 0.069031284765104242 -0.02521290710619889 0 0.068476829714371759 -0.025404504891970697 0 0.069117218784693138 -0.025623764788099787 0 0.068476829714371759 -0.025404504891970697 0 0.068727034493531666 -0.025795751699745992 0 0.068021584527430692 -0.025839576173018262 0 0.070077582667412749 -0.025119091110850724 0 0.069031284765104242 -0.02521290710619889 0 0.069581558150268022 -0.025571848053913177 0 0.069031284765104242 -0.02521290710619889 0 0.069117218784693138 -0.025623764788099787 0 0.069581558150268022 -0.025571848053913177 0 0.069920053902804938 -0.026110296092998718 0 0.069581558150268022 -0.025571848053913177 0 0.069251089055829509 -0.02634573042049446 0 0.069117218784693138 -0.025623764788099787 0 0.069581558150268022 -0.025571848053913177 0 0.069251089055829509 -0.02634573042049446 0 0.069117218784693138 -0.025623764788099787 0 0.069251089055829509 -0.02634573042049446 0 0.068727034493531666 -0.025795751699745992 0 0.069251089055829509 -0.02634573042049446 0 0.068727034493531666 -0.025795751699745992 0 0.068021584527430692 -0.025839576173018262 0 0.06747934169334209 -0.026154315125973406 0 0.067871001915508947 -0.026027903879475955 0 0.067494068064114163 -0.025882028295658499 0 0.067259674030384131 -0.024458092585511522 0 0.068126934104352138 -0.024803545309496071 0 0.067494068064114163 -0.025882028295658499 0 0.067871001915508947 -0.026027903879475955 0 0.068021584527430692 -0.025839576173018262 0 0.067494068064114163 -0.025882028295658499 0 0.068126934104352138 -0.024803545309496071 0 0.068476829714371759 -0.025404504891970697 0 0.068021584527430692 -0.025839576173018262 0 0.068126934104352138 -0.024803545309496071 0 0.068021584527430692 -0.025839576173018262 0 0.067494068064114163 -0.025882028295658499 0 0.065850154630032465 0.00045601772982419361 0 0.066581366196912614 0.00011627234709784598 0 0.066700986252714423 0.0012155437223524321 0 0.065850154630032465 0.00045601772982419361 0 0.066581366196912614 0.00011627234709784598 0 0.065266822949039391 -0.00074809882868716608 0 0.056589395870998781 -0.0032821011276059631 0 0.056952753657693089 -0.0039060717959736768 0 0.066581366196912614 0.00011627234709784598 0 0.066700986252714423 0.0012155437223524321 0 0.067701556522931722 0.0006321501974575792 0 0.045448020403265336 -0.0074898722741439635 0 0.045162516583544712 -0.005961948351149448 0 0.043157764972469925 -0.0061865021537337306 0 0.045448020403265336 -0.0074898722741439635 0 0.045162516583544712 -0.005961948351149448 0 0.046820053004444327 -0.0050221369818473673 0 0.045162516583544712 -0.005961948351149448 0 0.046820053004444327 -0.0050221369818473673 0 0.04571410471121564 -0.0037231499326305069 0 0.056589395870998781 -0.0032821011276059631 0 0.057673598752449651 -0.0019512209565204553 0 0.045448020403265336 -0.0074898722741439635 0 0.046820053004444327 -0.0050221369818473673 0 0.05048737866461931 -0.0057217922728201665 0 0.065266822949039391 -0.00074809882868716608 0 0.063538986129527658 0.00011370201072924458 0 0.065032933580027291 7.6213112320495187e-05 0 0.057673598752449651 -0.0019512209565204553 0 0.058964732066739807 -3.1115285813029401e-06 0 0.063538986129527658 0.00011370201072924458 0 0.063435812425795948 1.3699754015863842e-06 0 0.058972830193873067 -3.6304767784446881e-06 0 0.065266822949039391 -0.00074809882868716608 0 0.063538986129527658 0.00011370201072924458 0 0.058972830193873067 -3.6304767784446881e-06 0 0.063538986129527658 0.00011370201072924458 0 0.065594222357557339 0.00051628766286011449 0 0.063435812425795948 1.3699754015863842e-06 0 0.065850154630032465 0.00045601772982419361 0 0.065032933580027291 7.6213112320495187e-05 0 0.065526345784167397 0.0011837502234155839 0 0.065594222357557339 0.00051628766286011449 0 0.065032933580027291 7.6213112320495187e-05 0 0.066668934238271485 0.00071676368701737369 0 0.063538986129527658 0.00011370201072924458 0 0.065594222357557339 0.00051628766286011449 0 0.065032933580027291 7.6213112320495187e-05 0 0.065850154630032465 0.00045601772982419361 0 0.065266822949039391 -0.00074809882868716608 0 0.065032933580027291 7.6213112320495187e-05 0 0.069103602439587963 -0.00024956935127394954 0 0.069965025493819707 -0.00042118907356182399 0 0.065594222357557339 0.00051628766286011449 0 0.066668934238271485 0.00071676368701737369 0 0.067454759365379896 0.00050697090008129469 0 0.065594222357557339 0.00051628766286011449 0 0.067909614419209272 2.8481598628371354e-06 0 0.067454759365379896 0.00050697090008129469 0 0.065594222357557339 0.00051628766286011449 0 0.063435812425795948 1.3699754015863842e-06 0 0.067909614419209272 2.8481598628371354e-06 0 0.072371941246392429 -4.8654211980973242e-06 0 0.067909614419209272 2.8481598628371354e-06 0 0.069298468142629382 0.00034400789969644242 0 0.067909614419209272 2.8481598628371354e-06 0 0.067454759365379896 0.00050697090008129469 0 0.069298468142629382 0.00034400789969644242 0 0.066668934238271485 0.00071676368701737369 0 0.067454759365379896 0.00050697090008129469 0 0.06742238765127205 -2.0863199287935543e-05 0 0.066668934238271485 0.00071676368701737369 0 0.06742238765127205 -2.0863199287935543e-05 0 0.066908321845581611 -4.4463672760933982e-05 0 0.067454759365379896 0.00050697090008129469 0 0.069298468142629382 0.00034400789969644242 0 0.06742238765127205 -2.0863199287935543e-05 0 0.071433206916785258 -0.0018956213502469101 0 0.072475434490964968 -0.0019890765013742323 0 0.065526345784167397 0.0011837502234155839 0 0.06585571115614583 0.0022313718636280634 0 0.066700986252714423 0.0012155437223524321 0 0.069965025493819707 -0.00042118907356182399 0 0.072475434490964968 -0.0019890765013742323 0 0.065850154630032465 0.00045601772982419361 0 0.065526345784167397 0.0011837502234155839 0 0.066700986252714423 0.0012155437223524321 0 0.06585571115614583 0.0022313718636280634 0 0.066700986252714423 0.0012155437223524321 0 0.067294222070814758 0.0022255915887735285 0 0.072475434490964968 -0.0019890765013742323 0 0.075872936664038826 -0.00088875151129125913 0 0.066700986252714423 0.0012155437223524321 0 0.067294222070814758 0.0022255915887735285 0 0.067996957932125221 0.0015642718842250756 0 0.06868972499304557 0.0022269570749042168 0 0.067294222070814758 0.0022255915887735285 0 0.067996957932125221 0.0015642718842250756 0 0.06868972499304557 0.0022269570749042168 0 0.067996957932125221 0.0015642718842250756 0 0.068836412335288352 0.0011118599295963339 0 0.071396531985674916 -0.0013510425902413213 0 0.075872936664038826 -0.00088875151129125913 0 0.067996957932125221 0.0015642718842250756 0 0.068836412335288352 0.0011118599295963339 0 0.067701556522931722 0.0006321501974575792 0 0.040714023246804946 -0.0083519156836381024 0 0.040750483235155247 -0.008572206000229652 0 0.042662116735521984 -0.0080822720479127013 0 0.062218074529674143 -0.0030472599222882923 0 0.056952753657693089 -0.0039060717959736768 0 0.066700986252714423 0.0012155437223524321 0 0.067996957932125221 0.0015642718842250756 0 0.067701556522931722 0.0006321501974575792 0 0.067353443274328725 -0.0024268399619963923 0 0.067532581227779498 -0.0027533831741088761 0 0.066995318134221701 -0.0029756564180272046 0 0.067789855986830946 -0.002330159503651875 0 0.069918740241406652 -0.0022927105912242461 0 0.068795594614391081 -0.0041010924339752626 0 0.071084382958711556 -0.0033749170034389113 0 0.062597135499473697 -0.0038094833410954668 0 0.066927534612207143 -0.0024323065704414701 0 0.067353443274328725 -0.0024268399619963923 0 0.066995318134221701 -0.0029756564180272046 0 0.071396531985674916 -0.0013510425902413213 0 0.062218074529674143 -0.0030472599222882923 0 0.040754475420981678 -0.0085389014738403816 0 0.039630923258819235 -0.0081752781526514308 0 0.040194620198964949 -0.0079674752118790437 0 0.040714023246804946 -0.0083519156836381024 0 0.040754475420981678 -0.0085389014738403816 0 0.040194620198964949 -0.0079674752118790437 0 0.062142421562769126 -0.0030916937353020106 0 0.062218074529674143 -0.0030472599222882923 0 0.038328563453970878 -0.0076703605964769999 0 0.039181687269120816 -0.0091397642627817112 0 0.039630923258819235 -0.0081752781526514308 0 0.062597135499473697 -0.0038094833410954668 0 0.062218074529674143 -0.0030472599222882923 0 0.039181687269120816 -0.0091397642627817112 0 0.040754475420981678 -0.0085389014738403816 0 0.039630923258819235 -0.0081752781526514308 0 0.038328563453970878 -0.0076703605964769999 0 0.038889342828819624 -0.0068938580682410362 0 0.039630923258819235 -0.0081752781526514308 0 0.038889342828819624 -0.0068938580682410362 0 0.039630923258819235 -0.0081752781526514308 0 0.039823143691593836 -0.006977031270105627 0 0.039630923258819235 -0.0081752781526514308 0 0.039823143691593836 -0.006977031270105627 0 0.040194620198964949 -0.0079674752118790437 0 0.040714023246804946 -0.0083519156836381024 0 0.040518467102075226 -0.0073822776719025462 0 0.041432512834233153 -0.0070048595146113279 0 0.039823143691593836 -0.006977031270105627 0 0.040194620198964949 -0.0079674752118790437 0 0.040518467102075226 -0.0073822776719025462 0 0.039823143691593836 -0.006977031270105627 0 0.040518467102075226 -0.0073822776719025462 0 0.040528204362213174 -0.006557513022335427 0 0.040714023246804946 -0.0083519156836381024 0 0.040194620198964949 -0.0079674752118790437 0 0.040518467102075226 -0.0073822776719025462 0 0.040518467102075226 -0.0073822776719025462 0 0.040528204362213174 -0.006557513022335427 0 0.041432512834233153 -0.0070048595146113279 0 0.039823143691593836 -0.006977031270105627 0 0.040528204362213174 -0.006557513022335427 0 0.040248767326249504 -0.005582892505646822 0 0.040528204362213174 -0.006557513022335427 0 0.041609441149659802 -0.0050824286471193112 0 0.040248767326249504 -0.005582892505646822 0 0.038883748488293547 -0.0059270605085448621 0 0.039823143691593836 -0.006977031270105627 0 0.040248767326249504 -0.005582892505646822 0 0.038883748488293547 -0.0059270605085448621 0 0.038889342828819624 -0.0068938580682410362 0 0.039823143691593836 -0.006977031270105627 0 0.042662116735521984 -0.0080822720479127013 0 0.041432512834233153 -0.0070048595146113279 0 0.043157764972469925 -0.0061865021537337306 0 0.045448020403265336 -0.0074898722741439635 0 0.042662116735521984 -0.0080822720479127013 0 0.043157764972469925 -0.0061865021537337306 0 0.040714023246804946 -0.0083519156836381024 0 0.042662116735521984 -0.0080822720479127013 0 0.041432512834233153 -0.0070048595146113279 0 0.041432512834233153 -0.0070048595146113279 0 0.043157764972469925 -0.0061865021537337306 0 0.041609441149659802 -0.0050824286471193112 0 0.040528204362213174 -0.006557513022335427 0 0.041432512834233153 -0.0070048595146113279 0 0.041609441149659802 -0.0050824286471193112 0 0.043157764972469925 -0.0061865021537337306 0 0.041609441149659802 -0.0050824286471193112 0 0.043371233161080346 -0.0041447216003350556 0 0.041609441149659802 -0.0050824286471193112 0 0.041241628485208688 -0.0036014799807563493 0 0.040185763304721921 -0.0042073647670211184 0 0.041609441149659802 -0.0050824286471193112 0 0.041241628485208688 -0.0036014799807563493 0 0.043371233161080346 -0.0041447216003350556 0 0.041241628485208688 -0.0036014799807563493 0 0.043371233161080346 -0.0041447216003350556 0 0.04200403150001613 -0.002540698757559834 0 0.043517577968775291 -0.0035337720066563947 0 0.042495033194045809 -0.0018776462384294341 0 0.043981901829455501 -0.002264606651666503 0 0.042806414093398394 -0.00089787982067480196 0 0.044850159900167261 -0.00089545236279784356 0 0.042831501690457421 -0.0081094191910003922 0 0.041284066742382212 -0.0072568035748399873 0 0.038396692241150034 -0.00538629980692061 0 0.039764310839319215 -0.0052789012530648841 0 0.038858896006366363 -0.0039856402776475442 0 0.041361021594484779 -0.0069027253254972179 0 0.041284066742382212 -0.0072568035748399873 0 0.041609441149659802 -0.0050824286471193112 0 0.039764310839319215 -0.0052789012530648841 0 0.040185763304721921 -0.0042073647670211184 0 0.039764310839319215 -0.0052789012530648841 0 0.040185763304721921 -0.0042073647670211184 0 0.038858896006366363 -0.0039856402776475442 0 0.041241628485208688 -0.0036014799807563493 0 0.040185763304721921 -0.0042073647670211184 0 0.039733020758262627 -0.0032303679379661219 0 0.040185763304721921 -0.0042073647670211184 0 0.038858896006366363 -0.0039856402776475442 0 0.039733020758262627 -0.0032303679379661219 0 0.0379052675275987 -0.0030324873288281313 0 0.038858896006366363 -0.0039856402776475442 0 0.038785005839982234 -0.0025394675933205699 0 0.038858896006366363 -0.0039856402776475442 0 0.038785005839982234 -0.0025394675933205699 0 0.039733020758262627 -0.0032303679379661219 0 0.0379052675275987 -0.0030324873288281313 0 0.038785005839982234 -0.0025394675933205699 0 0.038323011298003695 -0.0019214845667502132 0 0.041241628485208688 -0.0036014799807563493 0 0.039733020758262627 -0.0032303679379661219 0 0.03994563174053728 -0.0021140948412149336 0 0.038785005839982234 -0.0025394675933205699 0 0.039733020758262627 -0.0032303679379661219 0 0.03994563174053728 -0.0021140948412149336 0 0.03994563174053728 -0.0021140948412149336 0 0.03862788090159331 -0.0014739029025378119 0 0.039190762224335748 -0.0010546628417544338 0 0.03994563174053728 -0.0021140948412149336 0 0.040832291825304914 -0.00087616451832929899 0 0.039190762224335748 -0.0010546628417544338 0 0.038785005839982234 -0.0025394675933205699 0 0.03994563174053728 -0.0021140948412149336 0 0.03862788090159331 -0.0014739029025378119 0 0.038785005839982234 -0.0025394675933205699 0 0.03862788090159331 -0.0014739029025378119 0 0.038323011298003695 -0.0019214845667502132 0 0.03862788090159331 -0.0014739029025378119 0 0.038323011298003695 -0.0019214845667502132 0 0.038147813437124048 -0.0014587843543192708 0 0.041241628485208688 -0.0036014799807563493 0 0.03994563174053728 -0.0021140948412149336 0 0.04200403150001613 -0.002540698757559834 0 0.042495033194045809 -0.0018776462384294341 0 0.041939132239680155 -0.0010860856789549254 0 0.03994563174053728 -0.0021140948412149336 0 0.04200403150001613 -0.002540698757559834 0 0.040832291825304914 -0.00087616451832929899 0 0.042806414093398394 -0.00089787982067480196 0 0.044092615424475401 -2.9095022460589143e-05 0 0.040832291825304914 -0.00087616451832929899 0 0.044092615424475401 -2.9095022460589143e-05 0 0.047324166527160684 -0.0001268534578994773 0 0.046286161901248714 0.00046885777054091269 0 0.044092615424475401 -2.9095022460589143e-05 0 0.047324166527160684 -0.0001268534578994773 0 0.044850159900167261 -0.00089545236279784356 0 0.042806414093398394 -0.00089787982067480196 0 0.044092615424475401 -2.9095022460589143e-05 0 0.044850159900167261 -0.00089545236279784356 0 0.043981901829455501 -0.002264606651666503 0 0.044850159900167261 -0.00089545236279784356 0 0.047405054133636465 -0.0023002237630466243 0 0.047324166527160684 -0.0001268534578994773 0 0.044850159900167261 -0.00089545236279784356 0 0.047405054133636465 -0.0023002237630466243 0 0.046820053004444327 -0.0050221369818473673 0 0.047405054133636465 -0.0023002237630466243 0 0.04571410471121564 -0.0037231499326305069 0 0.046820053004444327 -0.0050221369818473673 0 0.05048737866461931 -0.0057217922728201665 0 0.047405054133636465 -0.0023002237630466243 0 0.044194034427477602 -0.0047770975305883858 0 0.043517577968775291 -0.0035337720066563947 0 0.045162516583544712 -0.005961948351149448 0 0.043157764972469925 -0.0061865021537337306 0 0.043371233161080346 -0.0041447216003350556 0 0.045162516583544712 -0.005961948351149448 0 0.043981901829455501 -0.002264606651666503 0 0.04571410471121564 -0.0037231499326305069 0 0.043981901829455501 -0.002264606651666503 0 0.047405054133636465 -0.0023002237630466243 0 0.04571410471121564 -0.0037231499326305069 0 0.05048737866461931 -0.0057217922728201665 0 0.058953632556630414 -1.2982071969797759e-05 0 0.05168635064134558 -0.00045932869986910495 0 0.05048737866461931 -0.0057217922728201665 0 0.047405054133636465 -0.0023002237630466243 0 0.05168635064134558 -0.00045932869986910495 0 0.047324166527160684 -0.0001268534578994773 0 0.047405054133636465 -0.0023002237630466243 0 0.05168635064134558 -0.00045932869986910495 0 0.05168635064134558 -0.00045932869986910495 0 0.053671573867841313 3.56437355900394e-06 0 0.049377670682594924 0.00026743356848510911 0 0.058953632556630414 -1.2982071969797759e-05 0 0.05168635064134558 -0.00045932869986910495 0 0.053671573867841313 3.56437355900394e-06 0 0.053671573867841313 3.56437355900394e-06 0 0.049377670682594924 0.00026743356848510911 0 0.048376339507806974 5.2815536749156918e-07 0 0.047324166527160684 -0.0001268534578994773 0 0.05168635064134558 -0.00045932869986910495 0 0.049377670682594924 0.00026743356848510911 0 0.047324166527160684 -0.0001268534578994773 0 0.049377670682594924 0.00026743356848510911 0 0.046286161901248714 0.00046885777054091269 0 0.049377670682594924 0.00026743356848510911 0 0.046286161901248714 0.00046885777054091269 0 0.048376339507806974 5.2815536749156918e-07 0 0.048376339507806974 5.2815536749156918e-07 0 0.044050616399764916 0.0006896304601759607 0 0.043084981114596729 1.2252634925419991e-06 0 0.046286161901248714 0.00046885777054091269 0 0.048376339507806974 5.2815536749156918e-07 0 0.044050616399764916 0.0006896304601759607 0 0.046286161901248714 0.00046885777054091269 0 0.044050616399764916 0.0006896304601759607 0 0.043957639621283899 0.00081616697006738959 0 0.044050616399764916 0.0006896304601759607 0 0.043957639621283899 0.00081616697006738959 0 0.041673432382936422 0.0010135406235369244 0 0.044050616399764916 0.0006896304601759607 0 0.043084981114596729 1.2252634925419991e-06 0 0.041673432382936422 0.0010135406235369244 0 0.044092615424475401 -2.9095022460589143e-05 0 0.043957639621283899 0.00081616697006738959 0 0.042507055178592767 0.00032193642379301244 0 0.044092615424475401 -2.9095022460589143e-05 0 0.046286161901248714 0.00046885777054091269 0 0.043957639621283899 0.00081616697006738959 0 0.043957639621283899 0.00081616697006738959 0 0.042920317132032544 0.0010736350543851553 0 0.041673432382936422 0.0010135406235369244 0 0.043957639621283899 0.00081616697006738959 0 0.042920317132032544 0.0010736350543851553 0 0.042507055178592767 0.00032193642379301244 0 0.042920317132032544 0.0010736350543851553 0 0.042671072266205236 0.00074485289146842811 0 0.041723444412931916 0.0015281532189628641 0 0.042920317132032544 0.0010736350543851553 0 0.042671072266205236 0.00074485289146842811 0 0.041673432382936422 0.0010135406235369244 0 0.042671072266205236 0.00074485289146842811 0 0.041673432382936422 0.0010135406235369244 0 0.040733491013878673 -0.00057052230222215611 0 0.043084981114596729 1.2252634925419991e-06 0 0.041673432382936422 0.0010135406235369244 0 0.037791861750578408 3.3076518597782675e-06 0 0.041673432382936422 0.0010135406235369244 0 0.037608424759837548 -6.7670319100480151e-05 0 0.040733491013878673 -0.00057052230222215611 0 0.041673432382936422 0.0010135406235369244 0 0.037791861750578408 3.3076518597782675e-06 0 0.037608424759837548 -6.7670319100480151e-05 0 0.037791861750578408 3.3076518597782675e-06 0 0.037608424759837548 -6.7670319100480151e-05 0 0.032506012268576544 -7.3258810915798802e-06 0 0.037608424759837548 -6.7670319100480151e-05 0 0.032506012268576544 -7.3258810915798802e-06 0 0.035757615104629881 -0.002472171691652742 0 0.03249659422080476 -8.233112284627902e-07 0 0.032246369079082376 -0.000120468525656292 0 0.032492419754530384 -5.6907308279928419e-10 0 0.031340878006643078 9.9638186194284175e-07 0 0.030224770327853444 3.3292113490271491e-09 0 0.027074767796116238 -0.0020507110247662296 0 0.030211735992538055 -3.920109882370881e-06 0 0.026816349215843343 -0.00036396980913535113 0 0.032246369079082376 -0.000120468525656292 0 0.030225914970715403 -2.7666333325874213e-06 0 0.039702926694149217 -0.0019449057958601536 0 0.038780310126649765 -0.0019619804310338058 0 0.03863135327128292 -0.0026298424608889523 0 0.039702926694149217 -0.0019449057958601536 0 0.038780310126649765 -0.0019619804310338058 0 0.038790468625880953 -0.0012483157968133964 0 0.027074767796116238 -0.0020507110247662296 0 0.026816349215843343 -0.00036396980913535113 0 0.02410773649129409 -9.2697521624895483e-05 0 0.032246369079082376 -0.000120468525656292 0 0.031559585213566291 -0.00065600784705708312 0 0.032246369079082376 -0.000120468525656292 0 0.037324538801208333 0.00010029118705543178 0 0.037608424759837548 -6.7670319100480151e-05 0 0.035757615104629881 -0.002472171691652742 0 0.040733491013878673 -0.00057052230222215611 0 0.038752210220105651 -0.00020094743776132238 0 0.037324538801208333 0.00010029118705543178 0 0.037251608417011264 -0.0031991884642035965 0 0.03863135327128292 -0.0026298424608889523 0 0.037993664352637006 -0.0020153256236575151 0 0.037251608417011264 -0.0031991884642035965 0 0.037993664352637006 -0.0020153256236575151 0 0.036962457802536673 -0.0025848282243589381 0 0.037993664352637006 -0.0020153256236575151 0 0.037212413689615684 -0.0016817268170176165 0 0.036962457802536673 -0.0025848282243589381 0 0.038780310126649765 -0.0019619804310338058 0 0.037993664352637006 -0.0020153256236575151 0 0.038790468625880953 -0.0012483157968133964 0 0.038780310126649765 -0.0019619804310338058 0 0.03863135327128292 -0.0026298424608889523 0 0.037993664352637006 -0.0020153256236575151 0 0.030320387108917234 -0.00079228073839010299 0 0.031559585213566291 -0.00065600784705708312 0 0.024479888826764634 3.0246195866970963e-05 0 0.023961882257699761 0.00015227046462229127 0 0.02410773649129409 -9.2697521624895483e-05 0 0.037993664352637006 -0.0020153256236575151 0 0.038076601966106648 -0.00044677719859579241 0 0.038790468625880953 -0.0012483157968133964 0 0.038076601966106648 -0.00044677719859579241 0 0.037210278007586785 -0.00037991156561759798 0 0.037212413689615684 -0.0016817268170176165 0 0.037993664352637006 -0.0020153256236575151 0 0.038076601966106648 -0.00044677719859579241 0 0.037212413689615684 -0.0016817268170176165 0 0.038076601966106648 -0.00044677719859579241 0 0.037210278007586785 -0.00037991156561759798 0 0.037244148961821905 0.00097207874234491918 0 0.030320387108917234 -0.00079228073839010299 0 0.027882561419615974 -0.00077334249671427344 0 0.024479888826764634 3.0246195866970963e-05 0 0.023961882257699761 0.00015227046462229127 0 0.024343709657447882 -0.00044597809179070333 0 0.023961882257699761 0.00015227046462229127 0 0.022565481944801329 -0.00035768341087972773 0 0.025502426892504218 0.0001686304134260364 0 0.023961882257699761 0.00015227046462229127 0 0.022565481944801329 -0.00035768341087972773 0 0.024343709657447882 -0.00044597809179070333 0 0.024611831678162003 6.3233274267759697e-07 0 0.022565481944801329 -0.00035768341087972773 0 0.025502426892504218 0.0001686304134260364 0 0.030211735992538055 -3.920109882370881e-06 0 0.024611831678162003 6.3233274267759697e-07 0 0.025502426892504218 0.0001686304134260364 0 0.030211735992538055 -3.920109882370881e-06 0 0.025502426892504218 0.0001686304134260364 0 0.026816349215843343 -0.00036396980913535113 0 0.025502426892504218 0.0001686304134260364 0 0.026816349215843343 -0.00036396980913535113 0 0.02410773649129409 -9.2697521624895483e-05 0 0.023961882257699761 0.00015227046462229127 0 0.025502426892504218 0.0001686304134260364 0 0.02410773649129409 -9.2697521624895483e-05 0 0.035469730451340692 -0.0018451805392392692 0 0.034080840084752796 -0.0019934962297145191 0 0.034775799584700173 -0.0004734926063100974 0 0.034080840084752796 -0.0019934962297145191 0 0.033378468190251344 -4.4147554520312876e-05 0 0.034775799584700173 -0.0004734926063100974 0 0.035469730451340692 -0.0018451805392392692 0 0.034775799584700173 -0.0004734926063100974 0 0.035766126967209683 -0.00045922697281719352 0 0.034080840084752796 -0.0019934962297145191 0 0.033378468190251344 -4.4147554520312876e-05 0 0.030925148858811657 -0.00050488594022476182 0 0.034080840084752796 -0.0019934962297145191 0 0.032893257764242408 -0.0033895054986361689 0 0.030925148858811657 -0.00050488594022476182 0 0.033378468190251344 -4.4147554520312876e-05 0 0.032353768666468323 0.001591609220123453 0 0.030925148858811657 -0.00050488594022476182 0 0.033378468190251344 -4.4147554520312876e-05 0 0.032353768666468323 0.001591609220123453 0 0.034240528671924231 0.0011436883952417485 0 0.033378468190251344 -4.4147554520312876e-05 0 0.034240528671924231 0.0011436883952417485 0 0.034775799584700173 -0.0004734926063100974 0 0.034775799584700173 -0.0004734926063100974 0 0.035179474791931287 0.0007223702639885172 0 0.035766126967209683 -0.00045922697281719352 0 0.034240528671924231 0.0011436883952417485 0 0.034775799584700173 -0.0004734926063100974 0 0.035179474791931287 0.0007223702639885172 0 0.034240528671924231 0.0011436883952417485 0 0.035179474791931287 0.0007223702639885172 0 0.035072449488565381 0.0016451803345001565 0 0.035179474791931287 0.0007223702639885172 0 0.036007995940488619 0.00058878853018881822 0 0.035629653995596818 0.0014452162435414345 0 0.036007995940488619 0.00058878853018881822 0 0.036261720369225821 0.0012259113051750706 0 0.035629653995596818 0.0014452162435414345 0 0.036007995940488619 0.00058878853018881822 0 0.036468198899604218 -0.00022252638299376514 0 0.036645487658537368 0.00051461815808118334 0 0.036007995940488619 0.00058878853018881822 0 0.036645487658537368 0.00051461815808118334 0 0.036261720369225821 0.0012259113051750706 0 0.036007995940488619 0.00058878853018881822 0 0.036468198899604218 -0.00022252638299376514 0 0.035766126967209683 -0.00045922697281719352 0 0.035179474791931287 0.0007223702639885172 0 0.036007995940488619 0.00058878853018881822 0 0.035766126967209683 -0.00045922697281719352 0 0.036645487658537368 0.00051461815808118334 0 0.037210278007586785 -0.00037991156561759798 0 0.037244148961821905 0.00097207874234491918 0 0.036468198899604218 -0.00022252638299376514 0 0.036645487658537368 0.00051461815808118334 0 0.037210278007586785 -0.00037991156561759798 0 0.037210278007586785 -0.00037991156561759798 0 0.036431231886475325 -0.0012704083902386118 0 0.037212413689615684 -0.0016817268170176165 0 0.036468198899604218 -0.00022252638299376514 0 0.037210278007586785 -0.00037991156561759798 0 0.036431231886475325 -0.0012704083902386118 0 0.035469730451340692 -0.0018451805392392692 0 0.035766126967209683 -0.00045922697281719352 0 0.036431231886475325 -0.0012704083902386118 0 0.036468198899604218 -0.00022252638299376514 0 0.035766126967209683 -0.00045922697281719352 0 0.036431231886475325 -0.0012704083902386118 0 0.035469730451340692 -0.0018451805392392692 0 0.036431231886475325 -0.0012704083902386118 0 0.036217735017071602 -0.00270633609998021 0 0.036431231886475325 -0.0012704083902386118 0 0.036217735017071602 -0.00270633609998021 0 0.037212413689615684 -0.0016817268170176165 0 0.036217735017071602 -0.00270633609998021 0 0.037212413689615684 -0.0016817268170176165 0 0.036962457802536673 -0.0025848282243589381 0 0.037251608417011264 -0.0031991884642035965 0 0.036962457802536673 -0.0025848282243589381 0 0.036404088288199001 -0.0030501506340639374 0 0.036217735017071602 -0.00270633609998021 0 0.036962457802536673 -0.0025848282243589381 0 0.036404088288199001 -0.0030501506340639374 0 0.036217735017071602 -0.00270633609998021 0 0.035975741029676787 -0.0033755827436470717 0 0.036404088288199001 -0.0030501506340639374 0 0.035975741029676787 -0.0033755827436470717 0 0.034984955784997093 -0.0032700966787744886 0 0.03537596806620865 -0.0037615369845038845 0 0.036217735017071602 -0.00270633609998021 0 0.035975741029676787 -0.0033755827436470717 0 0.034984955784997093 -0.0032700966787744886 0 0.035975741029676787 -0.0033755827436470717 0 0.03537596806620865 -0.0037615369845038845 0 0.036172474966458555 -0.0032770947540187614 0 0.035469730451340692 -0.0018451805392392692 0 0.036217735017071602 -0.00270633609998021 0 0.034984955784997093 -0.0032700966787744886 0 0.035469730451340692 -0.0018451805392392692 0 0.034080840084752796 -0.0019934962297145191 0 0.034984955784997093 -0.0032700966787744886 0 0.032893257764242408 -0.0033895054986361689 0 0.034296272879591215 -0.0040264478480077463 0 0.031947034221297181 -0.0048194694615816226 0 0.034984955784997093 -0.0032700966787744886 0 0.032893257764242408 -0.0033895054986361689 0 0.034296272879591215 -0.0040264478480077463 0 0.034080840084752796 -0.0019934962297145191 0 0.034984955784997093 -0.0032700966787744886 0 0.032893257764242408 -0.0033895054986361689 0 0.034296272879591215 -0.0040264478480077463 0 0.031947034221297181 -0.0048194694615816226 0 0.034461942760758479 -0.0039060919839325474 0 0.034984955784997093 -0.0032700966787744886 0 0.034296272879591215 -0.0040264478480077463 0 0.03537596806620865 -0.0037615369845038845 0 0.034296272879591215 -0.0040264478480077463 0 0.03537596806620865 -0.0037615369845038845 0 0.035622042050448548 -0.004005022663162979 0 0.034296272879591215 -0.0040264478480077463 0 0.035622042050448548 -0.004005022663162979 0 0.034461942760758479 -0.0039060919839325474 0 0.035480053222334072 -0.005514400112274778 0 0.035087408962683204 -0.0061814677161794087 0 0.035622042050448548 -0.004005022663162979 0 0.034097364654692444 -0.0062095965442388462 0 0.034461942760758479 -0.0039060919839325474 0 0.035622042050448548 -0.004005022663162979 0 0.036656475378556763 -0.0028783641399501006 0 0.037944192357173445 -0.0025208634349214725 0 0.036656475378556763 -0.0028783641399501006 0 0.037303325546122132 -0.0020909124327032416 0 0.037944192357173445 -0.0025208634349214725 0 0.036656475378556763 -0.0028783641399501006 0 0.036172474966458555 -0.0032770947540187614 0 0.037094644671329356 -0.0022437316904657559 0 0.035622042050448548 -0.004005022663162979 0 0.036656475378556763 -0.0028783641399501006 0 0.036172474966458555 -0.0032770947540187614 0 0.03537596806620865 -0.0037615369845038845 0 0.035622042050448548 -0.004005022663162979 0 0.036172474966458555 -0.0032770947540187614 0 0.035975741029676787 -0.0033755827436470717 0 0.036172474966458555 -0.0032770947540187614 0 0.036718567679441219 -0.0027656586334391608 0 0.036172474966458555 -0.0032770947540187614 0 0.037094644671329356 -0.0022437316904657559 0 0.036718567679441219 -0.0027656586334391608 0 0.037094644671329356 -0.0022437316904657559 0 0.037638401285467138 -0.0015077099145006025 0 0.038407926581671206 -0.00048117243565599227 0 0.037094644671329356 -0.0022437316904657559 0 0.036718567679441219 -0.0027656586334391608 0 0.038407926581671206 -0.00048117243565599227 0 0.037638401285467138 -0.0015077099145006025 0 0.037303325546122132 -0.0020909124327032416 0 0.037854037456866468 -0.0015846484120921034 0 0.037638401285467138 -0.0015077099145006025 0 0.037966045528002146 -0.0011267713552041596 0 0.037854037456866468 -0.0015846484120921034 0 0.037303325546122132 -0.0020909124327032416 0 0.037944192357173445 -0.0025208634349214725 0 0.037854037456866468 -0.0015846484120921034 0 0.037094644671329356 -0.0022437316904657559 0 0.037638401285467138 -0.0015077099145006025 0 0.037303325546122132 -0.0020909124327032416 0 0.036656475378556763 -0.0028783641399501006 0 0.037094644671329356 -0.0022437316904657559 0 0.037303325546122132 -0.0020909124327032416 0 0.038752210220105651 -0.00020094743776132238 0 0.038844180405381387 -0.00038460918126354931 0 0.037251608417011264 -0.0031991884642035965 0 0.036404088288199001 -0.0030501506340639374 0 0.036188981618165153 -0.0026916663561833078 0 0.036404088288199001 -0.0030501506340639374 0 0.036718567679441219 -0.0027656586334391608 0 0.036188981618165153 -0.0026916663561833078 0 0.035975741029676787 -0.0033755827436470717 0 0.036404088288199001 -0.0030501506340639374 0 0.036718567679441219 -0.0027656586334391608 0 0.036718567679441219 -0.0027656586334391608 0 0.036188981618165153 -0.0026916663561833078 0 0.038407926581671206 -0.00048117243565599227 0 0.038844180405381387 -0.00038460918126354931 0 0.038742144689818438 -0.00044367950223093798 0 0.042920317132032544 0.0010736350543851553 0 0.041723444412931916 0.0015281532189628641 0 0.042507055178592767 0.00032193642379301244 0 0.041723444412931916 0.0015281532189628641 0 0.042507055178592767 0.00032193642379301244 0 0.038407926581671206 -0.00048117243565599227 0 0.042507055178592767 0.00032193642379301244 0 0.040832291825304914 -0.00087616451832929899 0 0.038407926581671206 -0.00048117243565599227 0 0.044092615424475401 -2.9095022460589143e-05 0 0.042507055178592767 0.00032193642379301244 0 0.040832291825304914 -0.00087616451832929899 0 0.037966045528002146 -0.0011267713552041596 0 0.038357224106570137 -0.00098554543951927883 0 0.038038380625068577 -0.0011202309201194848 0 0.037966045528002146 -0.0011267713552041596 0 0.038044682140125338 -0.0012697195431135464 0 0.037854037456866468 -0.0015846484120921034 0 0.037966045528002146 -0.0011267713552041596 0 0.038038380625068577 -0.0011202309201194848 0 0.038044682140125338 -0.0012697195431135464 0 0.038407926581671206 -0.00048117243565599227 0 0.039190762224335748 -0.0010546628417544338 0 0.038357224106570137 -0.00098554543951927883 0 0.037638401285467138 -0.0015077099145006025 0 0.037966045528002146 -0.0011267713552041596 0 0.038407926581671206 -0.00048117243565599227 0 0.037966045528002146 -0.0011267713552041596 0 0.038407926581671206 -0.00048117243565599227 0 0.038357224106570137 -0.00098554543951927883 0 0.040832291825304914 -0.00087616451832929899 0 0.038407926581671206 -0.00048117243565599227 0 0.039190762224335748 -0.0010546628417544338 0 0.03862788090159331 -0.0014739029025378119 0 0.039190762224335748 -0.0010546628417544338 0 0.038357224106570137 -0.00098554543951927883 0 0.03862788090159331 -0.0014739029025378119 0 0.038357224106570137 -0.00098554543951927883 0 0.038222571643622749 -0.0011796953959193549 0 0.038357224106570137 -0.00098554543951927883 0 0.038222571643622749 -0.0011796953959193549 0 0.038038380625068577 -0.0011202309201194848 0 0.03862788090159331 -0.0014739029025378119 0 0.038222571643622749 -0.0011796953959193549 0 0.038147813437124048 -0.0014587843543192708 0 0.038147813437124048 -0.0014587843543192708 0 0.037889004628778228 -0.0013517351835584011 0 0.038027900755518561 -0.0011675477627650878 0 0.038222571643622749 -0.0011796953959193549 0 0.038147813437124048 -0.0014587843543192708 0 0.038027900755518561 -0.0011675477627650878 0 0.03778851371852144 -0.0019391544542261036 0 0.037889004628778228 -0.0013517351835584011 0 0.037495571868980823 -0.0013885948844742572 0 0.037889004628778228 -0.0013517351835584011 0 0.037799772550976635 -0.001247020919415172 0 0.037495571868980823 -0.0013885948844742572 0 0.037889004628778228 -0.0013517351835584011 0 0.037799772550976635 -0.001247020919415172 0 0.037918813934622965 -0.0011766908677662365 0 0.037799772550976635 -0.001247020919415172 0 0.037918813934622965 -0.0011766908677662365 0 0.037883137583054644 -0.0010921189010618586 0 0.037889004628778228 -0.0013517351835584011 0 0.037918813934622965 -0.0011766908677662365 0 0.038027900755518561 -0.0011675477627650878 0 0.037918813934622965 -0.0011766908677662365 0 0.038027900755518561 -0.0011675477627650878 0 0.037965145306980225 -0.0011274575501377087 0 0.037918813934622965 -0.0011766908677662365 0 0.037965145306980225 -0.0011274575501377087 0 0.037883137583054644 -0.0010921189010618586 0 0.038222571643622749 -0.0011796953959193549 0 0.038027900755518561 -0.0011675477627650878 0 0.038038380625068577 -0.0011202309201194848 0 0.037965145306980225 -0.0011274575501377087 0 0.038044682140125338 -0.0012697195431135464 0 0.038327181908799947 -0.0014939577055962535 0 0.038038380625068577 -0.0011202309201194848 0 0.037965145306980225 -0.0011274575501377087 0 0.038044682140125338 -0.0012697195431135464 0 0.035107907569783832 -0.0061959164447598011 0 0.034732213942400475 -0.0070490352084608349 0 0.038027900755518561 -0.0011675477627650878 0 0.038038380625068577 -0.0011202309201194848 0 0.037965145306980225 -0.0011274575501377087 0 0.037965145306980225 -0.0011274575501377087 0 0.037883137583054644 -0.0010921189010618586 0 0.038327181908799947 -0.0014939577055962535 0 0.036085480822760162 -0.0085973819736515616 0 0.032269489111294333 -0.0096909956548563263 0 0.034568597852451033 -0.0079496494041132633 0 0.035012265177328125 -0.0084811890733973768 0 0.03527134227865706 -0.0069374174151511925 0 0.036085480822760162 -0.0085973819736515616 0 0.036795494624316701 -0.0098966406360700854 0 0.036085480822760162 -0.0085973819736515616 0 0.034732213942400475 -0.0070490352084608349 0 0.036085480822760162 -0.0085973819736515616 0 0.035107907569783832 -0.0061959164447598011 0 0.036085480822760162 -0.0085973819736515616 0 0.042455203896556257 -0.0072770389249970143 0 0.037200519230115997 -0.00037843540712782938 0 0.037584961629963436 -0.00083541859604860163 0 0.037495571868980823 -0.0013885948844742572 0 0.037200519230115997 -0.00037843540712782938 0 0.037495571868980823 -0.0013885948844742572 0 0.036386981349512841 -0.0015106460691543329 0 0.035107907569783832 -0.0061959164447598011 0 0.035278897045272463 -0.0055263339356379218 0 0.037799772550976635 -0.001247020919415172 0 0.037883137583054644 -0.0010921189010618586 0 0.037495571868980823 -0.0013885948844742572 0 0.043798156258640593 -0.010578791759446949 0 0.044752914070285171 -0.0092316882974300494 0 0.045011605758268326 -0.010345942085374784 0 0.044752914070285171 -0.0092316882974300494 0 0.045757213959593056 -0.0095563327952519726 0 0.045011605758268326 -0.010345942085374784 0 0.046094843074478933 -0.010102557542463088 0 0.046469246015223946 -0.010665258551688846 0 0.046584727088793743 -0.0095328261475607877 0 0.045757213959593056 -0.0095563327952519726 0 0.045646596866534724 -0.010180671042102568 0 0.046094843074478933 -0.010102557542463088 0 0.045757213959593056 -0.0095563327952519726 0 0.045646596866534724 -0.010180671042102568 0 0.045011605758268326 -0.010345942085374784 0 0.045757213959593056 -0.0095563327952519726 0 0.046094843074478933 -0.010102557542463088 0 0.046584727088793743 -0.0095328261475607877 0 0.046469246015223946 -0.010665258551688846 0 0.046031595575084357 -0.01125310586772647 0 0.046672961309716023 -0.011804395246317264 0 0.046094843074478933 -0.010102557542463088 0 0.046469246015223946 -0.010665258551688846 0 0.045813308899129865 -0.010638696554525727 0 0.045646596866534724 -0.010180671042102568 0 0.045813308899129865 -0.010638696554525727 0 0.045011605758268326 -0.010345942085374784 0 0.045646596866534724 -0.010180671042102568 0 0.046094843074478933 -0.010102557542463088 0 0.045813308899129865 -0.010638696554525727 0 0.045813308899129865 -0.010638696554525727 0 0.046031595575084357 -0.01125310586772647 0 0.045398492255907592 -0.011064491114478403 0 0.046469246015223946 -0.010665258551688846 0 0.045813308899129865 -0.010638696554525727 0 0.046031595575084357 -0.01125310586772647 0 0.043798156258640593 -0.010578791759446949 0 0.045011605758268326 -0.010345942085374784 0 0.044655137067250862 -0.011208712333214299 0 0.035671691690617166 -0.0098443607223317169 0 0.034798821708451978 -0.0091946026153264578 0 0.034534390301204719 -0.0084691121493658018 0 0.045813308899129865 -0.010638696554525727 0 0.045011605758268326 -0.010345942085374784 0 0.045398492255907592 -0.011064491114478403 0 0.045011605758268326 -0.010345942085374784 0 0.045398492255907592 -0.011064491114478403 0 0.044655137067250862 -0.011208712333214299 0 0.036795494624316701 -0.0098966406360700854 0 0.035704892693128418 -0.010245600645188719 0 0.045398492255907592 -0.011064491114478403 0 0.044655137067250862 -0.011208712333214299 0 0.045482494747375535 -0.011877111799934212 0 0.034798821708451978 -0.0091946026153264578 0 0.034534390301204719 -0.0084691121493658018 0 0.033954540738042417 -0.0085040004866897174 0 0.032269489111294333 -0.0096909956548563263 0 0.035704892693128418 -0.010245600645188719 0 0.041761847009645768 -0.012851736132752156 0 0.040760211325771782 -0.012910520049448412 0 0.040474211466307204 -0.011771323345607848 0 0.035704892693128418 -0.010245600645188719 0 0.04453198701951399 -0.01162346134200439 0 0.024050106856225075 -0.015979166485964889 0 0.022052427290144463 -0.016108067218450144 0 0.020194089425551336 -0.011858197232154663 0 0.046031595575084357 -0.01125310586772647 0 0.045482494747375535 -0.011877111799934212 0 0.046672961309716023 -0.011804395246317264 0 0.046031595575084357 -0.01125310586772647 0 0.045398492255907592 -0.011064491114478403 0 0.045482494747375535 -0.011877111799934212 0 0.029560607520896634 -0.0095442952149673941 0 0.028318131632987929 -0.0081284929955488822 0 0.028030782169062948 -0.0079626104574297921 0 0.035704892693128418 -0.010245600645188719 0 0.031018970141332747 -0.0095005018612683914 0 0.022052427290144463 -0.016108067218450144 0 0.020194089425551336 -0.011858197232154663 0 0.016811653036159731 -0.01188967271120691 0 0.032269489111294333 -0.0096909956548563263 0 0.025904881342035269 -0.0082473476794979687 0 0.028278831938139123 -0.008100619137387478 0 0.028968396297821643 -0.0074753460067943367 0 0.028208435172249868 -0.0072437664735231317 0 0.028318131632987929 -0.0081284929955488822 0 0.028030782169062948 -0.0079626104574297921 0 0.027098414360487679 -0.0067173210193300879 0 0.029425096450503559 -0.0094516298109102465 0 0.029634279428345105 -0.0081224704962885308 0 0.030782497294902678 -0.008207992467893015 0 0.029425096450503559 -0.0094516298109102465 0 0.028278831938139123 -0.008100619137387478 0 0.029634279428345105 -0.0081224704962885308 0 0.032269489111294333 -0.0096909956548563263 0 0.030017890818074416 -0.0080346707007046617 0 0.028278831938139123 -0.008100619137387478 0 0.029634279428345105 -0.0081224704962885308 0 0.028968396297821643 -0.0074753460067943367 0 0.029634279428345105 -0.0081224704962885308 0 0.030336816977532714 -0.0069744298396835396 0 0.028968396297821643 -0.0074753460067943367 0 0.029634279428345105 -0.0081224704962885308 0 0.030782497294902678 -0.008207992467893015 0 0.030336816977532714 -0.0069744298396835396 0 0.034059734923290841 -0.0073466695420328215 0 0.031655685471298059 -0.0070209196891291405 0 0.030782497294902678 -0.008207992467893015 0 0.031849345042519732 -0.0092919289269180576 0 0.032183385170632753 -0.0072546582750459459 0 0.034097364654692444 -0.0062095965442388462 0 0.033494187004226524 -0.0037614906284759216 0 0.034461942760758479 -0.0039060919839325474 0 0.034097364654692444 -0.0062095965442388462 0 0.032943587611315328 -0.0071801557903054154 0 0.033494187004226524 -0.0037614906284759216 0 0.034097364654692444 -0.0062095965442388462 0 0.032943587611315328 -0.0071801557903054154 0 0.033423619276913237 -0.0071844806600838721 0 0.034350627423763422 -0.0078923212719430487 0 0.033913826291267761 -0.007887805449336158 0 0.034489040413577074 -0.007055558379767209 0 0.034059734923290841 -0.0073466695420328215 0 0.034524349165444265 -0.0070976086064112251 0 0.037944192357173445 -0.0025208634349214725 0 0.038238416669296768 -0.0019316434758500213 0 0.037854037456866468 -0.0015846484120921034 0 0.035087408962683204 -0.0061814677161794087 0 0.034524349165444265 -0.0070976086064112251 0 0.038238416669296768 -0.0019316434758500213 0 0.037854037456866468 -0.0015846484120921034 0 0.038327181908799947 -0.0014939577055962535 0 0.038044682140125338 -0.0012697195431135464 0 0.037854037456866468 -0.0015846484120921034 0 0.038327181908799947 -0.0014939577055962535 0 0.034059734923290841 -0.0073466695420328215 0 0.034732213942400475 -0.0070490352084608349 0 0.034524349165444265 -0.0070976086064112251 0 0.034732213942400475 -0.0070490352084608349 0 0.029425096450503559 -0.0094516298109102465 0 0.030782497294902678 -0.008207992467893015 0 0.031849345042519732 -0.0092919289269180576 0 0.032269489111294333 -0.0096909956548563263 0 0.034059734923290841 -0.0073466695420328215 0 0.034309110566860965 -0.0084557029989600491 0 0.034430478866196559 -0.0084458368928651533 0 0.034426321767835916 -0.0084727782523697382 0 0.034382806637381927 -0.0085372877200010876 0 0.034309110566860965 -0.0084557029989600491 0 0.034426321767835916 -0.0084727782523697382 0 0.067436544546608107 -0.017698480120720478 0 0.0667791893752155 -0.015289329780328617 0 0.064590641197316445 -0.017021191935419195 0 0.067436544546608107 -0.017698480120720478 0 0.068990947358823482 -0.015346600432974027 0 0.0667791893752155 -0.015289329780328617 0 0.069018674235211769 -0.019838334604252991 0 0.067436544546608107 -0.017698480120720478 0 0.066370834493101147 -0.020211781047729572 0 0.069018674235211769 -0.019838334604252991 0 0.067436544546608107 -0.017698480120720478 0 0.069870177025142075 -0.017374175402215752 0 0.067436544546608107 -0.017698480120720478 0 0.069870177025142075 -0.017374175402215752 0 0.068990947358823482 -0.015346600432974027 0 0.069870177025142075 -0.017374175402215752 0 0.070952953474538533 -0.015298026265926766 0 0.068990947358823482 -0.015346600432974027 0 0.069870177025142075 -0.017374175402215752 0 0.071061114936655609 -0.018754077344578207 0 0.071903838028260059 -0.017112508671356247 0 0.069870177025142075 -0.017374175402215752 0 0.071903838028260059 -0.017112508671356247 0 0.070952953474538533 -0.015298026265926766 0 0.069018674235211769 -0.019838334604252991 0 0.069870177025142075 -0.017374175402215752 0 0.071061114936655609 -0.018754077344578207 0 0.056291695377536657 -0.01449423239366365 0 0.056135700543490423 -0.014208326634993849 0 0.071061114936655609 -0.018754077344578207 0 0.072793330803193543 -0.018853667538042462 0 0.071903838028260059 -0.017112508671356247 0 0.070871307476728318 -0.02054185831752987 0 0.071061114936655609 -0.018754077344578207 0 0.072793330803193543 -0.018853667538042462 0 0.046469246015223946 -0.010665258551688846 0 0.046584727088793743 -0.0095328261475607877 0 0.04722506813574423 -0.010627362976913085 0 0.056135700543490423 -0.014208326634993849 0 0.054293591942435493 -0.012776966564242905 0 0.046469246015223946 -0.010665258551688846 0 0.04722506813574423 -0.010627362976913085 0 0.046672961309716023 -0.011804395246317264 0 0.04722506813574423 -0.010627362976913085 0 0.046672961309716023 -0.011804395246317264 0 0.047868366292598441 -0.01173052997237484 0 0.040760211325771782 -0.012910520049448412 0 0.040474211466307204 -0.011771323345607848 0 0.039742489034700894 -0.012981622263888534 0 0.04453198701951399 -0.01162346134200439 0 0.054293591942435493 -0.012776966564242905 0 0.040474211466307204 -0.011771323345607848 0 0.039088534607240932 -0.011851261165746217 0 0.039742489034700894 -0.012981622263888534 0 0.069913682942528907 -0.012539870729310645 0 0.071224630941775544 -0.014907500754776516 0 0.068942419178033398 -0.015070226434125963 0 0.050675011118529054 -0.013097794098201462 0 0.054293591942435493 -0.012776966564242905 0 0.054293591942435493 -0.012776966564242905 0 0.063146425676877269 -0.013169089660497598 0 0.063146425676877269 -0.013169089660497598 0 0.064774271993903371 -0.013353924392050191 0 0.069913682942528907 -0.012539870729310645 0 0.068942419178033398 -0.015070226434125963 0 0.067203704044318024 -0.012863266060210083 0 0.069913682942528907 -0.012539870729310645 0 0.067203704044318024 -0.012863266060210083 0 0.068501136212046482 -0.010061614168415054 0 0.067203704044318024 -0.012863266060210083 0 0.064891766151746286 -0.014044678471391086 0 0.065182011207770382 -0.011747210305499673 0 0.067203704044318024 -0.012863266060210083 0 0.066332867717321387 -0.011065526846550714 0 0.065182011207770382 -0.011747210305499673 0 0.067203704044318024 -0.012863266060210083 0 0.0667791893752155 -0.015289329780328617 0 0.064891766151746286 -0.014044678471391086 0 0.068942419178033398 -0.015070226434125963 0 0.067203704044318024 -0.012863266060210083 0 0.0667791893752155 -0.015289329780328617 0 0.066935992155640514 -0.007459551048484751 0 0.066549187067826227 -0.0083201067295707327 0 0.068501136212046482 -0.010061614168415054 0 0.065562097701249225 -0.0077717107584569936 0 0.066549187067826227 -0.0083201067295707327 0 0.06615664927802517 -0.0069298563833651242 0 0.065562097701249225 -0.0077717107584569936 0 0.066549187067826227 -0.0083201067295707327 0 0.065522855607080419 -0.0088248750409570757 0 0.065562097701249225 -0.0077717107584569936 0 0.065522855607080419 -0.0088248750409570757 0 0.064534888172901636 -0.0078869809052294869 0 0.066935992155640514 -0.007459551048484751 0 0.066549187067826227 -0.0083201067295707327 0 0.066174636923345756 -0.0068680913079452698 0 0.035360512821877167 -0.0098293037989288529 0 0.03391518861049081 -0.0093141618673159132 0 0.066549187067826227 -0.0083201067295707327 0 0.066719873665831056 -0.0097573497247341132 0 0.068501136212046482 -0.010061614168415054 0 0.066549187067826227 -0.0083201067295707327 0 0.065522855607080419 -0.0088248750409570757 0 0.066719873665831056 -0.0097573497247341132 0 0.065522855607080419 -0.0088248750409570757 0 0.06544540187291284 -0.010144614077636603 0 0.066719873665831056 -0.0097573497247341132 0 0.067203704044318024 -0.012863266060210083 0 0.066332867717321387 -0.011065526846550714 0 0.068501136212046482 -0.010061614168415054 0 0.06544540187291284 -0.010144614077636603 0 0.066332867717321387 -0.011065526846550714 0 0.066719873665831056 -0.0097573497247341132 0 0.066332867717321387 -0.011065526846550714 0 0.066719873665831056 -0.0097573497247341132 0 0.068501136212046482 -0.010061614168415054 0 0.06544540187291284 -0.010144614077636603 0 0.066332867717321387 -0.011065526846550714 0 0.065182011207770382 -0.011747210305499673 0 0.039088534607240932 -0.011851261165746217 0 0.038415530397575462 -0.010681277025154853 0 0.0391365024301129 -0.010641419536963492 0 0.050675011118529054 -0.013097794098201462 0 0.044815888988234243 -0.012362786435149089 0 0.033822764932931931 -0.0090984372665681521 0 0.028955697867011469 -0.0079109969406908134 0 0.033822764932931931 -0.0090984372665681521 0 0.044815888988234243 -0.012362786435149089 0 0.03774779355171233 -0.0094711675645734617 0 0.038415530397575462 -0.010681277025154853 0 0.0391365024301129 -0.010641419536963492 0 0.0084613951920686058 -0.0045024153348856774 0 0.010994616943872423 -0.0049635236492572617 0 0.011970786997739557 -0.0077900315948505657 0 0.010994616943872423 -0.0049635236492572617 0 0.013674358121093501 -0.0053844071539578785 0 0.011241558550545809 -0.0032755569346610697 0 0.012751266180668706 -0.0055828637286666222 0 0.014935223090530782 -0.0051816428798921975 0 0.012832929037976634 -0.0036088114307558541 0 0.013674358121093501 -0.0053844071539578785 0 0.011970786997739557 -0.0077900315948505657 0 0.014291533307595966 -0.0076069553190071613 0 0.010994616943872423 -0.0049635236492572617 0 0.013674358121093501 -0.0053844071539578785 0 0.011970786997739557 -0.0077900315948505657 0 0.040474211466307204 -0.011771323345607848 0 0.039088534607240932 -0.011851261165746217 0 0.0391365024301129 -0.010641419536963492 0 0.016811653036159731 -0.01188967271120691 0 0.011970786997739557 -0.0077900315948505657 0 0.014291533307595966 -0.0076069553190071613 0 0.031018970141332747 -0.0095005018612683914 0 0.028955697867011469 -0.0079109969406908134 0 0.019714856052576508 -0.0059495470576489363 0 0.020388078404557409 -0.0059613192262943067 0 0.020194089425551336 -0.011858197232154663 0 0.016811653036159731 -0.01188967271120691 0 0.016453554421615349 -0.0079008824812779911 0 0.016811653036159731 -0.01188967271120691 0 0.014291533307595966 -0.0076069553190071613 0 0.016453554421615349 -0.0079008824812779911 0 0.028030782169062948 -0.0079626104574297921 0 0.026553628270936117 -0.0063819226867227463 0 0.027098414360487679 -0.0067173210193300879 0 0.025904881342035269 -0.0082473476794979687 0 0.020388078404557409 -0.0059613192262943067 0 0.014764505244827435 -0.0082787855902656943 0 0.014935223090530782 -0.0051816428798921975 0 0.017195602444267849 -0.0064436321366050592 0 0.012751266180668706 -0.0055828637286666222 0 0.014764505244827435 -0.0082787855902656943 0 0.014935223090530782 -0.0051816428798921975 0 0.017212558268117337 -0.0044672906101713462 0 0.020388078404557409 -0.0059613192262943067 0 0.013674358121093501 -0.0053844071539578785 0 0.014291533307595966 -0.0076069553190071613 0 0.016172099889072523 -0.0078744167296861366 0 0.014395809567903683 -0.0025175065553388566 0 0.017183869945415597 -0.0038355389154433764 0 0.016358944070171574 -0.00046717650989719161 0 0.014935223090530782 -0.0051816428798921975 0 0.014395809567903683 -0.0025175065553388566 0 0.017183869945415597 -0.0038355389154433764 0 0.014935223090530782 -0.0051816428798921975 0 0.014395809567903683 -0.0025175065553388566 0 0.012832929037976634 -0.0036088114307558541 0 0.014395809567903683 -0.0025175065553388566 0 0.013871605362279922 -0.00038419157970194078 0 0.016358944070171574 -0.00046717650989719161 0 0.013871605362279922 -0.00038419157970194078 0 0.016358944070171574 -0.00046717650989719161 0 0.014668051695061099 0.0014670895155004353 0 0.013871605362279922 -0.00038419157970194078 0 0.011868975877768122 -0.0013720850678032319 0 0.01238431016658692 0.0012101792423762515 0 0.014395809567903683 -0.0025175065553388566 0 0.013871605362279922 -0.00038419157970194078 0 0.011868975877768122 -0.0013720850678032319 0 0.011868975877768122 -0.0013720850678032319 0 0.012832929037976634 -0.0036088114307558541 0 0.011241558550545809 -0.0032755569346610697 0 0.014395809567903683 -0.0025175065553388566 0 0.011868975877768122 -0.0013720850678032319 0 0.012832929037976634 -0.0036088114307558541 0 0.012751266180668706 -0.0055828637286666222 0 0.012832929037976634 -0.0036088114307558541 0 0.011241558550545809 -0.0032755569346610697 0 0.017212558268117337 -0.0044672906101713462 0 0.016008810686943622 -0.0037546644662515192 0 0.0084613951920686058 -0.0045024153348856774 0 0.010994616943872423 -0.0049635236492572617 0 0.0099469751729285866 -0.0034213838068113279 0 0.010994616943872423 -0.0049635236492572617 0 0.011241558550545809 -0.0032755569346610697 0 0.0099469751729285866 -0.0034213838068113279 0 0.0084613951920686058 -0.0045024153348856774 0 0.0099469751729285866 -0.0034213838068113279 0 0.0087744849420732882 -0.00292404744416135 0 0.0099469751729285866 -0.0034213838068113279 0 0.0094916623888662722 -0.0018755196162057804 0 0.0087744849420732882 -0.00292404744416135 0 0.0099469751729285866 -0.0034213838068113279 0 0.010568582229207207 -0.0021059336864446341 0 0.0094916623888662722 -0.0018755196162057804 0 0.011241558550545809 -0.0032755569346610697 0 0.0099469751729285866 -0.0034213838068113279 0 0.010568582229207207 -0.0021059336864446341 0 0.011868975877768122 -0.0013720850678032319 0 0.011241558550545809 -0.0032755569346610697 0 0.010568582229207207 -0.0021059336864446341 0 0.011868975877768122 -0.0013720850678032319 0 0.010568582229207207 -0.0021059336864446341 0 0.0098469589124443261 -0.00087321621138174816 0 0.010171487358009972 -0.00061190597119744846 0 0.0093743932493628671 0.00010365083814545252 0 0.011868975877768122 -0.0013720850678032319 0 0.0098469589124443261 -0.00087321621138174816 0 0.0098990013144215523 0.00092215743188326141 0 0.0098469589124443261 -0.00087321621138174816 0 0.0088932270143231764 -0.0010370932386181417 0 0.0088155612937916138 -0.00012339218818362361 0 0.0098469589124443261 -0.00087321621138174816 0 0.0088155612937916138 -0.00012339218818362361 0 0.0098990013144215523 0.00092215743188326141 0 0.0098469589124443261 -0.00087321621138174816 0 0.0094916623888662722 -0.0018755196162057804 0 0.0088932270143231764 -0.0010370932386181417 0 0.010568582229207207 -0.0021059336864446341 0 0.0098469589124443261 -0.00087321621138174816 0 0.0094916623888662722 -0.0018755196162057804 0 0.0094916623888662722 -0.0018755196162057804 0 0.008344248955041907 -0.001680427212695749 0 0.0088932270143231764 -0.0010370932386181417 0 0.008344248955041907 -0.001680427212695749 0 0.0088932270143231764 -0.0010370932386181417 0 0.0079960692860893152 -0.00068701983624866523 0 0.0088155612937916138 -0.00012339218818362361 0 0.0079960692860893152 -0.00068701983624866523 0 0.0082601608727577262 0.00071473636288455866 0 0.0088932270143231764 -0.0010370932386181417 0 0.0088155612937916138 -0.00012339218818362361 0 0.0079960692860893152 -0.00068701983624866523 0 0.0079960692860893152 -0.00068701983624866523 0 0.0075785014517802873 -0.00085368335856574192 0 0.0082601608727577262 0.00071473636288455866 0 0.023465560059523029 -0.008047226955007385 0 0.023787547686257703 -0.008009243053705626 0 0.02668707350636159 -0.0064326297832750295 0 0.027133938083954215 -0.008503884442709695 0 0.026082285437950659 -0.0066684302491043677 0 0.023787547686257703 -0.008009243053705626 0 0.029526131278020191 -0.0079558391816211289 0 0.023787547686257703 -0.008009243053705626 0 0.024898630371042403 -0.0082786690918940278 0 0.029526131278020191 -0.0079558391816211289 0 0.024898630371042403 -0.0082786690918940278 0 0.008344248955041907 -0.001680427212695749 0 0.0074682131807245122 -0.00088692530765850999 0 0.0077203294079046143 -0.0027626320671344162 0 0.008344248955041907 -0.001680427212695749 0 0.0079960692860893152 -0.00068701983624866523 0 0.0074682131807245122 -0.00088692530765850999 0 0.031070058950532106 -0.0076137495644372456 0 0.031419084143026327 -0.0092544399665241937 0 0.027264525320305103 -0.0058666826657623487 0 0.0094916623888662722 -0.0018755196162057804 0 0.008344248955041907 -0.001680427212695749 0 0.0087744849420732882 -0.00292404744416135 0 0.008344248955041907 -0.001680427212695749 0 0.0077203294079046143 -0.0027626320671344162 0 0.0087744849420732882 -0.00292404744416135 0 0.031961728153278371 -0.010033180475843182 0 0.031346535465118126 -0.008948378419638978 0 0.031496446469917096 -0.0096546462531145287 0 0.0084613951920686058 -0.0045024153348856774 0 0.0077203294079046143 -0.0027626320671344162 0 0.0087744849420732882 -0.00292404744416135 0 0.033822764932931931 -0.0090984372665681521 0 0.029526131278020191 -0.0079558391816211289 0 0.033822764932931931 -0.0090984372665681521 0 0.03391518861049081 -0.0093141618673159132 0 0.065562097701249225 -0.0077717107584569936 0 0.06615664927802517 -0.0069298563833651242 0 0.064620500640873588 -0.006920235375602107 0 0.029526131278020191 -0.0079558391816211289 0 0.03391518861049081 -0.0093141618673159132 0 0.027856385743723393 -0.0071761109375537277 0 0.02452011666600214 -0.0044187870636187947 0 0.028967439177252439 -0.003177735523617776 0 0.027856385743723393 -0.0071761109375537277 0 0.02452011666600214 -0.0044187870636187947 0 0.024273669405759934 -0.010162699413359275 0 0.027856385743723393 -0.0071761109375537277 0 0.031947034221297181 -0.0048194694615816226 0 0.028967439177252439 -0.003177735523617776 0 0.032893257764242408 -0.0033895054986361689 0 0.031947034221297181 -0.0048194694615816226 0 0.028967439177252439 -0.003177735523617776 0 0.027856385743723393 -0.0071761109375537277 0 0.031947034221297181 -0.0048194694615816226 0 0.030725764410750579 -0.011445327422303314 0 0.031828879791818532 -0.0061914336599175135 0 0.031655685471298059 -0.0070209196891291405 0 0.031947034221297181 -0.0048194694615816226 0 0.034325731896401444 -0.0039820564316332659 0 0.034461942760758479 -0.0039060919839325474 0 0.031655685471298059 -0.0070209196891291405 0 0.031802100461101046 -0.0069809282897110832 0 0.031655685471298059 -0.0070209196891291405 0 0.027752538462246842 -0.0071764856744016619 0 0.030782497294902678 -0.008207992467893015 0 0.032183385170632753 -0.0072546582750459459 0 0.030336816977532714 -0.0069744298396835396 0 0.027856385743723393 -0.0071761109375537277 0 0.030725764410750579 -0.011445327422303314 0 0.024273669405759934 -0.010162699413359275 0 0.024273669405759934 -0.010162699413359275 0 0.01909810546954659 -0.0092905025660000602 0 0.02030520384101284 -0.0057940281399443561 0 0.027752538462246842 -0.0071764856744016619 0 0.024063267886244553 -0.006798784807801485 0 0.030336816977532714 -0.0069744298396835396 0 0.028968396297821643 -0.0074753460067943367 0 0.028476710782765105 -0.0066792549188403761 0 0.020388078404557409 -0.0059613192262943067 0 0.024063267886244553 -0.006798784807801485 0 0.026553628270936117 -0.0063819226867227463 0 0.027098414360487679 -0.0067173210193300879 0 0.028476710782765105 -0.0066792549188403761 0 0.014764505244827435 -0.0082787855902656943 0 0.01909810546954659 -0.0092905025660000602 0 0.017195602444267849 -0.0064436321366050592 0 0.028278831938139123 -0.008100619137387478 0 0.027098414360487679 -0.0067173210193300879 0 0.028208435172249868 -0.0072437664735231317 0 0.027098414360487679 -0.0067173210193300879 0 0.028208435172249868 -0.0072437664735231317 0 0.028476710782765105 -0.0066792549188403761 0 0.030017890818074416 -0.0080346707007046617 0 0.029210091823228541 -0.0073815341426770459 0 0.028968396297821643 -0.0074753460067943367 0 0.028208435172249868 -0.0072437664735231317 0 0.028476710782765105 -0.0066792549188403761 0 0.01909810546954659 -0.0092905025660000602 0 0.017195602444267849 -0.0064436321366050592 0 0.02030520384101284 -0.0057940281399443561 0 0.017195602444267849 -0.0064436321366050592 0 0.02030520384101284 -0.0057940281399443561 0 0.017183869945415597 -0.0038355389154433764 0 0.014935223090530782 -0.0051816428798921975 0 0.017195602444267849 -0.0064436321366050592 0 0.017183869945415597 -0.0038355389154433764 0 0.02452011666600214 -0.0044187870636187947 0 0.024273669405759934 -0.010162699413359275 0 0.02030520384101284 -0.0057940281399443561 0 0.02452011666600214 -0.0044187870636187947 0 0.02030520384101284 -0.0057940281399443561 0 0.020504399779320212 -0.0023141220686959856 0 0.020504399779320212 -0.0023141220686959856 0 0.017183869945415597 -0.0038355389154433764 0 0.016358944070171574 -0.00046717650989719161 0 0.02030520384101284 -0.0057940281399443561 0 0.020504399779320212 -0.0023141220686959856 0 0.017183869945415597 -0.0038355389154433764 0 0.020504399779320212 -0.0023141220686959856 0 0.016358944070171574 -0.00046717650989719161 0 0.020462422365555712 0.0011645663867523681 0 0.020504399779320212 -0.0023141220686959856 0 0.020462422365555712 0.0011645663867523681 0 0.025603157462868821 -0.0010177597819220009 0 0.020462422365555712 0.0011645663867523681 0 0.025603157462868821 -0.0010177597819220009 0 0.02768126586109048 0.0033837079297058094 0 0.02452011666600214 -0.0044187870636187947 0 0.025603157462868821 -0.0010177597819220009 0 0.028967439177252439 -0.003177735523617776 0 0.02452011666600214 -0.0044187870636187947 0 0.020504399779320212 -0.0023141220686959856 0 0.025603157462868821 -0.0010177597819220009 0 0.025603157462868821 -0.0010177597819220009 0 0.028967439177252439 -0.003177735523617776 0 0.030925148858811657 -0.00050488594022476182 0 0.032893257764242408 -0.0033895054986361689 0 0.028967439177252439 -0.003177735523617776 0 0.030925148858811657 -0.00050488594022476182 0 0.032353768666468323 0.001591609220123453 0 0.030925148858811657 -0.00050488594022476182 0 0.02768126586109048 0.0033837079297058094 0 0.025603157462868821 -0.0010177597819220009 0 0.030925148858811657 -0.00050488594022476182 0 0.02768126586109048 0.0033837079297058094 0 0.024256966163034743 0.0023391875877815725 0 0.025127747725822002 0.0026288702466066198 0 0.021815367321281778 0.0016909271878690155 0 0.022325749983514658 0.0028010240633853404 0 0.02395548266624083 0.0023159279530094094 0 0.032353768666468323 0.001591609220123453 0 0.02768126586109048 0.0033837079297058094 0 0.032349416668765597 0.0034826808496889851 0 0.022325749983514658 0.0028010240633853404 0 0.021538829119105585 0.0040774432629584779 0 0.023771545007076785 0.0033964249715551253 0 0.015063251177385576 0.0033114285492066905 0 0.016293152690403833 0.0026931738868917446 0 0.0081715622784825706 0.0030109262266593264 0 0.0073257402420729588 0.0026464783483877864 0 0.0074854976471635448 0.0018769846746133729 0 0.021538829119105585 0.0040774432629584779 0 0.020483288126251085 0.002541828763673956 0 0.018065705587759016 0.004873371037342273 0 0.022325749983514658 0.0028010240633853404 0 0.021538829119105585 0.0040774432629584779 0 0.020483288126251085 0.002541828763673956 0 0.021815367321281778 0.0016909271878690155 0 0.022325749983514658 0.0028010240633853404 0 0.020483288126251085 0.002541828763673956 0 0.020462422365555712 0.0011645663867523681 0 0.021815367321281778 0.0016909271878690155 0 0.020483288126251085 0.002541828763673956 0 0.022936260660369572 0.0019538677210595482 0 0.024256966163034743 0.0023391875877815725 0 0.020462422365555712 0.0011645663867523681 0 0.020483288126251085 0.002541828763673956 0 0.017681502455663238 0.0022356020862461341 0 0.016358944070171574 -0.00046717650989719161 0 0.020462422365555712 0.0011645663867523681 0 0.017681502455663238 0.0022356020862461341 0 0.016358944070171574 -0.00046717650989719161 0 0.017681502455663238 0.0022356020862461341 0 0.014668051695061099 0.0014670895155004353 0 0.017681502455663238 0.0022356020862461341 0 0.014920387096902686 0.0029929848322254324 0 0.014668051695061099 0.0014670895155004353 0 0.017681502455663238 0.0022356020862461341 0 0.014920387096902686 0.0029929848322254324 0 0.018065705587759016 0.004873371037342273 0 0.020483288126251085 0.002541828763673956 0 0.017681502455663238 0.0022356020862461341 0 0.018065705587759016 0.004873371037342273 0 0.015063251177385576 0.0033114285492066905 0 0.014234338785180465 0.0037139133145504947 0 0.0081715622784825706 0.0030109262266593264 0 0.0095087469775287457 0.0038742391641015152 0 0.0089532301086348506 0.0027505317121585631 0 0.014234338785180465 0.0037139133145504947 0 0.013742299804536385 0.0038466211935209698 0 0.0095087469775287457 0.0038742391641015152 0 0.0089532301086348506 0.0027505317121585631 0 0.012229220484020783 0.004033695279798126 0 0.014920387096902686 0.0029929848322254324 0 0.018065705587759016 0.004873371037342273 0 0.012229220484020783 0.004033695279798126 0 0.0089532301086348506 0.0027505317121585631 0 0.012229220484020783 0.004033695279798126 0 0.009834252967141105 0.0024592096771507859 0 0.0089532301086348506 0.0027505317121585631 0 0.0079585402060179267 0.0022334005136089418 0 0.0080403842577163494 0.0020165726286002941 0 0.0079585402060179267 0.0022334005136089418 0 0.0080403842577163494 0.0020165726286002941 0 0.0076110502458970521 0.0016638370421096149 0 0.0079585402060179267 0.0022334005136089418 0 0.0076110502458970521 0.0016638370421096149 0 0.0074854976471635448 0.0018769846746133729 0 0.0081715622784825706 0.0030109262266593264 0 0.0079585402060179267 0.0022334005136089418 0 0.0074854976471635448 0.0018769846746133729 0 0.0081715622784825706 0.0030109262266593264 0 0.0089532301086348506 0.0027505317121585631 0 0.0079585402060179267 0.0022334005136089418 0 0.008119953925349567 0.0003926488130031585 0 0.0093743932493628671 0.00010365083814545252 0 0.0082802621687106497 0.0030400441374377352 0 0.0082601608727577262 0.00071473636288455866 0 0.0071542081069080861 0.0017085388793837513 0 0.0075785014517802873 -0.00085368335856574192 0 0.0082601608727577262 0.00071473636288455866 0 0.0071542081069080861 0.0017085388793837513 0 0.0082802621687106497 0.0030400441374377352 0 0.0082601608727577262 0.00071473636288455866 0 0.0098990013144215523 0.00092215743188326141 0 0.023787547686257703 -0.008009243053705626 0 0.014743338741232018 -0.0030746451569158254 0 0.0088155612937916138 -0.00012339218818362361 0 0.0082601608727577262 0.00071473636288455866 0 0.0098990013144215523 0.00092215743188326141 0 0.0099181651205097181 0.0024891530961691504 0 0.010493956072367656 0.0012313859486501265 0 0.010537886739385471 0.0028709900366257791 0 0.010493956072367656 0.0012313859486501265 0 0.011424106642561629 0.0028049279576792064 0 0.010537886739385471 0.0028709900366257791 0 0.011424106642561629 0.0028049279576792064 0 0.012884002031702244 0.0025932966026790075 0 0.012229220484020783 0.004033695279798126 0 0.011424106642561629 0.0028049279576792064 0 0.01238431016658692 0.0012101792423762515 0 0.012884002031702244 0.0025932966026790075 0 0.011868975877768122 -0.0013720850678032319 0 0.010493956072367656 0.0012313859486501265 0 0.01238431016658692 0.0012101792423762515 0 0.010493956072367656 0.0012313859486501265 0 0.011424106642561629 0.0028049279576792064 0 0.01238431016658692 0.0012101792423762515 0 0.01238431016658692 0.0012101792423762515 0 0.014668051695061099 0.0014670895155004353 0 0.012884002031702244 0.0025932966026790075 0 0.013871605362279922 -0.00038419157970194078 0 0.01238431016658692 0.0012101792423762515 0 0.014668051695061099 0.0014670895155004353 0 0.014920387096902686 0.0029929848322254324 0 0.012884002031702244 0.0025932966026790075 0 0.012229220484020783 0.004033695279798126 0 0.014920387096902686 0.0029929848322254324 0 0.014668051695061099 0.0014670895155004353 0 0.012884002031702244 0.0025932966026790075 0 0.012229220484020783 0.004033695279798126 0 0.011217020949260283 0.0030744902360963023 0 0.011256132274407729 0.0033364039294831033 0 0.012229220484020783 0.004033695279798126 0 0.011217020949260283 0.0030744902360963023 0 0.009834252967141105 0.0024592096771507859 0 0.011217020949260283 0.0030744902360963023 0 0.011256132274407729 0.0033364039294831033 0 0.010725302078227616 0.0028771323833138586 0 0.011256132274407729 0.0033364039294831033 0 0.010447039107140031 0.0031207756033294395 0 0.010725302078227616 0.0028771323833138586 0 0.011424106642561629 0.0028049279576792064 0 0.012229220484020783 0.004033695279798126 0 0.011256132274407729 0.0033364039294831033 0 0.011424106642561629 0.0028049279576792064 0 0.011256132274407729 0.0033364039294831033 0 0.010537886739385471 0.0028709900366257791 0 0.011256132274407729 0.0033364039294831033 0 0.010537886739385471 0.0028709900366257791 0 0.010447039107140031 0.0031207756033294395 0 0.010537886739385471 0.0028709900366257791 0 0.010447039107140031 0.0031207756033294395 0 0.010066463470023176 0.0029615671376149988 0 0.010447039107140031 0.0031207756033294395 0 0.0098668005275604782 0.0031027806448017067 0 0.0098424195852760497 0.0029911214228854877 0 0.010447039107140031 0.0031207756033294395 0 0.0098668005275604782 0.0031027806448017067 0 0.010066463470023176 0.0029615671376149988 0 0.0098668005275604782 0.0031027806448017067 0 0.010066463470023176 0.0029615671376149988 0 0.0096843288176338416 0.0029959435514546277 0 0.0098668005275604782 0.0031027806448017067 0 0.0096600762586607387 0.0031596815885989505 0 0.0096843288176338416 0.0029959435514546277 0 0.0099181651205097181 0.0024891530961691504 0 0.010066463470023176 0.0029615671376149988 0 0.0096843288176338416 0.0029959435514546277 0 0.0099181651205097181 0.0024891530961691504 0 0.010537886739385471 0.0028709900366257791 0 0.010066463470023176 0.0029615671376149988 0 0.008119953925349567 0.0003926488130031585 0 0.0078747521849003334 -0.0026379599177828415 0 0.0040225645572780451 -0.0076631548463753961 0 0.0058896590180850137 -0.0059142257466613364 0 0.0045227508034330092 -0.0038774982557761304 0 0.0058292481050942358 -0.0044684337754152346 0 -0.0018428257105345916 -0.010779705077015185 0 -0.0026649656429751784 -0.011877520588212252 0 -0.0031195646386000886 -0.014217520216504201 0 0.0052725011990799467 -0.0065902817234213557 0 0.0049501395197374086 -0.0081124689077125018 0 0.0056082930693269169 -0.005728906225269486 0 0.0088423540670847581 0.0028918975114621231 0 0.0092587522251324494 0.0030987440726137211 0 0.0096600762586607387 0.0031596815885989505 0 -0.0018428257105345916 -0.010779705077015185 0 -0.0026649656429751784 -0.011877520588212252 0 -0.0022297891985482605 -0.0093911433541083462 0 0.0044169238669784158 -0.0071924982781290453 0 0.0040225645572780451 -0.0076631548463753961 0 0.0088423540670847581 0.0028918975114621231 0 0.0084982840328797736 0.0032078982555103944 0 0.0067454475233271315 0.0016166494318965486 0 0.0084982840328797736 0.0032078982555103944 0 0.0092587522251324494 0.0030987440726137211 0 0.0093485578996890945 0.0029978834254934042 0 0.0088423540670847581 0.0028918975114621231 0 0.0084982840328797736 0.0032078982555103944 0 0.0092587522251324494 0.0030987440726137211 0 0.0096158971421054992 0.0030800692221482945 0 0.0092587522251324494 0.0030987440726137211 0 0.0096600762586607387 0.0031596815885989505 0 0.0044169238669784158 -0.0071924982781290453 0 0.0058292481050942358 -0.0044684337754152346 0 0.0098668005275604782 0.0031027806448017067 0 0.0096158971421054992 0.0030800692221482945 0 0.0096600762586607387 0.0031596815885989505 0 0.0098668005275604782 0.0031027806448017067 0 0.0096158971421054992 0.0030800692221482945 0 0.0098424195852760497 0.0029911214228854877 0 0.0096158971421054992 0.0030800692221482945 0 0.0092587522251324494 0.0030987440726137211 0 0.0098424195852760497 0.0029911214228854877 0 0.0092587522251324494 0.0030987440726137211 0 0.0098424195852760497 0.0029911214228854877 0 0.0093485578996890945 0.0029978834254934042 0 0.0098424195852760497 0.0029911214228854877 0 0.0098878516566397387 0.0028760048512554699 0 0.0093485578996890945 0.0029978834254934042 0 0.0098424195852760497 0.0029911214228854877 0 0.0098878516566397387 0.0028760048512554699 0 0.010725302078227616 0.0028771323833138586 0 0.010447039107140031 0.0031207756033294395 0 0.0098424195852760497 0.0029911214228854877 0 0.010725302078227616 0.0028771323833138586 0 0.0080589554217245906 0.0021976422318696759 0 0.0076433187797285869 0.0019218174481603983 0 0.0084982840328797736 0.0032078982555103944 0 0.0039459483063557588 0.0017110869979378297 0 0.0067454475233271315 0.0016166494318965486 0 0.0084982840328797736 0.0032078982555103944 0 0.0098878516566397387 0.0028760048512554699 0 0.010770294808219762 0.0027880905055536294 0 0.0084982840328797736 0.0032078982555103944 0 0.0098878516566397387 0.0028760048512554699 0 0.0093485578996890945 0.0029978834254934042 0 0.0098878516566397387 0.0028760048512554699 0 0.010770294808219762 0.0027880905055536294 0 0.010725302078227616 0.0028771323833138586 0 0.010770294808219762 0.0027880905055536294 0 0.010725302078227616 0.0028771323833138586 0 0.01069709989609772 0.0024772773681798681 0 0.011217020949260283 0.0030744902360963023 0 0.01069709989609772 0.0024772773681798681 0 0.009834252967141105 0.0024592096771507859 0 0.011217020949260283 0.0030744902360963023 0 0.010725302078227616 0.0028771323833138586 0 0.01069709989609772 0.0024772773681798681 0 0.010770294808219762 0.0027880905055536294 0 0.01069709989609772 0.0024772773681798681 0 0.0099913707707236284 0.0013972245758078227 0 0.0076433187797285869 0.0019218174481603983 0 0.0073143909395849927 0.001471818110650521 0 0.0039459483063557588 0.0017110869979378297 0 0.0039424846359712136 0.00091163449788072865 0 0.0046782507734783249 0.00035726360627443162 0 0.0039424846359712136 0.00091163449788072865 0 0.0043594880288251271 0.00098488470589040418 0 0.0046782507734783249 0.00035726360627443162 0 0.0039424846359712136 0.00091163449788072865 0 0.0043594880288251271 0.00098488470589040418 0 0.0037865480083378584 0.00053230455727462872 0 0.0043594880288251271 0.00098488470589040418 0 0.0037865480083378584 0.00053230455727462872 0 0.0038418796520175895 0.0008768678949448471 0 0.0039424846359712136 0.00091163449788072865 0 0.0037865480083378584 0.00053230455727462872 0 0.0045805703387891642 0.00069300906152811601 0 0.0037865480083378584 0.00053230455727462872 0 0.0037288437202111675 4.5613752121063603e-05 0 0.0030873006563800795 0.00031829970902753609 0 0.0037865480083378584 0.00053230455727462872 0 0.0045805703387891642 0.00069300906152811601 0 0.0037288437202111675 4.5613752121063603e-05 0 0.0039459483063557588 0.0017110869979378297 0 0.0039424846359712136 0.00091163449788072865 0 0.0045805703387891642 0.00069300906152811601 0 0.0039459483063557588 0.0017110869979378297 0 0.0067454475233271315 0.0016166494318965486 0 0.0045805703387891642 0.00069300906152811601 0 0.0067454475233271315 0.0016166494318965486 0 0.0054520413344565071 0.00067365872320909184 0 0.0058786829813863208 0.00016495146687547617 0 0.0067454475233271315 0.0016166494318965486 0 0.0054520413344565071 0.00067365872320909184 0 0.0045805703387891642 0.00069300906152811601 0 0.0045805703387891642 0.00069300906152811601 0 0.0048841106590640816 0.00039548402511955762 0 0.0037288437202111675 4.5613752121063603e-05 0 0.0039830410381151262 -0.002723949506659031 0 0.0038924203736327915 -0.0018063091734002422 0 0.0037288437202111675 4.5613752121063603e-05 0 0.0058786829813863208 0.00016495146687547617 0 0.0020543608165637141 -0.00047174967516157822 0 0.0054520413344565071 0.00067365872320909184 0 0.0045805703387891642 0.00069300906152811601 0 0.0048841106590640816 0.00039548402511955762 0 0.0048841106590640816 0.00039548402511955762 0 0.0037288437202111675 4.5613752121063603e-05 0 0.0058786829813863208 0.00016495146687547617 0 0.0054520413344565071 0.00067365872320909184 0 0.0048841106590640816 0.00039548402511955762 0 0.0058786829813863208 0.00016495146687547617 0 -0.0018447602208998763 -0.007978200221448262 0 -0.0023325916446763242 -0.0058169601522740861 0 -0.00085693734886941751 -0.0025176019275868753 0 -0.00013638062322528599 -0.0068796499628716781 0 -0.0016902766330697027 -0.0070908694813725066 0 -0.00085693734886941751 -0.0025176019275868753 0 0.0027937403126272816 -0.0083305923342465414 0 0.0024867996467435529 -0.0069653416681104445 0 -0.0028861057516068921 -0.0047110589240156051 0 -0.0023325916446763242 -0.0058169601522740861 0 -0.00085693734886941751 -0.0025176019275868753 0 -0.0033538654133680387 -0.0064622996429776263 0 -0.0043348483935276121 -0.0074734455357708162 0 -0.0044305612452437172 -0.0054078434585089017 0 -0.0028861057516068921 -0.0047110589240156051 0 -0.0033538654133680387 -0.0064622996429776263 0 -0.0044305612452437172 -0.0054078434585089017 0 -0.0028861057516068921 -0.0047110589240156051 0 -0.0023325916446763242 -0.0058169601522740861 0 -0.0033538654133680387 -0.0064622996429776263 0 -0.0023325916446763242 -0.0058169601522740861 0 -0.0033538654133680387 -0.0064622996429776263 0 -0.0028848790824165175 -0.0070630073481637041 0 -0.0033538654133680387 -0.0064622996429776263 0 -0.0028848790824165175 -0.0070630073481637041 0 -0.0043348483935276121 -0.0074734455357708162 0 -0.0018447602208998763 -0.007978200221448262 0 -0.0028848790824165175 -0.0070630073481637041 0 -0.0043348483935276121 -0.0074734455357708162 0 -0.0018447602208998763 -0.007978200221448262 0 -0.0023325916446763242 -0.0058169601522740861 0 -0.0028848790824165175 -0.0070630073481637041 0 0.0027937403126272816 -0.0083305923342465414 0 0.0040225645572780451 -0.0076631548463753961 0 -0.0018428257105345916 -0.010779705077015185 0 -0.00013638062322528599 -0.0068796499628716781 0 -0.0022297891985482605 -0.0093911433541083462 0 0.0075729473197267052 -0.007789913805651953 0 0.0076656092840374753 -0.0074584135217057876 0 0.0080687606164748273 -0.0075071953987917465 0 0.0088423540670847581 0.0028918975114621231 0 0.0067454475233271315 0.0016166494318965486 0 0.0058786829813863208 0.00016495146687547617 0 0.0045227508034330092 -0.0038774982557761304 0 0.0039830410381151262 -0.002723949506659031 0 -0.00013638062322528599 -0.0068796499628716781 0 -0.0016902766330697027 -0.0070908694813725066 0 -0.0022297891985482605 -0.0093911433541083462 0 0.0075908778779455698 0.0014751289846477117 0 0.0084271861494485678 0.0018596761820195925 0 0.0073027158390690395 0.00082485207926736106 0 0.0075908778779455698 0.0014751289846477117 0 0.0073027158390690395 0.00082485207926736106 0 0.0073716849462437724 0.0013227680789201282 0 0.0075908778779455698 0.0014751289846477117 0 0.0073716849462437724 0.0013227680789201282 0 0.0075857686558001612 0.0014387193337912216 0 0.0076110502458970521 0.0016638370421096149 0 0.0075908778779455698 0.0014751289846477117 0 0.0075857686558001612 0.0014387193337912216 0 0.0080403842577163494 0.0020165726286002941 0 0.0076110502458970521 0.0016638370421096149 0 0.0075908778779455698 0.0014751289846477117 0 0.0080403842577163494 0.0020165726286002941 0 0.0075908778779455698 0.0014751289846477117 0 0.0084271861494485678 0.0018596761820195925 0 0.0089532301086348506 0.0027505317121585631 0 0.0080403842577163494 0.0020165726286002941 0 0.0084271861494485678 0.0018596761820195925 0 0.0089532301086348506 0.0027505317121585631 0 0.0084271861494485678 0.0018596761820195925 0 0.009834252967141105 0.0024592096771507859 0 0.0084271861494485678 0.0018596761820195925 0 0.009834252967141105 0.0024592096771507859 0 0.0099913707707236284 0.0013972245758078227 0 0.01069709989609772 0.0024772773681798681 0 0.009834252967141105 0.0024592096771507859 0 0.0099913707707236284 0.0013972245758078227 0 0.0084271861494485678 0.0018596761820195925 0 0.0099913707707236284 0.0013972245758078227 0 0.0073027158390690395 0.00082485207926736106 0 0.0073143909395849927 0.001471818110650521 0 0.0072124896703745301 0.0013015026708599583 0 0.0046782507734783249 0.00035726360627443162 0 0.0058681178809794178 0.0015981821027765577 0 0.0073027158390690395 0.00082485207926736106 0 0.0043594880288251271 0.00098488470589040418 0 0.0046782507734783249 0.00035726360627443162 0 0.0058681178809794178 0.0015981821027765577 0 0.0043594880288251271 0.00098488470589040418 0 0.0058681178809794178 0.0015981821027765577 0 0.0043777560276426963 0.0016062472570056131 0 0.0058681178809794178 0.0015981821027765577 0 0.0069036616881519323 0.0017429305464509168 0 0.0073027158390690395 0.00082485207926736106 0 0.0069036616881519323 0.0017429305464509168 0 0.0073027158390690395 0.00082485207926736106 0 0.0073716849462437724 0.0013227680789201282 0 0.0069036616881519323 0.0017429305464509168 0 0.0073716849462437724 0.0013227680789201282 0 0.0073036506814587523 0.001781636078376912 0 0.0073036506814587523 0.001781636078376912 0 0.0079856107863030511 0.0016624688760023189 0 0.0077386004681840679 0.0014694114738668356 0 0.0073036506814587523 0.001781636078376912 0 0.0079856107863030511 0.0016624688760023189 0 0.0072858611916499219 0.0022482132905819411 0 0.0079856107863030511 0.0016624688760023189 0 0.0077386004681840679 0.0014694114738668356 0 0.0082450885697203172 0.00148177589610216 0 0.0073716849462437724 0.0013227680789201282 0 0.0073036506814587523 0.001781636078376912 0 0.0077386004681840679 0.0014694114738668356 0 0.0077386004681840679 0.0014694114738668356 0 0.007908553768736698 0.0014049598239686508 0 0.0075857686558001612 0.0014387193337912216 0 0.0073716849462437724 0.0013227680789201282 0 0.0077386004681840679 0.0014694114738668356 0 0.0075857686558001612 0.0014387193337912216 0 0.0077386004681840679 0.0014694114738668356 0 0.007908553768736698 0.0014049598239686508 0 0.0082450885697203172 0.00148177589610216 0 0.007908553768736698 0.0014049598239686508 0 0.0077465843462698955 0.0014177412357711508 0 0.008140804386493089 0.0012061371217209384 0 0.007908553768736698 0.0014049598239686508 0 0.0075857686558001612 0.0014387193337912216 0 0.0077465843462698955 0.0014177412357711508 0 0.0076110502458970521 0.0016638370421096149 0 0.0075857686558001612 0.0014387193337912216 0 0.0077465843462698955 0.0014177412357711508 0 0.0089006995166262624 0.0013083435452284815 0 0.0088802346628103542 0.0014474777816359558 0 0.0096126574914155872 0.0012559819045224578 0 0.0089006995166262624 0.0013083435452284815 0 0.0084595544692698619 0.0013698066705802375 0 0.0086665008297460207 0.0010410111856459336 0 0.0089006995166262624 0.0013083435452284815 0 0.0096126574914155872 0.0012559819045224578 0 0.0094101084513012242 0.00055492197512342644 0 0.0084595544692698619 0.0013698066705802375 0 0.008140804386493089 0.0012061371217209384 0 0.0086665008297460207 0.0010410111856459336 0 0.007908553768736698 0.0014049598239686508 0 0.0084595544692698619 0.0013698066705802375 0 0.008140804386493089 0.0012061371217209384 0 0.007908553768736698 0.0014049598239686508 0 0.0084595544692698619 0.0013698066705802375 0 0.0082450885697203172 0.00148177589610216 0 0.0084595544692698619 0.0013698066705802375 0 0.0088802346628103542 0.0014474777816359558 0 0.0082450885697203172 0.00148177589610216 0 0.0089006995166262624 0.0013083435452284815 0 0.0084595544692698619 0.0013698066705802375 0 0.0088802346628103542 0.0014474777816359558 0 0.0088802346628103542 0.0014474777816359558 0 0.0085192290873857598 0.0015188350357198256 0 0.0087238087879677687 0.0014171585175374762 0 0.0088802346628103542 0.0014474777816359558 0 0.0085192290873857598 0.0015188350357198256 0 0.0082450885697203172 0.00148177589610216 0 0.0079856107863030511 0.0016624688760023189 0 0.0085192290873857598 0.0015188350357198256 0 0.0082450885697203172 0.00148177589610216 0 0.0079856107863030511 0.0016624688760023189 0 0.0085192290873857598 0.0015188350357198256 0 0.0084463556168255689 0.0017267662257538926 0 0.0085192290873857598 0.0015188350357198256 0 0.0085350003893445714 0.0013645356801188719 0 0.0084463556168255689 0.0017267662257538926 0 0.0085350003893445714 0.0013645356801188719 0 0.0076593134405248996 0.0011717679219611632 0 0.0083279243708618937 0.0011530571238655368 0 0.0076593134405248996 0.0011717679219611632 0 0.0083279243708618937 0.0011530571238655368 0 0.0078193016196879354 0.00089140600558380422 0 0.0085350003893445714 0.0013645356801188719 0 0.0083279243708618937 0.0011530571238655368 0 0.0089747707023328169 0.0013170564313670563 0 0.0083279243708618937 0.0011530571238655368 0 0.0089975668452637932 0.0010851127759686199 0 0.008476418104766589 0.00077227858485259067 0 0.0083279243708618937 0.0011530571238655368 0 0.0089975668452637932 0.0010851127759686199 0 0.0089747707023328169 0.0013170564313670563 0 0.0088802346628103542 0.0014474777816359558 0 0.0089747707023328169 0.0013170564313670563 0 0.0087238087879677687 0.0014171585175374762 0 0.0085192290873857598 0.0015188350357198256 0 0.0085350003893445714 0.0013645356801188719 0 0.0087238087879677687 0.0014171585175374762 0 0.0085350003893445714 0.0013645356801188719 0 0.0089747707023328169 0.0013170564313670563 0 0.0087238087879677687 0.0014171585175374762 0 0.0021825715062623366 -1.4430546605270297e-06 0 0.0013263716494593858 -3.9440822973475712e-05 0 -0.0030394623123325996 0.00017081258317046293 0 0.0077984114138559173 0.0008002576795904105 0 0.0071395554663194992 0.00097226435369354811 0 0.0078193016196879354 0.00089140600558380422 0 0.0077984114138559173 0.0008002576795904105 0 0.0078193016196879354 0.00089140600558380422 0 0.007999318541515232 0.00051039092116001437 0 0.0076593134405248996 0.0011717679219611632 0 0.0071395554663194992 0.00097226435369354811 0 0.0078193016196879354 0.00089140600558380422 0 0.0083279243708618937 0.0011530571238655368 0 0.0078193016196879354 0.00089140600558380422 0 0.008476418104766589 0.00077227858485259067 0 0.008476418104766589 0.00077227858485259067 0 0.007999318541515232 0.00051039092116001437 0 0.00847774161739096 0.00055240195670399283 0 0.0078193016196879354 0.00089140600558380422 0 0.008476418104766589 0.00077227858485259067 0 0.007999318541515232 0.00051039092116001437 0 0.0021825715062623366 -1.4430546605270297e-06 0 0.0013263716494593858 -3.9440822973475712e-05 0 0.0070816728111230149 7.6918594697270132e-05 0 0.0077984114138559173 0.0008002576795904105 0 0.007999318541515232 0.00051039092116001437 0 0.0070816728111230149 7.6918594697270132e-05 0 0.0021825715062623366 -1.4430546605270297e-06 0 0.0077924410955355818 1.8064284238665601e-06 0 0.0070816728111230149 7.6918594697270132e-05 0 0.0020196889854669203 0.0010624372414101912 0 0.0027518186526987167 0.0012538731829075756 0 0.007999318541515232 0.00051039092116001437 0 0.0070816728111230149 7.6918594697270132e-05 0 0.00847774161739096 0.00055240195670399283 0 0.0077924410955355818 1.8064284238665601e-06 0 0.0088082317589158517 0.00048187679946097529 0 0.010897452520809743 0.00055162902801373726 0 0.0077924410955355818 1.8064284238665601e-06 0 0.0070816728111230149 7.6918594697270132e-05 0 0.0088082317589158517 0.00048187679946097529 0 0.0070816728111230149 7.6918594697270132e-05 0 0.0088082317589158517 0.00048187679946097529 0 0.00847774161739096 0.00055240195670399283 0 0.0088082317589158517 0.00048187679946097529 0 0.0094525649051570813 0.00088759363027443615 0 0.010897452520809743 0.00055162902801373726 0 0.0088082317589158517 0.00048187679946097529 0 0.0094525649051570813 0.00088759363027443615 0 0.00847774161739096 0.00055240195670399283 0 0.008476418104766589 0.00077227858485259067 0 0.0094525649051570813 0.00088759363027443615 0 0.00847774161739096 0.00055240195670399283 0 0.0089975668452637932 0.0010851127759686199 0 0.008476418104766589 0.00077227858485259067 0 0.0094525649051570813 0.00088759363027443615 0 0.0094525649051570813 0.00088759363027443615 0 0.010850215380463806 0.0010163273305150754 0 0.00965063145691843 0.0011975870112393475 0 0.0094525649051570813 0.00088759363027443615 0 0.010850215380463806 0.0010163273305150754 0 0.010897452520809743 0.00055162902801373726 0 0.010850215380463806 0.0010163273305150754 0 0.010897452520809743 0.00055162902801373726 0 0.012480309253975915 0.00058978834467995054 0 0.0077924410955355818 1.8064284238665601e-06 0 0.010897452520809743 0.00055162902801373726 0 0.01339805247858716 1.4396002033967224e-06 0 0.0088802346628103542 0.0014474777816359558 0 0.0089747707023328169 0.0013170564313670563 0 0.0093918781968472063 0.0013235966114389587 0 0.0088802346628103542 0.0014474777816359558 0 0.0093918781968472063 0.0013235966114389587 0 0.0096126574914155872 0.0012559819045224578 0 0.0089747707023328169 0.0013170564313670563 0 0.0093918781968472063 0.0013235966114389587 0 0.00965063145691843 0.0011975870112393475 0 0.0089975668452637932 0.0010851127759686199 0 0.0089747707023328169 0.0013170564313670563 0 0.00965063145691843 0.0011975870112393475 0 0.0089975668452637932 0.0010851127759686199 0 0.0094525649051570813 0.00088759363027443615 0 0.00965063145691843 0.0011975870112393475 0 0.0093918781968472063 0.0013235966114389587 0 0.00965063145691843 0.0011975870112393475 0 0.010178958186213876 0.0011646801245648857 0 0.010850215380463806 0.0010163273305150754 0 0.010178958186213876 0.0011646801245648857 0 0.011079733226887415 0.00090828817986108115 0 0.010850215380463806 0.0010163273305150754 0 0.00965063145691843 0.0011975870112393475 0 0.010178958186213876 0.0011646801245648857 0 0.010178958186213876 0.0011646801245648857 0 0.0096126574914155872 0.0012559819045224578 0 0.011079733226887415 0.00090828817986108115 0 0.0093918781968472063 0.0013235966114389587 0 0.010178958186213876 0.0011646801245648857 0 0.0096126574914155872 0.0012559819045224578 0 0.0096126574914155872 0.0012559819045224578 0 0.011079733226887415 0.00090828817986108115 0 0.0094101084513012242 0.00055492197512342644 0 0.011079733226887415 0.00090828817986108115 0 0.014957870590187881 5.8276295559787889e-05 0 0.010789100395464773 -0.00084951043841637562 0 0.01441498115811984 -8.5414956784022984e-06 0 0.01411220698338545 -7.2112670712741196e-05 0 0.011079733226887415 0.00090828817986108115 0 0.010789100395464773 -0.00084951043841637562 0 0.0094101084513012242 0.00055492197512342644 0 0.010789100395464773 -0.00084951043841637562 0 0.0091959863118928429 -0.00049289441770187907 0 0.0094101084513012242 0.00055492197512342644 0 0.010897452520809743 0.00055162902801373726 0 0.01339805247858716 1.4396002033967224e-06 0 0.012480309253975915 0.00058978834467995054 0 0.010850215380463806 0.0010163273305150754 0 0.011079733226887415 0.00090828817986108115 0 0.012480309253975915 0.00058978834467995054 0 0.011079733226887415 0.00090828817986108115 0 0.012480309253975915 0.00058978834467995054 0 0.014957870590187881 5.8276295559787889e-05 0 0.01339805247858716 1.4396002033967224e-06 0 0.012480309253975915 0.00058978834467995054 0 0.014957870590187881 5.8276295559787889e-05 0 0.01339805247858716 1.4396002033967224e-06 0 0.014957870590187881 5.8276295559787889e-05 0 0.019003306527922929 1.4044480972020288e-08 0 0.014957870590187881 5.8276295559787889e-05 0 0.019003306527922929 1.4044480972020288e-08 0 0.018349608931789788 0.00019556549609804012 0 0.014957870590187881 5.8276295559787889e-05 0 0.018349608931789788 0.00019556549609804012 0 0.016587028629501153 0.00029629492625421824 0 0.022565481944801329 -0.00035768341087972773 0 0.018349608931789788 0.00019556549609804012 0 0.016707518100300071 -0.00083962405772194438 0 0.021185490993569301 -0.00023308017051962933 0 0.02076940058684635 -0.00011983568643990682 0 0.022565481944801329 -0.00035768341087972773 0 0.019003306527922929 1.4044480972020288e-08 0 0.018349608931789788 0.00019556549609804012 0 0.024611831678162003 6.3233274267759697e-07 0 0.022565481944801329 -0.00035768341087972773 0 0.019003306527922929 1.4044480972020288e-08 0 0.01411220698338545 -7.2112670712741196e-05 0 0.014468227863187777 7.9993082977044606e-05 0 0.016320620530731918 -6.6610432811949137e-05 0 0.01591928399109472 -0.00031065342780498922 0 0.015781593282604988 7.6020979837953241e-05 0 0.016320620530731918 -6.6610432811949137e-05 0 0.016555926783354977 0.00016885984455397319 0 0.015781593282604988 7.6020979837953241e-05 0 0.014957870590187881 5.8276295559787889e-05 0 0.016555926783354977 0.00016885984455397319 0 0.016587028629501153 0.00029629492625421824 0 0.016320620530731918 -6.6610432811949137e-05 0 0.016555926783354977 0.00016885984455397319 0 0.016587028629501153 0.00029629492625421824 0 0.018349608931789788 0.00019556549609804012 0 0.016587028629501153 0.00029629492625421824 0 0.016707518100300071 -0.00083962405772194438 0 0.016320620530731918 -6.6610432811949137e-05 0 0.016587028629501153 0.00029629492625421824 0 0.016707518100300071 -0.00083962405772194438 0 0.024479888826764634 3.0246195866970963e-05 0 0.024343709657447882 -0.00044597809179070333 0 0.024844406467973604 -0.00049601678635593875 0 0.016320620530731918 -6.6610432811949137e-05 0 0.016707518100300071 -0.00083962405772194438 0 0.01591928399109472 -0.00031065342780498922 0 0.024479888826764634 3.0246195866970963e-05 0 0.024962678368895801 -0.00031063770861733896 0 0.024844406467973604 -0.00049601678635593875 0 0.02076940058684635 -0.00011983568643990682 0 0.020566991595377566 0.00020376251750229792 0 0.024962678368895801 -0.00031063770861733896 0 0.024844406467973604 -0.00049601678635593875 0 0.025360917193021359 -0.0005799040898894171 0 0.020566991595377566 0.00020376251750229792 0 0.020419749005874469 0.00093292082385433735 0 0.036645487658537368 0.00051461815808118334 0 0.037244148961821905 0.00097207874234491918 0 0.036261720369225821 0.0012259113051750706 0 0.01591928399109472 -0.00031065342780498922 0 0.015781593282604988 7.6020979837953241e-05 0 0.01529525939345361 -0.00012103662501927903 0 0.0091959863118928429 -0.00049289441770187907 0 0.0085890617982437596 0.00011518844000987188 0 0.008269211210491699 -0.00023967354033843863 0 0.015781593282604988 7.6020979837953241e-05 0 0.01523332533791167 -7.6407435187904134e-05 0 0.01529525939345361 -0.00012103662501927903 0 0.014468227863187777 7.9993082977044606e-05 0 0.018952415980682216 0.0012991074806712158 0 0.0085890617982437596 0.00011518844000987188 0 0.008269211210491699 -0.00023967354033843863 0 0.0081915213119594533 0.00036775067629905627 0 0.035656252420132005 0.0030444757775159072 0 0.035344911651843024 0.0028713058719370536 0 0.035184639209486612 0.0032310562889795937 0 0.020419749005874469 0.00093292082385433735 0 0.019826965740333033 0.0014333162662066511 0 0.018751270321814999 0.0017147696217384438 0 0.018693785112394598 0.0017520025737819396 0 0.018803754439815242 0.0017317341610476736 0 0.018952415980682216 0.0012991074806712158 0 0.020419749005874469 0.00093292082385433735 0 0.037244148961821905 0.00097207874234491918 0 0.035943604376935175 0.0020725541035137999 0 0.036261720369225821 0.0012259113051750706 0 0.035656252420132005 0.0030444757775159072 0 0.035546581035514078 0.0026018398744703207 0 0.035943604376935175 0.0020725541035137999 0 0.035546581035514078 0.0026018398744703207 0 0.035344911651843024 0.0028713058719370536 0 0.035240758625247337 0.002429548243548187 0 0.037244148961821905 0.00097207874234491918 0 0.035656252420132005 0.0030444757775159072 0 0.035943604376935175 0.0020725541035137999 0 0.035656252420132005 0.0030444757775159072 0 0.035546581035514078 0.0026018398744703207 0 0.035344911651843024 0.0028713058719370536 0 0.027882561419615974 -0.00077334249671427344 0 0.020419749005874469 0.00093292082385433735 0 0.035546581035514078 0.0026018398744703207 0 0.035943604376935175 0.0020725541035137999 0 0.035240758625247337 0.002429548243548187 0 0.035629653995596818 0.0014452162435414345 0 0.035072449488565381 0.0016451803345001565 0 0.035240758625247337 0.002429548243548187 0 0.035943604376935175 0.0020725541035137999 0 0.035629653995596818 0.0014452162435414345 0 0.035240758625247337 0.002429548243548187 0 0.035943604376935175 0.0020725541035137999 0 0.036261720369225821 0.0012259113051750706 0 0.035629653995596818 0.0014452162435414345 0 0.034240528671924231 0.0011436883952417485 0 0.035072449488565381 0.0016451803345001565 0 0.034559710588914168 0.0021148280819581621 0 0.034476891378729967 0.0028366157753093716 0 0.032349416668765597 0.0034826808496889851 0 0.035184639209486612 0.0032310562889795937 0 0.035179474791931287 0.0007223702639885172 0 0.035629653995596818 0.0014452162435414345 0 0.035072449488565381 0.0016451803345001565 0 0.033713130671640848 0.0024521963349017533 0 0.034476891378729967 0.0028366157753093716 0 0.032349416668765597 0.0034826808496889851 0 0.025127747725822002 0.0026288702466066198 0 0.019826965740333033 0.0014333162662066511 0 0.035072449488565381 0.0016451803345001565 0 0.034559710588914168 0.0021148280819581621 0 0.035240758625247337 0.002429548243548187 0 0.034240528671924231 0.0011436883952417485 0 0.034559710588914168 0.0021148280819581621 0 0.033713130671640848 0.0024521963349017533 0 0.034559710588914168 0.0021148280819581621 0 0.033713130671640848 0.0024521963349017533 0 0.034476891378729967 0.0028366157753093716 0 0.035344911651843024 0.0028713058719370536 0 0.035063155148045574 0.0028479747919132547 0 0.035184639209486612 0.0032310562889795937 0 0.035344911651843024 0.0028713058719370536 0 0.035063155148045574 0.0028479747919132547 0 0.035240758625247337 0.002429548243548187 0 0.034476891378729967 0.0028366157753093716 0 0.035063155148045574 0.0028479747919132547 0 0.035240758625247337 0.002429548243548187 0 0.034476891378729967 0.0028366157753093716 0 0.035063155148045574 0.0028479747919132547 0 0.035184639209486612 0.0032310562889795937 0 0.034559710588914168 0.0021148280819581621 0 0.034476891378729967 0.0028366157753093716 0 0.035240758625247337 0.002429548243548187 0 0.032353768666468323 0.001591609220123453 0 0.033713130671640848 0.0024521963349017533 0 0.032349416668765597 0.0034826808496889851 0 0.032353768666468323 0.001591609220123453 0 0.034240528671924231 0.0011436883952417485 0 0.033713130671640848 0.0024521963349017533 0 0.02395548266624083 0.0023159279530094094 0 0.023771545007076785 0.0033964249715551253 0 0.025906946414482327 0.0028684027959581422 0 0.0073257402420729588 0.0026464783483877864 0 0.0069190389041214433 0.0024101828920718351 0 0.0074854976471635448 0.0018769846746133729 0 0.022325749983514658 0.0028010240633853404 0 0.02395548266624083 0.0023159279530094094 0 0.023771545007076785 0.0033964249715551253 0 0.0073257402420729588 0.0026464783483877864 0 0.0065114598995347963 0.0027655386680394017 0 0.0069190389041214433 0.0024101828920718351 0 0.016293152690403833 0.0026931738868917446 0 0.019826965740333033 0.0014333162662066511 0 0.0064416034070549242 0.00274416721045132 0 0.0065114598995347963 0.0027655386680394017 0 0.0069190389041214433 0.0024101828920718351 0 0.018952415980682216 0.0012991074806712158 0 0.019826965740333033 0.0014333162662066511 0 0.018952415980682216 0.0012991074806712158 0 0.012891774613376041 0.0031840567307654696 0 0.008269211210491699 -0.00023967354033843863 0 0.0077566625732664405 0.00055243325344000549 0 0.0081915213119594533 0.00036775067629905627 0 0.0081915213119594533 0.00036775067629905627 0 0.0078750194380102067 0.0010668961135730198 0 0.008404828386252285 0.00066970612069146924 0 0.0077566625732664405 0.00055243325344000549 0 0.0081915213119594533 0.00036775067629905627 0 0.0078750194380102067 0.0010668961135730198 0 0.0077566625732664405 0.00055243325344000549 0 0.0078750194380102067 0.0010668961135730198 0 0.0074854976471635448 0.0018769846746133729 0 0.0078750194380102067 0.0010668961135730198 0 0.0074854976471635448 0.0018769846746133729 0 0.007631526108232368 0.0015220144002911129 0 0.012891774613376041 0.0031840567307654696 0 0.011453643471542502 0.0035044696583494466 0 0.0078750194380102067 0.0010668961135730198 0 0.0077465843462698955 0.0014177412357711508 0 0.007631526108232368 0.0015220144002911129 0 0.0076110502458970521 0.0016638370421096149 0 0.0074854976471635448 0.0018769846746133729 0 0.007631526108232368 0.0015220144002911129 0 0.0076110502458970521 0.0016638370421096149 0 0.0077465843462698955 0.0014177412357711508 0 0.007631526108232368 0.0015220144002911129 0 0.0078750194380102067 0.0010668961135730198 0 0.008140804386493089 0.0012061371217209384 0 0.008404828386252285 0.00066970612069146924 0 0.0078750194380102067 0.0010668961135730198 0 0.0077465843462698955 0.0014177412357711508 0 0.008140804386493089 0.0012061371217209384 0 0.0086665008297460207 0.0010410111856459336 0 0.0088695190676457928 0.00037931045780483272 0 0.008404828386252285 0.00066970612069146924 0 0.008140804386493089 0.0012061371217209384 0 0.0086665008297460207 0.0010410111856459336 0 0.008404828386252285 0.00066970612069146924 0 0.0086665008297460207 0.0010410111856459336 0 0.0094101084513012242 0.00055492197512342644 0 0.0088695190676457928 0.00037931045780483272 0 0.0089006995166262624 0.0013083435452284815 0 0.0086665008297460207 0.0010410111856459336 0 0.0094101084513012242 0.00055492197512342644 0 0.0091959863118928429 -0.00049289441770187907 0 0.0094101084513012242 0.00055492197512342644 0 0.0088695190676457928 0.00037931045780483272 0 0.0091959863118928429 -0.00049289441770187907 0 0.0085890617982437596 0.00011518844000987188 0 0.0088695190676457928 0.00037931045780483272 0 0.0085890617982437596 0.00011518844000987188 0 0.0088695190676457928 0.00037931045780483272 0 0.008404828386252285 0.00066970612069146924 0 0.0085890617982437596 0.00011518844000987188 0 0.0081915213119594533 0.00036775067629905627 0 0.008404828386252285 0.00066970612069146924 0 0.01489981598545136 -0.010623953385355033 0 0.014202005510154004 -0.0089344915551420757 0 0.016570041350353244 -0.0080581665665115775 0 0.01489981598545136 -0.010623953385355033 0 0.012525164341049402 -0.0094025692069839226 0 0.014202005510154004 -0.0089344915551420757 0 0.024690130026170813 -0.010132620379458833 0 0.025254337029527191 -0.010401708901093206 0 0.01489981598545136 -0.010623953385355033 0 0.018205500402222668 -0.010810774715981058 0 0.016570041350353244 -0.0080581665665115775 0 0.018205500402222668 -0.010810774715981058 0 0.016570041350353244 -0.0080581665665115775 0 0.020846522242871167 -0.010150978222582437 0 0.01489981598545136 -0.010623953385355033 0 0.016708047208995897 -0.011958728278576114 0 0.018205500402222668 -0.010810774715981058 0 0.016708047208995897 -0.011958728278576114 0 0.018205500402222668 -0.010810774715981058 0 0.018069605091855304 -0.012998046810538831 0 0.018205500402222668 -0.010810774715981058 0 0.018069605091855304 -0.012998046810538831 0 0.020854446164350341 -0.012051923302401034 0 0.018205500402222668 -0.010810774715981058 0 0.020846522242871167 -0.010150978222582437 0 0.020854446164350341 -0.012051923302401034 0 0.018069605091855304 -0.012998046810538831 0 0.020854446164350341 -0.012051923302401034 0 0.019709248457090458 -0.014356346961428856 0 0.016708047208995897 -0.011958728278576114 0 0.018069605091855304 -0.012998046810538831 0 0.015752317393911228 -0.013792826052343998 0 0.018069605091855304 -0.012998046810538831 0 0.015752317393911228 -0.013792826052343998 0 0.017485982912391177 -0.015057651470318553 0 0.01489981598545136 -0.010623953385355033 0 0.015752317393911228 -0.013792826052343998 0 0.012135773039125204 -0.013191385138334163 0 0.01489981598545136 -0.010623953385355033 0 0.016708047208995897 -0.011958728278576114 0 0.015752317393911228 -0.013792826052343998 0 0.013072898588986163 -0.012191590033624633 0 0.011613013656679074 -0.011916147352080476 0 0.012525164341049402 -0.0094025692069839226 0 0.013072898588986163 -0.012191590033624633 0 0.011613013656679074 -0.011916147352080476 0 0.011240060235521801 -0.013916358568396375 0 0.011117507379982374 -0.0111783418846415 0 0.011613013656679074 -0.011916147352080476 0 0.010725764588810067 -0.012575787135101968 0 0.011117507379982374 -0.0111783418846415 0 0.011397700437001052 -0.0099373117461592411 0 0.012525164341049402 -0.0094025692069839226 0 0.011117507379982374 -0.0111783418846415 0 0.011613013656679074 -0.011916147352080476 0 0.012525164341049402 -0.0094025692069839226 0 0.012284324501673098 -0.013853703830796763 0 0.012122197465796371 -0.011722822615677595 0 0.01489981598545136 -0.010623953385355033 0 0.012135773039125204 -0.013191385138334163 0 0.012525164341049402 -0.0094025692069839226 0 0.012525164341049402 -0.0094025692069839226 0 0.011430195434462871 -0.0091466108671884767 0 0.013062502154822022 -0.0081560316977446218 0 0.012525164341049402 -0.0094025692069839226 0 0.013062502154822022 -0.0081560316977446218 0 0.014202005510154004 -0.0089344915551420757 0 0.011397700437001052 -0.0099373117461592411 0 0.012525164341049402 -0.0094025692069839226 0 0.011430195434462871 -0.0091466108671884767 0 0.011430195434462871 -0.0091466108671884767 0 0.013062502154822022 -0.0081560316977446218 0 0.011640140292002638 -0.0081749180410071159 0 0.024092924227024158 -0.010183203159645934 0 0.023699306436538933 -0.010327384035639313 0 0.035111754035919984 -0.012628965148478846 0 0.036382678345192189 -0.013310692851377924 0 0.034475664217117695 -0.012095726912121942 0 0.032399405150407505 -0.012097580806078125 0 0.034330652209378969 -0.013628860437164995 0 0.034475664217117695 -0.012095726912121942 0 0.031420351608750001 -0.0097325870611928104 0 0.032399405150407505 -0.012097580806078125 0 0.024092924227024158 -0.010183203159645934 0 0.024690130026170813 -0.010132620379458833 0 0.013062502154822022 -0.0081560316977446218 0 0.014202005510154004 -0.0089344915551420757 0 0.016570041350353244 -0.0080581665665115775 0 0.031420351608750001 -0.0097325870611928104 0 0.029562906564337091 -0.011026468069090392 0 0.032399405150407505 -0.012097580806078125 0 0.031420351608750001 -0.0097325870611928104 0 0.029562906564337091 -0.011026468069090392 0 0.027645966292948812 -0.0099108654224190646 0 0.029562906564337091 -0.011026468069090392 0 0.032399405150407505 -0.012097580806078125 0 0.029116171064710539 -0.012967038651663135 0 0.032399405150407505 -0.012097580806078125 0 0.029116171064710539 -0.012967038651663135 0 0.034819880122910513 -0.014818711677418665 0 0.031466766509231164 -0.011816443072837864 0 0.029007002519951936 -0.011899503096279861 0 0.028186034076464615 -0.010864054542848906 0 0.031466766509231164 -0.011816443072837864 0 0.029007002519951936 -0.011899503096279861 0 0.029536657562045005 -0.013818014708637883 0 0.027007948999267971 -0.011759350409648846 0 0.026962707118497659 -0.012434965081335249 0 0.027837647072860128 -0.012672723017116794 0 0.027006286623735446 -0.011220378117877863 0 0.029007002519951936 -0.011899503096279861 0 0.029536657562045005 -0.013818014708637883 0 0.027006286623735446 -0.011220378117877863 0 0.027007948999267971 -0.011759350409648846 0 0.027837647072860128 -0.012672723017116794 0 0.028818216440018463 -0.011946212427120861 0 0.029727059568929431 -0.012721297079954119 0 0.027007948999267971 -0.011759350409648846 0 0.026273386112261692 -0.012191073811300097 0 0.026962707118497659 -0.012434965081335249 0 0.027006286623735446 -0.011220378117877863 0 0.029007002519951936 -0.011899503096279861 0 0.028186034076464615 -0.010864054542848906 0 0.027006286623735446 -0.011220378117877863 0 0.027007948999267971 -0.011759350409648846 0 0.026639755725296383 -0.010028180153849176 0 0.027006286623735446 -0.011220378117877863 0 0.028186034076464615 -0.010864054542848906 0 0.026639755725296383 -0.010028180153849176 0 0.028186034076464615 -0.010864054542848906 0 0.027982260447178119 -0.0097314742153065577 0 0.026639755725296383 -0.010028180153849176 0 0.031466766509231164 -0.011816443072837864 0 0.028186034076464615 -0.010864054542848906 0 0.027982260447178119 -0.0097314742153065577 0 0.029562906564337091 -0.011026468069090392 0 0.029116171064710539 -0.012967038651663135 0 0.027517166003749965 -0.010731391396554203 0 0.029116171064710539 -0.012967038651663135 0 0.025335808952682237 -0.010321412315903203 0 0.027517166003749965 -0.010731391396554203 0 0.025335808952682237 -0.010321412315903203 0 0.027517166003749965 -0.010731391396554203 0 0.026009939177546196 -0.0099357187182894033 0 0.029983379377387938 -0.012207151160654758 0 0.027948974978375191 -0.010633578882029465 0 0.029562906564337091 -0.011026468069090392 0 0.027517166003749965 -0.010731391396554203 0 0.027645966292948812 -0.0099108654224190646 0 -0.0034646908251299157 -0.015171057332229065 0 -0.0039737558285999099 -0.016032562227070404 0 0.025334831899539681 -0.012279897906165746 0 0.025850693838594237 -0.011350172875051549 0 0.024912407430544938 -0.010752815993852922 0 0.025334831899539681 -0.012279897906165746 0 0.024912407430544938 -0.010752815993852922 0 0.024005732932796502 -0.012537000366511154 0 0.025334831899539681 -0.012279897906165746 0 0.025850693838594237 -0.011350172875051549 0 0.026273386112261692 -0.012191073811300097 0 0.027007948999267971 -0.011759350409648846 0 0.026273386112261692 -0.012191073811300097 0 0.026370376965098346 -0.011405102950363698 0 0.025850693838594237 -0.011350172875051549 0 0.026273386112261692 -0.012191073811300097 0 0.026370376965098346 -0.011405102950363698 0 0.01076851270258832 -0.015517578021297494 0 0.0077297282465618126 -0.015360448293807772 0 0.025850693838594237 -0.011350172875051549 0 0.026328588331489586 -0.010330744735643589 0 0.024912407430544938 -0.010752815993852922 0 0.027007948999267971 -0.011759350409648846 0 0.026370376965098346 -0.011405102950363698 0 0.026328588331489586 -0.010330744735643589 0 0.025850693838594237 -0.011350172875051549 0 0.026370376965098346 -0.011405102950363698 0 0.026328588331489586 -0.010330744735643589 0 -0.034480136954949184 -0.01822336772052275 0 -0.034439647260539386 -0.017797207790804823 0 -0.03378535201113244 -0.017582127801804317 0 -0.0034646908251299157 -0.015171057332229065 0 -0.0022843668341902212 -0.015182875401920223 0 -0.034480136954949184 -0.01822336772052275 0 -0.034439647260539386 -0.017797207790804823 0 -0.034901704952632465 -0.017968838434243437 0 -0.034439647260539386 -0.017797207790804823 0 -0.034264749852783757 -0.017407675706533884 0 -0.034673204500308391 -0.017594215268991666 0 -0.034439647260539386 -0.017797207790804823 0 -0.03378535201113244 -0.017582127801804317 0 -0.034264749852783757 -0.017407675706533884 0 0.0077297282465618126 -0.015360448293807772 0 -0.0022843668341902212 -0.015182875401920223 0 0.026639755725296383 -0.010028180153849176 0 0.025919311111130189 -0.0095165176682218116 0 0.025877191235964436 -0.0095433030797151715 0 0.026328588331489586 -0.010330744735643589 0 0.024912407430544938 -0.010752815993852922 0 0.025776719189558917 -0.0089724641103972481 0 -0.031214322118695827 -0.021911297694099038 0 -0.029309790922607496 -0.01812171240498852 0 -0.032460965848686747 -0.018616432498775273 0 -0.0022843668341902212 -0.015182875401920223 0 -0.00040858630530213422 -0.021184375710310906 0 0.025877191235964436 -0.0095433030797151715 0 0.025628256042859315 -0.0097817082525391338 0 0.025657305668621785 -0.01060989817861612 0 0.025919311111130189 -0.0095165176682218116 0 0.025877191235964436 -0.0095433030797151715 0 0.025657305668621785 -0.01060989817861612 0 -0.0022843668341902212 -0.015182875401920223 0 -0.014370368454161321 -0.013109031658975739 0 -0.03378535201113244 -0.017582127801804317 0 -0.034264749852783757 -0.017407675706533884 0 -0.033770956259397709 -0.016747231290264324 0 -0.034264749852783757 -0.017407675706533884 0 -0.033770956259397709 -0.016747231290264324 0 -0.034742579052958251 -0.017202834955282284 0 -0.034264749852783757 -0.017407675706533884 0 -0.034673204500308391 -0.017594215268991666 0 -0.034742579052958251 -0.017202834955282284 0 0.031420351608750001 -0.0097325870611928104 0 0.027645966292948812 -0.0099108654224190646 0 0.024521292609271956 -0.0095012477590128569 0 0.016570041350353244 -0.0080581665665115775 0 0.020846522242871167 -0.010150978222582437 0 0.024521292609271956 -0.0095012477590128569 0 0.026022781902561496 -0.0097010360239151213 0 0.027645966292948812 -0.0099108654224190646 0 0.024521292609271956 -0.0095012477590128569 0 0.026022781902561496 -0.0097010360239151213 0 0.025260233218914668 -0.0095778873893728727 0 0.025351849549743882 -0.0096542227004845875 0 0.025260233218914668 -0.0095778873893728727 0 0.025075930294556743 -0.0096149852814935328 0 0.025351849549743882 -0.0096542227004845875 0 0.025260233218914668 -0.0095778873893728727 0 0.025075930294556743 -0.0096149852814935328 0 0.024521292609271956 -0.0095012477590128569 0 0.026022781902561496 -0.0097010360239151213 0 0.025260233218914668 -0.0095778873893728727 0 0.024521292609271956 -0.0095012477590128569 0 0.026022781902561496 -0.0097010360239151213 0 0.026009939177546196 -0.0099357187182894033 0 0.025351849549743882 -0.0096542227004845875 0 0.026022781902561496 -0.0097010360239151213 0 0.027645966292948812 -0.0099108654224190646 0 0.026009939177546196 -0.0099357187182894033 0 0.027517166003749965 -0.010731391396554203 0 0.027645966292948812 -0.0099108654224190646 0 0.026009939177546196 -0.0099357187182894033 0 0.025335808952682237 -0.010321412315903203 0 0.025522008044235277 -0.0098751766385847452 0 0.025551675983744554 -0.0097849822831569504 0 0.027982260447178119 -0.0097314742153065577 0 0.026639755725296383 -0.010028180153849176 0 0.025877191235964436 -0.0095433030797151715 0 0.025335808952682237 -0.010321412315903203 0 0.025877191235964436 -0.0095433030797151715 0 0.025551675983744554 -0.0097849822831569504 0 0.027948974978375191 -0.010633578882029465 0 0.027235859715639459 -0.010110079808849495 0 0.026009939177546196 -0.0099357187182894033 0 0.025522008044235277 -0.0098751766385847452 0 0.025351849549743882 -0.0096542227004845875 0 0.025335808952682237 -0.010321412315903203 0 0.026009939177546196 -0.0099357187182894033 0 0.025522008044235277 -0.0098751766385847452 0 0.025877191235964436 -0.0095433030797151715 0 0.025551675983744554 -0.0097849822831569504 0 0.025628256042859315 -0.0097817082525391338 0 0.025551675983744554 -0.0097849822831569504 0 0.025351849549743882 -0.0096542227004845875 0 0.025378644932822172 -0.009876532089236072 0 0.025522008044235277 -0.0098751766385847452 0 0.025551675983744554 -0.0097849822831569504 0 0.025351849549743882 -0.0096542227004845875 0 0.025351849549743882 -0.0096542227004845875 0 0.025195026357800909 -0.0097554767719780586 0 0.025378644932822172 -0.009876532089236072 0 0.025075930294556743 -0.0096149852814935328 0 0.025351849549743882 -0.0096542227004845875 0 0.025195026357800909 -0.0097554767719780586 0 0.0070946945206481482 -0.021115535671839641 0 -0.00040858630530213422 -0.021184375710310906 0 0.025195026357800909 -0.0097554767719780586 0 0.025378644932822172 -0.009876532089236072 0 0.024881571823490066 -0.010010031077054319 0 0.025378644932822172 -0.009876532089236072 0 0.025628256042859315 -0.0097817082525391338 0 0.025657305668621785 -0.01060989817861612 0 0.024881571823490066 -0.010010031077054319 0 0.024661110673736147 -0.014029584282274431 0 0.02770150268646028 -0.015690269395867776 0 0.025378644932822172 -0.009876532089236072 0 0.024881571823490066 -0.010010031077054319 0 0.025657305668621785 -0.01060989817861612 0 0.025551675983744554 -0.0097849822831569504 0 0.025378644932822172 -0.009876532089236072 0 0.025628256042859315 -0.0097817082525391338 0 0.023279677385117967 -0.01298029583809342 0 0.024881571823490066 -0.010010031077054319 0 0.024661110673736147 -0.014029584282274431 0 0.023279677385117967 -0.01298029583809342 0 0.023656068582107739 -0.011027295851759747 0 0.022565470599823938 -0.011964626983861004 0 0.023279677385117967 -0.01298029583809342 0 0.023656068582107739 -0.011027295851759747 0 0.024881571823490066 -0.010010031077054319 0 0.023656068582107739 -0.011027295851759747 0 0.022484442199619991 -0.010971421756800317 0 0.022565470599823938 -0.011964626983861004 0 0.023656068582107739 -0.011027295851759747 0 0.024521292609271956 -0.0095012477590128569 0 0.022484442199619991 -0.010971421756800317 0 0.025075930294556743 -0.0096149852814935328 0 0.024521292609271956 -0.0095012477590128569 0 0.024881571823490066 -0.010010031077054319 0 0.023656068582107739 -0.011027295851759747 0 0.024521292609271956 -0.0095012477590128569 0 0.024881571823490066 -0.010010031077054319 0 0.025075930294556743 -0.0096149852814935328 0 0.025195026357800909 -0.0097554767719780586 0 0.024881571823490066 -0.010010031077054319 0 0.020846522242871167 -0.010150978222582437 0 0.022484442199619991 -0.010971421756800317 0 0.020854446164350341 -0.012051923302401034 0 0.020846522242871167 -0.010150978222582437 0 0.024521292609271956 -0.0095012477590128569 0 0.022484442199619991 -0.010971421756800317 0 0.022484442199619991 -0.010971421756800317 0 0.020854446164350341 -0.012051923302401034 0 0.022565470599823938 -0.011964626983861004 0 0.020854446164350341 -0.012051923302401034 0 0.021693902060609935 -0.013405927528864835 0 0.019709248457090458 -0.014356346961428856 0 0.020854446164350341 -0.012051923302401034 0 0.022565470599823938 -0.011964626983861004 0 0.021693902060609935 -0.013405927528864835 0 0.023279677385117967 -0.01298029583809342 0 0.022565470599823938 -0.011964626983861004 0 0.021693902060609935 -0.013405927528864835 0 0.021693902060609935 -0.013405927528864835 0 0.021832037139135712 -0.015445200009176993 0 0.019709248457090458 -0.014356346961428856 0 0.023279677385117967 -0.01298029583809342 0 0.021693902060609935 -0.013405927528864835 0 0.021832037139135712 -0.015445200009176993 0 0.021832037139135712 -0.015445200009176993 0 0.02107509058764526 -0.018909757263714914 0 0.018679890350503131 -0.016988746069178114 0 0.021832037139135712 -0.015445200009176993 0 0.023755998659648059 -0.016919699174713653 0 0.02107509058764526 -0.018909757263714914 0 0.021832037139135712 -0.015445200009176993 0 0.023755998659648059 -0.016919699174713653 0 0.024661110673736147 -0.014029584282274431 0 0.023279677385117967 -0.01298029583809342 0 0.021832037139135712 -0.015445200009176993 0 0.024661110673736147 -0.014029584282274431 0 0.023755998659648059 -0.016919699174713653 0 0.024661110673736147 -0.014029584282274431 0 0.02770150268646028 -0.015690269395867776 0 0.023755998659648059 -0.016919699174713653 0 0.02770150268646028 -0.015690269395867776 0 0.024459718898333208 -0.021136511113573474 0 -0.00040858630530213422 -0.021184375710310906 0 0.0022701978149533646 -0.027634502352569267 0 -0.013361674406573923 -0.048842662487233658 0 -0.010155471375474952 -0.042712563840227126 0 -0.013943708704657529 -0.042418950985360179 0 0.023755998659648059 -0.016919699174713653 0 0.024459718898333208 -0.021136511113573474 0 0.02107509058764526 -0.018909757263714914 0 0.024459718898333208 -0.021136511113573474 0 0.02107509058764526 -0.018909757263714914 0 0.020257658454298284 -0.02246603988220763 0 -0.033770956259397709 -0.016747231290264324 0 -0.034957072982667585 -0.016699577338781253 0 -0.034861634653511504 -0.015862460211255727 0 -0.014370368454161321 -0.013109031658975739 0 -0.017942615872813428 -0.012417586854822422 0 -0.033770956259397709 -0.016747231290264324 0 -0.034742579052958251 -0.017202834955282284 0 -0.034957072982667585 -0.016699577338781253 0 -0.029309790922607496 -0.01812171240498852 0 -0.032460965848686747 -0.018616432498775273 0 -0.031786422912031327 -0.015068091812779289 0 -0.013361674406573923 -0.048842662487233658 0 -0.017309273785529357 -0.043788897327800988 0 -0.013943708704657529 -0.042418950985360179 0 -0.00040858630530213422 -0.021184375710310906 0 -0.01499514000974886 -0.023052328813124964 0 -0.032460965848686747 -0.018616432498775273 0 -0.031786422912031327 -0.015068091812779289 0 -0.033705563975393336 -0.015316431929952941 0 -0.033770956259397709 -0.016747231290264324 0 -0.033705563975393336 -0.015316431929952941 0 -0.034861634653511504 -0.015862460211255727 0 -0.031786422912031327 -0.015068091812779289 0 -0.033705563975393336 -0.015316431929952941 0 -0.033531499007581254 -0.014152859576146074 0 -0.033705563975393336 -0.015316431929952941 0 -0.034286266221237378 -0.014229141012301598 0 -0.033531499007581254 -0.014152859576146074 0 -0.033705563975393336 -0.015316431929952941 0 -0.034286266221237378 -0.014229141012301598 0 -0.034535708532162375 -0.015042239413802385 0 -0.033705563975393336 -0.015316431929952941 0 -0.034535708532162375 -0.015042239413802385 0 -0.034861634653511504 -0.015862460211255727 0 -0.017309273785529357 -0.043788897327800988 0 -0.0214389956105786 -0.038745139090344986 0 -0.020998989458079643 -0.03896815160397913 0 -0.031786422912031327 -0.015068091812779289 0 -0.033749935310725857 -0.012609094757388426 0 -0.033531499007581254 -0.014152859576146074 0 -0.017309273785529357 -0.043788897327800988 0 -0.020998989458079643 -0.03896815160397913 0 -0.016653124881595184 -0.039284785593020226 0 -0.01499514000974886 -0.023052328813124964 0 -0.024144078102038179 -0.022874975310439725 0 -0.021468384752964673 -0.038760041722860405 0 -0.020998989458079643 -0.03896815160397913 0 -0.021146471409622961 -0.037687982256174452 0 -0.024144078102038179 -0.022874975310439725 0 -0.024107068797834821 -0.022913006789796714 0 -0.033749935310725857 -0.012609094757388426 0 -0.034009641101396558 -0.013555328403216056 0 -0.034702178561900894 -0.013096509081620675 0 -0.034009641101396558 -0.013555328403216056 0 -0.034286266221237378 -0.014229141012301598 0 -0.034702178561900894 -0.013096509081620675 0 -0.033749935310725857 -0.012609094757388426 0 -0.034009641101396558 -0.013555328403216056 0 -0.033531499007581254 -0.014152859576146074 0 -0.034009641101396558 -0.013555328403216056 0 -0.034286266221237378 -0.014229141012301598 0 -0.033531499007581254 -0.014152859576146074 0 -0.020998989458079643 -0.03896815160397913 0 -0.016653124881595184 -0.039284785593020226 0 -0.019761535330222662 -0.036950727377221861 0 -0.017309273785529357 -0.043788897327800988 0 -0.016653124881595184 -0.039284785593020226 0 -0.013943708704657529 -0.042418950985360179 0 -0.016653124881595184 -0.039284785593020226 0 -0.013943708704657529 -0.042418950985360179 0 -0.01248424033317674 -0.038255208719634122 0 -0.016261200229072164 -0.035962932019065447 0 -0.01896579374221943 -0.034115463801356771 0 -0.013297435515470125 -0.033374019032238016 0 -0.016261200229072164 -0.035962932019065447 0 -0.01248424033317674 -0.038255208719634122 0 -0.013297435515470125 -0.033374019032238016 0 -0.016653124881595184 -0.039284785593020226 0 -0.016261200229072164 -0.035962932019065447 0 -0.01248424033317674 -0.038255208719634122 0 -0.016653124881595184 -0.039284785593020226 0 -0.016261200229072164 -0.035962932019065447 0 -0.019761535330222662 -0.036950727377221861 0 -0.019761535330222662 -0.036950727377221861 0 -0.01896579374221943 -0.034115463801356771 0 -0.021833961696612121 -0.0359143657112206 0 -0.016261200229072164 -0.035962932019065447 0 -0.019761535330222662 -0.036950727377221861 0 -0.01896579374221943 -0.034115463801356771 0 -0.01896579374221943 -0.034115463801356771 0 -0.021833961696612121 -0.0359143657112206 0 -0.022764636644460122 -0.033433083138253661 0 -0.021833961696612121 -0.0359143657112206 0 -0.021146471409622961 -0.037687982256174452 0 -0.022382703352344872 -0.037782970586441124 0 -0.019761535330222662 -0.036950727377221861 0 -0.021833961696612121 -0.0359143657112206 0 -0.021146471409622961 -0.037687982256174452 0 -0.020998989458079643 -0.03896815160397913 0 -0.019761535330222662 -0.036950727377221861 0 -0.021146471409622961 -0.037687982256174452 0 -0.021468384752964673 -0.038760041722860405 0 -0.021146471409622961 -0.037687982256174452 0 -0.022382703352344872 -0.037782970586441124 0 -0.024144078102038179 -0.022874975310439725 0 -0.023919978994965039 -0.023280940514011566 0 0.0022701978149533646 -0.027634502352569267 0 0.0039725721913080273 -0.028043563440293243 0 0.024459718898333208 -0.021136511113573474 0 0.020257658454298284 -0.02246603988220763 0 0.021175958982991031 -0.027114296317589288 0 -0.010155471375474952 -0.042712563840227126 0 -0.013943708704657529 -0.042418950985360179 0 -0.01248424033317674 -0.038255208719634122 0 -0.010155471375474952 -0.042712563840227126 0 -0.01248424033317674 -0.038255208719634122 0 -0.0068724458919088172 -0.036455384403477467 0 0.0039725721913080273 -0.028043563440293243 0 -0.0074815691355055872 -0.028646939547294966 0 -0.01248424033317674 -0.038255208719634122 0 -0.0068724458919088172 -0.036455384403477467 0 -0.013297435515470125 -0.033374019032238016 0 -0.00059852755319947891 -0.039647041282277307 0 -0.010647013032767154 -0.034727588351004007 0 -0.0029367135653613737 -0.032242297737624666 0 0.0039725721913080273 -0.028043563440293243 0 0.0048384390252702537 -0.027304401989969439 0 0.0099647039053587967 -0.022896358043332544 0 0.0098386234032973117 -0.022891638185870901 0 0.0095338883919547923 -0.023238151228527109 0 0.0098386234032973117 -0.022891638185870901 0 0.011037813346147739 -0.022722842474165738 0 0.010329490265692352 -0.022849791927420728 0 0.0039725721913080273 -0.028043563440293243 0 0.0080383724724029434 -0.027874349623892406 0 0.0099647039053587967 -0.022896358043332544 0 0.0098386234032973117 -0.022891638185870901 0 0.010329490265692352 -0.022849791927420728 0 0.011037813346147739 -0.022722842474165738 0 0.010205543773336816 -0.022499557325191575 0 0.009266953028926439 -0.023175427137516354 0 0.0098386234032973117 -0.022891638185870901 0 0.011037813346147739 -0.022722842474165738 0 0.009266953028926439 -0.023175427137516354 0 0.012482461880335222 -0.020149973452170497 0 0.012506399267669995 -0.018038530452708566 0 0.011037813346147739 -0.022722842474165738 0 0.012236536692295179 -0.022173486779136563 0 0.010329490265692352 -0.022849791927420728 0 0.011037813346147739 -0.022722842474165738 0 0.012236536692295179 -0.022173486779136563 0 0.012201349737323416 -0.020180102860876549 0 0.008799731671536009 -0.027542407931835381 0 0.0080383724724029434 -0.027874349623892406 0 0.012236536692295179 -0.022173486779136563 0 0.017140860068247433 -0.025152656813917977 0 0.017302897756298043 -0.020229364316778527 0 0.020257658454298284 -0.02246603988220763 0 0.017140860068247433 -0.025152656813917977 0 0.017302897756298043 -0.020229364316778527 0 0.020257658454298284 -0.02246603988220763 0 0.021175958982991031 -0.027114296317589288 0 0.017140860068247433 -0.025152656813917977 0 0.02107509058764526 -0.018909757263714914 0 0.020257658454298284 -0.02246603988220763 0 0.017302897756298043 -0.020229364316778527 0 0.02107509058764526 -0.018909757263714914 0 0.017302897756298043 -0.020229364316778527 0 0.018679890350503131 -0.016988746069178114 0 0.017302897756298043 -0.020229364316778527 0 0.01527245204220868 -0.017230000435469676 0 0.018679890350503131 -0.016988746069178114 0 0.012236536692295179 -0.022173486779136563 0 0.017302897756298043 -0.020229364316778527 0 0.014139795058451216 -0.020028111476682604 0 0.012236536692295179 -0.022173486779136563 0 0.014139795058451216 -0.020028111476682604 0 0.012201349737323416 -0.020180102860876549 0 0.014139795058451216 -0.020028111476682604 0 0.01527245204220868 -0.017230000435469676 0 0.012201349737323416 -0.020180102860876549 0 0.017302897756298043 -0.020229364316778527 0 0.014139795058451216 -0.020028111476682604 0 0.01527245204220868 -0.017230000435469676 0 0.015752317393911228 -0.013792826052343998 0 0.012135773039125204 -0.013191385138334163 0 0.01527245204220868 -0.017230000435469676 0 0.012135773039125204 -0.013191385138334163 0 0.01527245204220868 -0.017230000435469676 0 0.012201349737323416 -0.020180102860876549 0 0.015752317393911228 -0.013792826052343998 0 0.01527245204220868 -0.017230000435469676 0 0.017485982912391177 -0.015057651470318553 0 0.021832037139135712 -0.015445200009176993 0 0.019709248457090458 -0.014356346961428856 0 0.018679890350503131 -0.016988746069178114 0 0.017485982912391177 -0.015057651470318553 0 0.019709248457090458 -0.014356346961428856 0 0.018679890350503131 -0.016988746069178114 0 0.018069605091855304 -0.012998046810538831 0 0.017485982912391177 -0.015057651470318553 0 0.019709248457090458 -0.014356346961428856 0 0.01527245204220868 -0.017230000435469676 0 0.017485982912391177 -0.015057651470318553 0 0.018679890350503131 -0.016988746069178114 0 0.011613013656679074 -0.011916147352080476 0 0.011240060235521801 -0.013916358568396375 0 0.010725764588810067 -0.012575787135101968 0 0.011240060235521801 -0.013916358568396375 0 0.010725764588810067 -0.012575787135101968 0 0.010819131512748379 -0.013207322374741357 0 0.013072898588986163 -0.012191590033624633 0 0.011240060235521801 -0.013916358568396375 0 0.013213107832185862 -0.017968774920873749 0 0.012284324501673098 -0.013853703830796763 0 0.012506399267669995 -0.018038530452708566 0 0.011240060235521801 -0.013916358568396375 0 0.013213107832185862 -0.017968774920873749 0 0.010776288892623711 -0.018301728461077478 0 0.0094644501192377804 -0.013649098206039304 0 0.0082180849987154355 -0.014167176940753052 0 0.011240060235521801 -0.013916358568396375 0 0.010776288892623711 -0.018301728461077478 0 0.0084829487154723521 -0.01943680288156608 0 0.010213239633298305 -0.021155164056981302 0 0.0093341076938912495 -0.02127383348409077 0 0.0084829487154723521 -0.01943680288156608 0 0.010776288892623711 -0.018301728461077478 0 0.010213239633298305 -0.021155164056981302 0 0.0084829487154723521 -0.01943680288156608 0 0.011037813346147739 -0.022722842474165738 0 0.013213107832185862 -0.017968774920873749 0 0.010213239633298305 -0.021155164056981302 0 0.013213107832185862 -0.017968774920873749 0 0.010776288892623711 -0.018301728461077478 0 0.010213239633298305 -0.021155164056981302 0 0.010213239633298305 -0.021155164056981302 0 0.010205543773336816 -0.022499557325191575 0 0.0098594899609781433 -0.022168592299953282 0 0.011037813346147739 -0.022722842474165738 0 0.010213239633298305 -0.021155164056981302 0 0.010205543773336816 -0.022499557325191575 0 0.010213239633298305 -0.021155164056981302 0 0.0093341076938912495 -0.02127383348409077 0 0.0098594899609781433 -0.022168592299953282 0 0.0093341076938912495 -0.02127383348409077 0 0.0095480974186220157 -0.0217413419319476 0 0.0098594899609781433 -0.022168592299953282 0 0.010199938515345645 -0.013866390384438583 0 0.0096573593377406175 -0.012998339625860103 0 0.010819131512748379 -0.013207322374741357 0 0.0093341076938912495 -0.02127383348409077 0 0.0093088413096272058 -0.021572200027581798 0 0.0095480974186220157 -0.0217413419319476 0 0.0051983063563903935 -0.01384083783977383 0 0.0082180849987154355 -0.014167176940753052 0 0.0093341076938912495 -0.02127383348409077 0 0.0093088413096272058 -0.021572200027581798 0 0.0084829487154723521 -0.01943680288156608 0 0.0051983063563903935 -0.01384083783977383 0 -0.0026304401823859583 -0.012508993936750252 0 0.010199938515345645 -0.013866390384438583 0 0.0090438122368423322 -0.014001227959590344 0 0.0094396544398839058 -0.014713618949555335 0 -0.021064887272622967 -0.00787682691063437 0 -0.017735982910565988 -0.0066686601813632446 0 -0.018525382173060646 -0.011841863731604804 0 -0.021064887272622967 -0.00787682691063437 0 -0.017735982910565988 -0.0066686601813632446 0 -0.021383498549593181 -0.005354033801506999 0 -0.0030723668236969709 -0.010566831431443657 0 -0.0013525350674733715 -0.010241247713261964 0 0.0090438122368423322 -0.014001227959590344 0 0.0096573593377406175 -0.012998339625860103 0 0.0085685628300009899 -0.013248799042090736 0 0.010199938515345645 -0.013866390384438583 0 0.0090438122368423322 -0.014001227959590344 0 0.0096573593377406175 -0.012998339625860103 0 0.0096573593377406175 -0.012998339625860103 0 0.0089165058272872629 -0.012551303926238357 0 0.0085685628300009899 -0.013248799042090736 0 0.0096573593377406175 -0.012998339625860103 0 0.0089165058272872629 -0.012551303926238357 0 0.0094513550447365754 -0.01153197028768025 0 0.0089165058272872629 -0.012551303926238357 0 0.0094513550447365754 -0.01153197028768025 0 0.0079556038636620745 -0.012332119812220113 0 0.0059635198089474295 -0.0085214999481504714 0 0.0016860928639796139 -0.00885822750143056 0 0.0096573593377406175 -0.012998339625860103 0 0.0094513550447365754 -0.01153197028768025 0 0.010216918553553006 -0.012370681927301065 0 0.0094513550447365754 -0.01153197028768025 0 0.010216918553553006 -0.012370681927301065 0 0.010153075444887426 -0.011333032061865153 0 0.010216918553553006 -0.012370681927301065 0 0.010725764588810067 -0.012575787135101968 0 0.010153075444887426 -0.011333032061865153 0 0.0096573593377406175 -0.012998339625860103 0 0.010216918553553006 -0.012370681927301065 0 0.010819131512748379 -0.013207322374741357 0 0.010216918553553006 -0.012370681927301065 0 0.010725764588810067 -0.012575787135101968 0 0.010819131512748379 -0.013207322374741357 0 0.0076656092840374753 -0.0074584135217057876 0 0.0080687606164748273 -0.0075071953987917465 0 0.0079588604451916196 -0.0072122721373544208 0 0.0027937403126272816 -0.0083305923342465414 0 0.0009934961604291556 -0.0091888689724332201 0 -0.0018447602208998763 -0.007978200221448262 0 -0.0068180850408147177 -0.010761486714859556 0 -0.0043348483935276121 -0.0074734455357708162 0 -0.0068180850408147177 -0.010761486714859556 0 -0.0064666295672959305 -0.0065466984248763677 0 -0.0087881541405634197 -0.0072583234315015972 0 -0.0068180850408147177 -0.010761486714859556 0 -0.0043348483935276121 -0.0074734455357708162 0 -0.0064666295672959305 -0.0065466984248763677 0 -0.0043348483935276121 -0.0074734455357708162 0 -0.0044305612452437172 -0.0054078434585089017 0 -0.0064666295672959305 -0.0065466984248763677 0 -0.0044305612452437172 -0.0054078434585089017 0 -0.0064666295672959305 -0.0065466984248763677 0 -0.005737226072533904 -0.0041514363087417705 0 -0.0064666295672959305 -0.0065466984248763677 0 -0.005737226072533904 -0.0041514363087417705 0 -0.0078920809407420599 -0.0045949776761499495 0 -0.0064666295672959305 -0.0065466984248763677 0 -0.0087881541405634197 -0.0072583234315015972 0 -0.0078920809407420599 -0.0045949776761499495 0 -0.0087881541405634197 -0.0072583234315015972 0 -0.01109150001171562 -0.0054831702631588878 0 -0.011240780209350255 -0.0096298157997378661 0 -0.0087881541405634197 -0.0072583234315015972 0 -0.01109150001171562 -0.0054831702631588878 0 -0.0078920809407420599 -0.0045949776761499495 0 -0.0068180850408147177 -0.010761486714859556 0 -0.0087881541405634197 -0.0072583234315015972 0 -0.011240780209350255 -0.0096298157997378661 0 -0.0068180850408147177 -0.010761486714859556 0 -0.011240780209350255 -0.0096298157997378661 0 -0.011477314483408749 -0.013463030310840946 0 0.0009934961604291556 -0.0091888689724332201 0 -0.00014806816696565149 -0.009797676897125341 0 -0.011240780209350255 -0.0096298157997378661 0 -0.014635829873376393 -0.011763246576145475 0 -0.011477314483408749 -0.013463030310840946 0 -0.011240780209350255 -0.0096298157997378661 0 -0.014635829873376393 -0.011763246576145475 0 -0.014423271895910722 -0.0080588573769226086 0 -0.01109150001171562 -0.0054831702631588878 0 -0.011240780209350255 -0.0096298157997378661 0 -0.014423271895910722 -0.0080588573769226086 0 -0.01109150001171562 -0.0054831702631588878 0 -0.014423271895910722 -0.0080588573769226086 0 -0.013478810815657653 -0.0031589606324897834 0 -0.014423271895910722 -0.0080588573769226086 0 -0.017735982910565988 -0.0066686601813632446 0 -0.013478810815657653 -0.0031589606324897834 0 -0.014423271895910722 -0.0080588573769226086 0 -0.017735982910565988 -0.0066686601813632446 0 -0.018525382173060646 -0.011841863731604804 0 -0.014635829873376393 -0.011763246576145475 0 -0.014423271895910722 -0.0080588573769226086 0 -0.018525382173060646 -0.011841863731604804 0 0.0089165058272872629 -0.012551303926238357 0 0.0085685628300009899 -0.013248799042090736 0 0.0079556038636620745 -0.012332119812220113 0 -0.0013525350674733715 -0.010241247713261964 0 0.0016860928639796139 -0.00885822750143056 0 -0.014635829873376393 -0.011763246576145475 0 -0.018525382173060646 -0.011841863731604804 0 -0.016069644471184995 -0.016018278278077624 0 0.0092755149007373514 -0.01126138972213684 0 0.0091732746603772307 -0.010926333145715082 0 0.0093207073740371287 -0.011124862958410833 0 0.0094513550447365754 -0.01153197028768025 0 0.0092755149007373514 -0.01126138972213684 0 0.0093207073740371287 -0.011124862958410833 0 0.0016860928639796139 -0.00885822750143056 0 0.0070424885388257448 -0.0090280380477557876 0 0.0089134961501696943 -0.006977079275648267 0 0.0084860227464403741 -0.0067859908519844261 0 0.0086524316228018816 -0.0065325738207458999 0 0.0089134961501696943 -0.006977079275648267 0 0.0085137856024325494 -0.0072260497534947041 0 0.0084860227464403741 -0.0067859908519844261 0 0.0016860928639796139 -0.00885822750143056 0 -0.00014806816696565149 -0.009797676897125341 0 -0.014635829873376393 -0.011763246576145475 0 -0.016069644471184995 -0.016018278278077624 0 -0.011477314483408749 -0.013463030310840946 0 0.0085137856024325494 -0.0072260497534947041 0 0.0082224430913725548 -0.0070206907303852649 0 0.0084860227464403741 -0.0067859908519844261 0 0.0080687606164748273 -0.0075071953987917465 0 0.0085137856024325494 -0.0072260497534947041 0 0.0082224430913725548 -0.0070206907303852649 0 0.0082224430913725548 -0.0070206907303852649 0 0.0084860227464403741 -0.0067859908519844261 0 0.0082520616612753103 -0.0066348751165119747 0 0.0082520616612753103 -0.0066348751165119747 0 0.0078504316550129169 -0.0068871345561402801 0 0.0080003108552128069 -0.0063716834472033303 0 0.0058896590180850137 -0.0059142257466613364 0 0.0071912777358559979 -0.0039611170693948173 0 0.0055932575207205152 -0.0050676739688801072 0 0.0056082930693269169 -0.005728906225269486 0 0.0061778572642572005 -0.0036318818995519733 0 0.0082224430913725548 -0.0070206907303852649 0 0.0082520616612753103 -0.0066348751165119747 0 0.0078504316550129169 -0.0068871345561402801 0 0.0052725011990799467 -0.0065902817234213557 0 0.0055932575207205152 -0.0050676739688801072 0 0.0056082930693269169 -0.005728906225269486 0 0.0082224430913725548 -0.0070206907303852649 0 0.0078504316550129169 -0.0068871345561402801 0 0.0079588604451916196 -0.0072122721373544208 0 0.0080687606164748273 -0.0075071953987917465 0 0.0082224430913725548 -0.0070206907303852649 0 0.0079588604451916196 -0.0072122721373544208 0 0.0076656092840374753 -0.0074584135217057876 0 0.0078504316550129169 -0.0068871345561402801 0 0.0079588604451916196 -0.0072122721373544208 0 0.0082802621687106497 0.0030400441374377352 0 0.0066267498863706621 0.0040869977462936521 0 0.0068257864308687707 0.0050686067180933016 0 0.0083231996019442357 -0.0062383287340535684 0 0.0083157414821359125 -0.0062424128335813135 0 0.0083790190119781959 -0.00620836108062418 0 0.0083157414821359125 -0.0062424128335813135 0 0.0082007423308215841 -0.0064154430993793379 0 0.0083749279244085956 -0.0064249662217839409 0 0.0075665826369032537 -0.0041656612852643774 0 0.0076348611233268806 -0.0035249862833770513 0 0.0083157414821359125 -0.0062424128335813135 0 0.0083364161399358677 -0.0061881136680530828 0 0.008323173386164253 -0.0061691091075004858 0 0.0083231996019442357 -0.0062383287340535684 0 0.0083157414821359125 -0.0062424128335813135 0 0.0083364161399358677 -0.0061881136680530828 0 0.0095135840196966318 -0.0021829918156914853 0 0.0078747521849003334 -0.0026379599177828415 0 0.0068786135714625444 -0.0042151142885769608 0 0.0070120070832271619 -0.0035593019556420112 0 0.007061782380209154 -0.0037578120768379836 0 0.0058292481050942358 -0.0044684337754152346 0 0.0078747521849003334 -0.0026379599177828415 0 0.0070120070832271619 -0.0035593019556420112 0 0.007061782380209154 -0.0037578120768379836 0 0.0070859770020747304 -0.0036660496719594453 0 0.0078747521849003334 -0.0026379599177828415 0 0.0076348611233268806 -0.0035249862833770513 0 0.0071912777358559979 -0.0039611170693948173 0 0.0076348611233268806 -0.0035249862833770513 0 0.0058292481050942358 -0.0044684337754152346 0 0.0071912777358559979 -0.0039611170693948173 0 0.0082520616612753103 -0.0066348751165119747 0 0.0080003108552128069 -0.0063716834472033303 0 0.008020199130070519 -0.0062963524179469174 0 0.0080656344948661727 -0.0043551344584673371 0 0.0076348611233268806 -0.0035249862833770513 0 0.0083749279244085956 -0.0064249662217839409 0 0.0084154101881136097 -0.0062188787743703896 0 0.0086524316228018816 -0.0065325738207458999 0 0.0084860227464403741 -0.0067859908519844261 0 0.0082520616612753103 -0.0066348751165119747 0 0.0083749279244085956 -0.0064249662217839409 0 0.0084860227464403741 -0.0067859908519844261 0 0.0083749279244085956 -0.0064249662217839409 0 0.0086524316228018816 -0.0065325738207458999 0 0.0082520616612753103 -0.0066348751165119747 0 0.0082007423308215841 -0.0064154430993793379 0 0.0083749279244085956 -0.0064249662217839409 0 0.0083157414821359125 -0.0062424128335813135 0 0.0083749279244085956 -0.0064249662217839409 0 0.0084154101881136097 -0.0062188787743703896 0 0.0083157414821359125 -0.0062424128335813135 0 0.0084154101881136097 -0.0062188787743703896 0 0.0083790190119781959 -0.00620836108062418 0 0.010409444894225489 -0.0077403426092858066 0 0.0070424885388257448 -0.0090280380477557876 0 0.00920689283583917 -0.010292808789392592 0 0.0093483927772251719 -0.010511060505938396 0 0.0095777448408706813 -0.010148862042813581 0 0.00920689283583917 -0.010292808789392592 0 0.0093483927772251719 -0.010511060505938396 0 0.0091732746603772307 -0.010926333145715082 0 0.0093483927772251719 -0.010511060505938396 0 0.0091732746603772307 -0.010926333145715082 0 0.0094031091550802002 -0.010666113301946546 0 0.0091732746603772307 -0.010926333145715082 0 0.0093207073740371287 -0.011124862958410833 0 0.0094031091550802002 -0.010666113301946546 0 0.0094031091550802002 -0.010666113301946546 0 0.0095777448408706813 -0.010148862042813581 0 0.009571324872019879 -0.010418192859564324 0 0.0093483927772251719 -0.010511060505938396 0 0.0094031091550802002 -0.010666113301946546 0 0.0095777448408706813 -0.010148862042813581 0 0.011315818809054645 -0.010873790357129976 0 0.012051586026029596 -0.010853729601348871 0 0.0098892886853252388 -0.0094253665868262552 0 0.010674901908528711 -0.0096369617247643192 0 0.010513470932053116 -0.0089944382543803558 0 0.0095777448408706813 -0.010148862042813581 0 0.0098892886853252388 -0.0094253665868262552 0 0.010674901908528711 -0.0096369617247643192 0 0.0098892886853252388 -0.0094253665868262552 0 0.0094897831596442942 -0.0098285541521610717 0 0.0095967532190014259 -0.0094422229661720054 0 0.0098892886853252388 -0.0094253665868262552 0 0.0095967532190014259 -0.0094422229661720054 0 0.009796582027338737 -0.0091218627093479117 0 0.00920689283583917 -0.010292808789392592 0 0.0095777448408706813 -0.010148862042813581 0 0.0094897831596442942 -0.0098285541521610717 0 0.0095777448408706813 -0.010148862042813581 0 0.0098892886853252388 -0.0094253665868262552 0 0.0094897831596442942 -0.0098285541521610717 0 0.0084154101881136097 -0.0062188787743703896 0 0.0083732989146562964 -0.0062549880086401697 0 0.0083790190119781959 -0.00620836108062418 0 0.010409444894225489 -0.0077403426092858066 0 0.014897085482599303 -0.0065568108746719604 0 0.00920689283583917 -0.010292808789392592 0 0.0094897831596442942 -0.0098285541521610717 0 0.0092832250809021331 -0.0096433492399964887 0 0.0095967532190014259 -0.0094422229661720054 0 0.0092832250809021331 -0.0096433492399964887 0 0.0095790077100966261 -0.0092008649366536969 0 0.0094897831596442942 -0.0098285541521610717 0 0.0095967532190014259 -0.0094422229661720054 0 0.0092832250809021331 -0.0096433492399964887 0 0.0085952086109803479 -0.006501609569519228 0 0.008496696366766518 -0.0063840268202152248 0 0.0084768853947820976 -0.0062591164905101545 0 0.014897085482599303 -0.0065568108746719604 0 0.024898630371042403 -0.0082786690918940278 0 0.0083732989146562964 -0.0062549880086401697 0 0.008496696366766518 -0.0063840268202152248 0 0.0085429740347483622 -0.0065251601045041071 0 0.0092832250809021331 -0.0096433492399964887 0 0.0092785275768103338 -0.0090291359640619802 0 0.0095790077100966261 -0.0092008649366536969 0 0.0083732989146562964 -0.0062549880086401697 0 0.008496696366766518 -0.0063840268202152248 0 0.0084768853947820976 -0.0062591164905101545 0 0.0082802621687106497 0.0030400441374377352 0 0.0066267498863706621 0.0040869977462936521 0 0.0071542081069080861 0.0017085388793837513 0 0.0083866110260300431 -0.0061053528262552609 0 0.0084768853947820976 -0.0062591164905101545 0 0.0083790190119781959 -0.00620836108062418 0 0.0095135840196966318 -0.0021829918156914853 0 0.014743338741232018 -0.0030746451569158254 0 0.0083732989146562964 -0.0062549880086401697 0 0.0084768853947820976 -0.0062591164905101545 0 0.0083790190119781959 -0.00620836108062418 0 0.0095135840196966318 -0.0021829918156914853 0 0.0092935990090367848 -0.0031602462430998127 0 0.010153075444887426 -0.011333032061865153 0 0.009571324872019879 -0.010418192859564324 0 0.010512004592804523 -0.010011214355533125 0 0.011117507379982374 -0.0111783418846415 0 0.011397700437001052 -0.0099373117461592411 0 0.010512004592804523 -0.010011214355533125 0 0.011117507379982374 -0.0111783418846415 0 0.010153075444887426 -0.011333032061865153 0 0.010512004592804523 -0.010011214355533125 0 0.011117507379982374 -0.0111783418846415 0 0.010725764588810067 -0.012575787135101968 0 0.010153075444887426 -0.011333032061865153 0 0.0094513550447365754 -0.01153197028768025 0 0.010153075444887426 -0.011333032061865153 0 0.009571324872019879 -0.010418192859564324 0 0.0094513550447365754 -0.01153197028768025 0 0.0094031091550802002 -0.010666113301946546 0 0.009571324872019879 -0.010418192859564324 0 0.0094513550447365754 -0.01153197028768025 0 0.0093207073740371287 -0.011124862958410833 0 0.0094031091550802002 -0.010666113301946546 0 0.009571324872019879 -0.010418192859564324 0 0.0099768633527638918 -0.0095098174920259081 0 0.010512004592804523 -0.010011214355533125 0 0.0095777448408706813 -0.010148862042813581 0 0.009571324872019879 -0.010418192859564324 0 0.0094230874195336527 -0.009578388529741513 0 0.009571324872019879 -0.010418192859564324 0 0.0094230874195336527 -0.009578388529741513 0 0.0099768633527638918 -0.0095098174920259081 0 0.012051586026029596 -0.010853729601348871 0 0.014654407685998124 -0.010843691068985879 0 0.0094230874195336527 -0.009578388529741513 0 0.0099768633527638918 -0.0095098174920259081 0 0.0099020193443587756 -0.0085505873821720996 0 0.0099768633527638918 -0.0095098174920259081 0 0.010678063013710912 -0.0088380670426896936 0 0.0099020193443587756 -0.0085505873821720996 0 0.0099768633527638918 -0.0095098174920259081 0 0.010678063013710912 -0.0088380670426896936 0 0.010512004592804523 -0.010011214355533125 0 0.011430195434462871 -0.0091466108671884767 0 0.010678063013710912 -0.0088380670426896936 0 0.010512004592804523 -0.010011214355533125 0 0.011397700437001052 -0.0099373117461592411 0 0.011430195434462871 -0.0091466108671884767 0 0.010512004592804523 -0.010011214355533125 0 0.011430195434462871 -0.0091466108671884767 0 0.010678063013710912 -0.0088380670426896936 0 0.011640140292002638 -0.0081749180410071159 0 0.010678063013710912 -0.0088380670426896936 0 0.010659058627714803 -0.0077100568951816023 0 0.011640140292002638 -0.0081749180410071159 0 0.022306784222944624 -0.0094005517728009257 0 0.023699306436538933 -0.010327384035639313 0 0.036510366498267534 -0.014312513062033313 0 0.036599674487713077 -0.014230771074674381 0 0.035679724248996389 -0.013384512417181171 0 0.035978522993312688 -0.01446858418859367 0 0.036510366498267534 -0.014312513062033313 0 0.035679724248996389 -0.013384512417181171 0 0.035978522993312688 -0.01446858418859367 0 0.036510366498267534 -0.014312513062033313 0 0.036396928916100441 -0.014561631776418877 0 0.036617290278750429 -0.014475161773105739 0 0.036584663418435366 -0.014246067439337299 0 0.03686232855894743 -0.014659508517419302 0 0.036530179967266554 -0.014509670793566 0 0.036510366498267534 -0.014312513062033313 0 0.036396928916100441 -0.014561631776418877 0 0.036617290278750429 -0.014475161773105739 0 0.036530179967266554 -0.014509670793566 0 0.036510366498267534 -0.014312513062033313 0 0.036617290278750429 -0.014475161773105739 0 0.036510366498267534 -0.014312513062033313 0 0.036584663418435366 -0.014246067439337299 0 0.022411411382334878 -0.0093675851955702018 0 0.022306784222944624 -0.0094005517728009257 0 0.010678063013710912 -0.0088380670426896936 0 0.010659058627714803 -0.0077100568951816023 0 0.0099020193443587756 -0.0085505873821720996 0 0.022306784222944624 -0.0094005517728009257 0 0.014654407685998124 -0.010843691068985879 0 0.011422482075936819 -0.00912520995969455 0 0.010979994413511588 -0.0086009330132356728 0 0.010513470932053116 -0.0089944382543803558 0 0.010674901908528711 -0.0096369617247643192 0 0.011422482075936819 -0.00912520995969455 0 0.010513470932053116 -0.0089944382543803558 0 0.010979994413511588 -0.0086009330132356728 0 0.011345338055377175 -0.0079549485756535143 0 0.010381994334414026 -0.0084130637760309376 0 0.010979994413511588 -0.0086009330132356728 0 0.010513470932053116 -0.0089944382543803558 0 0.010381994334414026 -0.0084130637760309376 0 0.010979994413511588 -0.0086009330132356728 0 0.011453106196869045 -0.0085550840508625305 0 0.011345338055377175 -0.0079549485756535143 0 0.012151537190738883 -0.0085560859943167138 0 0.011422482075936819 -0.00912520995969455 0 0.011453106196869045 -0.0085550840508625305 0 0.012151537190738883 -0.0085560859943167138 0 0.011453106196869045 -0.0085550840508625305 0 0.011345338055377175 -0.0079549485756535143 0 0.011422482075936819 -0.00912520995969455 0 0.010979994413511588 -0.0086009330132356728 0 0.011453106196869045 -0.0085550840508625305 0 0.034632765895696943 -0.011406674966541814 0 0.039984788568539029 -0.01123875184453282 0 0.037441502371141674 -0.014923353278887915 0 0.03686232855894743 -0.014659508517419302 0 0.036854650178176018 -0.015156151780159572 0 0.054296513254674744 -0.0083029629340905711 0 0.055984676997224904 -0.009535758345974395 0 0.0575953078771963 -0.0087970148559057045 0 0.054296513254674744 -0.0083029629340905711 0 0.057806146118942872 -0.0070702626202468625 0 0.0575953078771963 -0.0087970148559057045 0 0.034632765895696943 -0.011406674966541814 0 0.034638175822861959 -0.0092386342455180459 0 0.034632765895696943 -0.011406674966541814 0 0.039570947414343104 -0.013324410403364748 0 0.055984676997224904 -0.009535758345974395 0 0.053898062591347842 -0.010267932077878338 0 0.056584652178931959 -0.011525773438632432 0 0.054193863954639945 -0.0080563682444035629 0 0.055984676997224904 -0.009535758345974395 0 0.053898062591347842 -0.010267932077878338 0 0.054193863954639945 -0.0080563682444035629 0 0.053898062591347842 -0.010267932077878338 0 0.052091259522479692 -0.0087970880234023146 0 0.053898062591347842 -0.010267932077878338 0 0.052091259522479692 -0.0087970880234023146 0 0.051425941054726809 -0.010930366727916384 0 0.050135653612263541 -0.0095219836785017248 0 0.052091259522479692 -0.0087970880234023146 0 0.051425941054726809 -0.010930366727916384 0 0.041295321235583514 -0.012064018109534221 0 0.039984788568539029 -0.01123875184453282 0 0.041295321235583514 -0.012064018109534221 0 0.042969755582054188 -0.012745191892894584 0 0.049527022878551326 -0.0087181996443803748 0 0.048982964238979784 -0.012223990640952519 0 0.045832967117523958 -0.010038656367507988 0 0.041295321235583514 -0.012064018109534221 0 0.041610665765850659 -0.011912864254655974 0 0.035978522993312688 -0.01446858418859367 0 0.036357674241268012 -0.014862639356064675 0 0.035403011277514343 -0.014584389612022512 0 0.03625057830975463 -0.015409853986382799 0 0.036357674241268012 -0.014862639356064675 0 0.035403011277514343 -0.014584389612022512 0 0.041295321235583514 -0.012064018109534221 0 0.038154620129693305 -0.013273862096989893 0 0.035978522993312688 -0.01446858418859367 0 0.036357674241268012 -0.014862639356064675 0 0.036396928916100441 -0.014561631776418877 0 0.036357674241268012 -0.014862639356064675 0 0.036396928916100441 -0.014561631776418877 0 0.036596905903325962 -0.014687391155454017 0 0.022306784222944624 -0.0094005517728009257 0 0.034632765895696943 -0.011406674966541814 0 0.036584663418435366 -0.014246067439337299 0 0.037441502371141674 -0.014923353278887915 0 0.03686232855894743 -0.014659508517419302 0 0.036530179967266554 -0.014509670793566 0 0.036396928916100441 -0.014561631776418877 0 0.036596905903325962 -0.014687391155454017 0 0.036617290278750429 -0.014475161773105739 0 0.036530179967266554 -0.014509670793566 0 0.036596905903325962 -0.014687391155454017 0 0.036617290278750429 -0.014475161773105739 0 0.036596905903325962 -0.014687391155454017 0 0.03686232855894743 -0.014659508517419302 0 0.036596905903325962 -0.014687391155454017 0 0.03686232855894743 -0.014659508517419302 0 0.036854650178176018 -0.015156151780159572 0 0.03625057830975463 -0.015409853986382799 0 0.036357674241268012 -0.014862639356064675 0 0.036854650178176018 -0.015156151780159572 0 0.036357674241268012 -0.014862639356064675 0 0.036596905903325962 -0.014687391155454017 0 0.036854650178176018 -0.015156151780159572 0 0.06615664927802517 -0.0069298563833651242 0 0.064620500640873588 -0.006920235375602107 0 0.06311676532565183 -0.0050526315157271174 0 0.03391518861049081 -0.0093141618673159132 0 0.033737829842833689 -0.0085174639645871145 0 0.063544768849910949 -0.007010798076700288 0 0.06311676532565183 -0.0050526315157271174 0 0.062049492920433644 -0.0071126379306299054 0 0.064620500640873588 -0.006920235375602107 0 0.063544768849910949 -0.007010798076700288 0 0.064534888172901636 -0.0078869809052294869 0 0.064620500640873588 -0.006920235375602107 0 0.063544768849910949 -0.007010798076700288 0 0.06311676532565183 -0.0050526315157271174 0 0.031070058950532106 -0.0076137495644372456 0 0.029564860600170852 -0.0049695274266586247 0 0.027264525320305103 -0.0058666826657623487 0 0.0092785275768103338 -0.0090291359640619802 0 0.0095862158986350365 -0.0088954301001347123 0 0.0095790077100966261 -0.0092008649366536969 0 0.024898630371042403 -0.0082786690918940278 0 0.033737829842833689 -0.0085174639645871145 0 0.0085952086109803479 -0.006501609569519228 0 0.008496696366766518 -0.0063840268202152248 0 0.0085429740347483622 -0.0065251601045041071 0 0.0095790077100966261 -0.0092008649366536969 0 0.0098949141013314861 -0.0087552433910021744 0 0.009796582027338737 -0.0091218627093479117 0 0.0095862158986350365 -0.0088954301001347123 0 0.0095790077100966261 -0.0092008649366536969 0 0.0098949141013314861 -0.0087552433910021744 0 0.0095967532190014259 -0.0094422229661720054 0 0.0095790077100966261 -0.0092008649366536969 0 0.009796582027338737 -0.0091218627093479117 0 0.033737829842833689 -0.0085174639645871145 0 0.034828822563657047 -0.0083109090227117891 0 0.061085668603977301 -0.0059085281271140733 0 0.062049492920433644 -0.0071126379306299054 0 0.060462862903794802 -0.0082810847676310848 0 0.06311676532565183 -0.0050526315157271174 0 0.061085668603977301 -0.0059085281271140733 0 0.062049492920433644 -0.0071126379306299054 0 0.034828822563657047 -0.0083109090227117891 0 0.034638175822861959 -0.0092386342455180459 0 0.0098949141013314861 -0.0087552433910021744 0 0.010074767581843582 -0.0089209487280964787 0 0.010381994334414026 -0.0084130637760309376 0 0.061085668603977301 -0.0059085281271140733 0 0.057806146118942872 -0.0070702626202468625 0 0.060462862903794802 -0.0082810847676310848 0 0.0098949141013314861 -0.0087552433910021744 0 0.010074767581843582 -0.0089209487280964787 0 0.009796582027338737 -0.0091218627093479117 0 0.0098892886853252388 -0.0094253665868262552 0 0.010074767581843582 -0.0089209487280964787 0 0.009796582027338737 -0.0091218627093479117 0 0.0098892886853252388 -0.0094253665868262552 0 0.010074767581843582 -0.0089209487280964787 0 0.010513470932053116 -0.0089944382543803558 0 0.010074767581843582 -0.0089209487280964787 0 0.010513470932053116 -0.0089944382543803558 0 0.010381994334414026 -0.0084130637760309376 0 0.0575953078771963 -0.0087970148559057045 0 0.058766758506347667 -0.010251239242293065 0 0.060462862903794802 -0.0082810847676310848 0 0.057806146118942872 -0.0070702626202468625 0 0.0575953078771963 -0.0087970148559057045 0 0.060462862903794802 -0.0082810847676310848 0 0.055984676997224904 -0.009535758345974395 0 0.0575953078771963 -0.0087970148559057045 0 0.058766758506347667 -0.010251239242293065 0 0.055984676997224904 -0.009535758345974395 0 0.058766758506347667 -0.010251239242293065 0 0.056584652178931959 -0.011525773438632432 0 0.058766758506347667 -0.010251239242293065 0 0.06085264097024063 -0.010153523327519919 0 0.060462862903794802 -0.0082810847676310848 0 0.058766758506347667 -0.010251239242293065 0 0.059786568491044072 -0.011508916255803036 0 0.058502167003664625 -0.011876415765971104 0 0.058766758506347667 -0.010251239242293065 0 0.06085264097024063 -0.010153523327519919 0 0.059786568491044072 -0.011508916255803036 0 0.06085264097024063 -0.010153523327519919 0 0.061448634722046043 -0.012027211852165792 0 0.059786568491044072 -0.011508916255803036 0 0.062049492920433644 -0.0071126379306299054 0 0.060462862903794802 -0.0082810847676310848 0 0.061925806915821079 -0.0089433337292751363 0 0.062049492920433644 -0.0071126379306299054 0 0.061925806915821079 -0.0089433337292751363 0 0.063228186000794356 -0.0082711789789462285 0 0.063544768849910949 -0.007010798076700288 0 0.062049492920433644 -0.0071126379306299054 0 0.063228186000794356 -0.0082711789789462285 0 0.061925806915821079 -0.0089433337292751363 0 0.062795665934958542 -0.010180370641574026 0 0.063228186000794356 -0.0082711789789462285 0 0.06085264097024063 -0.010153523327519919 0 0.060462862903794802 -0.0082810847676310848 0 0.061925806915821079 -0.0089433337292751363 0 0.06085264097024063 -0.010153523327519919 0 0.061925806915821079 -0.0089433337292751363 0 0.062795665934958542 -0.010180370641574026 0 0.06085264097024063 -0.010153523327519919 0 0.062795665934958542 -0.010180370641574026 0 0.061448634722046043 -0.012027211852165792 0 0.062795665934958542 -0.010180370641574026 0 0.064238615406923175 -0.010612320075616041 0 0.063361224672575683 -0.01243655824536688 0 0.062795665934958542 -0.010180370641574026 0 0.064238615406923175 -0.010612320075616041 0 0.064327276161601971 -0.0091380014893163927 0 0.06544540187291284 -0.010144614077636603 0 0.064238615406923175 -0.010612320075616041 0 0.065182011207770382 -0.011747210305499673 0 0.06544540187291284 -0.010144614077636603 0 0.064238615406923175 -0.010612320075616041 0 0.064327276161601971 -0.0091380014893163927 0 0.065522855607080419 -0.0088248750409570757 0 0.06544540187291284 -0.010144614077636603 0 0.064327276161601971 -0.0091380014893163927 0 0.065522855607080419 -0.0088248750409570757 0 0.064327276161601971 -0.0091380014893163927 0 0.064534888172901636 -0.0078869809052294869 0 0.062795665934958542 -0.010180370641574026 0 0.064327276161601971 -0.0091380014893163927 0 0.063228186000794356 -0.0082711789789462285 0 0.064327276161601971 -0.0091380014893163927 0 0.063228186000794356 -0.0082711789789462285 0 0.064534888172901636 -0.0078869809052294869 0 0.063544768849910949 -0.007010798076700288 0 0.063228186000794356 -0.0082711789789462285 0 0.064534888172901636 -0.0078869809052294869 0 0.065562097701249225 -0.0077717107584569936 0 0.064620500640873588 -0.006920235375602107 0 0.064534888172901636 -0.0078869809052294869 0 0.064891766151746286 -0.014044678471391086 0 0.063361224672575683 -0.01243655824536688 0 0.063138835476972452 -0.014850964607840415 0 0.0667791893752155 -0.015289329780328617 0 0.064891766151746286 -0.014044678471391086 0 0.064590641197316445 -0.017021191935419195 0 0.064891766151746286 -0.014044678471391086 0 0.063138835476972452 -0.014850964607840415 0 0.064590641197316445 -0.017021191935419195 0 0.064891766151746286 -0.014044678471391086 0 0.065182011207770382 -0.011747210305499673 0 0.063361224672575683 -0.01243655824536688 0 0.064238615406923175 -0.010612320075616041 0 0.065182011207770382 -0.011747210305499673 0 0.063361224672575683 -0.01243655824536688 0 0.062795665934958542 -0.010180370641574026 0 0.063361224672575683 -0.01243655824536688 0 0.061448634722046043 -0.012027211852165792 0 0.063361224672575683 -0.01243655824536688 0 0.061448634722046043 -0.012027211852165792 0 0.061768177805862259 -0.013814473679409278 0 0.063138835476972452 -0.014850964607840415 0 0.061768177805862259 -0.013814473679409278 0 0.061205447007995628 -0.016722417389586301 0 0.063361224672575683 -0.01243655824536688 0 0.063138835476972452 -0.014850964607840415 0 0.061768177805862259 -0.013814473679409278 0 0.063566691308581585 -0.010056354743876209 0 0.06061882665972889 -0.012442302277062932 0 0.064403096775247221 -0.014338005589605825 0 0.0612225985723873 -0.013933965264433123 0 0.062380219731412882 -0.015833491329778182 0 0.061768177805862259 -0.013814473679409278 0 0.060135641327079992 -0.013431697231502908 0 0.061205447007995628 -0.016722417389586301 0 0.061448634722046043 -0.012027211852165792 0 0.061768177805862259 -0.013814473679409278 0 0.060135641327079992 -0.013431697231502908 0 0.0613709785467869 -0.013655292483128393 0 0.0612225985723873 -0.013933965264433123 0 0.061448634722046043 -0.012027211852165792 0 0.059786568491044072 -0.011508916255803036 0 0.059590290348745044 -0.013107988451673845 0 0.059786568491044072 -0.011508916255803036 0 0.059590290348745044 -0.013107988451673845 0 0.058502167003664625 -0.011876415765971104 0 0.058766758506347667 -0.010251239242293065 0 0.058502167003664625 -0.011876415765971104 0 0.056584652178931959 -0.011525773438632432 0 0.059590290348745044 -0.013107988451673845 0 0.058502167003664625 -0.011876415765971104 0 0.057940132497652223 -0.01303604860918528 0 0.058502167003664625 -0.011876415765971104 0 0.057940132497652223 -0.01303604860918528 0 0.056584652178931959 -0.011525773438632432 0 0.0612225985723873 -0.013933965264433123 0 0.059312521817604907 -0.014494091507224468 0 0.057940132497652223 -0.01303604860918528 0 0.057308700281489648 -0.014692589934449858 0 0.056246361227643399 -0.013193438687405105 0 0.059590290348745044 -0.013107988451673845 0 0.057940132497652223 -0.01303604860918528 0 0.057308700281489648 -0.014692589934449858 0 0.06061882665972889 -0.012442302277062932 0 0.061675357670173382 -0.015886188252991356 0 0.064403096775247221 -0.014338005589605825 0 0.061675357670173382 -0.015886188252991356 0 0.065130778946277557 -0.018570246750616616 0 0.060398792443373768 -0.019118544815879112 0 0.062380219731412882 -0.015833491329778182 0 0.06349318156048088 -0.018907630444994553 0 0.061675357670173382 -0.015886188252991356 0 0.064403096775247221 -0.014338005589605825 0 0.065130778946277557 -0.018570246750616616 0 0.063138835476972452 -0.014850964607840415 0 0.061205447007995628 -0.016722417389586301 0 0.064590641197316445 -0.017021191935419195 0 0.061205447007995628 -0.016722417389586301 0 0.064590641197316445 -0.017021191935419195 0 0.062489261836826591 -0.019901236599252706 0 0.064590641197316445 -0.017021191935419195 0 0.066370834493101147 -0.020211781047729572 0 0.062489261836826591 -0.019901236599252706 0 0.067436544546608107 -0.017698480120720478 0 0.064590641197316445 -0.017021191935419195 0 0.066370834493101147 -0.020211781047729572 0 0.052188589178979915 -0.01349590117515149 0 0.052567139280696548 -0.015972297482270029 0 0.04949787875139814 -0.015285892223936386 0 0.052188589178979915 -0.01349590117515149 0 0.048982964238979784 -0.012223990640952519 0 0.04949787875139814 -0.015285892223936386 0 0.048982964238979784 -0.012223990640952519 0 0.04949787875139814 -0.015285892223936386 0 0.044789595731672009 -0.014341977632688312 0 0.049527022878551326 -0.0087181996443803748 0 0.048982964238979784 -0.012223990640952519 0 0.051425941054726809 -0.010930366727916384 0 0.052188589178979915 -0.01349590117515149 0 0.051425941054726809 -0.010930366727916384 0 0.053113614508881898 -0.011658071843272767 0 0.052188589178979915 -0.01349590117515149 0 0.048982964238979784 -0.012223990640952519 0 0.051425941054726809 -0.010930366727916384 0 0.052188589178979915 -0.01349590117515149 0 0.053113614508881898 -0.011658071843272767 0 0.054677918275022053 -0.012461909981287564 0 0.053898062591347842 -0.010267932077878338 0 0.051425941054726809 -0.010930366727916384 0 0.053113614508881898 -0.011658071843272767 0 0.053898062591347842 -0.010267932077878338 0 0.053113614508881898 -0.011658071843272767 0 0.054677918275022053 -0.012461909981287564 0 0.053898062591347842 -0.010267932077878338 0 0.054677918275022053 -0.012461909981287564 0 0.056584652178931959 -0.011525773438632432 0 0.054677918275022053 -0.012461909981287564 0 0.056584652178931959 -0.011525773438632432 0 0.056246361227643399 -0.013193438687405105 0 0.057940132497652223 -0.01303604860918528 0 0.056584652178931959 -0.011525773438632432 0 0.056246361227643399 -0.013193438687405105 0 0.057308700281489648 -0.014692589934449858 0 0.056246361227643399 -0.013193438687405105 0 0.05469456079246169 -0.014388562809568982 0 0.054677918275022053 -0.012461909981287564 0 0.056246361227643399 -0.013193438687405105 0 0.05469456079246169 -0.014388562809568982 0 0.052188589178979915 -0.01349590117515149 0 0.05469456079246169 -0.014388562809568982 0 0.052567139280696548 -0.015972297482270029 0 0.052188589178979915 -0.01349590117515149 0 0.054677918275022053 -0.012461909981287564 0 0.05469456079246169 -0.014388562809568982 0 0.055146658323665991 -0.016338851084844803 0 0.053662933204735939 -0.017765728628811352 0 0.052567139280696548 -0.015972297482270029 0 0.05469456079246169 -0.014388562809568982 0 0.055146658323665991 -0.016338851084844803 0 0.052567139280696548 -0.015972297482270029 0 0.057308700281489648 -0.014692589934449858 0 0.05469456079246169 -0.014388562809568982 0 0.055146658323665991 -0.016338851084844803 0 0.059312521817604907 -0.014494091507224468 0 0.057095579391275332 -0.01581100705518464 0 0.06061882665972889 -0.012442302277062932 0 0.061675357670173382 -0.015886188252991356 0 0.057533798788982536 -0.014821749399531495 0 0.061675357670173382 -0.015886188252991356 0 0.057533798788982536 -0.014821749399531495 0 0.060398792443373768 -0.019118544815879112 0 0.057533798788982536 -0.014821749399531495 0 0.060398792443373768 -0.019118544815879112 0 0.056745426088922309 -0.019699231225240799 0 0.057095579391275332 -0.01581100705518464 0 0.055892328926247861 -0.016646496060089128 0 0.057533798788982536 -0.014821749399531495 0 0.053662933204735939 -0.017765728628811352 0 0.056745426088922309 -0.019699231225240799 0 0.053662933204735939 -0.017765728628811352 0 0.052567139280696548 -0.015972297482270029 0 0.04996745961471416 -0.018271073396990016 0 0.052567139280696548 -0.015972297482270029 0 0.04949787875139814 -0.015285892223936386 0 0.04996745961471416 -0.018271073396990016 0 0.04949787875139814 -0.015285892223936386 0 0.04996745961471416 -0.018271073396990016 0 0.047146025157333911 -0.016899514546667934 0 0.04996745961471416 -0.018271073396990016 0 0.046027730075049282 -0.019536955793369927 0 0.047146025157333911 -0.016899514546667934 0 0.046027730075049282 -0.019536955793369927 0 0.044436312461643472 -0.017072709895576885 0 0.047146025157333911 -0.016899514546667934 0 0.043404297086573972 -0.018725360964579385 0 0.042247361111074258 -0.020297282198943129 0 0.046027730075049282 -0.019536955793369927 0 0.044436312461643472 -0.017072709895576885 0 0.043038305524134617 -0.019995069161744421 0 0.044436312461643472 -0.017072709895576885 0 0.044789595731672009 -0.014341977632688312 0 0.042963352083794842 -0.014945594329788488 0 0.044436312461643472 -0.017072709895576885 0 0.041810808623948793 -0.015547877257426816 0 0.042963352083794842 -0.014945594329788488 0 0.044436312461643472 -0.017072709895576885 0 0.047146025157333911 -0.016899514546667934 0 0.044789595731672009 -0.014341977632688312 0 0.04949787875139814 -0.015285892223936386 0 0.047146025157333911 -0.016899514546667934 0 0.044789595731672009 -0.014341977632688312 0 0.04062268899002125 -0.017508942602533897 0 0.038040421530181806 -0.019119877876082797 0 0.039562511219459626 -0.020962138813827986 0 0.04062268899002125 -0.017508942602533897 0 0.039562511219459626 -0.020962138813827986 0 0.041659106223078321 -0.020319337893858647 0 0.044436312461643472 -0.017072709895576885 0 0.04062268899002125 -0.017508942602533897 0 0.041659106223078321 -0.020319337893858647 0 0.044436312461643472 -0.017072709895576885 0 0.041810808623948793 -0.015547877257426816 0 0.04062268899002125 -0.017508942602533897 0 0.041810808623948793 -0.015547877257426816 0 0.04062268899002125 -0.017508942602533897 0 0.04020320243466767 -0.015517155015875909 0 0.04062268899002125 -0.017508942602533897 0 0.038636813355915574 -0.015067765811612073 0 0.038040421530181806 -0.019119877876082797 0 0.032951088044612852 -0.016785702808334819 0 0.034751740337380793 -0.019065349916710574 0 0.04062268899002125 -0.017508942602533897 0 0.04020320243466767 -0.015517155015875909 0 0.038636813355915574 -0.015067765811612073 0 0.032524939806674827 -0.016489869246551273 0 0.035198726130029563 -0.016738920896313059 0 0.032951088044612852 -0.016785702808334819 0 0.035198726130029563 -0.016738920896313059 0 0.033427505476511708 -0.016769321127355446 0 0.033407166169116674 -0.016862145677727761 0 0.033582215951816922 -0.016823125962157938 0 0.04020320243466767 -0.015517155015875909 0 0.038636813355915574 -0.015067765811612073 0 0.041214987596144434 -0.014212426113115141 0 0.032524939806674827 -0.016489869246551273 0 0.032951088044612852 -0.016785702808334819 0 0.027092351404494515 -0.016827942161453092 0 0.027027421230848732 -0.017129953830666581 0 0.026806304682744347 -0.016895618538284602 0 0.040108502763755882 -0.013403934077257183 0 0.041214987596144434 -0.014212426113115141 0 0.040736329925782841 -0.013044119386928737 0 0.041810808623948793 -0.015547877257426816 0 0.04020320243466767 -0.015517155015875909 0 0.041214987596144434 -0.014212426113115141 0 0.041810808623948793 -0.015547877257426816 0 0.041214987596144434 -0.014212426113115141 0 0.042963352083794842 -0.014945594329788488 0 0.041214987596144434 -0.014212426113115141 0 0.040736329925782841 -0.013044119386928737 0 0.041947014598564543 -0.013676416188061037 0 0.041214987596144434 -0.014212426113115141 0 0.042963352083794842 -0.014945594329788488 0 0.041947014598564543 -0.013676416188061037 0 0.040736329925782841 -0.013044119386928737 0 0.040025049165128973 -0.013445402867769201 0 0.040473970958315571 -0.013229022028963599 0 0.040736329925782841 -0.013044119386928737 0 0.040948311280765676 -0.012311278017361944 0 0.040025049165128973 -0.013445402867769201 0 0.040736329925782841 -0.013044119386928737 0 0.041947014598564543 -0.013676416188061037 0 0.040948311280765676 -0.012311278017361944 0 0.040108502763755882 -0.013403934077257183 0 0.040736329925782841 -0.013044119386928737 0 0.040473970958315571 -0.013229022028963599 0 0.029161287657296083 -0.017855482927074697 0 0.029458700551071051 -0.016463850068120324 0 0.028439844608898007 -0.016711480075657092 0 0.032524939806674827 -0.016489869246551273 0 0.033643446510510613 -0.0152693553812708 0 0.044789595731672009 -0.014341977632688312 0 0.042963352083794842 -0.014945594329788488 0 0.041947014598564543 -0.013676416188061037 0 0.044789595731672009 -0.014341977632688312 0 0.041947014598564543 -0.013676416188061037 0 0.040948311280765676 -0.012311278017361944 0 0.041443912379835392 -0.011984463796579092 0 0.041610665765850659 -0.011912864254655974 0 0.044789595731672009 -0.014341977632688312 0 0.040948311280765676 -0.012311278017361944 0 0.045832967117523958 -0.010038656367507988 0 0.048982964238979784 -0.012223990640952519 0 0.044789595731672009 -0.014341977632688312 0 0.045832967117523958 -0.010038656367507988 0 0.037768396450148199 -0.013330590656241433 0 0.03886809749595041 -0.014370671686192752 0 0.037942078162796794 -0.015627251669441379 0 0.036290851663386095 -0.013924129477329761 0 0.037768396450148199 -0.013330590656241433 0 0.037942078162796794 -0.015627251669441379 0 0.038300405983638118 -0.015295461489490169 0 0.03886809749595041 -0.014370671686192752 0 0.037942078162796794 -0.015627251669441379 0 0.038300405983638118 -0.015295461489490169 0 0.038819006145498838 -0.014853614577355173 0 0.038079767485226207 -0.015582699621238082 0 0.038300405983638118 -0.015295461489490169 0 0.03886809749595041 -0.014370671686192752 0 0.038819006145498838 -0.014853614577355173 0 0.03886809749595041 -0.014370671686192752 0 0.040025049165128973 -0.013445402867769201 0 0.038819006145498838 -0.014853614577355173 0 0.040948311280765676 -0.012311278017361944 0 0.037768396450148199 -0.013330590656241433 0 0.03886809749595041 -0.014370671686192752 0 0.040948311280765676 -0.012311278017361944 0 0.03886809749595041 -0.014370671686192752 0 0.040025049165128973 -0.013445402867769201 0 0.040025049165128973 -0.013445402867769201 0 0.040473970958315571 -0.013229022028963599 0 0.039489246266227816 -0.014564870050781352 0 0.040025049165128973 -0.013445402867769201 0 0.038819006145498838 -0.014853614577355173 0 0.039489246266227816 -0.014564870050781352 0 0.029458700551071051 -0.016463850068120324 0 0.029124919402460842 -0.015517876962044562 0 0.029756628595504368 -0.015082433453299196 0 0.040473970958315571 -0.013229022028963599 0 0.039879583467549266 -0.015061704589616009 0 0.039489246266227816 -0.014564870050781352 0 0.029458700551071051 -0.016463850068120324 0 0.02844977478926667 -0.015631320498872135 0 0.028439844608898007 -0.016711480075657092 0 0.033643446510510613 -0.0152693553812708 0 0.034160276272623954 -0.014820436152366759 0 0.029458700551071051 -0.016463850068120324 0 0.029124919402460842 -0.015517876962044562 0 0.02844977478926667 -0.015631320498872135 0 0.029756628595504368 -0.015082433453299196 0 0.028834234218418655 -0.014896605932551304 0 0.028769671797345565 -0.013874450307192969 0 0.029124919402460842 -0.015517876962044562 0 0.028834234218418655 -0.014896605932551304 0 0.02844977478926667 -0.015631320498872135 0 0.029124919402460842 -0.015517876962044562 0 0.029756628595504368 -0.015082433453299196 0 0.028834234218418655 -0.014896605932551304 0 0.039134504128723289 -0.015169761339997236 0 0.038416516158265308 -0.015381106811752586 0 0.036256365094170934 -0.016092334593214089 0 0.038819006145498838 -0.014853614577355173 0 0.039489246266227816 -0.014564870050781352 0 0.038416516158265308 -0.015381106811752586 0 0.039134504128723289 -0.015169761339997236 0 0.039489246266227816 -0.014564870050781352 0 0.038416516158265308 -0.015381106811752586 0 0.034160276272623954 -0.014820436152366759 0 0.03434639052897883 -0.014924230316114874 0 0.038819006145498838 -0.014853614577355173 0 0.038416516158265308 -0.015381106811752586 0 0.038079767485226207 -0.015582699621238082 0 0.034160276272623954 -0.014820436152366759 0 0.03441720718054464 -0.014911868657261636 0 0.036256365094170934 -0.016092334593214089 0 0.034819880122910513 -0.014818711677418665 0 0.037812480065159533 -0.015596849205820681 0 0.038079767485226207 -0.015582699621238082 0 0.036256365094170934 -0.016092334593214089 0 0.037812480065159533 -0.015596849205820681 0 0.038416516158265308 -0.015381106811752586 0 0.038079767485226207 -0.015582699621238082 0 0.036256365094170934 -0.016092334593214089 0 0.035533679790695695 -0.019426204521544019 0 0.036256365094170934 -0.016092334593214089 0 0.032441048446010416 -0.016167699672498707 0 0.034160276272623954 -0.014820436152366759 0 0.031689367593237788 -0.014006588276220847 0 0.036256365094170934 -0.016092334593214089 0 0.034819880122910513 -0.014818711677418665 0 0.032441048446010416 -0.016167699672498707 0 0.029983379377387938 -0.012207151160654758 0 0.031497509905511256 -0.013406843118626673 0 0.031466766509231164 -0.011816443072837864 0 0.034819880122910513 -0.014818711677418665 0 0.03207144325053278 -0.014190190911080237 0 0.034819880122910513 -0.014818711677418665 0 0.03207144325053278 -0.014190190911080237 0 0.032441048446010416 -0.016167699672498707 0 0.032399405150407505 -0.012097580806078125 0 0.034819880122910513 -0.014818711677418665 0 0.037682418986410587 -0.01472579652632163 0 0.034819880122910513 -0.014818711677418665 0 0.037682418986410587 -0.01472579652632163 0 0.037812480065159533 -0.015596849205820681 0 0.034475664217117695 -0.012095726912121942 0 0.034330652209378969 -0.013628860437164995 0 0.035679724248996389 -0.013384512417181171 0 0.034330652209378969 -0.013628860437164995 0 0.035679724248996389 -0.013384512417181171 0 0.035403011277514343 -0.014584389612022512 0 0.035978522993312688 -0.01446858418859367 0 0.035679724248996389 -0.013384512417181171 0 0.035403011277514343 -0.014584389612022512 0 0.037682418986410587 -0.01472579652632163 0 0.037942078162796794 -0.015627251669441379 0 0.037812480065159533 -0.015596849205820681 0 0.038300405983638118 -0.015295461489490169 0 0.037942078162796794 -0.015627251669441379 0 0.037812480065159533 -0.015596849205820681 0 0.036382678345192189 -0.013310692851377924 0 0.038154620129693305 -0.013273862096989893 0 0.038300405983638118 -0.015295461489490169 0 0.038079767485226207 -0.015582699621238082 0 0.037812480065159533 -0.015596849205820681 0 0.025901288138977425 -0.013814798977965202 0 0.026637300398060816 -0.014255134885440631 0 0.026117032399267635 -0.01493461179537698 0 0.025901288138977425 -0.013814798977965202 0 0.026671358502134295 -0.013090610365065477 0 0.026637300398060816 -0.014255134885440631 0 0.025901288138977425 -0.013814798977965202 0 0.025367064480947679 -0.01437998850063715 0 0.026117032399267635 -0.01493461179537698 0 0.024920207116403977 -0.013531093840884266 0 0.024598365949019603 -0.014690630028150084 0 0.024079429694794003 -0.013996648761366264 0 0.025367064480947679 -0.01437998850063715 0 0.024920207116403977 -0.013531093840884266 0 0.024598365949019603 -0.014690630028150084 0 0.025901288138977425 -0.013814798977965202 0 0.025367064480947679 -0.01437998850063715 0 0.024920207116403977 -0.013531093840884266 0 0.025334831899539681 -0.012279897906165746 0 0.024920207116403977 -0.013531093840884266 0 0.024005732932796502 -0.012537000366511154 0 0.024920207116403977 -0.013531093840884266 0 0.024005732932796502 -0.012537000366511154 0 0.024079429694794003 -0.013996648761366264 0 0.025334831899539681 -0.012279897906165746 0 0.024920207116403977 -0.013531093840884266 0 0.025848889616334313 -0.013048206784120593 0 0.025334831899539681 -0.012279897906165746 0 0.026273386112261692 -0.012191073811300097 0 0.025848889616334313 -0.013048206784120593 0 0.025901288138977425 -0.013814798977965202 0 0.024920207116403977 -0.013531093840884266 0 0.025848889616334313 -0.013048206784120593 0 0.025901288138977425 -0.013814798977965202 0 0.025848889616334313 -0.013048206784120593 0 0.026671358502134295 -0.013090610365065477 0 0.026273386112261692 -0.012191073811300097 0 0.026962707118497659 -0.012434965081335249 0 0.026671358502134295 -0.013090610365065477 0 0.026273386112261692 -0.012191073811300097 0 0.025848889616334313 -0.013048206784120593 0 0.026671358502134295 -0.013090610365065477 0 0.026962707118497659 -0.012434965081335249 0 0.026671358502134295 -0.013090610365065477 0 0.027837647072860128 -0.012672723017116794 0 0.026671358502134295 -0.013090610365065477 0 0.027837647072860128 -0.012672723017116794 0 0.027442314972477615 -0.01389685369629395 0 0.029727059568929431 -0.012721297079954119 0 0.031689367593237788 -0.014006588276220847 0 0.027837647072860128 -0.012672723017116794 0 0.028769671797345565 -0.013874450307192969 0 0.027442314972477615 -0.01389685369629395 0 0.03207144325053278 -0.014190190911080237 0 0.029536657562045005 -0.013818014708637883 0 0.032441048446010416 -0.016167699672498707 0 0.031466766509231164 -0.011816443072837864 0 0.03207144325053278 -0.014190190911080237 0 0.029536657562045005 -0.013818014708637883 0 0.028769671797345565 -0.013874450307192969 0 0.027442314972477615 -0.01389685369629395 0 0.028094109584189893 -0.014619302354787931 0 0.028834234218418655 -0.014896605932551304 0 0.028769671797345565 -0.013874450307192969 0 0.028094109584189893 -0.014619302354787931 0 0.026637300398060816 -0.014255134885440631 0 0.027442314972477615 -0.01389685369629395 0 0.027290077432661108 -0.015104500572056248 0 0.026671358502134295 -0.013090610365065477 0 0.026637300398060816 -0.014255134885440631 0 0.027442314972477615 -0.01389685369629395 0 0.027442314972477615 -0.01389685369629395 0 0.027290077432661108 -0.015104500572056248 0 0.028094109584189893 -0.014619302354787931 0 0.026637300398060816 -0.014255134885440631 0 0.027290077432661108 -0.015104500572056248 0 0.026117032399267635 -0.01493461179537698 0 0.027290077432661108 -0.015104500572056248 0 0.026532266601494554 -0.015789006398836306 0 0.026117032399267635 -0.01493461179537698 0 0.027290077432661108 -0.015104500572056248 0 0.028094109584189893 -0.014619302354787931 0 0.02844977478926667 -0.015631320498872135 0 0.028834234218418655 -0.014896605932551304 0 0.028094109584189893 -0.014619302354787931 0 0.02844977478926667 -0.015631320498872135 0 0.027290077432661108 -0.015104500572056248 0 0.02844977478926667 -0.015631320498872135 0 0.027452026748536616 -0.016272634490395909 0 0.02844977478926667 -0.015631320498872135 0 0.027452026748536616 -0.016272634490395909 0 0.028439844608898007 -0.016711480075657092 0 0.027452026748536616 -0.016272634490395909 0 0.026532266601494554 -0.015789006398836306 0 0.026150137046712364 -0.016776607451600156 0 0.027290077432661108 -0.015104500572056248 0 0.027452026748536616 -0.016272634490395909 0 0.026532266601494554 -0.015789006398836306 0 0.026532266601494554 -0.015789006398836306 0 0.025489600858889804 -0.015896532280741397 0 0.026150137046712364 -0.016776607451600156 0 0.026117032399267635 -0.01493461179537698 0 0.025295884530696443 -0.015090054688638666 0 0.025489600858889804 -0.015896532280741397 0 0.026532266601494554 -0.015789006398836306 0 0.026117032399267635 -0.01493461179537698 0 0.025489600858889804 -0.015896532280741397 0 0.025367064480947679 -0.01437998850063715 0 0.026117032399267635 -0.01493461179537698 0 0.025295884530696443 -0.015090054688638666 0 0.024598365949019603 -0.014690630028150084 0 0.024580366680950462 -0.015364457567761131 0 0.023813503056495822 -0.014996638051120019 0 0.024598365949019603 -0.014690630028150084 0 0.025295884530696443 -0.015090054688638666 0 0.024580366680950462 -0.015364457567761131 0 0.025367064480947679 -0.01437998850063715 0 0.024598365949019603 -0.014690630028150084 0 0.025295884530696443 -0.015090054688638666 0 0.025295884530696443 -0.015090054688638666 0 0.024580366680950462 -0.015364457567761131 0 0.025489600858889804 -0.015896532280741397 0 0.025489600858889804 -0.015896532280741397 0 0.024918370679570107 -0.016105869310281858 0 0.026150137046712364 -0.016776607451600156 0 0.026074079207619366 -0.015925497825846621 0 0.026718436121427717 -0.016015604958236975 0 0.021295524744873374 -0.016350956582208111 0 0.017449167440585615 -0.01649171652764508 0 0.025489600858889804 -0.015896532280741397 0 0.024918370679570107 -0.016105869310281858 0 0.024409653665102931 -0.015802893421960642 0 0.024580366680950462 -0.015364457567761131 0 0.025489600858889804 -0.015896532280741397 0 0.023767926345213266 -0.01605674905308711 0 0.024918370679570107 -0.016105869310281858 0 0.02495312068247886 -0.016434386314692954 0 0.025876389815118611 -0.016355092794631512 0 0.024918370679570107 -0.016105869310281858 0 0.02495312068247886 -0.016434386314692954 0 0.024473591943008542 -0.016295046101572393 0 0.02495312068247886 -0.016434386314692954 0 0.025137519165702536 -0.016743589588357886 0 0.025876389815118611 -0.016355092794631512 0 0.02495312068247886 -0.016434386314692954 0 0.025137519165702536 -0.016743589588357886 0 0.024313549412201731 -0.016679516144282397 0 0.025137519165702536 -0.016743589588357886 0 0.025639502765093903 -0.016775148040130632 0 0.025321069828345522 -0.017047573610655481 0 0.025876389815118611 -0.016355092794631512 0 0.025639502765093903 -0.016775148040130632 0 0.026063020938981298 -0.017042216496770051 0 0.025137519165702536 -0.016743589588357886 0 0.025876389815118611 -0.016355092794631512 0 0.025639502765093903 -0.016775148040130632 0 0.025639502765093903 -0.016775148040130632 0 0.026063020938981298 -0.017042216496770051 0 0.025321069828345522 -0.017047573610655481 0 0.026063020938981298 -0.017042216496770051 0 0.025538809643273406 -0.016806681230818039 0 0.025906757041623554 -0.017089306764422427 0 0.024959908351176351 -0.016974319186676905 0 0.024040091268045877 -0.017142985877173604 0 0.026063020938981298 -0.017042216496770051 0 0.026266832305495494 -0.017246382363556512 0 0.025906757041623554 -0.017089306764422427 0 0.026063020938981298 -0.017042216496770051 0 0.024969842790140161 -0.017561542868734924 0 0.025321069828345522 -0.017047573610655481 0 0.025137519165702536 -0.016743589588357886 0 0.025321069828345522 -0.017047573610655481 0 0.024764054670416084 -0.01711367055256174 0 0.024969842790140161 -0.017561542868734924 0 0.025321069828345522 -0.017047573610655481 0 0.024764054670416084 -0.01711367055256174 0 0.032524939806674827 -0.016489869246551273 0 0.028443248435938692 -0.016131913943391252 0 0.029161287657296083 -0.017855482927074697 0 0.028439844608898007 -0.016711480075657092 0 0.027669590299567864 -0.017337031321691131 0 0.027092351404494515 -0.016827942161453092 0 0.026546401965166722 -0.016627569285797068 0 0.026806304682744347 -0.016895618538284602 0 0.027452026748536616 -0.016272634490395909 0 0.028439844608898007 -0.016711480075657092 0 0.027669590299567864 -0.017337031321691131 0 0.027452026748536616 -0.016272634490395909 0 0.026150137046712364 -0.016776607451600156 0 0.027669590299567864 -0.017337031321691131 0 0.026718436121427717 -0.016015604958236975 0 0.028443248435938692 -0.016131913943391252 0 0.025876389815118611 -0.016355092794631512 0 0.026063020938981298 -0.017042216496770051 0 0.026546401965166722 -0.016627569285797068 0 0.026063020938981298 -0.017042216496770051 0 0.02656141672009513 -0.017004340624752094 0 0.026266832305495494 -0.017246382363556512 0 0.026063020938981298 -0.017042216496770051 0 0.026546401965166722 -0.016627569285797068 0 0.02656141672009513 -0.017004340624752094 0 0.027027421230848732 -0.017129953830666581 0 0.02656141672009513 -0.017004340624752094 0 0.026266832305495494 -0.017246382363556512 0 0.027027421230848732 -0.017129953830666581 0 0.02656141672009513 -0.017004340624752094 0 0.026806304682744347 -0.016895618538284602 0 0.026546401965166722 -0.016627569285797068 0 0.02656141672009513 -0.017004340624752094 0 0.026806304682744347 -0.016895618538284602 0 0.031324525958042929 -0.01601561933286794 0 0.030183707363679892 -0.017184646192967765 0 0.030724358994974738 -0.018721759792168557 0 0.031324525958042929 -0.01601561933286794 0 0.030183707363679892 -0.017184646192967765 0 0.028638170157453856 -0.016636151907482417 0 0.032951088044612852 -0.016785702808334819 0 0.028254612096394408 -0.017314955592696895 0 0.030183707363679892 -0.017184646192967765 0 0.028638170157453856 -0.016636151907482417 0 0.029198138271260693 -0.018188155991950401 0 0.028638170157453856 -0.016636151907482417 0 0.029198138271260693 -0.018188155991950401 0 0.027627092798897898 -0.018445560531712212 0 0.029198138271260693 -0.018188155991950401 0 0.027627092798897898 -0.018445560531712212 0 0.028798438436610462 -0.019921532302623435 0 0.029198138271260693 -0.018188155991950401 0 0.030724358994974738 -0.018721759792168557 0 0.028798438436610462 -0.019921532302623435 0 0.030183707363679892 -0.017184646192967765 0 0.029198138271260693 -0.018188155991950401 0 0.030724358994974738 -0.018721759792168557 0 0.025806162809161738 -0.017340042403178886 0 0.02490347457603017 -0.017343401807750271 0 0.02514191314380192 -0.018246486580990817 0 0.025538809643273406 -0.016806681230818039 0 0.025806162809161738 -0.017340042403178886 0 0.02490347457603017 -0.017343401807750271 0 0.025538809643273406 -0.016806681230818039 0 0.025806162809161738 -0.017340042403178886 0 0.025906757041623554 -0.017089306764422427 0 0.026266832305495494 -0.017246382363556512 0 0.025806162809161738 -0.017340042403178886 0 0.025906757041623554 -0.017089306764422427 0 0.028254612096394408 -0.017314955592696895 0 0.026956207736343368 -0.017467395866677428 0 0.028638170157453856 -0.016636151907482417 0 0.025806162809161738 -0.017340042403178886 0 0.027627092798897898 -0.018445560531712212 0 0.025806162809161738 -0.017340042403178886 0 0.027627092798897898 -0.018445560531712212 0 0.026239302402623271 -0.018623568562755519 0 0.027627092798897898 -0.018445560531712212 0 0.026239302402623271 -0.018623568562755519 0 0.02695386838857804 -0.020113215216522692 0 0.025806162809161738 -0.017340042403178886 0 0.026239302402623271 -0.018623568562755519 0 0.02514191314380192 -0.018246486580990817 0 0.026239302402623271 -0.018623568562755519 0 0.025529861250738094 -0.019440501785835965 0 0.02514191314380192 -0.018246486580990817 0 0.025529861250738094 -0.019440501785835965 0 0.02695386838857804 -0.020113215216522692 0 0.025424353757871387 -0.020980265385871118 0 0.026239302402623271 -0.018623568562755519 0 0.025529861250738094 -0.019440501785835965 0 0.02695386838857804 -0.020113215216522692 0 0.02695386838857804 -0.020113215216522692 0 0.027725958424039271 -0.021290443923246808 0 0.028798438436610462 -0.019921532302623435 0 0.027627092798897898 -0.018445560531712212 0 0.02695386838857804 -0.020113215216522692 0 0.028798438436610462 -0.019921532302623435 0 0.02695386838857804 -0.020113215216522692 0 0.027725958424039271 -0.021290443923246808 0 0.026750853531621502 -0.021779860672618567 0 0.027725958424039271 -0.021290443923246808 0 0.026750853531621502 -0.021779860672618567 0 0.02814711746027453 -0.022292377909391366 0 0.026750853531621502 -0.021779860672618567 0 0.025424353757871387 -0.020980265385871118 0 0.025472600560016833 -0.023021005210458398 0 0.02695386838857804 -0.020113215216522692 0 0.026750853531621502 -0.021779860672618567 0 0.025424353757871387 -0.020980265385871118 0 0.026750853531621502 -0.021779860672618567 0 0.025472600560016833 -0.023021005210458398 0 0.027190643561845158 -0.023108509642175264 0 0.026750853531621502 -0.021779860672618567 0 0.027190643561845158 -0.023108509642175264 0 0.02814711746027453 -0.022292377909391366 0 0.027190643561845158 -0.023108509642175264 0 0.02826404493597514 -0.023684750025632938 0 0.02814711746027453 -0.022292377909391366 0 0.027190643561845158 -0.023108509642175264 0 0.02731251740038531 -0.024744678219402308 0 0.02826404493597514 -0.023684750025632938 0 0.02731251740038531 -0.024744678219402308 0 0.028570075364903507 -0.024705952342307311 0 0.02826404493597514 -0.023684750025632938 0 0.069940632352853832 0.0073248171920547774 0 0.069435734036027361 0.0078062592393406023 0 0.070173472178693366 0.007881093753731902 0 0.025472600560016833 -0.023021005210458398 0 0.027190643561845158 -0.023108509642175264 0 0.02731251740038531 -0.024744678219402308 0 0.047839738988135261 -0.0079840104086016123 0 0.049124793769678946 -0.0092417778599558596 0 0.038301314239818696 -0.026937660151563438 0 0.037494546636346285 -0.026769837007001061 0 0.038091642504735811 -0.026112763333841042 0 0.039645937632175721 -0.026391487317974551 0 0.038991941258671094 -0.027454808697652225 0 0.040195246571015794 -0.027572312081171189 0 0.038301314239818696 -0.026937660151563438 0 0.039645937632175721 -0.026391487317974551 0 0.038991941258671094 -0.027454808697652225 0 0.038301314239818696 -0.026937660151563438 0 0.038091642504735811 -0.026112763333841042 0 0.039645937632175721 -0.026391487317974551 0 0.038991941258671094 -0.027454808697652225 0 0.040195246571015794 -0.027572312081171189 0 0.038994001394698212 -0.028563525182509375 0 0.038301314239818696 -0.026937660151563438 0 0.037494546636346285 -0.026769837007001061 0 0.037961206507227618 -0.027967906805895781 0 0.038991941258671094 -0.027454808697652225 0 0.037961206507227618 -0.027967906805895781 0 0.038994001394698212 -0.028563525182509375 0 0.038301314239818696 -0.026937660151563438 0 0.038991941258671094 -0.027454808697652225 0 0.037961206507227618 -0.027967906805895781 0 0.029590091683852057 -0.023944114195500191 0 0.028570075364903507 -0.024705952342307311 0 0.02826404493597514 -0.023684750025632938 0 0.029590091683852057 -0.023944114195500191 0 0.02826404493597514 -0.023684750025632938 0 0.028846699233054236 -0.022994243702781955 0 0.02826404493597514 -0.023684750025632938 0 0.028846699233054236 -0.022994243702781955 0 0.02814711746027453 -0.022292377909391366 0 0.029590091683852057 -0.023944114195500191 0 0.028846699233054236 -0.022994243702781955 0 0.029190154776730558 -0.022300954293869791 0 0.028846699233054236 -0.022994243702781955 0 0.02814711746027453 -0.022292377909391366 0 0.029190154776730558 -0.022300954293869791 0 0.029590091683852057 -0.023944114195500191 0 0.029190154776730558 -0.022300954293869791 0 0.030134433538381671 -0.021378330000904354 0 0.040982077160169134 -0.024214658874561087 0 0.03665042630649501 -0.022280778663102185 0 0.038091642504735811 -0.026112763333841042 0 0.037705289286119992 -0.022961952064072436 0 0.039593100041545974 -0.023154196829798562 0 0.039158432461775777 -0.02447296514758868 0 0.040323554752702342 -0.022899532245270283 0 0.037494546636346285 -0.026769837007001061 0 0.038091642504735811 -0.026112763333841042 0 0.037705289286119992 -0.022961952064072436 0 0.038091642504735811 -0.026112763333841042 0 0.039645937632175721 -0.026391487317974551 0 0.040886094520764721 -0.022937877885775334 0 0.027725958424039271 -0.021290443923246808 0 0.02883829791864952 -0.021388559246222433 0 0.028798438436610462 -0.019921532302623435 0 0.030134433538381671 -0.021378330000904354 0 0.02883829791864952 -0.021388559246222433 0 0.028798438436610462 -0.019921532302623435 0 0.02814711746027453 -0.022292377909391366 0 0.029190154776730558 -0.022300954293869791 0 0.02883829791864952 -0.021388559246222433 0 0.027725958424039271 -0.021290443923246808 0 0.02814711746027453 -0.022292377909391366 0 0.02883829791864952 -0.021388559246222433 0 0.029190154776730558 -0.022300954293869791 0 0.030134433538381671 -0.021378330000904354 0 0.02883829791864952 -0.021388559246222433 0 0.038040421530181806 -0.019119877876082797 0 0.037705289286119992 -0.022961952064072436 0 0.039562511219459626 -0.020962138813827986 0 0.034751740337380793 -0.019065349916710574 0 0.03665042630649501 -0.022280778663102185 0 0.030724358994974738 -0.018721759792168557 0 0.030134433538381671 -0.021378330000904354 0 0.028798438436610462 -0.019921532302623435 0 0.039562511219459626 -0.020962138813827986 0 0.041659106223078321 -0.020319337893858647 0 0.039593100041545974 -0.023154196829798562 0 0.042247361111074258 -0.020297282198943129 0 0.040323554752702342 -0.022899532245270283 0 0.043038305524134617 -0.019995069161744421 0 0.043053716197718694 -0.02276193642536806 0 0.045099660879058361 -0.022153285004375835 0 0.043053716197718694 -0.02276193642536806 0 0.045099660879058361 -0.022153285004375835 0 0.04392911496728364 -0.024394609565086059 0 0.043038305524134617 -0.019995069161744421 0 0.043053716197718694 -0.02276193642536806 0 0.040886094520764721 -0.022937877885775334 0 0.037705289286119992 -0.022961952064072436 0 0.039562511219459626 -0.020962138813827986 0 0.039593100041545974 -0.023154196829798562 0 0.043053716197718694 -0.02276193642536806 0 0.040886094520764721 -0.022937877885775334 0 0.042316109767408329 -0.024429417024925099 0 0.04996745961471416 -0.018271073396990016 0 0.046027730075049282 -0.019536955793369927 0 0.048413736348622116 -0.021531343489737117 0 0.046027730075049282 -0.019536955793369927 0 0.048413736348622116 -0.021531343489737117 0 0.045099660879058361 -0.022153285004375835 0 0.046027730075049282 -0.019536955793369927 0 0.043038305524134617 -0.019995069161744421 0 0.045099660879058361 -0.022153285004375835 0 0.045099660879058361 -0.022153285004375835 0 0.046822887156308987 -0.024949305075901484 0 0.04392911496728364 -0.024394609565086059 0 0.048413736348622116 -0.021531343489737117 0 0.046822887156308987 -0.024949305075901484 0 0.049970894018291967 -0.024499245325580513 0 0.048413736348622116 -0.021531343489737117 0 0.045099660879058361 -0.022153285004375835 0 0.046822887156308987 -0.024949305075901484 0 0.046822887156308987 -0.024949305075901484 0 0.049970894018291967 -0.024499245325580513 0 0.04936953645908667 -0.028053600248539111 0 0.046822887156308987 -0.024949305075901484 0 0.044632951840016276 -0.026247890584864948 0 0.04392911496728364 -0.024394609565086059 0 0.045983304384047789 -0.027687261143258698 0 0.044632951840016276 -0.026247890584864948 0 0.043781058387180272 -0.027696897950211789 0 0.045983304384047789 -0.027687261143258698 0 0.043781058387180272 -0.027696897950211789 0 0.044856895760039435 -0.029146614136729282 0 0.046822887156308987 -0.024949305075901484 0 0.045983304384047789 -0.027687261143258698 0 0.044632951840016276 -0.026247890584864948 0 0.046822887156308987 -0.024949305075901484 0 0.045983304384047789 -0.027687261143258698 0 0.04936953645908667 -0.028053600248539111 0 0.039645937632175721 -0.026391487317974551 0 0.040886094520764721 -0.022937877885775334 0 0.041202313684279894 -0.025863811562029552 0 0.040886094520764721 -0.022937877885775334 0 0.041202313684279894 -0.025863811562029552 0 0.042316109767408329 -0.024429417024925099 0 0.041202313684279894 -0.025863811562029552 0 0.042316109767408329 -0.024429417024925099 0 0.042822706292999682 -0.02628210158370153 0 0.043053716197718694 -0.02276193642536806 0 0.042316109767408329 -0.024429417024925099 0 0.04392911496728364 -0.024394609565086059 0 0.044632951840016276 -0.026247890584864948 0 0.04392911496728364 -0.024394609565086059 0 0.042822706292999682 -0.02628210158370153 0 0.042316109767408329 -0.024429417024925099 0 0.04392911496728364 -0.024394609565086059 0 0.042822706292999682 -0.02628210158370153 0 0.042822706292999682 -0.02628210158370153 0 0.043781058387180272 -0.027696897950211789 0 0.041705400846700512 -0.027479961563266986 0 0.044632951840016276 -0.026247890584864948 0 0.042822706292999682 -0.02628210158370153 0 0.043781058387180272 -0.027696897950211789 0 0.043781058387180272 -0.027696897950211789 0 0.041705400846700512 -0.027479961563266986 0 0.042069390026116996 -0.028951148500972298 0 0.041705400846700512 -0.027479961563266986 0 0.040914770098076557 -0.02859934801676314 0 0.042069390026116996 -0.028951148500972298 0 0.041202313684279894 -0.025863811562029552 0 0.042822706292999682 -0.02628210158370153 0 0.041705400846700512 -0.027479961563266986 0 0.041202313684279894 -0.025863811562029552 0 0.041705400846700512 -0.027479961563266986 0 0.040195246571015794 -0.027572312081171189 0 0.039645937632175721 -0.026391487317974551 0 0.041202313684279894 -0.025863811562029552 0 0.040195246571015794 -0.027572312081171189 0 0.041705400846700512 -0.027479961563266986 0 0.040195246571015794 -0.027572312081171189 0 0.040914770098076557 -0.02859934801676314 0 0.040195246571015794 -0.027572312081171189 0 0.039934032654668987 -0.028916599704623194 0 0.040914770098076557 -0.02859934801676314 0 0.039934032654668987 -0.028916599704623194 0 0.040914770098076557 -0.02859934801676314 0 0.040683392721649531 -0.030068189227855206 0 0.039934032654668987 -0.028916599704623194 0 0.040683392721649531 -0.030068189227855206 0 0.039219279298479875 -0.030181820003672304 0 0.040683392721649531 -0.030068189227855206 0 0.041811364637489835 -0.030391794877951475 0 0.042069390026116996 -0.028951148500972298 0 0.040914770098076557 -0.02859934801676314 0 0.040683392721649531 -0.030068189227855206 0 0.042069390026116996 -0.028951148500972298 0 0.050608317172011377 -0.028302621558658436 0 0.05160417800007476 -0.027808721978356911 0 0.043781058387180272 -0.027696897950211789 0 0.044856895760039435 -0.029146614136729282 0 0.043943248152659015 -0.030009957778254173 0 0.043781058387180272 -0.027696897950211789 0 0.042069390026116996 -0.028951148500972298 0 0.043244241985407238 -0.030436702042307189 0 0.050899037106318989 -0.028264174163063677 0 0.05160417800007476 -0.027808721978356911 0 0.041811364637489835 -0.030391794877951475 0 0.042069390026116996 -0.028951148500972298 0 0.043244241985407238 -0.030436702042307189 0 0.044856895760039435 -0.029146614136729282 0 0.044743569334773026 -0.029575328819548861 0 0.045330601291216639 -0.030735939671791963 0 0.044743569334773026 -0.029575328819548861 0 0.045330601291216639 -0.030735939671791963 0 0.044810482472586309 -0.031547643015687542 0 0.056429060574921787 -0.024495703160750511 0 0.058201289416266913 -0.022930572773576362 0 0.056878700000591448 -0.021586063634082647 0 0.05160417800007476 -0.027808721978356911 0 0.056399899881050652 -0.02529196354205079 0 0.041251264211627232 -0.032095177414408337 0 0.039324886638873367 -0.033761249778559321 0 0.039331062732494065 -0.031913132296158421 0 0.053274867260661267 -0.024310425357346767 0 0.059001781696155706 -0.017215171151491033 0 0.040683392721649531 -0.030068189227855206 0 0.041251264211627232 -0.032095177414408337 0 0.039331062732494065 -0.031913132296158421 0 0.041811364637489835 -0.030391794877951475 0 0.043244241985407238 -0.030436702042307189 0 0.041251264211627232 -0.032095177414408337 0 0.05160417800007476 -0.027808721978356911 0 0.053274867260661267 -0.024310425357346767 0 0.040683392721649531 -0.030068189227855206 0 0.041811364637489835 -0.030391794877951475 0 0.041251264211627232 -0.032095177414408337 0 0.048482086006797723 -0.02877440337609535 0 0.051278960358800876 -0.026948918146157779 0 0.045983304384047789 -0.027687261143258698 0 0.046430655567968819 -0.029660546129500136 0 0.04936953645908667 -0.028053600248539111 0 0.049390748176620446 -0.027998636971617356 0 0.051069734584216465 -0.029831071674305629 0 0.053009932811105949 -0.025850255623793946 0 0.045983304384047789 -0.027687261143258698 0 0.044856895760039435 -0.029146614136729282 0 0.046430655567968819 -0.029660546129500136 0 0.045330601291216639 -0.030735939671791963 0 0.049390748176620446 -0.027998636971617356 0 0.048714366434139282 -0.031019061495397415 0 0.044856895760039435 -0.029146614136729282 0 0.045330601291216639 -0.030735939671791963 0 0.046430655567968819 -0.029660546129500136 0 0.047039795109913539 -0.029760509789650939 0 0.048482086006797723 -0.02877440337609535 0 0.049390748176620446 -0.027998636971617356 0 0.048714366434139282 -0.031019061495397415 0 0.051069734584216465 -0.029831071674305629 0 0.051069734584216465 -0.029831071674305629 0 0.051536352232178978 -0.032738602153457627 0 0.053525104539733727 -0.030025142291239693 0 0.048714366434139282 -0.031019061495397415 0 0.051536352232178978 -0.032738602153457627 0 0.048725258959465868 -0.033562258155658137 0 0.048714366434139282 -0.031019061495397415 0 0.051069734584216465 -0.029831071674305629 0 0.051536352232178978 -0.032738602153457627 0 0.048714366434139282 -0.031019061495397415 0 0.048725258959465868 -0.033562258155658137 0 0.046746309173466893 -0.032237303469715803 0 0.045330601291216639 -0.030735939671791963 0 0.048714366434139282 -0.031019061495397415 0 0.046746309173466893 -0.032237303469715803 0 0.048725258959465868 -0.033562258155658137 0 0.046746309173466893 -0.032237303469715803 0 0.046551862205197837 -0.033834313934178926 0 0.048725258959465868 -0.033562258155658137 0 0.048277397791997904 -0.035749139533634205 0 0.050938546019380297 -0.035503805754737952 0 0.048725258959465868 -0.033562258155658137 0 0.048277397791997904 -0.035749139533634205 0 0.046551862205197837 -0.033834313934178926 0 0.051536352232178978 -0.032738602153457627 0 0.050938546019380297 -0.035503805754737952 0 0.052950141555527463 -0.03520939179295321 0 0.051536352232178978 -0.032738602153457627 0 0.048725258959465868 -0.033562258155658137 0 0.050938546019380297 -0.035503805754737952 0 0.05808870585203995 -0.021146887811872322 0 0.056878700000591448 -0.021586063634082647 0 0.057324510382067533 -0.018705323305116338 0 0.063911243878182977 -0.01888604946365283 0 0.059001781696155706 -0.017215171151491033 0 0.05808870585203995 -0.021146887811872322 0 0.057324510382067533 -0.018705323305116338 0 0.05995108599794155 -0.021374116400854588 0 0.058201289416266913 -0.022930572773576362 0 0.05808870585203995 -0.021146887811872322 0 0.05995108599794155 -0.021374116400854588 0 0.058201289416266913 -0.022930572773576362 0 0.05808870585203995 -0.021146887811872322 0 0.056878700000591448 -0.021586063634082647 0 0.056399899881050652 -0.02529196354205079 0 0.063911243878182977 -0.01888604946365283 0 0.044810482472586309 -0.031547643015687542 0 0.046551862205197837 -0.033834313934178926 0 0.044445503201517016 -0.035009283064508276 0 0.045330601291216639 -0.030735939671791963 0 0.044810482472586309 -0.031547643015687542 0 0.046746309173466893 -0.032237303469715803 0 0.044810482472586309 -0.031547643015687542 0 0.046746309173466893 -0.032237303469715803 0 0.046551862205197837 -0.033834313934178926 0 0.048277397791997904 -0.035749139533634205 0 0.046551862205197837 -0.033834313934178926 0 0.044445503201517016 -0.035009283064508276 0 0.074967811569079612 -0.0088312444116351741 0 0.075871141578586029 -0.0088176488955897959 0 0.075800072251242454 -0.009664010869342975 0 0.074967811569079612 -0.0088312444116351741 0 0.075871141578586029 -0.0088176488955897959 0 0.075449851796910619 -0.0083570021970765795 0 0.075871141578586029 -0.0088176488955897959 0 0.075800072251242454 -0.009664010869342975 0 0.076373332074361464 -0.0091356591277937417 0 0.075871141578586029 -0.0088176488955897959 0 0.076380790096251344 -0.0085936245131432928 0 0.076141132211636764 -0.0082625284272735532 0 0.075871141578586029 -0.0088176488955897959 0 0.076373332074361464 -0.0091356591277937417 0 0.076380790096251344 -0.0085936245131432928 0 0.059001781696155706 -0.017215171151491033 0 0.065319402625502107 -0.011189127105250638 0 0.059314957774267651 -0.013048915286346819 0 0.06096929775023379 -0.013564192762492943 0 0.061116816593083177 -0.01145117811226992 0 0.074693660358964464 -0.0061314594023284472 0 0.075238864536470565 -0.0060281097249774325 0 0.07447525459375208 -0.0069627967595799313 0 0.06096929775023379 -0.013564192762492943 0 0.062347828250873864 -0.012487380010289144 0 0.061758154252173521 -0.015101831789053949 0 0.06096929775023379 -0.013564192762492943 0 0.062347828250873864 -0.012487380010289144 0 0.061116816593083177 -0.01145117811226992 0 0.065319402625502107 -0.011189127105250638 0 0.068527763760212315 -0.0073512510843099987 0 0.063244802939036324 -0.0092474440890539262 0 0.068527763760212315 -0.0073512510843099987 0 0.062347828250873864 -0.012487380010289144 0 0.061116816593083177 -0.01145117811226992 0 0.062942535938904809 -0.0098433147487904538 0 0.076373332074361464 -0.0091356591277937417 0 0.076380790096251344 -0.0085936245131432928 0 0.076861367478505735 -0.0086267844729072587 0 0.074892548728984515 -0.0053598298259469063 0 0.075200562038031965 -0.0053041352186336379 0 0.075358759061503244 -0.0055514249393060402 0 0.074892548728984515 -0.0053598298259469063 0 0.075358759061503244 -0.0055514249393060402 0 0.075238864536470565 -0.0060281097249774325 0 0.075358759061503244 -0.0055514249393060402 0 0.075772152749292249 -0.0059307959320822577 0 0.075456914817320045 -0.0049453346416337357 0 0.074693660358964464 -0.0061314594023284472 0 0.074892548728984515 -0.0053598298259469063 0 0.075238864536470565 -0.0060281097249774325 0 0.075200562038031965 -0.0053041352186336379 0 0.075358759061503244 -0.0055514249393060402 0 0.075456914817320045 -0.0049453346416337357 0 0.075358759061503244 -0.0055514249393060402 0 0.075772152749292249 -0.0059307959320822577 0 0.075238864536470565 -0.0060281097249774325 0 0.07515458272445745 -0.0057982891058822889 0 0.074933504402226445 -0.0056390530617688251 0 0.075954333757673215 -0.0056378297721855087 0 0.075772152749292249 -0.0059307959320822577 0 0.07594757783333006 -0.0054552155448004602 0 0.076040413280177882 -0.0056030374599815441 0 0.075954333757673215 -0.0056378297721855087 0 0.07605703922502452 -0.0058131758006606058 0 0.075954333757673215 -0.0056378297721855087 0 0.07605703922502452 -0.0058131758006606058 0 0.075772152749292249 -0.0059307959320822577 0 0.07605703922502452 -0.0058131758006606058 0 0.075661102892284046 -0.0063310227805340258 0 0.076384787253001032 -0.0058389840195178563 0 0.07605703922502452 -0.0058131758006606058 0 0.075772152749292249 -0.0059307959320822577 0 0.075661102892284046 -0.0063310227805340258 0 0.071351763672161631 -0.002097044640780425 0 0.075321365177604141 0.00027150845572463089 0 0.075661102892284046 -0.0063310227805340258 0 0.075238864536470565 -0.0060281097249774325 0 0.07447525459375208 -0.0069627967595799313 0 0.075772152749292249 -0.0059307959320822577 0 0.075661102892284046 -0.0063310227805340258 0 0.075238864536470565 -0.0060281097249774325 0 0.069667485950453661 0.0087513222577443126 0 0.06936283306673105 0.0082892041341789246 0 0.068908776691389464 0.0083466361733383395 0 0.071351763672161631 -0.002097044640780425 0 0.055942938448460468 -0.012405021090321454 0 0.069667485950453661 0.0087513222577443126 0 0.069906610070281247 0.0082703837353378905 0 0.070210372492316597 0.0085903821031137143 0 0.069667485950453661 0.0087513222577443126 0 0.06936283306673105 0.0082892041341789246 0 0.069906610070281247 0.0082703837353378905 0 0.069435734036027361 0.0078062592393406023 0 0.069906610070281247 0.0082703837353378905 0 0.070173472178693366 0.007881093753731902 0 0.049124793769678946 -0.0092417778599558596 0 0.053670919384267227 -0.013801361300303077 0 0.069435734036027361 0.0078062592393406023 0 0.06936283306673105 0.0082892041341789246 0 0.069906610070281247 0.0082703837353378905 0 0.069435734036027361 0.0078062592393406023 0 0.06936283306673105 0.0082892041341789246 0 0.068893996095629795 0.0082760764176337785 0 0.029590091683852057 -0.023944114195500191 0 0.028570075364903507 -0.024705952342307311 0 0.029108767855232552 -0.026445431787106902 0 0.037494546636346285 -0.026769837007001061 0 0.037961206507227618 -0.027967906805895781 0 0.036660878985908842 -0.031105993474157725 0 0.040982077160169134 -0.024214658874561087 0 0.053670919384267227 -0.013801361300303077 0 0.02731251740038531 -0.024744678219402308 0 0.028570075364903507 -0.024705952342307311 0 0.029108767855232552 -0.026445431787106902 0 0.037961206507227618 -0.027967906805895781 0 0.038018010565881444 -0.029092819459384807 0 0.036660878985908842 -0.031105993474157725 0 0.037961206507227618 -0.027967906805895781 0 0.038018010565881444 -0.029092819459384807 0 0.038994001394698212 -0.028563525182509375 0 0.038018010565881444 -0.029092819459384807 0 0.038994001394698212 -0.028563525182509375 0 0.038700005986501418 -0.029355508689010403 0 0.039934032654668987 -0.028916599704623194 0 0.038700005986501418 -0.029355508689010403 0 0.039219279298479875 -0.030181820003672304 0 0.040195246571015794 -0.027572312081171189 0 0.039934032654668987 -0.028916599704623194 0 0.038994001394698212 -0.028563525182509375 0 0.039934032654668987 -0.028916599704623194 0 0.038994001394698212 -0.028563525182509375 0 0.038700005986501418 -0.029355508689010403 0 0.038018010565881444 -0.029092819459384807 0 0.038109069483436613 -0.030115460568620352 0 0.036660878985908842 -0.031105993474157725 0 0.038700005986501418 -0.029355508689010403 0 0.039219279298479875 -0.030181820003672304 0 0.038109069483436613 -0.030115460568620352 0 0.038018010565881444 -0.029092819459384807 0 0.038700005986501418 -0.029355508689010403 0 0.038109069483436613 -0.030115460568620352 0 0.039219279298479875 -0.030181820003672304 0 0.038502194815543823 -0.0306035625373304 0 0.038109069483436613 -0.030115460568620352 0 0.038502194815543823 -0.0306035625373304 0 0.038109069483436613 -0.030115460568620352 0 0.037744646175524033 -0.030895717414579367 0 0.059314957774267651 -0.013048915286346819 0 0.06096929775023379 -0.013564192762492943 0 0.061483075869392362 -0.015242197150687677 0 0.037744646175524033 -0.030895717414579367 0 0.039331062732494065 -0.031913132296158421 0 0.036897374955767281 -0.031326324807771401 0 0.059001781696155706 -0.017215171151491033 0 0.054275774470429347 -0.013805021846956705 0 0.038502194815543823 -0.0306035625373304 0 0.037744646175524033 -0.030895717414579367 0 0.039331062732494065 -0.031913132296158421 0 0.039324886638873367 -0.033761249778559321 0 0.039331062732494065 -0.031913132296158421 0 0.036897374955767281 -0.031326324807771401 0 0.040683392721649531 -0.030068189227855206 0 0.039219279298479875 -0.030181820003672304 0 0.039331062732494065 -0.031913132296158421 0 0.039219279298479875 -0.030181820003672304 0 0.038502194815543823 -0.0306035625373304 0 0.039331062732494065 -0.031913132296158421 0 0.06096929775023379 -0.013564192762492943 0 0.061758154252173521 -0.015101831789053949 0 0.061483075869392362 -0.015242197150687677 0 0.06936283306673105 0.0082892041341789246 0 0.068893996095629795 0.0082760764176337785 0 0.068908776691389464 0.0083466361733383395 0 0.063244802939036324 -0.0092474440890539262 0 0.055942938448460468 -0.012405021090321454 0 0.038109069483436613 -0.030115460568620352 0 0.037744646175524033 -0.030895717414579367 0 0.036660878985908842 -0.031105993474157725 0 0.053670919384267227 -0.013801361300303077 0 0.054275774470429347 -0.013805021846956705 0 0.053026343315101789 -0.0145866159990514 0 0.054275774470429347 -0.013805021846956705 0 0.037744646175524033 -0.030895717414579367 0 0.036660878985908842 -0.031105993474157725 0 0.036885434871247486 -0.03132796018575032 0 0.053670919384267227 -0.013801361300303077 0 0.055942938448460468 -0.012405021090321454 0 0.050925700357060261 -0.010595203171786175 0 0.048268637416386921 -0.022867019076770044 0 0.058102029516991588 -0.017848642921939023 0 0.055942938448460468 -0.012405021090321454 0 0.054275774470429347 -0.013805021846956705 0 0.067259674030384131 -0.024458092585511522 0 0.067494068064114163 -0.025882028295658499 0 0.067083107908459977 -0.025793408617296613 0 0.067083107908459977 -0.025793408617296613 0 0.066043629898922762 -0.025263448813168124 0 0.067243309856096362 -0.026574299460162761 0 0.067259674030384131 -0.024458092585511522 0 0.067083107908459977 -0.025793408617296613 0 0.066043629898922762 -0.025263448813168124 0 0.067494068064114163 -0.025882028295658499 0 0.067083107908459977 -0.025793408617296613 0 0.067366499847078001 -0.026330408411712899 0 0.064830178591957235 -0.023090731242454487 0 0.06439713121472064 -0.021699014878508588 0 0.066043629898922762 -0.025263448813168124 0 0.066012707590871619 -0.022629521793947512 0 0.063997907452022607 -0.022827123160040853 0 0.066043629898922762 -0.025263448813168124 0 0.065770418669932634 -0.022262781892770041 0 0.064254992129318109 -0.024553625890613502 0 0.067259674030384131 -0.024458092585511522 0 0.066043629898922762 -0.025263448813168124 0 0.066012707590871619 -0.022629521793947512 0 0.066012707590871619 -0.022629521793947512 0 0.066370834493101147 -0.020211781047729572 0 0.062489261836826591 -0.019901236599252706 0 0.06439713121472064 -0.021699014878508588 0 0.06349318156048088 -0.018907630444994553 0 0.066012707590871619 -0.022629521793947512 0 0.063997907452022607 -0.022827123160040853 0 0.062489261836826591 -0.019901236599252706 0 0.065770418669932634 -0.022262781892770041 0 0.065130778946277557 -0.018570246750616616 0 0.062297192463304653 -0.02246640777062137 0 0.065130778946277557 -0.018570246750616616 0 0.060398792443373768 -0.019118544815879112 0 0.062297192463304653 -0.02246640777062137 0 0.062297192463304653 -0.02246640777062137 0 0.064254992129318109 -0.024553625890613502 0 0.061782334055950808 -0.025263142066959617 0 0.064254992129318109 -0.024553625890613502 0 0.061782334055950808 -0.025263142066959617 0 0.066603918090501604 -0.027556138147645057 0 0.066043629898922762 -0.025263448813168124 0 0.064254992129318109 -0.024553625890613502 0 0.066603918090501604 -0.027556138147645057 0 0.065770418669932634 -0.022262781892770041 0 0.062297192463304653 -0.02246640777062137 0 0.064254992129318109 -0.024553625890613502 0 0.061782334055950808 -0.025263142066959617 0 0.058562830242681309 -0.0257656643045318 0 0.061672455819883239 -0.027545589980626103 0 0.058562830242681309 -0.0257656643045318 0 0.056200988405670171 -0.0240885855786977 0 0.056226740861158947 -0.027620067477283333 0 0.055830262643604474 -0.023962043284809411 0 0.054187563299446115 -0.025066254727355831 0 0.058562830242681309 -0.0257656643045318 0 0.057977427140454348 -0.022843461662113755 0 0.056200988405670171 -0.0240885855786977 0 0.062297192463304653 -0.02246640777062137 0 0.061782334055950808 -0.025263142066959617 0 0.057977427140454348 -0.022843461662113755 0 0.061782334055950808 -0.025263142066959617 0 0.058562830242681309 -0.0257656643045318 0 0.057977427140454348 -0.022843461662113755 0 0.060398792443373768 -0.019118544815879112 0 0.062297192463304653 -0.02246640777062137 0 0.057977427140454348 -0.022843461662113755 0 0.060398792443373768 -0.019118544815879112 0 0.056745426088922309 -0.019699231225240799 0 0.057977427140454348 -0.022843461662113755 0 0.053662933204735939 -0.017765728628811352 0 0.056745426088922309 -0.019699231225240799 0 0.05273253204245875 -0.021501945652685026 0 0.057977427140454348 -0.022843461662113755 0 0.05273253204245875 -0.021501945652685026 0 0.053057387231484537 -0.026070679687624321 0 0.056745426088922309 -0.019699231225240799 0 0.057977427140454348 -0.022843461662113755 0 0.05273253204245875 -0.021501945652685026 0 0.053662933204735939 -0.017765728628811352 0 0.04996745961471416 -0.018271073396990016 0 0.05273253204245875 -0.021501945652685026 0 0.04996745961471416 -0.018271073396990016 0 0.048413736348622116 -0.021531343489737117 0 0.05273253204245875 -0.021501945652685026 0 0.048413736348622116 -0.021531343489737117 0 0.05273253204245875 -0.021501945652685026 0 0.049970894018291967 -0.024499245325580513 0 0.049970894018291967 -0.024499245325580513 0 0.053057387231484537 -0.026070679687624321 0 0.04936953645908667 -0.028053600248539111 0 0.05273253204245875 -0.021501945652685026 0 0.049970894018291967 -0.024499245325580513 0 0.053057387231484537 -0.026070679687624321 0 0.056200988405670171 -0.0240885855786977 0 0.053009932811105949 -0.025850255623793946 0 0.056226740861158947 -0.027620067477283333 0 0.054187563299446115 -0.025066254727355831 0 0.051278960358800876 -0.026948918146157779 0 0.051069734584216465 -0.029831071674305629 0 0.053009932811105949 -0.025850255623793946 0 0.053525104539733727 -0.030025142291239693 0 0.053009932811105949 -0.025850255623793946 0 0.056226740861158947 -0.027620067477283333 0 0.053525104539733727 -0.030025142291239693 0 0.056226740861158947 -0.027620067477283333 0 0.053525104539733727 -0.030025142291239693 0 0.056714148979210635 -0.031074283290710592 0 0.064859573723609343 -0.028997853279762717 0 0.067468545929201804 -0.028896163035596355 0 0.051536352232178978 -0.032738602153457627 0 0.053525104539733727 -0.030025142291239693 0 0.054187579410313068 -0.033537097875770132 0 0.051536352232178978 -0.032738602153457627 0 0.054187579410313068 -0.033537097875770132 0 0.052950141555527463 -0.03520939179295321 0 0.054187579410313068 -0.033537097875770132 0 0.052950141555527463 -0.03520939179295321 0 0.055083749317248056 -0.036731830149291149 0 0.067468545929201804 -0.028896163035596355 0 0.075189576601410041 -0.025643589048691011 0 0.054408987183758174 -0.033406759921810934 0 0.05723271060770508 -0.034354620297910726 0 0.055411604950647182 -0.036623078353276009 0 0.069250798354103471 -0.031185942185720936 0 0.075189576601410041 -0.025643589048691011 0 0.05723271060770508 -0.034354620297910726 0 0.057758416842888786 -0.036318297942058909 0 0.055482818182173314 -0.036613548648399726 0 0.053525104539733727 -0.030025142291239693 0 0.054408987183758174 -0.033406759921810934 0 0.056714148979210635 -0.031074283290710592 0 0.054408987183758174 -0.033406759921810934 0 0.056714148979210635 -0.031074283290710592 0 0.05723271060770508 -0.034354620297910726 0 0.056714148979210635 -0.031074283290710592 0 0.058754604159802971 -0.032480833249631726 0 0.05723271060770508 -0.034354620297910726 0 0.05723271060770508 -0.034354620297910726 0 0.059886836312370788 -0.035635846557273698 0 0.057758416842888786 -0.036318297942058909 0 0.058754604159802971 -0.032480833249631726 0 0.05723271060770508 -0.034354620297910726 0 0.059886836312370788 -0.035635846557273698 0 0.059886836312370788 -0.035635846557273698 0 0.061507324561333031 -0.032361489962299081 0 0.062798309593611726 -0.034938861589649914 0 0.058754604159802971 -0.032480833249631726 0 0.059886836312370788 -0.035635846557273698 0 0.061507324561333031 -0.032361489962299081 0 0.058754604159802971 -0.032480833249631726 0 0.061507324561333031 -0.032361489962299081 0 0.059364760182070368 -0.029509043797675723 0 0.061507324561333031 -0.032361489962299081 0 0.059364760182070368 -0.029509043797675723 0 0.062831948881464941 -0.029819684842344513 0 0.059364760182070368 -0.029509043797675723 0 0.061672455819883239 -0.027545589980626103 0 0.062831948881464941 -0.029819684842344513 0 0.056226740861158947 -0.027620067477283333 0 0.056714148979210635 -0.031074283290710592 0 0.059364760182070368 -0.029509043797675723 0 0.056714148979210635 -0.031074283290710592 0 0.058754604159802971 -0.032480833249631726 0 0.059364760182070368 -0.029509043797675723 0 0.058562830242681309 -0.0257656643045318 0 0.056226740861158947 -0.027620067477283333 0 0.059364760182070368 -0.029509043797675723 0 0.058562830242681309 -0.0257656643045318 0 0.059364760182070368 -0.029509043797675723 0 0.061672455819883239 -0.027545589980626103 0 0.061782334055950808 -0.025263142066959617 0 0.061672455819883239 -0.027545589980626103 0 0.066603918090501604 -0.027556138147645057 0 0.068934793524962568 -0.02697806104695839 0 0.069301489204173741 -0.027173491284140948 0 0.066603918090501604 -0.027556138147645057 0 0.062831948881464941 -0.029819684842344513 0 0.065739516264422329 -0.032085246924966733 0 0.066603918090501604 -0.027556138147645057 0 0.071308613008877225 -0.025864129296368634 0 0.068121430430769611 -0.026753370225278579 0 0.061672455819883239 -0.027545589980626103 0 0.066603918090501604 -0.027556138147645057 0 0.062831948881464941 -0.029819684842344513 0 0.061507324561333031 -0.032361489962299081 0 0.062798309593611726 -0.034938861589649914 0 0.065739516264422329 -0.032085246924966733 0 0.061507324561333031 -0.032361489962299081 0 0.062831948881464941 -0.029819684842344513 0 0.065739516264422329 -0.032085246924966733 0 0.062798309593611726 -0.034938861589649914 0 0.06517512128721327 -0.035659959760793156 0 0.065739516264422329 -0.032085246924966733 0 0.070044246579020183 -0.026567249104356816 0 0.069301489204173741 -0.027173491284140948 0 0.075825256155928 -0.021604648034800587 0 0.071308613008877225 -0.025864129296368634 0 0.072012259411714213 -0.023233923359531325 0 0.075825256155928 -0.021604648034800587 0 0.072012259411714213 -0.023233923359531325 0 0.073207390591803118 -0.020343702280046991 0 0.071308613008877225 -0.025864129296368634 0 0.069323087825823318 -0.024585858954052252 0 0.068121430430769611 -0.026753370225278579 0 0.071308613008877225 -0.025864129296368634 0 0.069323087825823318 -0.024585858954052252 0 0.072012259411714213 -0.023233923359531325 0 0.069323087825823318 -0.024585858954052252 0 0.072012259411714213 -0.023233923359531325 0 0.070501616049730806 -0.022560557591279149 0 0.072012259411714213 -0.023233923359531325 0 0.070501616049730806 -0.022560557591279149 0 0.073207390591803118 -0.020343702280046991 0 0.069323087825823318 -0.024585858954052252 0 0.070501616049730806 -0.022560557591279149 0 0.067552423264181136 -0.021774691427205749 0 0.067108798262509331 -0.024328928771685146 0 0.069323087825823318 -0.024585858954052252 0 0.067552423264181136 -0.021774691427205749 0 0.069323087825823318 -0.024585858954052252 0 0.067619830136266171 -0.025921513910340442 0 0.068121430430769611 -0.026753370225278579 0 0.067108798262509331 -0.024328928771685146 0 0.069323087825823318 -0.024585858954052252 0 0.067619830136266171 -0.025921513910340442 0 0.067140414574440907 -0.026240423417697206 0 0.067619830136266171 -0.025921513910340442 0 0.067522369492937967 -0.026496163091666601 0 0.067140414574440907 -0.026240423417697206 0 0.067522369492937967 -0.026496163091666601 0 0.067366499847078001 -0.026330408411712899 0 0.067619830136266171 -0.025921513910340442 0 0.067522369492937967 -0.026496163091666601 0 0.068121430430769611 -0.026753370225278579 0 0.066603918090501604 -0.027556138147645057 0 0.068121430430769611 -0.026753370225278579 0 0.067243309856096362 -0.026574299460162761 0 0.067522369492937967 -0.026496163091666601 0 0.068121430430769611 -0.026753370225278579 0 0.067243309856096362 -0.026574299460162761 0 0.066043629898922762 -0.025263448813168124 0 0.066603918090501604 -0.027556138147645057 0 0.067243309856096362 -0.026574299460162761 0 0.067083107908459977 -0.025793408617296613 0 0.067243309856096362 -0.026574299460162761 0 0.067366499847078001 -0.026330408411712899 0 0.067522369492937967 -0.026496163091666601 0 0.067243309856096362 -0.026574299460162761 0 0.067366499847078001 -0.026330408411712899 0 0.082603926958052964 -0.0031865745706293452 0 0.082241709967134438 -0.0012391602503166016 0 0.063818283065718392 -0.00022033886099159125 0 0.068623425858053852 -0.0037132160446163307 0 0.071559313490018581 0.0016897240140247795 0 0.068623425858053852 -0.0037132160446163307 0 0.072548482770724856 -0.0040751221668388739 0 0.070225488784133427 -0.0072899038646965847 0 0.063818283065718392 -0.00022033886099159125 0 0.068623425858053852 -0.0037132160446163307 0 0.066288285574808314 -0.0046856889898515023 0 0.068623425858053852 -0.0037132160446163307 0 0.072548482770724856 -0.0040751221668388739 0 0.071559313490018581 0.0016897240140247795 0 0.075826045981880433 -0.0018037553683254758 0 0.072548482770724856 -0.0040751221668388739 0 0.071559313490018581 0.0016897240140247795 0 0.075826045981880433 -0.0018037553683254758 0 0.083590803800222505 0.0029329874772696962 0 0.071559313490018581 0.0016897240140247795 0 0.075826045981880433 -0.0018037553683254758 0 0.079747961788497385 -0.0014736609379249904 0 0.083590803800222505 0.0029329874772696962 0 0.079747961788497385 -0.0014736609379249904 0 0.076042996250902953 -0.0049740034526948723 0 0.078419257756495525 -0.0048694100619296014 0 0.075826045981880433 -0.0018037553683254758 0 0.079747961788497385 -0.0014736609379249904 0 0.076042996250902953 -0.0049740034526948723 0 0.075826045981880433 -0.0018037553683254758 0 0.076042996250902953 -0.0049740034526948723 0 0.072548482770724856 -0.0040751221668388739 0 0.076042996250902953 -0.0049740034526948723 0 0.072548482770724856 -0.0040751221668388739 0 0.073094846340740163 -0.0071984355147421556 0 0.076042996250902953 -0.0049740034526948723 0 0.073094846340740163 -0.0071984355147421556 0 0.074968362482372569 -0.0090132939912423733 0 0.073094846340740163 -0.0071984355147421556 0 0.072070524593026944 -0.010511788688111286 0 0.070225488784133427 -0.0072899038646965847 0 0.076042996250902953 -0.0049740034526948723 0 0.074968362482372569 -0.0090132939912423733 0 0.077980336890203936 -0.0072657039475903969 0 0.076042996250902953 -0.0049740034526948723 0 0.077980336890203936 -0.0072657039475903969 0 0.078419257756495525 -0.0048694100619296014 0 0.074968362482372569 -0.0090132939912423733 0 0.072070524593026944 -0.010511788688111286 0 0.074541991645454664 -0.013172775615746139 0 0.074968362482372569 -0.0090132939912423733 0 0.077473134901959978 -0.010301778001070702 0 0.077980336890203936 -0.0072657039475903969 0 0.074968362482372569 -0.0090132939912423733 0 0.074541991645454664 -0.013172775615746139 0 0.077473134901959978 -0.010301778001070702 0 0.073094846340740163 -0.0071984355147421556 0 0.074968362482372569 -0.0090132939912423733 0 0.072070524593026944 -0.010511788688111286 0 0.072070524593026944 -0.010511788688111286 0 0.069297102219412973 -0.009816762867894414 0 0.070225488784133427 -0.0072899038646965847 0 0.072548482770724856 -0.0040751221668388739 0 0.073094846340740163 -0.0071984355147421556 0 0.070225488784133427 -0.0072899038646965847 0 0.069297102219412973 -0.009816762867894414 0 0.070225488784133427 -0.0072899038646965847 0 0.067337499853354438 -0.0074856093349197532 0 0.068623425858053852 -0.0037132160446163307 0 0.066288285574808314 -0.0046856889898515023 0 0.067337499853354438 -0.0074856093349197532 0 0.068623425858053852 -0.0037132160446163307 0 0.070225488784133427 -0.0072899038646965847 0 0.067337499853354438 -0.0074856093349197532 0 0.065338130043537182 -0.0072818164195692673 0 0.066288285574808314 -0.0046856889898515023 0 0.067337499853354438 -0.0074856093349197532 0 0.064915219666074997 -0.0083499333498902473 0 0.067337499853354438 -0.0074856093349197532 0 0.066948234562265091 -0.010180294911763619 0 0.069297102219412973 -0.009816762867894414 0 0.067337499853354438 -0.0074856093349197532 0 0.066948234562265091 -0.010180294911763619 0 0.065440993402499703 -0.012177718905345714 0 0.066948234562265091 -0.010180294911763619 0 0.069512976157578857 -0.012981365642724597 0 0.069297102219412973 -0.009816762867894414 0 0.066948234562265091 -0.010180294911763619 0 0.069512976157578857 -0.012981365642724597 0 0.072070524593026944 -0.010511788688111286 0 0.069297102219412973 -0.009816762867894414 0 0.069512976157578857 -0.012981365642724597 0 0.067796759685649216 -0.013348691320169437 0 0.067782267885203931 -0.016387189126041528 0 0.070540307782315986 -0.017350950261158991 0 0.065170516579384455 -0.01531969055804394 0 0.067796759685649216 -0.013348691320169437 0 0.067782267885203931 -0.016387189126041528 0 0.065170516579384455 -0.01531969055804394 0 0.067782267885203931 -0.016387189126041528 0 0.066807805415711213 -0.019987534033394087 0 0.067782267885203931 -0.016387189126041528 0 0.066807805415711213 -0.019987534033394087 0 0.070540307782315986 -0.017350950261158991 0 0.068625326213384866 -0.018224131714432084 0 0.070501995444712487 -0.018732907217274091 0 0.066807805415711213 -0.019987534033394087 0 0.073207390591803118 -0.020343702280046991 0 0.070540307782315986 -0.017350950261158991 0 0.070501616049730806 -0.022560557591279149 0 0.067552423264181136 -0.021774691427205749 0 0.073207390591803118 -0.020343702280046991 0 0.073207390591803118 -0.020343702280046991 0 0.070540307782315986 -0.017350950261158991 0 0.075052212323819839 -0.017157791427532001 0 0.072070524593026944 -0.010511788688111286 0 0.069512976157578857 -0.012981365642724597 0 0.074541991645454664 -0.013172775615746139 0 0.070890652221974673 -0.011021243715819253 0 0.0716520110561015 -0.011311374788849367 0 0.070540307782315986 -0.017350950261158991 0 0.074541991645454664 -0.013172775615746139 0 0.075052212323819839 -0.017157791427532001 0 0.067796759685649216 -0.013348691320169437 0 0.070540307782315986 -0.017350950261158991 0 0.074541991645454664 -0.013172775615746139 0 0.074541991645454664 -0.013172775615746139 0 0.07982934275207898 -0.013980784229489718 0 0.077473134901959978 -0.010301778001070702 0 0.074541991645454664 -0.013172775615746139 0 0.07982934275207898 -0.013980784229489718 0 0.075052212323819839 -0.017157791427532001 0 0.07982934275207898 -0.013980784229489718 0 0.079556961305648169 -0.0085871324008858791 0 0.077473134901959978 -0.010301778001070702 0 0.06517512128721327 -0.035659959760793156 0 0.064756043114263265 -0.039138441794616834 0 0.063487006453823755 -0.037145868887541462 0 0.075825256155928 -0.021604648034800587 0 0.07982934275207898 -0.013980784229489718 0 0.075052212323819839 -0.017157791427532001 0 0.070044246579020183 -0.026567249104356816 0 0.070665348846164225 -0.024172735400624017 0 0.075825256155928 -0.021604648034800587 0 0.073207390591803118 -0.020343702280046991 0 0.075052212323819839 -0.017157791427532001 0 0.062798309593611726 -0.034938861589649914 0 0.063487006453823755 -0.037145868887541462 0 0.061992942008010206 -0.037060722713718207 0 0.062798309593611726 -0.034938861589649914 0 0.06517512128721327 -0.035659959760793156 0 0.063487006453823755 -0.037145868887541462 0 0.063487006453823755 -0.037145868887541462 0 0.062695976639319709 -0.038883204579241021 0 0.061992942008010206 -0.037060722713718207 0 0.064756043114263265 -0.039138441794616834 0 0.063487006453823755 -0.037145868887541462 0 0.062695976639319709 -0.038883204579241021 0 0.064756043114263265 -0.039138441794616834 0 0.062695976639319709 -0.038883204579241021 0 0.063353207191075483 -0.04032707948560562 0 0.062695976639319709 -0.038883204579241021 0 0.063353207191075483 -0.04032707948560562 0 0.061528218978011202 -0.040639821408694009 0 0.064756043114263265 -0.039138441794616834 0 0.063353207191075483 -0.04032707948560562 0 0.06444261105383986 -0.042538236893238893 0 0.088143904882795249 -0.004293940782098429 0 0.085512082707599496 -0.0041511562684217957 0 0.089536463811107275 -0.006376630474900993 0 0.070815399816129984 -0.017821979989768238 0 0.074325092389809458 -0.021969485973138258 0 0.063353207191075483 -0.04032707948560562 0 0.06444261105383986 -0.042538236893238893 0 0.061528218978011202 -0.040639821408694009 0 0.07982934275207898 -0.013980784229489718 0 0.079556961305648169 -0.0085871324008858791 0 0.0822039465192521 -0.0060963677219217933 0 0.070665348846164225 -0.024172735400624017 0 0.070815399816129984 -0.017821979989768238 0 0.079556961305648169 -0.0085871324008858791 0 0.077473134901959978 -0.010301778001070702 0 0.077980336890203936 -0.0072657039475903969 0 0.079556961305648169 -0.0085871324008858791 0 0.077980336890203936 -0.0072657039475903969 0 0.079831495184715703 -0.0055876980564581978 0 0.077980336890203936 -0.0072657039475903969 0 0.079831495184715703 -0.0055876980564581978 0 0.078419257756495525 -0.0048694100619296014 0 0.079556961305648169 -0.0085871324008858791 0 0.079831495184715703 -0.0055876980564581978 0 0.0822039465192521 -0.0060963677219217933 0 0.085274491053484724 -0.0027035903724258936 0 0.083639461140083041 0.00020165918887637854 0 0.084313476833270562 0.002463663921611806 0 0.070815399816129984 -0.017821979989768238 0 0.070960911052169617 -0.017333257116224868 0 0.079747961788497385 -0.0014736609379249904 0 0.085164569323947295 -0.004093770799724606 0 0.085274491053484724 -0.0027035903724258936 0 0.079747961788497385 -0.0014736609379249904 0 0.085274491053484724 -0.0027035903724258936 0 0.083639461140083041 0.00020165918887637854 0 0.079747961788497385 -0.0014736609379249904 0 0.079831495184715703 -0.0055876980564581978 0 0.078419257756495525 -0.0048694100619296014 0 0.071741994473129608 -0.015596342665464872 0 0.070815399816129984 -0.017821979989768238 0 0.079747961788497385 -0.0014736609379249904 0 0.079831495184715703 -0.0055876980564581978 0 0.0822039465192521 -0.0060963677219217933 0 0.079747961788497385 -0.0014736609379249904 0 0.083639461140083041 0.00020165918887637854 0 0.083590803800222505 0.0029329874772696962 0 0.088886659510532331 -0.0018316355498763403 0 0.088892729633334944 -0.00083021101769950101 0 0.088143904882795249 -0.004293940782098429 0 0.08942850575099616 -0.0036699994846916724 0 0.088757307470727159 -0.0030948233400772294 0 0.088143904882795249 -0.004293940782098429 0 0.085274491053484724 -0.0027035903724258936 0 0.084313476833270562 0.002463663921611806 0 0.088143904882795249 -0.004293940782098429 0 0.088757307470727159 -0.0030948233400772294 0 0.087966550797935014 -0.002833941205832218 0 0.088143904882795249 -0.004293940782098429 0 0.085512082707599496 -0.0041511562684217957 0 0.085274491053484724 -0.0027035903724258936 0 0.090433978086058617 -0.0042997590613202859 0 0.08942850575099616 -0.0036699994846916724 0 0.0896534954609048 -0.0049073941845205471 0 0.088143904882795249 -0.004293940782098429 0 0.08942850575099616 -0.0036699994846916724 0 0.0896534954609048 -0.0049073941845205471 0 0.08942850575099616 -0.0036699994846916724 0 0.09029306204947446 -0.0034526705849733655 0 0.089585844598397996 -0.0026627852945291285 0 0.090433978086058617 -0.0042997590613202859 0 0.08942850575099616 -0.0036699994846916724 0 0.09029306204947446 -0.0034526705849733655 0 0.090433978086058617 -0.0042997590613202859 0 0.09029306204947446 -0.0034526705849733655 0 0.091036322944181666 -0.0037920407555048436 0 0.09029306204947446 -0.0034526705849733655 0 0.091036322944181666 -0.0037920407555048436 0 0.09098968659808844 -0.0029706939648363002 0 0.091036322944181666 -0.0037920407555048436 0 0.092060191732290783 -0.0037849928135942133 0 0.09098968659808844 -0.0029706939648363002 0 0.091036322944181666 -0.0037920407555048436 0 0.091489164916780635 -0.0047674407111410709 0 0.092060191732290783 -0.0037849928135942133 0 0.090433978086058617 -0.0042997590613202859 0 0.091036322944181666 -0.0037920407555048436 0 0.091489164916780635 -0.0047674407111410709 0 0.090433978086058617 -0.0042997590613202859 0 0.091489164916780635 -0.0047674407111410709 0 0.091069177500469639 -0.0058167453103467404 0 0.091489164916780635 -0.0047674407111410709 0 0.091069177500469639 -0.0058167453103467404 0 0.092706477021674255 -0.0062352825344340768 0 0.091069177500469639 -0.0058167453103467404 0 0.0896534954609048 -0.0049073941845205471 0 0.089536463811107275 -0.006376630474900993 0 0.090433978086058617 -0.0042997590613202859 0 0.091069177500469639 -0.0058167453103467404 0 0.0896534954609048 -0.0049073941845205471 0 0.088143904882795249 -0.004293940782098429 0 0.0896534954609048 -0.0049073941845205471 0 0.089536463811107275 -0.006376630474900993 0 0.062695976639319709 -0.038883204579241021 0 0.061528218978011202 -0.040639821408694009 0 0.060761131274803294 -0.038476871476224715 0 0.061528218978011202 -0.040639821408694009 0 0.060761131274803294 -0.038476871476224715 0 0.058483514590304292 -0.038660007464653985 0 0.074325092389809458 -0.021969485973138258 0 0.074686261837062839 -0.023596860186341988 0 0.059886836312370788 -0.035635846557273698 0 0.062798309593611726 -0.034938861589649914 0 0.061992942008010206 -0.037060722713718207 0 0.059886836312370788 -0.035635846557273698 0 0.060761131274803294 -0.038476871476224715 0 0.061992942008010206 -0.037060722713718207 0 0.059886836312370788 -0.035635846557273698 0 0.060761131274803294 -0.038476871476224715 0 0.058483514590304292 -0.038660007464653985 0 0.062695976639319709 -0.038883204579241021 0 0.060761131274803294 -0.038476871476224715 0 0.061992942008010206 -0.037060722713718207 0 0.059886836312370788 -0.035635846557273698 0 0.057758416842888786 -0.036318297942058909 0 0.058483514590304292 -0.038660007464653985 0 0.057758416842888786 -0.036318297942058909 0 0.058483514590304292 -0.038660007464653985 0 0.055482818182173314 -0.036613548648399726 0 0.091069177500469639 -0.0058167453103467404 0 0.091278068888619349 -0.0074689027413919872 0 0.092706477021674255 -0.0062352825344340768 0 0.091069177500469639 -0.0058167453103467404 0 0.089536463811107275 -0.006376630474900993 0 0.091278068888619349 -0.0074689027413919872 0 0.091278068888619349 -0.0074689027413919872 0 0.093106111078555612 -0.0088001693955642012 0 0.092706477021674255 -0.0062352825344340768 0 0.093517929030602978 -0.016945176770177414 0 0.096127613162427974 -0.013719254452396482 0 0.092671126710828319 -0.011629369079147175 0 0.075189576601410041 -0.025643589048691011 0 0.083480961256526973 -0.012494721834674958 0 0.074686261837062839 -0.023596860186341988 0 0.075189576601410041 -0.025643589048691011 0 0.055083749317248056 -0.036731830149291149 0 0.052736605788982059 -0.037086369000601423 0 0.05314212365373517 -0.039091936262558268 0 0.075189576601410041 -0.025643589048691011 0 0.075004848964700013 -0.022373635094769119 0 0.050938546019380297 -0.035503805754737952 0 0.052950141555527463 -0.03520939179295321 0 0.052736605788982059 -0.037086369000601423 0 0.052950141555527463 -0.03520939179295321 0 0.055083749317248056 -0.036731830149291149 0 0.052736605788982059 -0.037086369000601423 0 0.052736605788982059 -0.037086369000601423 0 0.05314212365373517 -0.039091936262558268 0 0.050921182146085001 -0.038246895729373995 0 0.096127613162427974 -0.013719254452396482 0 0.096325215679952864 -0.011344462372342328 0 0.092671126710828319 -0.011629369079147175 0 0.096127613162427974 -0.013719254452396482 0 0.096325215679952864 -0.011344462372342328 0 0.098449998743962971 -0.010793333411278215 0 0.075004848964700013 -0.022373635094769119 0 0.077401233742972822 -0.015083318081870552 0 0.096325215679952864 -0.011344462372342328 0 0.096938677387762767 -0.0091501751476981644 0 0.098449998743962971 -0.010793333411278215 0 0.096938677387762767 -0.0091501751476981644 0 0.094732016261089388 -0.0098852286147840373 0 0.093901186024538785 -0.0073957000832517578 0 0.096325215679952864 -0.011344462372342328 0 0.094732016261089388 -0.0098852286147840373 0 0.092671126710828319 -0.011629369079147175 0 0.096325215679952864 -0.011344462372342328 0 0.096938677387762767 -0.0091501751476981644 0 0.094732016261089388 -0.0098852286147840373 0 0.083480961256526973 -0.012494721834674958 0 0.086863500907310265 -0.0073577459110878412 0 0.091489164916780635 -0.0047674407111410709 0 0.092706477021674255 -0.0062352825344340768 0 0.092060191732290783 -0.0037849928135942133 0 0.094732016261089388 -0.0098852286147840373 0 0.092671126710828319 -0.011629369079147175 0 0.093901186024538785 -0.0073957000832517578 0 0.092671126710828319 -0.011629369079147175 0 0.093901186024538785 -0.0073957000832517578 0 0.091855283917446337 -0.006475598373819353 0 0.091855283917446337 -0.006475598373819353 0 0.094011478949624333 -0.0058261914137487242 0 0.092565028491887164 -0.004223617412324519 0 0.093901186024538785 -0.0073957000832517578 0 0.091855283917446337 -0.006475598373819353 0 0.094011478949624333 -0.0058261914137487242 0 0.08375019878063171 -0.014019608038943908 0 0.086385557983461786 -0.013395820699888006 0 0.09699151376766281 -0.0090170998619687054 0 0.093901186024538785 -0.0073957000832517578 0 0.094011478949624333 -0.0058261914137487242 0 0.08375019878063171 -0.014019608038943908 0 0.086819037920049275 -0.014153250465705909 0 0.096434089974925627 -0.0083771151838337773 0 0.094011478949624333 -0.0058261914137487242 0 0.0955149074828366 -0.0060813574185938574 0 0.096434089974925627 -0.0083771151838337773 0 0.0955149074828366 -0.0060813574185938574 0 0.098085309614869248 -0.0090753288861164117 0 0.087932137117154571 -0.0094384491400040255 0 0.081209330428964652 -0.011820631323852334 0 0.09411435853622549 -0.0034850664994140559 0 0.094783006410280382 -0.0035369345835616016 0 0.094583039624709653 -0.0031094427271384445 0 0.09411435853622549 -0.0034850664994140559 0 0.09418897806571333 -0.0027179391287736731 0 0.092922798259743283 -0.002638861444244731 0 0.09418897806571333 -0.0027179391287736731 0 0.094503030227792315 -0.0022363734681215392 0 0.094772376532677602 -0.0026714664512004784 0 0.09418897806571333 -0.0027179391287736731 0 0.094772376532677602 -0.0026714664512004784 0 0.094583039624709653 -0.0031094427271384445 0 0.09411435853622549 -0.0034850664994140559 0 0.09418897806571333 -0.0027179391287736731 0 0.094583039624709653 -0.0031094427271384445 0 0.094011478949624333 -0.0058261914137487242 0 0.0955149074828366 -0.0060813574185938574 0 0.092922798259743283 -0.002638861444244731 0 0.094011478949624333 -0.0058261914137487242 0 0.092565028491887164 -0.004223617412324519 0 0.092922798259743283 -0.002638861444244731 0 0.09418897806571333 -0.0027179391287736731 0 0.092922798259743283 -0.002638861444244731 0 0.093822739890005377 -0.0022477160252568672 0 0.087932137117154571 -0.0094384491400040255 0 0.088925198136454955 -0.0077894332299554324 0 0.092565028491887164 -0.004223617412324519 0 0.092922798259743283 -0.002638861444244731 0 0.091626130565386349 -0.0020227037238157663 0 0.092922798259743283 -0.002638861444244731 0 0.093822739890005377 -0.0022477160252568672 0 0.093067049850114533 -0.0011915026837056269 0 0.092922798259743283 -0.002638861444244731 0 0.093067049850114533 -0.0011915026837056269 0 0.091626130565386349 -0.0020227037238157663 0 0.093822739890005377 -0.0022477160252568672 0 0.093067049850114533 -0.0011915026837056269 0 0.094177434176403424 -0.00082442069205972851 0 0.093822739890005377 -0.0022477160252568672 0 0.094177434176403424 -0.00082442069205972851 0 0.095145544987596545 -0.00022181757755536472 0 0.093822739890005377 -0.0022477160252568672 0 0.094503030227792315 -0.0022363734681215392 0 0.094690252371102249 -0.0014968310071519211 0 0.094117607199016046 -0.00148810459801499 0 0.094504323826988298 -0.0009300290007400574 0 0.09418897806571333 -0.0027179391287736731 0 0.093822739890005377 -0.0022477160252568672 0 0.094503030227792315 -0.0022363734681215392 0 0.094177434176403424 -0.00082442069205972851 0 0.094524826127959607 0.00014320484027463128 0 0.095145544987596545 -0.00022181757755536472 0 0.094999571142363765 2.8307706190053536e-07 0 0.094524826127959607 0.00014320484027463128 0 0.094999314736579729 -1.3950406934317398e-07 0 0.094999571142363765 2.8307706190053536e-07 0 0.094524826127959607 0.00014320484027463128 0 0.095145544987596545 -0.00022181757755536472 0 0.094524826127959607 0.00014320484027463128 0 0.094999314736579729 -1.3950406934317398e-07 0 0.094970899761922578 0.00015043787407600473 0 0.093067049850114533 -0.0011915026837056269 0 0.094177434176403424 -0.00082442069205972851 0 0.094524826127959607 0.00014320484027463128 0 0.093605166143042248 -8.9480021260551754e-05 0 0.093333931396098024 -0.00018284551283377897 0 0.093067049850114533 -0.0011915026837056269 0 0.094524826127959607 0.00014320484027463128 0 0.09208975890179999 5.5859889404400316e-05 0 0.09208975890179999 5.5859889404400316e-05 0 0.090975167665153914 -0.001264665386261798 0 0.091928750021947947 -0.0011180294390678908 0 0.093067049850114533 -0.0011915026837056269 0 0.09208975890179999 5.5859889404400316e-05 0 0.091928750021947947 -0.0011180294390678908 0 0.09208975890179999 5.5859889404400316e-05 0 0.09021074770340573 -0.0004493324399003408 0 0.090975167665153914 -0.001264665386261798 0 0.093333931396098024 -0.00018284551283377897 0 0.092882778294044274 -0.00039462810889408852 0 0.094999314736579729 -1.3950406934317398e-07 0 0.094970899761922578 0.00015043787407600473 0 0.095000490701364279 1.7178106650843666e-07 0 0.094970899761922578 0.00015043787407600473 0 0.095000490701364279 1.7178106650843666e-07 0 0.095056710337863004 0.00017138081638226813 0 0.094996405154589042 1.2695831857838182e-07 0 0.092882778294044274 -0.00039462810889408852 0 0.09500012770736356 -3.9669559331744575e-08 0 0.095021192151601819 -7.0313736117552644e-05 0 0.094994403887863385 -4.0884042002180566e-05 0 0.092882778294044274 -0.00039462810889408852 0 0.091704778332625789 -0.00042713358053583615 0 0.089955818275737426 -0.00016651657968609163 0 0.08975948128221968 -0.0014079868673811311 0 0.088539919805449133 -0.00063659345948746009 0 0.090006191863915161 -0.0016946418673633432 0 0.090975167665153914 -0.001264665386261798 0 0.090689303545594985 -0.0021843826631944966 0 0.092882778294044274 -0.00039462810889408852 0 0.092126854099252212 -0.0012789189411967256 0 0.09021074770340573 -0.0004493324399003408 0 0.090006191863915161 -0.0016946418673633432 0 0.090975167665153914 -0.001264665386261798 0 0.090975167665153914 -0.001264665386261798 0 0.091928750021947947 -0.0011180294390678908 0 0.091626130565386349 -0.0020227037238157663 0 0.093067049850114533 -0.0011915026837056269 0 0.091928750021947947 -0.0011180294390678908 0 0.091626130565386349 -0.0020227037238157663 0 0.090975167665153914 -0.001264665386261798 0 0.091626130565386349 -0.0020227037238157663 0 0.090689303545594985 -0.0021843826631944966 0 0.091626130565386349 -0.0020227037238157663 0 0.090689303545594985 -0.0021843826631944966 0 0.09098968659808844 -0.0029706939648363002 0 0.092060191732290783 -0.0037849928135942133 0 0.091626130565386349 -0.0020227037238157663 0 0.09098968659808844 -0.0029706939648363002 0 0.086863500907310265 -0.0073577459110878412 0 0.087706487135017788 -0.0053200393959163149 0 0.091855283917446337 -0.006475598373819353 0 0.092565028491887164 -0.004223617412324519 0 0.091626130565386349 -0.0020227037238157663 0 0.09029306204947446 -0.0034526705849733655 0 0.09098968659808844 -0.0029706939648363002 0 0.089585844598397996 -0.0026627852945291285 0 0.08942850575099616 -0.0036699994846916724 0 0.089585844598397996 -0.0026627852945291285 0 0.088757307470727159 -0.0030948233400772294 0 0.08975948128221968 -0.0014079868673811311 0 0.089585844598397996 -0.0026627852945291285 0 0.088612763763387198 -0.0018695256512641307 0 0.092126854099252212 -0.0012789189411967256 0 0.091866080524642027 -0.001684834405678868 0 0.090006191863915161 -0.0016946418673633432 0 0.090689303545594985 -0.0021843826631944966 0 0.089585844598397996 -0.0026627852945291285 0 0.090689303545594985 -0.0021843826631944966 0 0.09098968659808844 -0.0029706939648363002 0 0.089585844598397996 -0.0026627852945291285 0 0.089585844598397996 -0.0026627852945291285 0 0.088757307470727159 -0.0030948233400772294 0 0.088612763763387198 -0.0018695256512641307 0 0.088757307470727159 -0.0030948233400772294 0 0.087966550797935014 -0.002833941205832218 0 0.088612763763387198 -0.0018695256512641307 0 0.087966550797935014 -0.002833941205832218 0 0.08716988022264309 -0.0011045788168682277 0 0.088612763763387198 -0.0018695256512641307 0 0.084313476833270562 0.002463663921611806 0 0.084070638986155438 -0.0010591887625304593 0 0.085670549268479779 0.0011017174900706786 0 0.083639461140083041 0.00020165918887637854 0 0.084313476833270562 0.002463663921611806 0 0.083590803800222505 0.0029329874772696962 0 0.084313476833270562 0.002463663921611806 0 0.083590803800222505 0.0029329874772696962 0 0.085670549268479779 0.0011017174900706786 0 0.088892729633334944 -0.00083021101769950101 0 0.090450346326789291 -0.00049483174683412714 0 0.090450346326789291 -0.00049483174683412714 0 0.091704778332625789 -0.00042713358053583615 0 0.08716988022264309 -0.0011045788168682277 0 0.088612763763387198 -0.0018695256512641307 0 0.088539919805449133 -0.00063659345948746009 0 0.08975948128221968 -0.0014079868673811311 0 0.088612763763387198 -0.0018695256512641307 0 0.088539919805449133 -0.00063659345948746009 0 0.095021192151601819 -7.0313736117552644e-05 0 0.094976806344126752 -0.00010556669226744294 0 0.094994403887863385 -4.0884042002180566e-05 0 0.094976806344126752 -0.00010556669226744294 0 0.094994403887863385 -4.0884042002180566e-05 0 0.094951549442659239 -7.4054509815657985e-05 0 0.09499985404787252 2.5851073054793978e-09 0 0.094994403887863385 -4.0884042002180566e-05 0 0.094951549442659239 -7.4054509815657985e-05 0 0.09500012770736356 -3.9669559331744575e-08 0 0.09499985404787252 2.5851073054793978e-09 0 0.094994403887863385 -4.0884042002180566e-05 0 0.09499985404787252 2.5851073054793978e-09 0 0.094869898692091115 -8.3025645650722812e-05 0 0.094798252520960705 3.61522119011667e-08 0 0.09499985404787252 2.5851073054793978e-09 0 0.094951549442659239 -7.4054509815657985e-05 0 0.094869898692091115 -8.3025645650722812e-05 0 0.090450346326789291 -0.00049483174683412714 0 0.09161482339769321 -0.00040255969483560125 0 0.094908960154786379 -0.00014149351017961236 0 0.094951549442659239 -7.4054509815657985e-05 0 0.094869898692091115 -8.3025645650722812e-05 0 0.094908960154786379 -0.00014149351017961236 0 0.094976806344126752 -0.00010556669226744294 0 0.094951549442659239 -7.4054509815657985e-05 0 0.092260850889461427 3.6920291058731769e-05 0 0.092621056420470943 7.1181755860166322e-05 0 0.09190149668064701 0.00018211032030900404 0 0.092621056420470943 7.1181755860166322e-05 0 0.093858275134097544 -7.5513440131239851e-05 0 0.092836565184688941 -6.7786442499000201e-05 0 0.092621056420470943 7.1181755860166322e-05 0 0.092836565184688941 -6.7786442499000201e-05 0 0.09190149668064701 0.00018211032030900404 0 0.092621056420470943 7.1181755860166322e-05 0 0.093858275134097544 -7.5513440131239851e-05 0 0.094794151564546236 -9.5710951315076488e-07 0 0.09161482339769321 -0.00040255969483560125 0 0.091990742027803801 -0.0003117088413587219 0 0.093858275134097544 -7.5513440131239851e-05 0 0.094794151564546236 -9.5710951315076488e-07 0 0.094175047708272133 -0.00019025409335557368 0 0.094999779483363758 -3.1556515007734967e-07 0 0.094794151564546236 -9.5710951315076488e-07 0 0.094175047708272133 -0.00019025409335557368 0 0.093858275134097544 -7.5513440131239851e-05 0 0.094175047708272133 -0.00019025409335557368 0 0.092836565184688941 -6.7786442499000201e-05 0 0.09470796205110743 -0.00014043104243146893 0 0.094175047708272133 -0.00019025409335557368 0 0.092836565184688941 -6.7786442499000201e-05 0 0.094404891314639888 0.0011911739634884865 0 0.092836565184688941 -6.7786442499000201e-05 0 0.092658159162445408 0.0018950890043683672 0 0.092836565184688941 -6.7786442499000201e-05 0 0.0905315654950654 0.00027611761450084348 0 0.092658159162445408 0.0018950890043683672 0 0.092260850889461427 3.6920291058731769e-05 0 0.09190149668064701 0.00018211032030900404 0 0.0905315654950654 0.00027611761450084348 0 0.090450346326789291 -0.00049483174683412714 0 0.09041207964852889 -0.00040741162203848793 0 0.092836565184688941 -6.7786442499000201e-05 0 0.09190149668064701 0.00018211032030900404 0 0.0905315654950654 0.00027611761450084348 0 0.084070638986155438 -0.0010591887625304593 0 0.085670549268479779 0.0011017174900706786 0 0.0905315654950654 0.00027611761450084348 0 0.085670549268479779 0.0011017174900706786 0 0.0905315654950654 0.00027611761450084348 0 0.090842972694747823 0.0045733487408765299 0 0.082611603434196823 -0.00058855080618986863 0 0.082241709967134438 -0.0012391602503166016 0 0.083590803800222505 0.0029329874772696962 0 0.085670549268479779 0.0011017174900706786 0 0.090842972694747823 0.0045733487408765299 0 0.0905315654950654 0.00027611761450084348 0 0.092658159162445408 0.0018950890043683672 0 0.090842972694747823 0.0045733487408765299 0 0.094559330088931942 0.0047665001095562936 0 0.092658159162445408 0.0018950890043683672 0 0.090842972694747823 0.0045733487408765299 0 0.076633927038136679 -0.0073524029270124851 0 0.076159407149043248 -0.0074474035212153894 0 0.076467867640395246 -0.0070519504514748215 0 0.076633927038136679 -0.0073524029270124851 0 0.076159407149043248 -0.0074474035212153894 0 0.076386548249659722 -0.0077458728642838919 0 0.076633927038136679 -0.0073524029270124851 0 0.077032726964400555 -0.0075087231377814773 0 0.07675022450387399 -0.0077079746292365806 0 0.076159407149043248 -0.0074474035212153894 0 0.076073924016504549 -0.0070688658028500179 0 0.075858925709294187 -0.0073464500564907444 0 0.076159407149043248 -0.0074474035212153894 0 0.076073924016504549 -0.0070688658028500179 0 0.076467867640395246 -0.0070519504514748215 0 0.076073924016504549 -0.0070688658028500179 0 0.076467867640395246 -0.0070519504514748215 0 0.076458223413740228 -0.0066023248985034267 0 0.076073924016504549 -0.0070688658028500179 0 0.076458223413740228 -0.0066023248985034267 0 0.07616630534648762 -0.0064493445969409872 0 0.076633927038136679 -0.0073524029270124851 0 0.076467867640395246 -0.0070519504514748215 0 0.076867968696345282 -0.0068884903311203297 0 0.076467867640395246 -0.0070519504514748215 0 0.076867968696345282 -0.0068884903311203297 0 0.076458223413740228 -0.0066023248985034267 0 0.079425245615035625 -0.0034352939374629188 0 0.080320396949960668 -0.0037863735845274104 0 0.082907595478275961 -0.001962278922585443 0 0.083004527622609237 -0.0013807388483192892 0 0.083512628582887369 -0.0025020652147645524 0 0.076504869761495398 -0.0059062481463974395 0 0.076260517493438054 -0.0056338310811182204 0 0.076439069001496732 -0.0060715582792341327 0 0.076055587949591441 -0.0055564236500416277 0 0.076260517493438054 -0.0056338310811182204 0 0.076439069001496732 -0.0060715582792341327 0 0.083021413080771156 -0.0024233004224135995 0 0.082907595478275961 -0.001962278922585443 0 0.083512628582887369 -0.0025020652147645524 0 0.086788347356157258 -0.0026120071297549988 0 0.084815633837322046 -0.0026984991464006421 0 0.07828921000149841 -0.0076038675299254389 0 0.07846341030760827 -0.0071909701699282569 0 0.079317794440428455 -0.0082918828716407409 0 0.083021413080771156 -0.0024233004224135995 0 0.082907595478275961 -0.001962278922585443 0 0.082344866784142684 -0.0019316965490463649 0 0.082282726652828944 -0.003368938085067069 0 0.084815633837322046 -0.0026984991464006421 0 0.082907595478275961 -0.001962278922585443 0 0.082648506908581512 -0.0015728163322253604 0 0.082344866784142684 -0.0019316965490463649 0 0.082907595478275961 -0.001962278922585443 0 0.082648506908581512 -0.0015728163322253604 0 0.083004527622609237 -0.0013807388483192892 0 0.082648506908581512 -0.0015728163322253604 0 0.083004527622609237 -0.0013807388483192892 0 0.08263933245452447 -0.0011422123428144527 0 0.082648506908581512 -0.0015728163322253604 0 0.08263933245452447 -0.0011422123428144527 0 0.082333413771799493 -0.0012863136007550343 0 0.075361906867905545 -0.00646372579416306 0 0.074328667792607689 -0.0059035056922081015 0 0.076633927038136679 -0.0073524029270124851 0 0.076867968696345282 -0.0068884903311203297 0 0.077032726964400555 -0.0075087231377814773 0 0.076504869761495398 -0.0059062481463974395 0 0.076260517493438054 -0.0056338310811182204 0 0.076281569473042307 -0.0054334979768973311 0 0.076055587949591441 -0.0055564236500416277 0 0.076260517493438054 -0.0056338310811182204 0 0.076184879611365816 -0.0055065960034206942 0 0.074409287877012953 -0.0058309426587651557 0 0.074328667792607689 -0.0059035056922081015 0 0.074328667792607689 -0.0059035056922081015 0 0.072038655611557936 -0.0062838797992131653 0 0.075188781221639314 -0.0040361254484616842 0 0.07505114508064363 -0.0046867799578203051 0 0.075456914817320045 -0.0049453346416337357 0 0.077032726964400555 -0.0075087231377814773 0 0.076944064357820252 -0.0080192395865561952 0 0.07675022450387399 -0.0077079746292365806 0 0.076184879611365816 -0.0055065960034206942 0 0.076038846507193211 -0.0054686205875863845 0 0.07594757783333006 -0.0054552155448004602 0 0.074328667792607689 -0.0059035056922081015 0 0.074933504402226445 -0.0056390530617688251 0 0.076055587949591441 -0.0055564236500416277 0 0.076184879611365816 -0.0055065960034206942 0 0.076038846507193211 -0.0054686205875863845 0 0.083004527622609237 -0.0013807388483192892 0 0.08263933245452447 -0.0011422123428144527 0 0.082529207063924415 -0.00021818560648093034 0 0.076055587949591441 -0.0055564236500416277 0 0.076038846507193211 -0.0054686205875863845 0 0.076039621743218266 -0.0054272245450173633 0 0.079425245615035625 -0.0034352939374629188 0 0.078262031484299152 -0.0026921048766010676 0 0.08263933245452447 -0.0011422123428144527 0 0.082529207063924415 -0.00021818560648093034 0 0.082426920763035094 -0.00089889683232332977 0 0.076038846507193211 -0.0054686205875863845 0 0.075998436693328369 -0.0054628889904223439 0 0.076039621743218266 -0.0054272245450173633 0 0.076038846507193211 -0.0054686205875863845 0 0.075998436693328369 -0.0054628889904223439 0 0.07594757783333006 -0.0054552155448004602 0 0.075998436693328369 -0.0054628889904223439 0 0.075982610782120902 -0.0055221337971673072 0 0.07594757783333006 -0.0054552155448004602 0 0.075954333757673215 -0.0056378297721855087 0 0.075982610782120902 -0.0055221337971673072 0 0.07594757783333006 -0.0054552155448004602 0 0.076040413280177882 -0.0056030374599815441 0 0.075998436693328369 -0.0054628889904223439 0 0.076039621743218266 -0.0054272245450173633 0 0.076040413280177882 -0.0056030374599815441 0 0.075998436693328369 -0.0054628889904223439 0 0.075982610782120902 -0.0055221337971673072 0 0.076040413280177882 -0.0056030374599815441 0 0.075954333757673215 -0.0056378297721855087 0 0.075982610782120902 -0.0055221337971673072 0 0.074887026631985154 -0.0053674154102310561 0 0.07505114508064363 -0.0046867799578203051 0 0.075230406971320732 -0.0050698411359987889 0 0.068527763760212315 -0.0073512510843099987 0 0.072038655611557936 -0.0062838797992131653 0 0.07505114508064363 -0.0046867799578203051 0 0.075456914817320045 -0.0049453346416337357 0 0.075230406971320732 -0.0050698411359987889 0 0.075200562038031965 -0.0053041352186336379 0 0.075456914817320045 -0.0049453346416337357 0 0.075230406971320732 -0.0050698411359987889 0 0.074892548728984515 -0.0053598298259469063 0 0.075200562038031965 -0.0053041352186336379 0 0.075230406971320732 -0.0050698411359987889 0 0.068527763760212315 -0.0073512510843099987 0 0.069492738721217209 -0.006682423796688583 0 0.076588274308545548 -0.0081891918605446513 0 0.076386548249659722 -0.0077458728642838919 0 0.076141132211636764 -0.0082625284272735532 0 0.076380790096251344 -0.0085936245131432928 0 0.076861367478505735 -0.0086267844729072587 0 0.076588274308545548 -0.0081891918605446513 0 0.076861367478505735 -0.0086267844729072587 0 0.076944064357820252 -0.0080192395865561952 0 0.076588274308545548 -0.0081891918605446513 0 0.076380790096251344 -0.0085936245131432928 0 0.076588274308545548 -0.0081891918605446513 0 0.076141132211636764 -0.0082625284272735532 0 0.076588274308545548 -0.0081891918605446513 0 0.076386548249659722 -0.0077458728642838919 0 0.07675022450387399 -0.0077079746292365806 0 0.076944064357820252 -0.0080192395865561952 0 0.076588274308545548 -0.0081891918605446513 0 0.07675022450387399 -0.0077079746292365806 0 0.076633927038136679 -0.0073524029270124851 0 0.076386548249659722 -0.0077458728642838919 0 0.07675022450387399 -0.0077079746292365806 0 0.076386548249659722 -0.0077458728642838919 0 0.075991080756523083 -0.0078164224146870173 0 0.076141132211636764 -0.0082625284272735532 0 0.076159407149043248 -0.0074474035212153894 0 0.075991080756523083 -0.0078164224146870173 0 0.075879639775882024 -0.0075751853191101297 0 0.076159407149043248 -0.0074474035212153894 0 0.076386548249659722 -0.0077458728642838919 0 0.075991080756523083 -0.0078164224146870173 0 0.075871141578586029 -0.0088176488955897959 0 0.076141132211636764 -0.0082625284272735532 0 0.075449851796910619 -0.0083570021970765795 0 0.076141132211636764 -0.0082625284272735532 0 0.075449851796910619 -0.0083570021970765795 0 0.075117841607825087 -0.0077708924937140026 0 0.063911243878182977 -0.01888604946365283 0 0.071928718272026224 -0.010688266507982597 0 0.075991080756523083 -0.0078164224146870173 0 0.076141132211636764 -0.0082625284272735532 0 0.075676516174787031 -0.0078801660756936225 0 0.073601555390205312 -0.010566764090654121 0 0.071928718272026224 -0.010688266507982597 0 0.074967811569079612 -0.0088312444116351741 0 0.075449851796910619 -0.0083570021970765795 0 0.075117841607825087 -0.0077708924937140026 0 0.070071777396113977 -0.010363232882413042 0 0.069565013676504681 -0.013898658369340096 0 0.07323870014089652 -0.01350681830553571 0 0.063911243878182977 -0.01888604946365283 0 0.067507036765224515 -0.019275644430026176 0 0.048277397791997904 -0.035749139533634205 0 0.044445503201517016 -0.035009283064508276 0 0.047982804076760123 -0.038245864521870308 0 0.069565013676504681 -0.013898658369340096 0 0.07323870014089652 -0.01350681830553571 0 0.073237701489993395 -0.014273722847704281 0 0.071928718272026224 -0.010688266507982597 0 0.075082180341319846 -0.010990997151892435 0 0.069565013676504681 -0.013898658369340096 0 0.073237701489993395 -0.014273722847704281 0 0.072622886763898303 -0.015411557451890471 0 0.075546600796503813 -0.0076074762924952417 0 0.07569634100069704 -0.0078284889225476127 0 0.075342518016849505 -0.0076305905509318614 0 0.075546600796503813 -0.0076074762924952417 0 0.075712089702054813 -0.007721735537702547 0 0.075714054588138874 -0.0075288992288571645 0 0.075712089702054813 -0.007721735537702547 0 0.075879639775882024 -0.0075751853191101297 0 0.075714054588138874 -0.0075288992288571645 0 0.075991080756523083 -0.0078164224146870173 0 0.075712089702054813 -0.007721735537702547 0 0.075879639775882024 -0.0075751853191101297 0 0.075991080756523083 -0.0078164224146870173 0 0.075712089702054813 -0.007721735537702547 0 0.075676516174787031 -0.0078801660756936225 0 0.075546600796503813 -0.0076074762924952417 0 0.075712089702054813 -0.007721735537702547 0 0.07569634100069704 -0.0078284889225476127 0 0.072006510360604306 -0.010498841974168676 0 0.071928718272026224 -0.010688266507982597 0 0.050938546019380297 -0.035503805754737952 0 0.052736605788982059 -0.037086369000601423 0 0.050921182146085001 -0.038246895729373995 0 0.048277397791997904 -0.035749139533634205 0 0.050938546019380297 -0.035503805754737952 0 0.050921182146085001 -0.038246895729373995 0 0.048277397791997904 -0.035749139533634205 0 0.050921182146085001 -0.038246895729373995 0 0.047982804076760123 -0.038245864521870308 0 0.073237701489993395 -0.014273722847704281 0 0.072622886763898303 -0.015411557451890471 0 0.075680341080519881 -0.01689564621357395 0 0.07323870014089652 -0.01350681830553571 0 0.073237701489993395 -0.014273722847704281 0 0.076490478517683272 -0.016725974008190286 0 0.078468044457769198 -0.012000172432302518 0 0.080025210462739929 -0.011707432490440678 0 0.05314212365373517 -0.039091936262558268 0 0.050921182146085001 -0.038246895729373995 0 0.051405574311109668 -0.041261180817515543 0 0.067507036765224515 -0.019275644430026176 0 0.077401233742972822 -0.015083318081870552 0 0.050921182146085001 -0.038246895729373995 0 0.047982804076760123 -0.038245864521870308 0 0.051405574311109668 -0.041261180817515543 0 0.073237701489993395 -0.014273722847704281 0 0.076490478517683272 -0.016725974008190286 0 0.075745155958402324 -0.016981695066410517 0 0.08284250676158933 -0.014769052428779498 0 0.076659942046749335 -0.0085221544627941022 0 0.07434878692732512 -0.01138497244924098 0 0.08375019878063171 -0.014019608038943908 0 0.077401233742972822 -0.015083318081870552 0 0.08375019878063171 -0.014019608038943908 0 0.081209330428964652 -0.011820631323852334 0 0.076490478517683272 -0.016725974008190286 0 0.075745155958402324 -0.016981695066410517 0 0.0760344954124169 -0.017297111975175479 0 0.077401233742972822 -0.015083318081870552 0 0.081209330428964652 -0.011820631323852334 0 0.080025210462739929 -0.011707432490440678 0 0.081209330428964652 -0.011820631323852334 0 0.074702016136505955 -0.007402061669654827 0 0.074608358601258792 -0.0073190749654328474 0 0.075106050215177161 -0.0073241853784909673 0 0.075082180341319846 -0.010990997151892435 0 0.080025210462739929 -0.011707432490440678 0 0.074608358601258792 -0.0073190749654328474 0 0.075106050215177161 -0.0073241853784909673 0 0.07514388864983236 -0.0064486780048155137 0 0.075342518016849505 -0.0076305905509318614 0 0.074702016136505955 -0.007402061669654827 0 0.075106050215177161 -0.0073241853784909673 0 0.075106050215177161 -0.0073241853784909673 0 0.075401850660871211 -0.007370364553944523 0 0.075467863650650918 -0.0069910067032922917 0 0.075342518016849505 -0.0076305905509318614 0 0.075106050215177161 -0.0073241853784909673 0 0.075401850660871211 -0.007370364553944523 0 0.07514388864983236 -0.0064486780048155137 0 0.076231183613259049 -0.0064631651907989078 0 0.075962705904560279 -0.0053843913566742384 0 0.075106050215177161 -0.0073241853784909673 0 0.07514388864983236 -0.0064486780048155137 0 0.076231183613259049 -0.0064631651907989078 0 0.076962532147969179 -0.0074960260021685833 0 0.077950226984080273 -0.0070060800339223411 0 0.094840339889223024 -0.0042630814441168849 0 0.095402723978067414 -0.003564096900668964 0 0.094783006410280382 -0.0035369345835616016 0 0.081209330428964652 -0.011820631323852334 0 0.084259082297905075 -0.006792167538422697 0 0.09411435853622549 -0.0034850664994140559 0 0.094840339889223024 -0.0042630814441168849 0 0.094783006410280382 -0.0035369345835616016 0 0.095402723978067414 -0.003564096900668964 0 0.094783006410280382 -0.0035369345835616016 0 0.095025287914042925 -0.0031383086369154759 0 0.094783006410280382 -0.0035369345835616016 0 0.094583039624709653 -0.0031094427271384445 0 0.095025287914042925 -0.0031383086369154759 0 0.075858925709294187 -0.0073464500564907444 0 0.075612558047720685 -0.0073272571876237666 0 0.075758463904087608 -0.0070729805431166623 0 0.076073924016504549 -0.0070688658028500179 0 0.075858925709294187 -0.0073464500564907444 0 0.075758463904087608 -0.0070729805431166623 0 0.076159407149043248 -0.0074474035212153894 0 0.075879639775882024 -0.0075751853191101297 0 0.075858925709294187 -0.0073464500564907444 0 0.075879639775882024 -0.0075751853191101297 0 0.075858925709294187 -0.0073464500564907444 0 0.075714054588138874 -0.0075288992288571645 0 0.075858925709294187 -0.0073464500564907444 0 0.075714054588138874 -0.0075288992288571645 0 0.075612558047720685 -0.0073272571876237666 0 0.075401850660871211 -0.007370364553944523 0 0.075612558047720685 -0.0073272571876237666 0 0.075467863650650918 -0.0069910067032922917 0 0.075546600796503813 -0.0076074762924952417 0 0.075401850660871211 -0.007370364553944523 0 0.075612558047720685 -0.0073272571876237666 0 0.075546600796503813 -0.0076074762924952417 0 0.075714054588138874 -0.0075288992288571645 0 0.075612558047720685 -0.0073272571876237666 0 0.075546600796503813 -0.0076074762924952417 0 0.075342518016849505 -0.0076305905509318614 0 0.075401850660871211 -0.007370364553944523 0 0.075612558047720685 -0.0073272571876237666 0 0.075467863650650918 -0.0069910067032922917 0 0.075758463904087608 -0.0070729805431166623 0 0.080394441122483826 -0.0050174598862516651 0 0.081728437566510839 -0.0049525890120708229 0 0.075467863650650918 -0.0069910067032922917 0 0.075758463904087608 -0.0070729805431166623 0 0.075835397604649843 -0.0066440544964170732 0 0.076073924016504549 -0.0070688658028500179 0 0.075758463904087608 -0.0070729805431166623 0 0.075835397604649843 -0.0066440544964170732 0 0.081728437566510839 -0.0049525890120708229 0 0.083234021249283405 -0.0042246977826750944 0 0.077425343245248954 -0.0054010609857661684 0 0.075962705904560279 -0.0053843913566742384 0 0.076847006330885606 -0.0042963709661132179 0 0.077950226984080273 -0.0070060800339223411 0 0.081728437566510839 -0.0049525890120708229 0 0.076231183613259049 -0.0064631651907989078 0 0.077425343245248954 -0.0054010609857661684 0 0.075962705904560279 -0.0053843913566742384 0 0.095935654448377941 -0.0028423515509817384 0 0.095933625380713178 -0.0019761543809837375 0 0.096449473406372874 -0.0021645317787850151 0 0.085242426244241915 -0.0045021934087105748 0 0.085372495301040754 -0.0031002505040473821 0 0.095933625380713178 -0.0019761543809837375 0 0.096449473406372874 -0.0021645317787850151 0 0.096107218345610729 -0.0015244547636838997 0 0.084517681833869332 -0.0033143157596222891 0 0.084214191111851258 -0.0027383797704201578 0 0.085024018574680962 -0.0028437372592058298 0 0.084214191111851258 -0.0027383797704201578 0 0.084592769391333381 -0.0022706716857108754 0 0.085024018574680962 -0.0028437372592058298 0 0.085372495301040754 -0.0031002505040473821 0 0.087377493100349438 -0.0020439300272391244 0 0.081728437566510839 -0.0049525890120708229 0 0.085372495301040754 -0.0031002505040473821 0 0.094772376532677602 -0.0026714664512004784 0 0.094583039624709653 -0.0031094427271384445 0 0.095025287914042925 -0.0031383086369154759 0 0.094772376532677602 -0.0026714664512004784 0 0.095025287914042925 -0.0031383086369154759 0 0.095386404364702429 -0.0027135455689194874 0 0.084259082297905075 -0.006792167538422697 0 0.085242426244241915 -0.0045021934087105748 0 0.095402723978067414 -0.003564096900668964 0 0.095935654448377941 -0.0028423515509817384 0 0.095386404364702429 -0.0027135455689194874 0 0.095402723978067414 -0.003564096900668964 0 0.095025287914042925 -0.0031383086369154759 0 0.095386404364702429 -0.0027135455689194874 0 0.095935654448377941 -0.0028423515509817384 0 0.095386404364702429 -0.0027135455689194874 0 0.095499644871077288 -0.0021754274468959054 0 0.095935654448377941 -0.0028423515509817384 0 0.095933625380713178 -0.0019761543809837375 0 0.095499644871077288 -0.0021754274468959054 0 0.095933625380713178 -0.0019761543809837375 0 0.095499644871077288 -0.0021754274468959054 0 0.09564005652311855 -0.0017735191400651599 0 0.095499644871077288 -0.0021754274468959054 0 0.095010490370360745 -0.0021304661632257802 0 0.095315497374643343 -0.0016337387273478781 0 0.095386404364702429 -0.0027135455689194874 0 0.095499644871077288 -0.0021754274468959054 0 0.095010490370360745 -0.0021304661632257802 0 0.094503030227792315 -0.0022363734681215392 0 0.095010490370360745 -0.0021304661632257802 0 0.094690252371102249 -0.0014968310071519211 0 0.094772376532677602 -0.0026714664512004784 0 0.095386404364702429 -0.0027135455689194874 0 0.095010490370360745 -0.0021304661632257802 0 0.094503030227792315 -0.0022363734681215392 0 0.094772376532677602 -0.0026714664512004784 0 0.095010490370360745 -0.0021304661632257802 0 0.094690252371102249 -0.0014968310071519211 0 0.095315497374643343 -0.0016337387273478781 0 0.095530544444039592 -0.0011240698872751591 0 0.095010490370360745 -0.0021304661632257802 0 0.094690252371102249 -0.0014968310071519211 0 0.095315497374643343 -0.0016337387273478781 0 0.095315497374643343 -0.0016337387273478781 0 0.095584185498624158 -0.0015055220691348778 0 0.095530544444039592 -0.0011240698872751591 0 0.095499644871077288 -0.0021754274468959054 0 0.095315497374643343 -0.0016337387273478781 0 0.09564005652311855 -0.0017735191400651599 0 0.095933625380713178 -0.0019761543809837375 0 0.09564005652311855 -0.0017735191400651599 0 0.095850881660188 -0.0014946304572359735 0 0.095315497374643343 -0.0016337387273478781 0 0.09564005652311855 -0.0017735191400651599 0 0.095584185498624158 -0.0015055220691348778 0 0.09564005652311855 -0.0017735191400651599 0 0.095584185498624158 -0.0015055220691348778 0 0.095850881660188 -0.0014946304572359735 0 0.095584185498624158 -0.0015055220691348778 0 0.095530544444039592 -0.0011240698872751591 0 0.095850881660188 -0.0014946304572359735 0 0.095530544444039592 -0.0011240698872751591 0 0.095850881660188 -0.0014946304572359735 0 0.096096373468807922 -0.0015230295471048547 0 0.094690252371102249 -0.0014968310071519211 0 0.095530544444039592 -0.0011240698872751591 0 0.095486852639702052 -0.00063806729440064641 0 0.095530544444039592 -0.0011240698872751591 0 0.095626964154467586 -0.00064578237601567196 0 0.096096373468807922 -0.0015230295471048547 0 0.095530544444039592 -0.0011240698872751591 0 0.095626964154467586 -0.00064578237601567196 0 0.095486852639702052 -0.00063806729440064641 0 0.094999893965441132 1.9798134580536852e-07 0 0.095066577150179923 -0.00012440763670481091 0 0.094737517715923869 -1.9826012679822382e-07 0 0.094638903322905102 -0.00029817698029775626 0 0.094697275534461681 -0.0003181568055902295 0 0.094989605552450354 -7.0147627903879522e-06 0 0.094638903322905102 -0.00029817698029775626 0 0.094999571142363765 2.8307706190053536e-07 0 0.095145544987596545 -0.00022181757755536472 0 0.094738049531188792 -2.397312569043091e-07 0 0.094504323826988298 -0.0009300290007400574 0 0.094697275534461681 -0.0003181568055902295 0 0.090762728559198189 -0.0007246083742568375 0 0.091550133945838996 -0.00081343775343631233 0 0.091077278918584761 -0.0011402568083333736 0 0.087377493100349438 -0.0020439300272391244 0 0.089865705567860624 -0.0024154825267017461 0 0.090601036741469756 -0.00092430538988136032 0 0.091077278918584761 -0.0011402568083333736 0 0.090578207518217435 -0.0012718641358881639 0 0.090601036741469756 -0.00092430538988136032 0 0.090762728559198189 -0.0007246083742568375 0 0.091077278918584761 -0.0011402568083333736 0 0.087506333934639677 -0.0019269909561727687 0 0.087377493100349438 -0.0020439300272391244 0 0.085372495301040754 -0.0031002505040473821 0 0.089865705567860624 -0.0024154825267017461 0 0.086914831133386244 -0.0017341497642488009 0 0.08693208831650745 -0.0017123731062934988 0 0.086906963188230019 -0.0017111352383462706 0 0.095933625380713178 -0.0019761543809837375 0 0.095850881660188 -0.0014946304572359735 0 0.096107218345610729 -0.0015244547636838997 0 0.09020561322219442 -0.0024304994711580588 0 0.089865705567860624 -0.0024154825267017461 0 0.092041476730654187 -0.0017129456436948826 0 0.09107151846946894 -0.0016593127926052063 0 0.091077278918584761 -0.0011402568083333736 0 0.094999999375354041 -9.0566329350087405e-10 0 0.094999914448974238 -1.7022978076206761e-07 0 0.094999997883944989 -1.409152005397032e-09 0 0.094638903322905102 -0.00029817698029775626 0 0.093601866097235864 -0.00022961158478549833 0 0.094999914448974238 -1.7022978076206761e-07 0 0.094999997883944989 -1.409152005397032e-09 0 0.094999738056012931 -1.4940965118084385e-07 0 0.092041476730654187 -0.0017129456436948826 0 0.091550133945838996 -0.00081343775343631233 0 0.091077278918584761 -0.0011402568083333736 0 0.094638903322905102 -0.00029817698029775626 0 0.089865705567860624 -0.0024154825267017461 0 0.094999997883944989 -1.409152005397032e-09 0 0.094999738056012931 -1.4940965118084385e-07 0 0.09499999783230903 2.935082681781202e-09 0 0.093601866097235864 -0.00022961158478549833 0 0.09382120355204647 5.3675364256951401e-05 0 0.09107151846946894 -0.0016593127926052063 0 0.090578207518217435 -0.0012718641358881639 0 0.090104745095912139 -0.0016035956203856727 0 0.09107151846946894 -0.0016593127926052063 0 0.091077278918584761 -0.0011402568083333736 0 0.090578207518217435 -0.0012718641358881639 0 0.094999738056012931 -1.4940965118084385e-07 0 0.09499999783230903 2.935082681781202e-09 0 0.094999543431850741 4.4730030842397805e-07 0 0.090104745095912139 -0.0016035956203856727 0 0.089405890030525847 -0.0008271533127716422 0 0.090036813004980593 -0.0010311718502318055 0 0.0949920318421065 -2.2424366329334919e-06 0 0.09382120355204647 5.3675364256951401e-05 0 0.09500029107516704 -4.5967847227037969e-08 0 0.094999689507243495 4.7085309064256876e-08 0 0.094965380610979477 0.00017183049505095838 0 0.090578207518217435 -0.0012718641358881639 0 0.090104745095912139 -0.0016035956203856727 0 0.090036813004980593 -0.0010311718502318055 0 0.094999689507243495 4.7085309064256876e-08 0 0.094965380610979477 0.00017183049505095838 0 0.093807685504064514 0.00060341322200101199 0 0.094965380610979477 0.00017183049505095838 0 0.094217000776281271 0.00098644448233322583 0 0.093807685504064514 0.00060341322200101199 0 0.094998120100564284 -7.0994282973612521e-07 0 0.092418169273718626 0.00022025428530900873 0 0.094999997228653793 -4.1651996044986692e-09 0 0.094997776123189201 7.8376795166786527e-07 0 0.094999996761926678 3.8147634129491341e-09 0 0.09382120355204647 5.3675364256951401e-05 0 0.090123229231254376 -0.00059048420614725677 0 0.090123229231254376 -0.00059048420614725677 0 0.092418169273718626 0.00022025428530900873 0 0.089405890030525847 -0.0008271533127716422 0 0.089657770946773352 -0.00059363220284188237 0 0.090036813004980593 -0.0010311718502318055 0 0.090123229231254376 -0.00059048420614725677 0 0.087314374121638283 -0.0017898527274138134 0 0.08997943053746682 -0.0022282429661872475 0 0.09135136752150004 -0.00095566461592689245 0 0.088555939202964007 -0.00063477305585009542 0 0.0765709572891725 -0.0057058719317976724 0 0.076769005049769912 -0.0059568022904637813 0 0.077149024582516726 -0.0056775987113961658 0 0.087314374121638283 -0.0017898527274138134 0 0.089056520116825452 -0.00075795376684303288 0 0.090123229231254376 -0.00059048420614725677 0 0.089056520116825452 -0.00075795376684303288 0 0.091452760753839693 8.9870390027463185e-06 0 0.09166435687751677 -0.00022720778517245911 0 0.091717767765252964 9.1408861613540565e-06 0 0.090601036741469756 -0.00092430538988136032 0 0.090761639323409374 -0.00072436893121110527 0 0.089657770946773352 -0.00059363220284188237 0 0.090601036741469756 -0.00092430538988136032 0 0.089657770946773352 -0.00059363220284188237 0 0.090036813004980593 -0.0010311718502318055 0 0.087377493100349438 -0.0020439300272391244 0 0.087314374121638283 -0.0017898527274138134 0 0.090601036741469756 -0.00092430538988136032 0 0.090578207518217435 -0.0012718641358881639 0 0.090036813004980593 -0.0010311718502318055 0 0.084592769391333381 -0.0022706716857108754 0 0.085530549727894825 -0.0023725402857448603 0 0.085024018574680962 -0.0028437372592058298 0 0.076171217108275957 -0.0060751194872785356 0 0.07647572444170897 -0.0061223185507077761 0 0.07616630534648762 -0.0064493445969409872 0 0.0765709572891725 -0.0057058719317976724 0 0.076171217108275957 -0.0060751194872785356 0 0.07647572444170897 -0.0061223185507077761 0 0.087314374121638283 -0.0017898527274138134 0 0.083234021249283405 -0.0042246977826750944 0 0.080223651805659754 -0.0041350384559952916 0 0.080645972051531178 -0.0037431253109775639 0 0.076769005049769912 -0.0059568022904637813 0 0.076671751852935871 -0.0062181849606458952 0 0.076580954431587897 -0.0062084645849097174 0 0.076769005049769912 -0.0059568022904637813 0 0.077256904381036481 -0.0069235181807404851 0 0.077203100975972092 -0.0061577339240896289 0 0.0765709572891725 -0.0057058719317976724 0 0.076769005049769912 -0.0059568022904637813 0 0.07647572444170897 -0.0061223185507077761 0 0.076769005049769912 -0.0059568022904637813 0 0.077203100975972092 -0.0061577339240896289 0 0.077149024582516726 -0.0056775987113961658 0 0.076769005049769912 -0.0059568022904637813 0 0.07647572444170897 -0.0061223185507077761 0 0.076671751852935871 -0.0062181849606458952 0 0.075361906867905545 -0.00646372579416306 0 0.075629102731375561 -0.0065007456807019267 0 0.07647572444170897 -0.0061223185507077761 0 0.076671751852935871 -0.0062181849606458952 0 0.076458223413740228 -0.0066023248985034267 0 0.076867968696345282 -0.0068884903311203297 0 0.076671751852935871 -0.0062181849606458952 0 0.076458223413740228 -0.0066023248985034267 0 0.07647572444170897 -0.0061223185507077761 0 0.076458223413740228 -0.0066023248985034267 0 0.07616630534648762 -0.0064493445969409872 0 0.076073924016504549 -0.0070688658028500179 0 0.07576387253064043 -0.0064348412449348816 0 0.07616630534648762 -0.0064493445969409872 0 0.07576387253064043 -0.0064348412449348816 0 0.076171217108275957 -0.0060751194872785356 0 0.07616630534648762 -0.0064493445969409872 0 0.094087018162626865 2.1731738741377599e-05 0 0.094257401086435308 0.000212570127207013 0 0.094385185374527655 7.8702156999208616e-05 0 0.094087018162626865 2.1731738741377599e-05 0 0.093913837133438219 0.00022940202152919444 0 0.09408243480368185 0.00022140138829668076 0 0.094087018162626865 2.1731738741377599e-05 0 0.09408243480368185 0.00022140138829668076 0 0.094257401086435308 0.000212570127207013 0 0.07828921000149841 -0.0076038675299254389 0 0.07846341030760827 -0.0071909701699282569 0 0.077256904381036481 -0.0069235181807404851 0 0.076504869761495398 -0.0059062481463974395 0 0.076671751852935871 -0.0062181849606458952 0 0.076439069001496732 -0.0060715582792341327 0 0.07846341030760827 -0.0071909701699282569 0 0.077256904381036481 -0.0069235181807404851 0 0.077614373261413031 -0.0061090009109245058 0 0.082282726652828944 -0.003368938085067069 0 0.080645972051531178 -0.0037431253109775639 0 0.083021413080771156 -0.0024233004224135995 0 0.083512628582887369 -0.0025020652147645524 0 0.083700112445264818 -0.0029110721196765198 0 0.080320396949960668 -0.0037863735845274104 0 0.080645972051531178 -0.0037431253109775639 0 0.076671751852935871 -0.0062181849606458952 0 0.076439069001496732 -0.0060715582792341327 0 0.076580954431587897 -0.0062084645849097174 0 0.086788347356157258 -0.0026120071297549988 0 0.088469636724443787 -0.0013747830591379479 0 0.093811078632186712 0.00032975978107271643 0 0.094069810493350656 0.00043447128372143287 0 0.09366605476829909 0.00048424022279332647 0 0.094087018162626865 2.1731738741377599e-05 0 0.093913837133438219 0.00022940202152919444 0 0.093809917221293629 0.00031787921433458472 0 0.088690632862761534 -0.0014510412735068558 0 0.088469636724443787 -0.0013747830591379479 0 0.077256904381036481 -0.0069235181807404851 0 0.077203100975972092 -0.0061577339240896289 0 0.077614373261413031 -0.0061090009109245058 0 0.088469636724443787 -0.0013747830591379479 0 0.089056520116825452 -0.00075795376684303288 0 0.077203100975972092 -0.0061577339240896289 0 0.077614373261413031 -0.0061090009109245058 0 0.077149024582516726 -0.0056775987113961658 0 0.093913837133438219 0.00022940202152919444 0 0.093811078632186712 0.00032975978107271643 0 0.094069810493350656 0.00043447128372143287 0 0.093913837133438219 0.00022940202152919444 0 0.094069810493350656 0.00043447128372143287 0 0.09408243480368185 0.00022140138829668076 0 0.094069810493350656 0.00043447128372143287 0 0.09408243480368185 0.00022140138829668076 0 0.094257401086435308 0.000212570127207013 0 0.092364803070041163 -0.00030575084591582342 0 0.09241618851011596 -3.8999460158929004e-05 0 0.093072273379134499 -0.00038403009374668196 0 0.092364803070041163 -0.00030575084591582342 0 0.09241618851011596 -3.8999460158929004e-05 0 0.091986753362322954 -4.6675481565439865e-05 0 0.094998938604821656 7.6719162830235205e-06 0 0.094999108797847259 2.3718424124806294e-06 0 0.094995112937364873 5.906515643849321e-06 0 0.09241618851011596 -3.8999460158929004e-05 0 0.091986753362322954 -4.6675481565439865e-05 0 0.091767994151357835 0.00030140425615787287 0 0.09329549456813313 -0.00015263731089271756 0 0.092418169273718626 0.00022025428530900873 0 0.092364803070041163 -0.00030575084591582342 0 0.09166435687751677 -0.00022720778517245911 0 0.091986753362322954 -4.6675481565439865e-05 0 0.094998938604821656 7.6719162830235205e-06 0 0.094998084820561851 1.9010719056048886e-06 0 0.094998580052108053 1.2080076655709467e-06 0 0.0921688596557204 -0.00053082808902797836 0 0.089056520116825452 -0.00075795376684303288 0 0.09166435687751677 -0.00022720778517245911 0 0.091986753362322954 -4.6675481565439865e-05 0 0.091717767765252964 9.1408861613540565e-06 0 0.091986753362322954 -4.6675481565439865e-05 0 0.091717767765252964 9.1408861613540565e-06 0 0.091767994151357835 0.00030140425615787287 0 0.091452760753839693 8.9870390027463185e-06 0 0.091717767765252964 9.1408861613540565e-06 0 0.091767994151357835 0.00030140425615787287 0 0.094997776123189201 7.8376795166786527e-07 0 0.094998580052108053 1.2080076655709467e-06 0 0.094999996761926678 3.8147634129491341e-09 0 0.092418169273718626 0.00022025428530900873 0 0.092479362794682884 0.0002516920945274967 0 0.094998580052108053 1.2080076655709467e-06 0 0.094999996761926678 3.8147634129491341e-09 0 0.094999108797847259 2.3718424124806294e-06 0 0.094999108797847259 2.3718424124806294e-06 0 0.094999996010033949 1.3001095088234498e-09 0 0.094995112937364873 5.906515643849321e-06 0 0.094999996761926678 3.8147634129491341e-09 0 0.094999108797847259 2.3718424124806294e-06 0 0.094999996010033949 1.3001095088234498e-09 0 0.094998938604821656 7.6719162830235205e-06 0 0.094998580052108053 1.2080076655709467e-06 0 0.094999108797847259 2.3718424124806294e-06 0 0.094999996010033949 1.3001095088234498e-09 0 0.094989548714543542 2.7769770198114529e-06 0 0.094995112937364873 5.906515643849321e-06 0 0.094989548714543542 2.7769770198114529e-06 0 0.094967854985482436 9.1922723242278375e-06 0 0.094999952945658481 -4.7078015131915309e-09 0 0.094999996010033949 1.3001095088234498e-09 0 0.094989548714543542 2.7769770198114529e-06 0 0.094999952945658481 -4.7078015131915309e-09 0 0.094989548714543542 2.7769770198114529e-06 0 0.094967854985482436 9.1922723242278375e-06 0 0.094984744829861134 1.2473750519037169e-05 0 0.094967854985482436 9.1922723242278375e-06 0 0.094975998345936966 1.8043868128346929e-05 0 0.094984744829861134 1.2473750519037169e-05 0 0.094998938604821656 7.6719162830235205e-06 0 0.094995112937364873 5.906515643849321e-06 0 0.094988572856307685 2.225776431274981e-05 0 0.094984744829861134 1.2473750519037169e-05 0 0.094995112937364873 5.906515643849321e-06 0 0.094988572856307685 2.225776431274981e-05 0 0.094975998345936966 1.8043868128346929e-05 0 0.094984744829861134 1.2473750519037169e-05 0 0.094988572856307685 2.225776431274981e-05 0 0.09329549456813313 -0.00015263731089271756 0 0.09361438682299604 -0.00036501119414275216 0 0.094989548714543542 2.7769770198114529e-06 0 0.094984744829861134 1.2473750519037169e-05 0 0.094995112937364873 5.906515643849321e-06 0 0.094999957401640273 1.8441011659205439e-08 0 0.094957398661169992 1.2453534422942419e-05 0 0.094977582105446226 1.2583024839816691e-05 0 0.094967854985482436 9.1922723242278375e-06 0 0.094999952945658481 -4.7078015131915309e-09 0 0.094957398661169992 1.2453534422942419e-05 0 0.094999957401640273 1.8441011659205439e-08 0 0.094999952945658481 -4.7078015131915309e-09 0 0.094957398661169992 1.2453534422942419e-05 0 0.094967854985482436 9.1922723242278375e-06 0 0.094957398661169992 1.2453534422942419e-05 0 0.09492347915003041 2.2783752274929621e-05 0 0.094957398661169992 1.2453534422942419e-05 0 0.094917168827290649 2.5867818981973267e-05 0 0.094977582105446226 1.2583024839816691e-05 0 0.094917168827290649 2.5867818981973267e-05 0 0.094964226077957473 1.3213504617535105e-05 0 0.094977582105446226 1.2583024839816691e-05 0 0.094917168827290649 2.5867818981973267e-05 0 0.094851627939141037 -1.8206489059588669e-05 0 0.094964226077957473 1.3213504617535105e-05 0 0.094957398661169992 1.2453534422942419e-05 0 0.094917168827290649 2.5867818981973267e-05 0 0.09492347915003041 2.2783752274929621e-05 0 0.094917168827290649 2.5867818981973267e-05 0 0.09492347915003041 2.2783752274929621e-05 0 0.094856076393837321 4.600508524408284e-05 0 0.09492347915003041 2.2783752274929621e-05 0 0.094856076393837321 4.600508524408284e-05 0 0.094956036497172158 3.8504858465567441e-05 0 0.094277634895284457 -0.00037433134843233213 0 0.094128428868399158 -0.00037488123145892872 0 0.094917168827290649 2.5867818981973267e-05 0 0.094856076393837321 4.600508524408284e-05 0 0.094851627939141037 -1.8206489059588669e-05 0 0.094856076393837321 4.600508524408284e-05 0 0.094777985583599136 -3.2501181095379631e-05 0 0.094629014194406016 4.1320339893589183e-05 0 0.094856076393837321 4.600508524408284e-05 0 0.094777985583599136 -3.2501181095379631e-05 0 0.094851627939141037 -1.8206489059588669e-05 0 0.094777985583599136 -3.2501181095379631e-05 0 0.094851627939141037 -1.8206489059588669e-05 0 0.094811804293076882 -8.087165889499555e-05 0 0.094851627939141037 -1.8206489059588669e-05 0 0.094871114903613052 -4.1162290141081418e-05 0 0.094881548409860558 -1.4291189458156463e-05 0 0.094851627939141037 -1.8206489059588669e-05 0 0.094871114903613052 -4.1162290141081418e-05 0 0.094849240916480809 -7.722971296887681e-05 0 0.094906044046747878 -1.3328960876396044e-05 0 0.094926551688499672 -2.936029777463434e-06 0 0.094069810493350656 0.00043447128372143287 0 0.094257401086435308 0.000212570127207013 0 0.094421851654445596 0.0003759004641873443 0 0.0921688596557204 -0.00053082808902797836 0 0.09361438682299604 -0.00036501119414275216 0 0.094483630424168324 0.00020734362762582609 0 0.094257401086435308 0.000212570127207013 0 0.094421851654445596 0.0003759004641873443 0 0.094975998345936966 1.8043868128346929e-05 0 0.094988572856307685 2.225776431274981e-05 0 0.094956036497172158 3.8504858465567441e-05 0 0.09361438682299604 -0.00036501119414275216 0 0.094128428868399158 -0.00037488123145892872 0 0.094967854985482436 9.1922723242278375e-06 0 0.094975998345936966 1.8043868128346929e-05 0 0.094956036497172158 3.8504858465567441e-05 0 0.094967854985482436 9.1922723242278375e-06 0 0.09492347915003041 2.2783752274929621e-05 0 0.094956036497172158 3.8504858465567441e-05 0 0.094483630424168324 0.00020734362762582609 0 0.094421851654445596 0.0003759004641873443 0 0.094644735461130475 0.00022937328679709584 0 0.094483630424168324 0.00020734362762582609 0 0.094644735461130475 0.00022937328679709584 0 0.094629014194406016 4.1320339893589183e-05 0 0.094856076393837321 4.600508524408284e-05 0 0.094644735461130475 0.00022937328679709584 0 0.094629014194406016 4.1320339893589183e-05 0 0.094777985583599136 -3.2501181095379631e-05 0 0.094629014194406016 4.1320339893589183e-05 0 0.094658537927139699 -7.4134144124421604e-05 0 0.094629014194406016 4.1320339893589183e-05 0 0.094431988237375461 -7.761047299005989e-05 0 0.094658537927139699 -7.4134144124421604e-05 0 0.094087018162626865 2.1731738741377599e-05 0 0.094385185374527655 7.8702156999208616e-05 0 0.094431988237375461 -7.761047299005989e-05 0 0.094629014194406016 4.1320339893589183e-05 0 0.094385185374527655 7.8702156999208616e-05 0 0.094431988237375461 -7.761047299005989e-05 0 0.094483630424168324 0.00020734362762582609 0 0.094629014194406016 4.1320339893589183e-05 0 0.094385185374527655 7.8702156999208616e-05 0 0.094483630424168324 0.00020734362762582609 0 0.094257401086435308 0.000212570127207013 0 0.094385185374527655 7.8702156999208616e-05 0 0.094087018162626865 2.1731738741377599e-05 0 0.094431988237375461 -7.761047299005989e-05 0 0.094319990812765347 -0.00022432445517858062 0 0.094319990812765347 -0.00022432445517858062 0 0.094521322301227714 -0.0003391701601777005 0 0.094575950185558685 -0.00015724997260604934 0 0.094431988237375461 -7.761047299005989e-05 0 0.094319990812765347 -0.00022432445517858062 0 0.094575950185558685 -0.00015724997260604934 0 0.082648506908581512 -0.0015728163322253604 0 0.082344866784142684 -0.0019316965490463649 0 0.082333413771799493 -0.0012863136007550343 0 0.082761402830732814 -0.0023878176551728339 0 0.081989817782739935 -0.0013296037100910285 0 0.081942846716272694 -0.0017978312849011645 0 0.082344866784142684 -0.0019316965490463649 0 0.081788878797849379 -0.001171152267034866 0 0.082333413771799493 -0.0012863136007550343 0 0.084815633837322046 -0.0026984991464006421 0 0.083140387714648475 -0.0012890681963839852 0 0.084815633837322046 -0.0026984991464006421 0 0.087136622337054007 -0.001845352137583939 0 0.081788878797849379 -0.001171152267034866 0 0.082333413771799493 -0.0012863136007550343 0 0.08208933579585935 -0.00090816242834850847 0 0.08263933245452447 -0.0011422123428144527 0 0.082333413771799493 -0.0012863136007550343 0 0.082426920763035094 -0.00089889683232332977 0 0.094684594974391731 -0.00047281494386108982 0 0.094521322301227714 -0.0003391701601777005 0 0.094575950185558685 -0.00015724997260604934 0 0.088944343704060638 -0.00096618454021174939 0 0.090381949972727929 -0.001389719259488955 0 0.094713553941893791 -0.00020156439703328607 0 0.094698269015196748 -0.0001635510513733532 0 0.094575950185558685 -0.00015724997260604934 0 0.081989817782739935 -0.0013296037100910285 0 0.081174010155492138 -0.0012153700344790573 0 0.081942846716272694 -0.0017978312849011645 0 0.088944343704060638 -0.00096618454021174939 0 0.087136622337054007 -0.001845352137583939 0 0.094698269015196748 -0.0001635510513733532 0 0.094690023196729867 -0.00012602983222503687 0 0.094575950185558685 -0.00015724997260604934 0 0.094431988237375461 -7.761047299005989e-05 0 0.094575950185558685 -0.00015724997260604934 0 0.094658537927139699 -7.4134144124421604e-05 0 0.094690023196729867 -0.00012602983222503687 0 0.094575950185558685 -0.00015724997260604934 0 0.094658537927139699 -7.4134144124421604e-05 0 0.094690023196729867 -0.00012602983222503687 0 0.094658537927139699 -7.4134144124421604e-05 0 0.094740607362532439 -8.9866765578190845e-05 0 0.094777985583599136 -3.2501181095379631e-05 0 0.094740607362532439 -8.9866765578190845e-05 0 0.094811804293076882 -8.087165889499555e-05 0 0.094740607362532439 -8.9866765578190845e-05 0 0.094811804293076882 -8.087165889499555e-05 0 0.094751180014026049 -0.00012804189689039804 0 0.094777985583599136 -3.2501181095379631e-05 0 0.094658537927139699 -7.4134144124421604e-05 0 0.094740607362532439 -8.9866765578190845e-05 0 0.094811804293076882 -8.087165889499555e-05 0 0.094751180014026049 -0.00012804189689039804 0 0.094790624365074697 -0.00013567272694871334 0 0.094690023196729867 -0.00012602983222503687 0 0.094740607362532439 -8.9866765578190845e-05 0 0.094751180014026049 -0.00012804189689039804 0 0.094698269015196748 -0.0001635510513733532 0 0.094690023196729867 -0.00012602983222503687 0 0.094751180014026049 -0.00012804189689039804 0 0.094811804293076882 -8.087165889499555e-05 0 0.094849240916480809 -7.722971296887681e-05 0 0.094821766227277435 -0.00010506864555082513 0 0.094851627939141037 -1.8206489059588669e-05 0 0.094811804293076882 -8.087165889499555e-05 0 0.094849240916480809 -7.722971296887681e-05 0 0.094811804293076882 -8.087165889499555e-05 0 0.094821766227277435 -0.00010506864555082513 0 0.094790624365074697 -0.00013567272694871334 0 0.094849240916480809 -7.722971296887681e-05 0 0.094833908442041245 -0.00012752804838185916 0 0.094881711386558223 -7.9187038356014788e-05 0 0.094849240916480809 -7.722971296887681e-05 0 0.094821766227277435 -0.00010506864555082513 0 0.094833908442041245 -0.00012752804838185916 0 0.094833908442041245 -0.00012752804838185916 0 0.094782279732037553 -0.00017262050853963142 0 0.094817307051940386 -0.00018673239330496328 0 0.094821766227277435 -0.00010506864555082513 0 0.094833908442041245 -0.00012752804838185916 0 0.094790624365074697 -0.00013567272694871334 0 0.094833908442041245 -0.00012752804838185916 0 0.094782279732037553 -0.00017262050853963142 0 0.094790624365074697 -0.00013567272694871334 0 0.094698269015196748 -0.0001635510513733532 0 0.094751180014026049 -0.00012804189689039804 0 0.09474142819969221 -0.00017754227931396214 0 0.094751180014026049 -0.00012804189689039804 0 0.094790624365074697 -0.00013567272694871334 0 0.09474142819969221 -0.00017754227931396214 0 0.094782279732037553 -0.00017262050853963142 0 0.09474142819969221 -0.00017754227931396214 0 0.094752558753829555 -0.00018593001241324592 0 0.094782279732037553 -0.00017262050853963142 0 0.094790624365074697 -0.00013567272694871334 0 0.09474142819969221 -0.00017754227931396214 0 0.09474142819969221 -0.00017754227931396214 0 0.094727772568374863 -0.00019647118882777968 0 0.094752558753829555 -0.00018593001241324592 0 0.094713553941893791 -0.00020156439703328607 0 0.09474142819969221 -0.00017754227931396214 0 0.094727772568374863 -0.00019647118882777968 0 0.094713553941893791 -0.00020156439703328607 0 0.094698269015196748 -0.0001635510513733532 0 0.09474142819969221 -0.00017754227931396214 0 0.088944343704060638 -0.00096618454021174939 0 0.089214734592187817 -0.0010758900844642148 0 0.088944343704060638 -0.00096618454021174939 0 0.087087316773576895 8.9322004996358385e-05 0 0.081174010155492138 -0.0012153700344790573 0 0.08075640855243281 -0.00023249211829433992 0 0.08125112783918563 -0.00036904937459541137 0 0.094711247522490771 -0.00018937026309672451 0 0.094727772568374863 -0.00019647118882777968 0 0.094734715121421662 -0.00022392130191313636 0 0.094727772568374863 -0.00019647118882777968 0 0.094752558753829555 -0.00018593001241324592 0 0.094760628051378304 -0.00020224381850245349 0 0.094782279732037553 -0.00017262050853963142 0 0.094752558753829555 -0.00018593001241324592 0 0.094760628051378304 -0.00020224381850245349 0 0.094727772568374863 -0.00019647118882777968 0 0.094760628051378304 -0.00020224381850245349 0 0.094734715121421662 -0.00022392130191313636 0 0.094782279732037553 -0.00017262050853963142 0 0.094760628051378304 -0.00020224381850245349 0 0.094817307051940386 -0.00018673239330496328 0 0.094760628051378304 -0.00020224381850245349 0 0.094817307051940386 -0.00018673239330496328 0 0.094776881470141267 -0.00023043755975627836 0 0.094817307051940386 -0.00018673239330496328 0 0.094776881470141267 -0.00023043755975627836 0 0.09482176908224306 -0.00022507599202330916 0 0.094776881470141267 -0.00023043755975627836 0 0.094746826485843705 -0.00026708245132311395 0 0.094783250242856429 -0.00026899453467889241 0 0.094776881470141267 -0.00023043755975627836 0 0.09482176908224306 -0.00022507599202330916 0 0.094783250242856429 -0.00026899453467889241 0 0.08075640855243281 -0.00023249211829433992 0 0.080804075459200861 0.00021539705149115209 0 0.080402796512956759 0.00059120152428450738 0 0.087087316773576895 8.9322004996358385e-05 0 0.084673772041924431 0.0019576319754171204 0 0.094776881470141267 -0.00023043755975627836 0 0.094734715121421662 -0.00022392130191313636 0 0.094746826485843705 -0.00026708245132311395 0 0.08075640855243281 -0.00023249211829433992 0 0.080963481969765022 1.6178721548186678e-05 0 0.08125112783918563 -0.00036904937459541137 0 0.08075640855243281 -0.00023249211829433992 0 0.080963481969765022 1.6178721548186678e-05 0 0.080804075459200861 0.00021539705149115209 0 0.094760628051378304 -0.00020224381850245349 0 0.094776881470141267 -0.00023043755975627836 0 0.094734715121421662 -0.00022392130191313636 0 0.080804075459200861 0.00021539705149115209 0 0.081055193835813402 0.00031313378443938232 0 0.080402796512956759 0.00059120152428450738 0 0.080963481969765022 1.6178721548186678e-05 0 0.081055193835813402 0.00031313378443938232 0 0.081218148138803209 8.9285057052882448e-05 0 0.080963481969765022 1.6178721548186678e-05 0 0.080804075459200861 0.00021539705149115209 0 0.081055193835813402 0.00031313378443938232 0 0.081055193835813402 0.00031313378443938232 0 0.081218148138803209 8.9285057052882448e-05 0 0.081481138320342789 0.00018326644122403682 0 0.081481138320342789 0.00018326644122403682 0 0.082155375612604845 0.00022139190730447995 0 0.081282105956254486 0.00054001437382073198 0 0.081055193835813402 0.00031313378443938232 0 0.081481138320342789 0.00018326644122403682 0 0.081282105956254486 0.00054001437382073198 0 0.081218148138803209 8.9285057052882448e-05 0 0.081465381279585761 -8.5621217675004661e-05 0 0.081481138320342789 0.00018326644122403682 0 0.081218148138803209 8.9285057052882448e-05 0 0.081465381279585761 -8.5621217675004661e-05 0 0.08125112783918563 -0.00036904937459541137 0 0.080963481969765022 1.6178721548186678e-05 0 0.081218148138803209 8.9285057052882448e-05 0 0.08125112783918563 -0.00036904937459541137 0 0.081667196446195509 -0.00033420918673551672 0 0.081465381279585761 -8.5621217675004661e-05 0 0.08125112783918563 -0.00036904937459541137 0 0.081465381279585761 -8.5621217675004661e-05 0 0.081708065702462945 1.2503078476038893e-07 0 0.081481138320342789 0.00018326644122403682 0 0.081667196446195509 -0.00033420918673551672 0 0.081465381279585761 -8.5621217675004661e-05 0 0.081708065702462945 1.2503078476038893e-07 0 0.081708065702462945 1.2503078476038893e-07 0 0.081481138320342789 0.00018326644122403682 0 0.082155375612604845 0.00022139190730447995 0 0.082155375612604845 0.00022139190730447995 0 0.082529207063924415 -0.00021818560648093034 0 0.081662385190296227 0.0015134023272371873 0 0.082155375612604845 0.00022139190730447995 0 0.082529207063924415 -0.00021818560648093034 0 0.082198338579125618 -0.00028809855076621007 0 0.082529207063924415 -0.00021818560648093034 0 0.082198338579125618 -0.00028809855076621007 0 0.082243477714166124 -0.00057061471662208274 0 0.082155375612604845 0.00022139190730447995 0 0.082198338579125618 -0.00028809855076621007 0 0.081928367512494785 -0.00018730335025459602 0 0.081708065702462945 1.2503078476038893e-07 0 0.082155375612604845 0.00022139190730447995 0 0.081928367512494785 -0.00018730335025459602 0 0.082198338579125618 -0.00028809855076621007 0 0.081928367512494785 -0.00018730335025459602 0 0.081974516314403389 -0.00052047371044008071 0 0.081667196446195509 -0.00033420918673551672 0 0.081708065702462945 1.2503078476038893e-07 0 0.081928367512494785 -0.00018730335025459602 0 0.081667196446195509 -0.00033420918673551672 0 0.081974516314403389 -0.00052047371044008071 0 0.081750741630996784 -0.00066091413095296307 0 0.081667196446195509 -0.00033420918673551672 0 0.081928367512494785 -0.00018730335025459602 0 0.081974516314403389 -0.00052047371044008071 0 0.081974516314403389 -0.00052047371044008071 0 0.082243477714166124 -0.00057061471662208274 0 0.08208933579585935 -0.00090816242834850847 0 0.081974516314403389 -0.00052047371044008071 0 0.08208933579585935 -0.00090816242834850847 0 0.081750741630996784 -0.00066091413095296307 0 0.082529207063924415 -0.00021818560648093034 0 0.082243477714166124 -0.00057061471662208274 0 0.082426920763035094 -0.00089889683232332977 0 0.082198338579125618 -0.00028809855076621007 0 0.081974516314403389 -0.00052047371044008071 0 0.082243477714166124 -0.00057061471662208274 0 0.082333413771799493 -0.0012863136007550343 0 0.082426920763035094 -0.00089889683232332977 0 0.08208933579585935 -0.00090816242834850847 0 0.082243477714166124 -0.00057061471662208274 0 0.082426920763035094 -0.00089889683232332977 0 0.08208933579585935 -0.00090816242834850847 0 0.081788878797849379 -0.001171152267034866 0 0.08208933579585935 -0.00090816242834850847 0 0.081750741630996784 -0.00066091413095296307 0 0.083140387714648475 -0.0012890681963839852 0 0.082594916956808415 -0.00080311240441235476 0 0.081989817782739935 -0.0013296037100910285 0 0.081174010155492138 -0.0012153700344790573 0 0.08125112783918563 -0.00036904937459541137 0 0.081788878797849379 -0.001171152267034866 0 0.08125112783918563 -0.00036904937459541137 0 0.081750741630996784 -0.00066091413095296307 0 0.081667196446195509 -0.00033420918673551672 0 0.08125112783918563 -0.00036904937459541137 0 0.081750741630996784 -0.00066091413095296307 0 0.093176907247778357 0.0066201382711066599 0 0.093683051054008912 0.006550433784287742 0 0.093228822393505273 0.0062408537285831142 0 0.093176907247778357 0.0066201382711066599 0 0.093480085909170146 0.0070265116396747906 0 0.093683051054008912 0.006550433784287742 0 0.088788207527738874 0.007491084711065076 0 0.091969004641827376 0.008013992609585744 0 0.094010662613956797 0.0082299380228208364 0 0.092861333323022113 0.0079600051368647774 0 0.093169003452616722 0.0086894567846866628 0 0.093586312168563723 0.0072163396578667901 0 0.094309982223555383 0.0082237980674865277 0 0.092861333323022113 0.0079600051368647774 0 0.091132102980425539 0.0078245664991058537 0 0.088788207527738874 0.007491084711065076 0 0.093480085909170146 0.0070265116396747906 0 0.093683051054008912 0.006550433784287742 0 0.093850891788257951 0.0070934231387763504 0 0.094861958486889442 -0.00019229718530583583 0 0.094920959305293762 -0.00016817067907551114 0 0.094866729682986789 -0.00025081687459972701 0 0.088788207527738874 0.007491084711065076 0 0.086479013569290816 0.0053192314441663294 0 0.091029345186256175 0.0042192775235632132 0 0.086479013569290816 0.0053192314441663294 0 0.09482176908224306 -0.00022507599202330916 0 0.094783250242856429 -0.00026899453467889241 0 0.094866729682986789 -0.00025081687459972701 0 0.09482176908224306 -0.00022507599202330916 0 0.094861958486889442 -0.00019229718530583583 0 0.094866729682986789 -0.00025081687459972701 0 0.094817307051940386 -0.00018673239330496328 0 0.094861958486889442 -0.00019229718530583583 0 0.094875074604589923 -0.00013666791423158167 0 0.094817307051940386 -0.00018673239330496328 0 0.09482176908224306 -0.00022507599202330916 0 0.094861958486889442 -0.00019229718530583583 0 0.094861958486889442 -0.00019229718530583583 0 0.094920959305293762 -0.00016817067907551114 0 0.094875074604589923 -0.00013666791423158167 0 0.094920959305293762 -0.00016817067907551114 0 0.094875074604589923 -0.00013666791423158167 0 0.09491816893863679 -8.3291307165294853e-05 0 0.094833908442041245 -0.00012752804838185916 0 0.094875074604589923 -0.00013666791423158167 0 0.094881711386558223 -7.9187038356014788e-05 0 0.094833908442041245 -0.00012752804838185916 0 0.094817307051940386 -0.00018673239330496328 0 0.094875074604589923 -0.00013666791423158167 0 0.094881711386558223 -7.9187038356014788e-05 0 0.09491816893863679 -8.3291307165294853e-05 0 0.094896782884989511 -3.897216833614627e-05 0 0.094875074604589923 -0.00013666791423158167 0 0.094881711386558223 -7.9187038356014788e-05 0 0.09491816893863679 -8.3291307165294853e-05 0 0.094871114903613052 -4.1162290141081418e-05 0 0.094849240916480809 -7.722971296887681e-05 0 0.094881711386558223 -7.9187038356014788e-05 0 0.09491816893863679 -8.3291307165294853e-05 0 0.094964320035363217 -8.5733850900302408e-05 0 0.094954142527555546 -4.7761311301602293e-05 0 0.093683051054008912 0.006550433784287742 0 0.093520666239602743 0.0059091638057240173 0 0.093228822393505273 0.0062408537285831142 0 0.091029345186256175 0.0042192775235632132 0 0.093040165211808648 0.0032615389768995496 0 0.094920959305293762 -0.00016817067907551114 0 0.09491816893863679 -8.3291307165294853e-05 0 0.094964320035363217 -8.5733850900302408e-05 0 0.093176907247778357 0.0066201382711066599 0 0.093228822393505273 0.0062408537285831142 0 0.09281280912597481 0.0062169085958076915 0 0.091132102980425539 0.0078245664991058537 0 0.091515288628022218 0.0075398943718793842 0 0.093228822393505273 0.0062408537285831142 0 0.093067075950570843 0.0059399361433677567 0 0.09281280912597481 0.0062169085958076915 0 0.093520666239602743 0.0059091638057240173 0 0.093228822393505273 0.0062408537285831142 0 0.093067075950570843 0.0059399361433677567 0 0.093520666239602743 0.0059091638057240173 0 0.093067075950570843 0.0059399361433677567 0 0.093084666049456616 0.0055831533063467765 0 0.093067075950570843 0.0059399361433677567 0 0.093084666049456616 0.0055831533063467765 0 0.092744200650136457 0.0057133872875557963 0 0.093084666049456616 0.0055831533063467765 0 0.093281613772063968 0.0051415518178126226 0 0.092819115589363496 0.0052700710222877674 0 0.093520666239602743 0.0059091638057240173 0 0.093084666049456616 0.0055831533063467765 0 0.093281613772063968 0.0051415518178126226 0 0.094119158939754838 0.0023177296618440272 0 0.094117994713728823 0.0023280141103545434 0 0.094964320035363217 -8.5733850900302408e-05 0 0.09498229623052995 -2.4999963666066276e-05 0 0.094954142527555546 -4.7761311301602293e-05 0 0.094964320035363217 -8.5733850900302408e-05 0 0.09498229623052995 -2.4999963666066276e-05 0 0.094989130666951069 -2.1256712396140571e-05 0 0.093040165211808648 0.0032615389768995496 0 0.094117994713728823 0.0023280141103545434 0 0.094954142527555546 -4.7761311301602293e-05 0 0.094952918932563884 -3.2253561733138646e-05 0 0.094968016733106897 -2.6243130198577003e-05 0 0.094954142527555546 -4.7761311301602293e-05 0 0.094952918932563884 -3.2253561733138646e-05 0 0.094933478109225602 -3.9799365112148553e-05 0 0.09498229623052995 -2.4999963666066276e-05 0 0.094954142527555546 -4.7761311301602293e-05 0 0.094968016733106897 -2.6243130198577003e-05 0 0.09498229623052995 -2.4999963666066276e-05 0 0.094968016733106897 -2.6243130198577003e-05 0 0.094981406882172797 -1.7805829268422428e-05 0 0.094968016733106897 -2.6243130198577003e-05 0 0.094974373853778035 -1.3974438104221456e-05 0 0.094981406882172797 -1.7805829268422428e-05 0 0.094968016733106897 -2.6243130198577003e-05 0 0.094974373853778035 -1.3974438104221456e-05 0 0.09496272024093709 -1.940562384519916e-05 0 0.094974373853778035 -1.3974438104221456e-05 0 0.094985617438505754 -9.791517129808293e-06 0 0.094981406882172797 -1.7805829268422428e-05 0 0.09496272024093709 -1.940562384519916e-05 0 0.094965435950953789 -6.9911350378406376e-06 0 0.094945728621609299 -2.3830615639245102e-05 0 0.094952918932563884 -3.2253561733138646e-05 0 0.09496272024093709 -1.940562384519916e-05 0 0.094945728621609299 -2.3830615639245102e-05 0 0.094952918932563884 -3.2253561733138646e-05 0 0.094968016733106897 -2.6243130198577003e-05 0 0.09496272024093709 -1.940562384519916e-05 0 0.094974373853778035 -1.3974438104221456e-05 0 0.09496272024093709 -1.940562384519916e-05 0 0.094965435950953789 -6.9911350378406376e-06 0 0.094974373853778035 -1.3974438104221456e-05 0 0.094965435950953789 -6.9911350378406376e-06 0 0.094979716328656594 -7.3809155463674948e-06 0 0.094974373853778035 -1.3974438104221456e-05 0 0.094979716328656594 -7.3809155463674948e-06 0 0.094985617438505754 -9.791517129808293e-06 0 0.094117994713728823 0.0023280141103545434 0 0.093926497364596004 0.0021822879161138091 0 0.094985617438505754 -9.791517129808293e-06 0 0.094987172988956467 -1.5074802335413858e-05 0 0.094992084280822481 -4.1844056937132461e-06 0 0.094979716328656594 -7.3809155463674948e-06 0 0.094985617438505754 -9.791517129808293e-06 0 0.094987654397953772 -4.2334723478390098e-06 0 0.094985617438505754 -9.791517129808293e-06 0 0.094992084280822481 -4.1844056937132461e-06 0 0.094987654397953772 -4.2334723478390098e-06 0 0.094987172988956467 -1.5074802335413858e-05 0 0.094986504687567974 -1.6987641311228875e-05 0 0.094997990936328131 -3.6071739965636463e-06 0 0.094987172988956467 -1.5074802335413858e-05 0 0.094992084280822481 -4.1844056937132461e-06 0 0.094997990936328131 -3.6071739965636463e-06 0 0.09498229623052995 -2.4999963666066276e-05 0 0.094981406882172797 -1.7805829268422428e-05 0 0.094986120755079756 -2.1459350908878604e-05 0 0.094987172988956467 -1.5074802335413858e-05 0 0.094981406882172797 -1.7805829268422428e-05 0 0.094986120755079756 -2.1459350908878604e-05 0 0.094113367090863556 0.0022962435626612339 0 0.094117994713728823 0.0023280141103545434 0 0.094985617438505754 -9.791517129808293e-06 0 0.094987172988956467 -1.5074802335413858e-05 0 0.094981406882172797 -1.7805829268422428e-05 0 0.094871114903613052 -4.1162290141081418e-05 0 0.094896782884989511 -3.897216833614627e-05 0 0.094881548409860558 -1.4291189458156463e-05 0 0.094871114903613052 -4.1162290141081418e-05 0 0.094881711386558223 -7.9187038356014788e-05 0 0.094896782884989511 -3.897216833614627e-05 0 0.09491816893863679 -8.3291307165294853e-05 0 0.094954142527555546 -4.7761311301602293e-05 0 0.094933478109225602 -3.9799365112148553e-05 0 0.09491816893863679 -8.3291307165294853e-05 0 0.094896782884989511 -3.897216833614627e-05 0 0.094933478109225602 -3.9799365112148553e-05 0 0.094896782884989511 -3.897216833614627e-05 0 0.094933478109225602 -3.9799365112148553e-05 0 0.09492752143426976 -1.6517786309869824e-05 0 0.094952918932563884 -3.2253561733138646e-05 0 0.094933478109225602 -3.9799365112148553e-05 0 0.094945728621609299 -2.3830615639245102e-05 0 0.094933478109225602 -3.9799365112148553e-05 0 0.094945728621609299 -2.3830615639245102e-05 0 0.09492752143426976 -1.6517786309869824e-05 0 0.094965435950953789 -6.9911350378406376e-06 0 0.094945728621609299 -2.3830615639245102e-05 0 0.09492752143426976 -1.6517786309869824e-05 0 0.09492752143426976 -1.6517786309869824e-05 0 0.094881548409860558 -1.4291189458156463e-05 0 0.094941622383474311 1.2683065614053592e-05 0 0.094896782884989511 -3.897216833614627e-05 0 0.09492752143426976 -1.6517786309869824e-05 0 0.094881548409860558 -1.4291189458156463e-05 0 0.094964226077957473 1.3213504617535105e-05 0 0.094977582105446226 1.2583024839816691e-05 0 0.094989580861100667 6.6585478522438949e-06 0 0.094926551688499672 -2.936029777463434e-06 0 0.094951944080662501 6.525637365268062e-06 0 0.094965435950953789 -6.9911350378406376e-06 0 0.09492752143426976 -1.6517786309869824e-05 0 0.094941622383474311 1.2683065614053592e-05 0 0.094977582105446226 1.2583024839816691e-05 0 0.094989580861100667 6.6585478522438949e-06 0 0.094999987561269553 1.0338153013232252e-08 0 0.094951944080662501 6.525637365268062e-06 0 0.09496303546728832 9.0168037347258276e-06 0 0.094989580861100667 6.6585478522438949e-06 0 0.094999987561269553 1.0338153013232252e-08 0 0.094997465380826498 2.8096184678970709e-06 0 0.094999957401640273 1.8441011659205439e-08 0 0.094977582105446226 1.2583024839816691e-05 0 0.094999987561269553 1.0338153013232252e-08 0 0.094991670242982801 -2.9675258028129508e-07 0 0.094993292223856995 2.871183547836336e-06 0 0.094997831785760628 7.4409766694400753e-07 0 0.094991670242982801 -2.9675258028129508e-07 0 0.094983562448468797 -8.2710490040467452e-07 0 0.094993292223856995 2.871183547836336e-06 0 0.094991670242982801 -2.9675258028129508e-07 0 0.094992084280822481 -4.1844056937132461e-06 0 0.094997831785760628 7.4409766694400753e-07 0 0.094991670242982801 -2.9675258028129508e-07 0 0.094987654397953772 -4.2334723478390098e-06 0 0.094983562448468797 -8.2710490040467452e-07 0 0.094979716328656594 -7.3809155463674948e-06 0 0.094987654397953772 -4.2334723478390098e-06 0 0.094983562448468797 -8.2710490040467452e-07 0 0.094991670242982801 -2.9675258028129508e-07 0 0.094992084280822481 -4.1844056937132461e-06 0 0.094987654397953772 -4.2334723478390098e-06 0 0.094965435950953789 -6.9911350378406376e-06 0 0.094983562448468797 -8.2710490040467452e-07 0 0.094978140235116984 4.3387348948359641e-06 0 0.094965435950953789 -6.9911350378406376e-06 0 0.094941622383474311 1.2683065614053592e-05 0 0.094978140235116984 4.3387348948359641e-06 0 0.094965435950953789 -6.9911350378406376e-06 0 0.094979716328656594 -7.3809155463674948e-06 0 0.094983562448468797 -8.2710490040467452e-07 0 0.094983562448468797 -8.2710490040467452e-07 0 0.094978140235116984 4.3387348948359641e-06 0 0.094993292223856995 2.871183547836336e-06 0 0.094978140235116984 4.3387348948359641e-06 0 0.094997465380826498 2.8096184678970709e-06 0 0.094993292223856995 2.871183547836336e-06 0 0.094941622383474311 1.2683065614053592e-05 0 0.094978140235116984 4.3387348948359641e-06 0 0.094997465380826498 2.8096184678970709e-06 0 0.094999987561269553 1.0338153013232252e-08 0 0.094997465380826498 2.8096184678970709e-06 0 0.094999978729749496 9.4589773692242258e-09 0 0.094997465380826498 2.8096184678970709e-06 0 0.094999978729749496 9.4589773692242258e-09 0 0.094993292223856995 2.871183547836336e-06 0 0.094999978729749496 9.4589773692242258e-09 0 0.094993292223856995 2.871183547836336e-06 0 0.094997831785760628 7.4409766694400753e-07 0 0.094999978729749496 9.4589773692242258e-09 0 0.094997831785760628 7.4409766694400753e-07 0 0.095000002874908354 -8.5797880727117091e-10 0 0.094992084280822481 -4.1844056937132461e-06 0 0.094997831785760628 7.4409766694400753e-07 0 0.094997990936328131 -3.6071739965636463e-06 0 0.094997831785760628 7.4409766694400753e-07 0 0.095000096571397866 7.9383293507958824e-07 0 0.094997990936328131 -3.6071739965636463e-06 0 0.093789883072764618 0.0019095750303212632 0 0.093926497364596004 0.0021822879161138091 0 0.094997831785760628 7.4409766694400753e-07 0 0.095000002874908354 -8.5797880727117091e-10 0 0.095000096571397866 7.9383293507958824e-07 0 0.095000002874908354 -8.5797880727117091e-10 0 0.094999998873175839 1.5762670651625503e-09 0 0.095000096571397866 7.9383293507958824e-07 0 0.094997670860962391 1.9723772706220261e-06 0 0.093789883072764618 0.0019095750303212632 0 0.094999997548665074 4.5687265652976251e-09 0 0.094998203343499205 7.9426250320082663e-06 0 0.095009645088172431 3.0681806935248777e-05 0 0.093345038284707083 0.0013806640645416075 0 0.094379687932862916 0.00063157647908821508 0 0.094998580973980215 3.8868937152167381e-06 0 0.094999997548665074 4.5687265652976251e-09 0 0.094999995116158448 4.7499322835524543e-09 0 0.094998580973980215 3.8868937152167381e-06 0 0.09499706395414205 8.2065887255953896e-06 0 0.094998885800183008 2.0610452140681359e-06 0 0.094998580973980215 3.8868937152167381e-06 0 0.094999997548665074 4.5687265652976251e-09 0 0.094998203343499205 7.9426250320082663e-06 0 0.093427656531361772 0.0011984865394875283 0 0.093345038284707083 0.0013806640645416075 0 0.094998580973980215 3.8868937152167381e-06 0 0.094998203343499205 7.9426250320082663e-06 0 0.09499706395414205 8.2065887255953896e-06 0 0.095443150584845829 -7.6353046313343533e-05 0 0.095434446670181791 0.0014984255234041892 0 0.09460159232958916 0.00042827605683782915 0 0.093345038284707083 0.0013806640645416075 0 0.092622238112468766 0.0031626449928126329 0 0.094998203343499205 7.9426250320082663e-06 0 0.094993918575761352 1.8762525408857305e-05 0 0.095009645088172431 3.0681806935248777e-05 0 0.093345038284707083 0.0013806640645416075 0 0.093789883072764618 0.0019095750303212632 0 0.091091709735466153 0.0037890550292065876 0 0.091780199769847859 0.0041149099709527374 0 0.091553184917933475 0.004775315978382366 0 0.091091709735466153 0.0037890550292065876 0 0.091553184917933475 0.004775315978382366 0 0.090851637922845924 0.0048239220747411998 0 0.090851637922845924 0.0048239220747411998 0 0.091169138160965793 0.0054241887107773588 0 0.090616876257243462 0.0058513851351854043 0 0.092622238112468766 0.0031626449928126329 0 0.091601508899033665 0.0046734959464499312 0 0.091553184917933475 0.004775315978382366 0 0.090851637922845924 0.0048239220747411998 0 0.091169138160965793 0.0054241887107773588 0 0.091553184917933475 0.004775315978382366 0 0.091169138160965793 0.0054241887107773588 0 0.091719486380482204 0.00546479033204303 0 0.091719486380482204 0.00546479033204303 0 0.092240971654243192 0.0055075020162799835 0 0.092263271487383447 0.0049034842593329809 0 0.091553184917933475 0.004775315978382366 0 0.091719486380482204 0.00546479033204303 0 0.092263271487383447 0.0049034842593329809 0 0.093548410969922335 0.0038446139951998429 0 0.093528358133007222 0.004472386442216536 0 0.093084666049456616 0.0055831533063467765 0 0.092819115589363496 0.0052700710222877674 0 0.092744200650136457 0.0057133872875557963 0 0.092240971654243192 0.0055075020162799835 0 0.092263271487383447 0.0049034842593329809 0 0.092744200650136457 0.0057133872875557963 0 0.092819115589363496 0.0052700710222877674 0 0.092383876864827047 0.0051290389595719183 0 0.092744200650136457 0.0057133872875557963 0 0.093281613772063968 0.0051415518178126226 0 0.092819115589363496 0.0052700710222877674 0 0.092650873600689437 0.0048363005472019322 0 0.092819115589363496 0.0052700710222877674 0 0.092650873600689437 0.0048363005472019322 0 0.092383876864827047 0.0051290389595719183 0 0.091780199769847859 0.0041149099709527374 0 0.091553184917933475 0.004775315978382366 0 0.092263271487383447 0.0049034842593329809 0 0.092021946330938936 0.0045292451948974631 0 0.092650873600689437 0.0048363005472019322 0 0.092383876864827047 0.0051290389595719183 0 0.093789883072764618 0.0019095750303212632 0 0.093548410969922335 0.0038446139951998429 0 0.093141189342721226 0.00033992204880432033 0 0.092503382844541418 0.00046487188290247325 0 0.091932201880465164 2.7515807748074204e-05 0 0.092759141592241801 0.00062885568703226755 0 0.092503382844541418 0.00046487188290247325 0 0.09228452310340092 0.00064363273669471564 0 0.092759141592241801 0.00062885568703226755 0 0.093141189342721226 0.00033992204880432033 0 0.092503382844541418 0.00046487188290247325 0 0.093957405833008475 2.8077845446261433e-05 0 0.093817244456462695 7.5681541394292091e-05 0 0.094999145695323819 2.5851913981503259e-07 0 0.094326644310692098 -0.00014071974882092658 0 0.095083660749814822 -4.8900514389861885e-05 0 0.093141189342721226 0.00033992204880432033 0 0.094326644310692098 -0.00014071974882092658 0 0.091932201880465164 2.7515807748074204e-05 0 0.094999145695323819 2.5851913981503259e-07 0 0.094326644310692098 -0.00014071974882092658 0 0.094996475638337574 -5.9230755949227641e-07 0 0.094326644310692098 -0.00014071974882092658 0 0.093540521282651612 0.00028003597739073642 0 0.09431940841364736 -1.1819526429915356e-05 0 0.093141189342721226 0.00033992204880432033 0 0.094326644310692098 -0.00014071974882092658 0 0.093540521282651612 0.00028003597739073642 0 0.092759141592241801 0.00062885568703226755 0 0.093141189342721226 0.00033992204880432033 0 0.093540521282651612 0.00028003597739073642 0 0.092759141592241801 0.00062885568703226755 0 0.093540521282651612 0.00028003597739073642 0 0.092613886768004694 0.00070623889449358281 0 0.093540521282651612 0.00028003597739073642 0 0.093791984746955243 0.00032399448108163728 0 0.092613886768004694 0.00070623889449358281 0 0.093791984746955243 0.00032399448108163728 0 0.09431940841364736 -1.1819526429915356e-05 0 0.094594313991408802 -0.00025105012995181656 0 0.093540521282651612 0.00028003597739073642 0 0.093791984746955243 0.00032399448108163728 0 0.09431940841364736 -1.1819526429915356e-05 0 0.094326644310692098 -0.00014071974882092658 0 0.094996475638337574 -5.9230755949227641e-07 0 0.09431940841364736 -1.1819526429915356e-05 0 0.094996475638337574 -5.9230755949227641e-07 0 0.09431940841364736 -1.1819526429915356e-05 0 0.094594313991408802 -0.00025105012995181656 0 0.094998837220632348 1.673205322031135e-06 0 0.094379687932862916 0.00063157647908821508 0 0.095000000086333566 -1.5152236173925694e-09 0 0.094999995116158448 4.7499322835524543e-09 0 0.094998885800183008 2.0610452140681359e-06 0 0.094998580973980215 3.8868937152167381e-06 0 0.094999995116158448 4.7499322835524543e-09 0 0.094998885800183008 2.0610452140681359e-06 0 0.095443150584845829 -7.6353046313343533e-05 0 0.094594313991408802 -0.00025105012995181656 0 0.09460159232958916 0.00042827605683782915 0 0.093791984746955243 0.00032399448108163728 0 0.094594313991408802 -0.00025105012995181656 0 0.09460159232958916 0.00042827605683782915 0 0.093791984746955243 0.00032399448108163728 0 0.09460159232958916 0.00042827605683782915 0 0.093722843087849186 0.0012197979730189082 0 0.095434446670181791 0.0014984255234041892 0 0.09460159232958916 0.00042827605683782915 0 0.093722843087849186 0.0012197979730189082 0 0.095434446670181791 0.0014984255234041892 0 0.09338322695144663 0.0036961363724046367 0 0.094963630423643683 0.0042830307944335885 0 0.095434446670181791 0.0014984255234041892 0 0.093722843087849186 0.0012197979730189082 0 0.09338322695144663 0.0036961363724046367 0 0.090618115126608972 0.0039483527691453009 0 0.091079576401583706 0.0042153390270168551 0 0.092240447760146796 0.0018210305180238868 0 0.090141316194998156 0.0031033108756805998 0 0.09338322695144663 0.0036961363724046367 0 0.092240447760146796 0.0018210305180238868 0 0.093722843087849186 0.0012197979730189082 0 0.09338322695144663 0.0036961363724046367 0 0.092240447760146796 0.0018210305180238868 0 0.092738162621409451 0.00092694331945856751 0 0.091525030539986993 0.00094050475856912775 0 0.092240447760146796 0.0018210305180238868 0 0.093722843087849186 0.0012197979730189082 0 0.092738162621409451 0.00092694331945856751 0 0.093791984746955243 0.00032399448108163728 0 0.093722843087849186 0.0012197979730189082 0 0.092738162621409451 0.00092694331945856751 0 0.093791984746955243 0.00032399448108163728 0 0.092738162621409451 0.00092694331945856751 0 0.092613886768004694 0.00070623889449358281 0 0.092759141592241801 0.00062885568703226755 0 0.092613886768004694 0.00070623889449358281 0 0.09227229487393733 0.0008928167399888296 0 0.092613886768004694 0.00070623889449358281 0 0.091525030539986993 0.00094050475856912775 0 0.09227229487393733 0.0008928167399888296 0 0.092738162621409451 0.00092694331945856751 0 0.092613886768004694 0.00070623889449358281 0 0.091525030539986993 0.00094050475856912775 0 0.092240447760146796 0.0018210305180238868 0 0.091525030539986993 0.00094050475856912775 0 0.090141316194998156 0.0031033108756805998 0 0.090141316194998156 0.0031033108756805998 0 0.086596574270297363 0.0029383224809845718 0 0.088030532148241927 0.0040886074418434561 0 0.089889455354989475 0.0019900041134018266 0 0.08935237674035941 0.0024639442557225183 0 0.091525030539986993 0.00094050475856912775 0 0.090141316194998156 0.0031033108756805998 0 0.086596574270297363 0.0029383224809845718 0 0.092236933990025999 0.00067115325951659025 0 0.09224922427923242 0.00077093060682418342 0 0.092190612349459994 0.00077330299463201295 0 0.092236933990025999 0.00067115325951659025 0 0.09224922427923242 0.00077093060682418342 0 0.09227229487393733 0.0008928167399888296 0 0.091525030539986993 0.00094050475856912775 0 0.092236933990025999 0.00067115325951659025 0 0.09227229487393733 0.0008928167399888296 0 0.09224922427923242 0.00077093060682418342 0 0.09227229487393733 0.0008928167399888296 0 0.092223825872020826 0.00074488251916958459 0 0.09227229487393733 0.0008928167399888296 0 0.09228452310340092 0.00064363273669471564 0 0.092223825872020826 0.00074488251916958459 0 0.092759141592241801 0.00062885568703226755 0 0.09227229487393733 0.0008928167399888296 0 0.09228452310340092 0.00064363273669471564 0 0.086406577091444531 0.0051998563068108468 0 0.08556679202027509 0.0068046798573325679 0 0.084193905148301759 0.0065804075166867437 0 0.086406577091444531 0.0051998563068108468 0 0.087214475591910243 0.0062568200898725024 0 0.08556679202027509 0.0068046798573325679 0 0.086596574270297363 0.0029383224809845718 0 0.086406577091444531 0.0051998563068108468 0 0.084175220767856176 0.0046473519497695842 0 0.086596574270297363 0.0029383224809845718 0 0.086406577091444531 0.0051998563068108468 0 0.088030532148241927 0.0040886074418434561 0 0.086406577091444531 0.0051998563068108468 0 0.088030532148241927 0.0040886074418434561 0 0.088648793791622604 0.004641441042300052 0 0.090141316194998156 0.0031033108756805998 0 0.088030532148241927 0.0040886074418434561 0 0.088648793791622604 0.004641441042300052 0 0.086406577091444531 0.0051998563068108468 0 0.088648793791622604 0.004641441042300052 0 0.087214475591910243 0.0062568200898725024 0 0.088648793791622604 0.004641441042300052 0 0.088758705520543921 0.0059647318411290224 0 0.087214475591910243 0.0062568200898725024 0 0.088648793791622604 0.004641441042300052 0 0.088758705520543921 0.0059647318411290224 0 0.089572075550853517 0.0048599826665944486 0 0.090141316194998156 0.0031033108756805998 0 0.088648793791622604 0.004641441042300052 0 0.089587365735372376 0.0039253667118131696 0 0.088648793791622604 0.004641441042300052 0 0.089587365735372376 0.0039253667118131696 0 0.089572075550853517 0.0048599826665944486 0 0.089587365735372376 0.0039253667118131696 0 0.09046430857362904 0.0043783942552799307 0 0.089572075550853517 0.0048599826665944486 0 0.091079576401583706 0.0042153390270168551 0 0.091601508899033665 0.0046734959464499312 0 0.091601508899033665 0.0046734959464499312 0 0.090842760373808243 0.0058760748223865939 0 0.09046430857362904 0.0043783942552799307 0 0.089572075550853517 0.0048599826665944486 0 0.090081280261600394 0.0057729865271567062 0 0.088758705520543921 0.0059647318411290224 0 0.089572075550853517 0.0048599826665944486 0 0.090081280261600394 0.0057729865271567062 0 0.088758705520543921 0.0059647318411290224 0 0.090081280261600394 0.0057729865271567062 0 0.089275268972145119 0.0075132627242501977 0 0.090842760373808243 0.0058760748223865939 0 0.090559325611078045 0.0064255724268968313 0 0.089566691492734357 0.0065346975266963071 0 0.089275268972145119 0.0075132627242501977 0 0.090398593476188449 0.0072673818232300352 0 0.087871006858218539 0.0072836546088112155 0 0.085984396547938227 0.007878478418973477 0 0.088223513664227537 0.0096938185464220394 0 0.089275268972145119 0.0075132627242501977 0 0.087871006858218539 0.0072836546088112155 0 0.088223513664227537 0.0096938185464220394 0 0.088758705520543921 0.0059647318411290224 0 0.087871006858218539 0.0072836546088112155 0 0.087214475591910243 0.0062568200898725024 0 0.088758705520543921 0.0059647318411290224 0 0.089275268972145119 0.0075132627242501977 0 0.087871006858218539 0.0072836546088112155 0 0.087214475591910243 0.0062568200898725024 0 0.085984396547938227 0.007878478418973477 0 0.08556679202027509 0.0068046798573325679 0 0.087871006858218539 0.0072836546088112155 0 0.087214475591910243 0.0062568200898725024 0 0.085984396547938227 0.007878478418973477 0 0.084399692694125172 0.0086229396615743123 0 0.084237658399541546 0.0079330204515104495 0 0.083223974825932676 0.0092330269085208368 0 0.085984396547938227 0.007878478418973477 0 0.084399692694125172 0.0086229396615743123 0 0.084237658399541546 0.0079330204515104495 0 0.085984396547938227 0.007878478418973477 0 0.084237658399541546 0.0079330204515104495 0 0.08556679202027509 0.0068046798573325679 0 0.084237658399541546 0.0079330204515104495 0 0.08556679202027509 0.0068046798573325679 0 0.084193905148301759 0.0065804075166867437 0 0.092394266507791797 0.0066060169582790908 0 0.092239540303837436 0.0059398436315534989 0 0.091512098029444447 0.0062121290917693216 0 0.09201112854429272 0.0057570415112079762 0 0.091645369388477407 0.0054087607899495054 0 0.092394266507791797 0.0066060169582790908 0 0.091120134881845311 0.0060493525740297691 0 0.091490259688082137 0.0070648911358935614 0 0.092394266507791797 0.0066060169582790908 0 0.09281280912597481 0.0062169085958076915 0 0.092767917757329274 0.007086623120543388 0 0.092394266507791797 0.0066060169582790908 0 0.09281280912597481 0.0062169085958076915 0 0.092239540303837436 0.0059398436315534989 0 0.09281280912597481 0.0062169085958076915 0 0.092744200650136457 0.0057133872875557963 0 0.092239540303837436 0.0059398436315534989 0 0.093067075950570843 0.0059399361433677567 0 0.09281280912597481 0.0062169085958076915 0 0.092744200650136457 0.0057133872875557963 0 0.092240971654243192 0.0055075020162799835 0 0.092744200650136457 0.0057133872875557963 0 0.092239540303837436 0.0059398436315534989 0 0.091719486380482204 0.00546479033204303 0 0.092240971654243192 0.0055075020162799835 0 0.092239540303837436 0.0059398436315534989 0 0.091719486380482204 0.00546479033204303 0 0.092239540303837436 0.0059398436315534989 0 0.091512098029444447 0.0062121290917693216 0 0.091169138160965793 0.0054241887107773588 0 0.091719486380482204 0.00546479033204303 0 0.091512098029444447 0.0062121290917693216 0 0.091601508899033665 0.0046734959464499312 0 0.091645369388477407 0.0054087607899495054 0 0.091169138160965793 0.0054241887107773588 0 0.090616876257243462 0.0058513851351854043 0 0.091512098029444447 0.0062121290917693216 0 0.089566691492734357 0.0065346975266963071 0 0.091120134881845311 0.0060493525740297691 0 0.090398593476188449 0.0072673818232300352 0 0.089811051099438419 0.005511782774860907 0 0.089566691492734357 0.0065346975266963071 0 0.091120134881845311 0.0060493525740297691 0 0.091490259688082137 0.0070648911358935614 0 0.090398593476188449 0.0072673818232300352 0 0.091320844524239039 0.0079274638865751892 0 0.091120134881845311 0.0060493525740297691 0 0.091490259688082137 0.0070648911358935614 0 0.090398593476188449 0.0072673818232300352 0 0.090398593476188449 0.0072673818232300352 0 0.091320844524239039 0.0079274638865751892 0 0.090392966310596679 0.0091927437914060186 0 0.089275268972145119 0.0075132627242501977 0 0.090398593476188449 0.0072673818232300352 0 0.090392966310596679 0.0091927437914060186 0 0.092175176281378154 0.0074846529741352261 0 0.092861333323022113 0.0079600051368647774 0 0.091870257273728009 0.0088832647311135222 0 0.091320844524239039 0.0079274638865751892 0 0.092175176281378154 0.0074846529741352261 0 0.091870257273728009 0.0088832647311135222 0 0.091490259688082137 0.0070648911358935614 0 0.091320844524239039 0.0079274638865751892 0 0.092175176281378154 0.0074846529741352261 0 0.092394266507791797 0.0066060169582790908 0 0.091490259688082137 0.0070648911358935614 0 0.092175176281378154 0.0074846529741352261 0 0.092175176281378154 0.0074846529741352261 0 0.092767917757329274 0.007086623120543388 0 0.092861333323022113 0.0079600051368647774 0 0.093586312168563723 0.0072163396578667901 0 0.09281280912597481 0.0062169085958076915 0 0.092767917757329274 0.007086623120543388 0 0.093586312168563723 0.0072163396578667901 0 0.092767917757329274 0.007086623120543388 0 0.092861333323022113 0.0079600051368647774 0 0.092394266507791797 0.0066060169582790908 0 0.092175176281378154 0.0074846529741352261 0 0.092767917757329274 0.007086623120543388 0 0.092861333323022113 0.0079600051368647774 0 0.091870257273728009 0.0088832647311135222 0 0.093169003452616722 0.0086894567846866628 0 0.084514930812058825 0.0091440787289066728 0 0.084221055235451647 0.0082699224080670982 0 0.075302546554659497 0.0099127881093342435 0 0.077320677782072952 0.010758617668251416 0 0.075060673812165163 0.010698571511591242 0 0.075972336382925193 0.0094373078445745048 0 0.076493875121501922 0.0089559554399676559 0 0.075302546554659497 0.0099127881093342435 0 0.076681415432181863 0.0095881274603347409 0 0.076845548403287015 0.0082293002887558423 0 0.075302546554659497 0.0099127881093342435 0 0.075568353344110842 0.0092540261352033071 0 0.075102463730367261 0.009458262952818217 0 0.075302546554659497 0.0099127881093342435 0 0.076681415432181863 0.0095881274603347409 0 0.077320677782072952 0.010758617668251416 0 0.076681415432181863 0.0095881274603347409 0 0.077320677782072952 0.010758617668251416 0 0.078598765233309317 0.0088954144464703198 0 0.091320844524239039 0.0079274638865751892 0 0.091870257273728009 0.0088832647311135222 0 0.090392966310596679 0.0091927437914060186 0 0.084514930812058825 0.0091440787289066728 0 0.084747235049881506 0.0095420758212047662 0 0.079669602800743991 0.010574499245076828 0 0.078598765233309317 0.0088954144464703198 0 0.080898337376008447 0.0091417393021414606 0 0.077320677782072952 0.010758617668251416 0 0.079669602800743991 0.010574499245076828 0 0.078598765233309317 0.0088954144464703198 0 0.078598765233309317 0.0088954144464703198 0 0.07831676881794937 0.006667554867902767 0 0.076845548403287015 0.0082293002887558423 0 0.078598765233309317 0.0088954144464703198 0 0.080898337376008447 0.0091417393021414606 0 0.080316922333193957 0.0074571900546893336 0 0.077402500367978841 0.008365732410078151 0 0.078931699752206652 0.0085514029599966113 0 0.078598765233309317 0.0088954144464703198 0 0.07831676881794937 0.006667554867902767 0 0.080316922333193957 0.0074571900546893336 0 0.077075581533634877 0.0084942217127961812 0 0.076128494583029352 0.0086153791135516467 0 0.077832841824366228 0.0092562455399952219 0 0.077075581533634877 0.0084942217127961812 0 0.077832841824366228 0.0092562455399952219 0 0.077415444585182569 0.0083594427784176341 0 0.077402500367978841 0.008365732410078151 0 0.077367770815194054 0.0083596136534798363 0 0.075229597679382851 0.008679333398973494 0 0.075568353344110842 0.0092540261352033071 0 0.075540836499012318 0.0086782005476662011 0 0.075863694841121807 0.0087396189236657006 0 0.075568353344110842 0.0092540261352033071 0 0.075540836499012318 0.0086782005476662011 0 0.075953654153114822 0.0087717083077071458 0 0.075863694841121807 0.0087396189236657006 0 0.075568353344110842 0.0092540261352033071 0 0.077402500367978841 0.008365732410078151 0 0.076493875121501922 0.0089559554399676559 0 0.075229597679382851 0.008679333398973494 0 0.075065698561968874 0.0090825059406163672 0 0.075568353344110842 0.0092540261352033071 0 0.075229597679382851 0.008679333398973494 0 0.075065698561968874 0.0090825059406163672 0 0.074737301582416996 0.0088013508815392386 0 0.075065698561968874 0.0090825059406163672 0 0.075568353344110842 0.0092540261352033071 0 0.075102463730367261 0.009458262952818217 0 0.076681415432181863 0.0095881274603347409 0 0.078598765233309317 0.0088954144464703198 0 0.076845548403287015 0.0082293002887558423 0 0.08391318796527697 0.0096176809315387801 0 0.082457294665410311 0.0092221977766172355 0 0.083223974825932676 0.0092330269085208368 0 0.082457294665410311 0.0092221977766172355 0 0.083223974825932676 0.0092330269085208368 0 0.082228545838179068 0.0089257027592088509 0 0.084399692694125172 0.0086229396615743123 0 0.08391318796527697 0.0096176809315387801 0 0.083223974825932676 0.0092330269085208368 0 0.085984396547938227 0.007878478418973477 0 0.084399692694125172 0.0086229396615743123 0 0.08391318796527697 0.0096176809315387801 0 0.085984396547938227 0.007878478418973477 0 0.08391318796527697 0.0096176809315387801 0 0.088223513664227537 0.0096938185464220394 0 0.084329845475580076 0.0097180248053977594 0 0.084636813322883253 0.0097001331599991646 0 0.08391318796527697 0.0096176809315387801 0 0.082583048799603792 0.0092184228961394686 0 0.082457294665410311 0.0092221977766172355 0 0.08391318796527697 0.0096176809315387801 0 0.082583048799603792 0.0092184228961394686 0 0.081685444197655915 0.010257662300193909 0 0.082583048799603792 0.0092184228961394686 0 0.081685444197655915 0.010257662300193909 0 0.080898337376008447 0.0091417393021414606 0 0.084747235049881506 0.0095420758212047662 0 0.084636813322883253 0.0097001331599991646 0 0.089275268972145119 0.0075132627242501977 0 0.090392966310596679 0.0091927437914060186 0 0.088223513664227537 0.0096938185464220394 0 0.079669602800743991 0.010574499245076828 0 0.081685444197655915 0.010257662300193909 0 0.080898337376008447 0.0091417393021414606 0 0.078931699752206652 0.0085514029599966113 0 0.080423516430802117 0.0088964799972785728 0 0.080898337376008447 0.0091417393021414606 0 0.080316922333193957 0.0074571900546893336 0 0.082167831599180105 0.0083944226603963577 0 0.077832841824366228 0.0092562455399952219 0 0.079949770113069862 0.009532739650556378 0 0.078950582526310362 0.0083383256031106436 0 0.077832841824366228 0.0092562455399952219 0 0.078950582526310362 0.0083383256031106436 0 0.077415444585182569 0.0083594427784176341 0 0.079949770113069862 0.009532739650556378 0 0.08089366117298398 0.0084832994654400404 0 0.078950582526310362 0.0083383256031106436 0 0.082583048799603792 0.0092184228961394686 0 0.080898337376008447 0.0091417393021414606 0 0.082167831599180105 0.0083944226603963577 0 0.082583048799603792 0.0092184228961394686 0 0.082167831599180105 0.0083944226603963577 0 0.082457294665410311 0.0092221977766172355 0 0.080423516430802117 0.0088964799972785728 0 0.081138100696169849 0.0090769377396065949 0 0.079949770113069862 0.009532739650556378 0 0.08089366117298398 0.0084832994654400404 0 0.082457294665410311 0.0092221977766172355 0 0.08089366117298398 0.0084832994654400404 0 0.081523369781407992 0.0083786391638404657 0 0.082457294665410311 0.0092221977766172355 0 0.08089366117298398 0.0084832994654400404 0 0.081523369781407992 0.0083786391638404657 0 0.081113097842559517 0.0080595173490208751 0 0.081523369781407992 0.0083786391638404657 0 0.082457294665410311 0.0092221977766172355 0 0.082228545838179068 0.0089257027592088509 0 0.081093083082173167 0.0080492146234807278 0 0.081113097842559517 0.0080595173490208751 0 0.080650470378295341 0.0078831519495259853 0 0.081523369781407992 0.0083786391638404657 0 0.081113097842559517 0.0080595173490208751 0 0.080650470378295341 0.0078831519495259853 0 0.081093083082173167 0.0080492146234807278 0 0.081113097842559517 0.0080595173490208751 0 0.080017967103330159 0.0073479137885408188 0 0.08089366117298398 0.0084832994654400404 0 0.081113097842559517 0.0080595173490208751 0 0.080017967103330159 0.0073479137885408188 0 0.078640953667128602 0.0079558057321616037 0 0.078302030229367992 0.0078634003083589369 0 0.076915483099486412 0.0081640107324803587 0 0.076890633226802466 0.0079353884420033504 0 0.076943647065468593 0.0079047441717588224 0 0.076890633226802466 0.0079353884420033504 0 0.077003074445486569 0.0079088431061978236 0 0.076940549304263944 0.0078570102447426959 0 0.08089366117298398 0.0084832994654400404 0 0.080017967103330159 0.0073479137885408188 0 0.078950582526310362 0.0083383256031106436 0 0.078302030229367992 0.0078634003083589369 0 0.077922708256755707 0.0078572079727493808 0 0.080017967103330159 0.0073479137885408188 0 0.078950582526310362 0.0083383256031106436 0 0.077296514562186433 0.0077412746505198683 0 0.078950582526310362 0.0083383256031106436 0 0.077415444585182569 0.0083594427784176341 0 0.077296514562186433 0.0077412746505198683 0 0.077003074445486569 0.0079088431061978236 0 0.077296514562186433 0.0077412746505198683 0 0.077010554822160793 0.0078987356153595537 0 0.076890633226802466 0.0079353884420033504 0 0.077003074445486569 0.0079088431061978236 0 0.077296514562186433 0.0077412746505198683 0 0.077003074445486569 0.0079088431061978236 0 0.076832918030547176 0.0078455862689241641 0 0.077010554822160793 0.0078987356153595537 0 0.076832918030547176 0.0078455862689241641 0 0.076940549304263944 0.0078570102447426959 0 0.076518755060132976 0.0076009541925452038 0 0.077003074445486569 0.0079088431061978236 0 0.076832918030547176 0.0078455862689241641 0 0.076940549304263944 0.0078570102447426959 0 0.076940549304263944 0.0078570102447426959 0 0.076998383226162453 0.0075906322246162622 0 0.076518755060132976 0.0076009541925452038 0 0.076998383226162453 0.0075906322246162622 0 0.076518755060132976 0.0076009541925452038 0 0.076358418980234016 0.0068928156796943113 0 0.076940549304263944 0.0078570102447426959 0 0.076998383226162453 0.0075906322246162622 0 0.076943647065468593 0.0079047441717588224 0 0.076890633226802466 0.0079353884420033504 0 0.076940549304263944 0.0078570102447426959 0 0.076943647065468593 0.0079047441717588224 0 0.076915483099486412 0.0081640107324803587 0 0.076943647065468593 0.0079047441717588224 0 0.076907001708283296 0.0079654184659717839 0 0.076943647065468593 0.0079047441717588224 0 0.076980010608505955 0.00787524115055214 0 0.076907001708283296 0.0079654184659717839 0 0.076998383226162453 0.0075906322246162622 0 0.076943647065468593 0.0079047441717588224 0 0.076980010608505955 0.00787524115055214 0 0.076980010608505955 0.00787524115055214 0 0.076724534059187582 0.0080456725895244278 0 0.076907001708283296 0.0079654184659717839 0 0.076724534059187582 0.0080456725895244278 0 0.076907001708283296 0.0079654184659717839 0 0.077023096461023524 0.0080466547463278349 0 0.076915483099486412 0.0081640107324803587 0 0.076907001708283296 0.0079654184659717839 0 0.077023096461023524 0.0080466547463278349 0 0.075811584883934871 0.008212574817661503 0 0.07603221787377612 0.007940118625903464 0 0.075400079144652771 0.0078551762621413539 0 0.075538405974997544 0.0084118364691665275 0 0.075811584883934871 0.008212574817661503 0 0.075400079144652771 0.0078551762621413539 0 0.075071039467751163 0.0082562407436913496 0 0.075538405974997544 0.0084118364691665275 0 0.075400079144652771 0.0078551762621413539 0 0.075071039467751163 0.0082562407436913496 0 0.075400079144652771 0.0078551762621413539 0 0.074698256172174293 0.007882790446532827 0 0.075229597679382851 0.008679333398973494 0 0.075071039467751163 0.0082562407436913496 0 0.075538405974997544 0.0084118364691665275 0 0.075229597679382851 0.008679333398973494 0 0.075540836499012318 0.0086782005476662011 0 0.075538405974997544 0.0084118364691665275 0 0.075863694841121807 0.0087396189236657006 0 0.075540836499012318 0.0086782005476662011 0 0.075538405974997544 0.0084118364691665275 0 0.075965248278176564 0.0087905192492040846 0 0.075863694841121807 0.0087396189236657006 0 0.076019592717407936 0.0085389135489694484 0 0.075538405974997544 0.0084118364691665275 0 0.076019592717407936 0.0085389135489694484 0 0.075811584883934871 0.008212574817661503 0 0.075863694841121807 0.0087396189236657006 0 0.075538405974997544 0.0084118364691665275 0 0.076019592717407936 0.0085389135489694484 0 0.077402500367978841 0.008365732410078151 0 0.077144170151134769 0.0083969429862250748 0 0.077075581533634877 0.0084942217127961812 0 0.076128494583029352 0.0086153791135516467 0 0.076949066173472344 0.0078464257964810449 0 0.075965248278176564 0.0087905192492040846 0 0.076019592717407936 0.0085389135489694484 0 0.076357943644737206 0.0085184759399466736 0 0.076019592717407936 0.0085389135489694484 0 0.076357943644737206 0.0085184759399466736 0 0.076114193631792337 0.0082773672861456548 0 0.076019592717407936 0.0085389135489694484 0 0.075811584883934871 0.008212574817661503 0 0.076114193631792337 0.0082773672861456548 0 0.077075581533634877 0.0084942217127961812 0 0.077415444585182569 0.0083594427784176341 0 0.076949066173472344 0.0078464257964810449 0 0.076949066173472344 0.0078464257964810449 0 0.077296514562186433 0.0077412746505198683 0 0.077010554822160793 0.0078987356153595537 0 0.077415444585182569 0.0083594427784176341 0 0.076949066173472344 0.0078464257964810449 0 0.077296514562186433 0.0077412746505198683 0 0.077144170151134769 0.0083969429862250748 0 0.07713863526661241 0.0083293989011311437 0 0.076357943644737206 0.0085184759399466736 0 0.077010554822160793 0.0078987356153595537 0 0.076396311065388078 0.0080503160370651652 0 0.077010554822160793 0.0078987356153595537 0 0.076396311065388078 0.0080503160370651652 0 0.076498269945798253 0.0078019438455739125 0 0.076396311065388078 0.0080503160370651652 0 0.07603221787377612 0.007940118625903464 0 0.076498269945798253 0.0078019438455739125 0 0.076832918030547176 0.0078455862689241641 0 0.077010554822160793 0.0078987356153595537 0 0.076498269945798253 0.0078019438455739125 0 0.075811584883934871 0.008212574817661503 0 0.076114193631792337 0.0082773672861456548 0 0.07603221787377612 0.007940118625903464 0 0.076357943644737206 0.0085184759399466736 0 0.076396311065388078 0.0080503160370651652 0 0.076114193631792337 0.0082773672861456548 0 0.076396311065388078 0.0080503160370651652 0 0.076114193631792337 0.0082773672861456548 0 0.07603221787377612 0.007940118625903464 0 0.07603221787377612 0.007940118625903464 0 0.075847642667059123 0.0075825264840012419 0 0.076498269945798253 0.0078019438455739125 0 0.07603221787377612 0.007940118625903464 0 0.075847642667059123 0.0075825264840012419 0 0.075400079144652771 0.0078551762621413539 0 0.075847642667059123 0.0075825264840012419 0 0.076498269945798253 0.0078019438455739125 0 0.076518755060132976 0.0076009541925452038 0 0.076832918030547176 0.0078455862689241641 0 0.076498269945798253 0.0078019438455739125 0 0.076518755060132976 0.0076009541925452038 0 0.075847642667059123 0.0075825264840012419 0 0.076518755060132976 0.0076009541925452038 0 0.07548719819255427 0.0070021971500558331 0 0.075847642667059123 0.0075825264840012419 0 0.075291031626314592 0.0073051232297468459 0 0.07548719819255427 0.0070021971500558331 0 0.075847642667059123 0.0075825264840012419 0 0.075291031626314592 0.0073051232297468459 0 0.075400079144652771 0.0078551762621413539 0 0.075291031626314592 0.0073051232297468459 0 0.075400079144652771 0.0078551762621413539 0 0.074815603092447419 0.0073318691303356567 0 0.075400079144652771 0.0078551762621413539 0 0.074815603092447419 0.0073318691303356567 0 0.074698256172174293 0.007882790446532827 0 0.075291031626314592 0.0073051232297468459 0 0.074815603092447419 0.0073318691303356567 0 0.075015066352547788 0.0069100908627307087 0 0.074815603092447419 0.0073318691303356567 0 0.074456638235079892 0.0071993524663976167 0 0.074261005208789532 0.0074845645199984982 0 0.074456638235079892 0.0071993524663976167 0 0.074261005208789532 0.0074845645199984982 0 0.074166441408083025 0.0070614303739485644 0 0.074261005208789532 0.0074845645199984982 0 0.074212641696784223 0.0079811621373186686 0 0.073747276459688621 0.0076225709293944611 0 0.074261005208789532 0.0074845645199984982 0 0.074698256172174293 0.007882790446532827 0 0.074212641696784223 0.0079811621373186686 0 0.074815603092447419 0.0073318691303356567 0 0.074261005208789532 0.0074845645199984982 0 0.074698256172174293 0.007882790446532827 0 0.075071039467751163 0.0082562407436913496 0 0.074698256172174293 0.007882790446532827 0 0.074443399916215458 0.0084696140329152316 0 0.074698256172174293 0.007882790446532827 0 0.074212641696784223 0.0079811621373186686 0 0.074443399916215458 0.0084696140329152316 0 0.074212641696784223 0.0079811621373186686 0 0.074443399916215458 0.0084696140329152316 0 0.073759952559353262 0.0082429285332918135 0 0.074303317071839417 0.0082609647453974911 0 0.073482548421858779 0.0079633411778072729 0 0.075229597679382851 0.008679333398973494 0 0.075071039467751163 0.0082562407436913496 0 0.074443399916215458 0.0084696140329152316 0 0.074722111816848541 0.0084142443710387392 0 0.074303317071839417 0.0082609647453974911 0 0.072716993755865197 0.0077709929940438897 0 0.073035632784437227 0.0082285962618054501 0 0.07251405349859455 0.008542351216542057 0 0.072716993755865197 0.0077709929940438897 0 0.073035632784437227 0.0082285962618054501 0 0.073409651306930168 0.0077277086819605529 0 0.074465008175729763 0.0081990562135436148 0 0.073409651306930168 0.0077277086819605529 0 0.07349163060010501 0.0084120813543294929 0 0.073035632784437227 0.0082285962618054501 0 0.073409651306930168 0.0077277086819605529 0 0.07349163060010501 0.0084120813543294929 0 0.074212641696784223 0.0079811621373186686 0 0.073759952559353262 0.0082429285332918135 0 0.073747276459688621 0.0076225709293944611 0 0.073759952559353262 0.0082429285332918135 0 0.07297417924104245 0.0077930102748022976 0 0.072712560917541302 0.0078709024077058352 0 0.073482548421858779 0.0079633411778072729 0 0.072504813389339076 0.0076214950191636687 0 0.072716993755865197 0.0077709929940438897 0 0.073409651306930168 0.0077277086819605529 0 0.072167386563459612 0.0072737791533008193 0 0.073759952559353262 0.0082429285332918135 0 0.073747276459688621 0.0076225709293944611 0 0.07297417924104245 0.0077930102748022976 0 0.073747276459688621 0.0076225709293944611 0 0.073414493682666324 0.0073345000188604669 0 0.07297417924104245 0.0077930102748022976 0 0.065324312110737526 0.0049098160999422732 0 0.066947420249002854 0.0058712556597364848 0 0.074261005208789532 0.0074845645199984982 0 0.07380315959332899 0.0071870962020801491 0 0.074166441408083025 0.0070614303739485644 0 0.074261005208789532 0.0074845645199984982 0 0.073747276459688621 0.0076225709293944611 0 0.07380315959332899 0.0071870962020801491 0 0.065324312110737526 0.0049098160999422732 0 0.059357632396011571 0.0022210103365317966 0 0.07380315959332899 0.0071870962020801491 0 0.073414493682666324 0.0073345000188604669 0 0.073694169172545454 0.0069551214170638451 0 0.073747276459688621 0.0076225709293944611 0 0.07380315959332899 0.0071870962020801491 0 0.073414493682666324 0.0073345000188604669 0 0.071425396391645413 0.0054917950164837526 0 0.07235916155631493 0.0067167689298851746 0 0.072657681685095288 0.0052949715019885739 0 0.073145916146215184 0.0060813133887458546 0 0.07235916155631493 0.0067167689298851746 0 0.072657681685095288 0.0052949715019885739 0 0.071425396391645413 0.0054917950164837526 0 0.071386036501915565 0.006420273846019813 0 0.07235916155631493 0.0067167689298851746 0 0.071386036501915565 0.006420273846019813 0 0.07235916155631493 0.0067167689298851746 0 0.070976327012678503 0.0070458717574657746 0 0.07235916155631493 0.0067167689298851746 0 0.070976327012678503 0.0070458717574657746 0 0.072712560917541302 0.0078709024077058352 0 0.073145916146215184 0.0060813133887458546 0 0.07235916155631493 0.0067167689298851746 0 0.07297417924104245 0.0077930102748022976 0 0.025529861250738094 -0.019440501785835965 0 0.025424353757871387 -0.020980265385871118 0 0.024062736959666032 -0.019346925265869772 0 0.025424353757871387 -0.020980265385871118 0 0.024062736959666032 -0.019346925265869772 0 0.023589323874594524 -0.021308282059553787 0 0.021426324626302697 -0.019532074477943539 0 0.024062736959666032 -0.019346925265869772 0 0.023589323874594524 -0.021308282059553787 0 0.071425396391645413 0.0054917950164837526 0 0.071386036501915565 0.006420273846019813 0 0.07047476342161324 0.0066353665237889074 0 0.046576877854269089 -0.0066545114844907905 0 0.04713221462925353 -0.0072976179668181309 0 0.07047476342161324 0.0066353665237889074 0 0.070527132018657901 0.0072308034195481541 0 0.070976327012678503 0.0070458717574657746 0 0.071386036501915565 0.006420273846019813 0 0.07047476342161324 0.0066353665237889074 0 0.070976327012678503 0.0070458717574657746 0 0.025424353757871387 -0.020980265385871118 0 0.025472600560016833 -0.023021005210458398 0 0.023589323874594524 -0.021308282059553787 0 0.069940632352853832 0.0073248171920547774 0 0.07047476342161324 0.0066353665237889074 0 0.070527132018657901 0.0072308034195481541 0 0.069940632352853832 0.0073248171920547774 0 0.070527132018657901 0.0072308034195481541 0 0.07044670903145904 0.0075861498165733137 0 0.047839738988135261 -0.0079840104086016123 0 0.04713221462925353 -0.0072976179668181309 0 0.070527132018657901 0.0072308034195481541 0 0.070862165593355106 0.0075104857610106138 0 0.07044670903145904 0.0075861498165733137 0 0.070527132018657901 0.0072308034195481541 0 0.070976327012678503 0.0070458717574657746 0 0.070862165593355106 0.0075104857610106138 0 0.070976327012678503 0.0070458717574657746 0 0.070862165593355106 0.0075104857610106138 0 0.071219073033895422 0.0074323610556674856 0 0.070862165593355106 0.0075104857610106138 0 0.070689472905344997 0.0079152206279821634 0 0.071324820828435082 0.0078178195522573494 0 0.070689472905344997 0.0079152206279821634 0 0.071324820828435082 0.0078178195522573494 0 0.071049730609480916 0.0083146816443553668 0 0.070862165593355106 0.0075104857610106138 0 0.070689472905344997 0.0079152206279821634 0 0.07044670903145904 0.0075861498165733137 0 0.070689472905344997 0.0079152206279821634 0 0.070173472178693366 0.007881093753731902 0 0.07044670903145904 0.0075861498165733137 0 0.069940632352853832 0.0073248171920547774 0 0.070173472178693366 0.007881093753731902 0 0.07044670903145904 0.0075861498165733137 0 0.07235916155631493 0.0067167689298851746 0 0.07297417924104245 0.0077930102748022976 0 0.072712560917541302 0.0078709024077058352 0 0.072167386563459612 0.0072737791533008193 0 0.071721513514331994 0.007343560744943866 0 0.071967195717703061 0.007662939734468242 0 0.072167386563459612 0.0072737791533008193 0 0.071967195717703061 0.007662939734468242 0 0.072247006417972978 0.0076845815455484278 0 0.072716993755865197 0.0077709929940438897 0 0.072167386563459612 0.0072737791533008193 0 0.072247006417972978 0.0076845815455484278 0 0.070976327012678503 0.0070458717574657746 0 0.072167386563459612 0.0072737791533008193 0 0.071721513514331994 0.007343560744943866 0 0.071860414548367765 0.0074033479233815988 0 0.072504813389339076 0.0076214950191636687 0 0.070976327012678503 0.0070458717574657746 0 0.071219073033895422 0.0074323610556674856 0 0.071721513514331994 0.007343560744943866 0 0.071219073033895422 0.0074323610556674856 0 0.071721513514331994 0.007343560744943866 0 0.071324820828435082 0.0078178195522573494 0 0.071721513514331994 0.007343560744943866 0 0.07148140394277834 0.0080222563150479567 0 0.071967195717703061 0.007662939734468242 0 0.073592113174993604 0.0076708212357385671 0 0.073922288021761887 0.0074644394555147256 0 0.070862165593355106 0.0075104857610106138 0 0.071219073033895422 0.0074323610556674856 0 0.071324820828435082 0.0078178195522573494 0 0.07148140394277834 0.0080222563150479567 0 0.072138501159621143 0.0080179661025901322 0 0.071803809939752022 0.0085643319398526867 0 0.072716993755865197 0.0077709929940438897 0 0.072138501159621143 0.0080179661025901322 0 0.07251405349859455 0.008542351216542057 0 0.07148140394277834 0.0080222563150479567 0 0.072138501159621143 0.0080179661025901322 0 0.071967195717703061 0.007662939734468242 0 0.072138501159621143 0.0080179661025901322 0 0.071967195717703061 0.007662939734468242 0 0.072247006417972978 0.0076845815455484278 0 0.072716993755865197 0.0077709929940438897 0 0.072138501159621143 0.0080179661025901322 0 0.072247006417972978 0.0076845815455484278 0 0.072127319030605389 0.0089007862435267465 0 0.071803809939752022 0.0085643319398526867 0 0.071782405708908953 0.009276754408603578 0 0.07251405349859455 0.008542351216542057 0 0.072127319030605389 0.0089007862435267465 0 0.071803809939752022 0.0085643319398526867 0 0.072138501159621143 0.0080179661025901322 0 0.07251405349859455 0.008542351216542057 0 0.071803809939752022 0.0085643319398526867 0 0.07251405349859455 0.008542351216542057 0 0.072470065471029549 0.0090109699266624089 0 0.072127319030605389 0.0089007862435267465 0 0.071803809939752022 0.0085643319398526867 0 0.071198224309358418 0.0086737897807116684 0 0.071782405708908953 0.009276754408603578 0 0.07148140394277834 0.0080222563150479567 0 0.071803809939752022 0.0085643319398526867 0 0.071198224309358418 0.0086737897807116684 0 0.073922288021761887 0.0074644394555147256 0 0.075310429993856676 0.0061292162826228624 0 0.075310429993856676 0.0061292162826228624 0 0.077116970232966611 0.0055486807767849622 0 0.079256380380836683 0.0036034305769502258 0 0.080971743238733726 0.0031162794178853318 0 0.079827846590467363 0.0024490242932780149 0 0.080233571974280701 0.0046657009240600282 0 0.079256380380836683 0.0036034305769502258 0 0.080971743238733726 0.0031162794178853318 0 0.079256380380836683 0.0036034305769502258 0 0.079088497862829801 0.0026120613400389013 0 0.079827846590467363 0.0024490242932780149 0 0.079256380380836683 0.0036034305769502258 0 0.078273407820748708 0.0025441194664027659 0 0.079088497862829801 0.0026120613400389013 0 0.077116970232966611 0.0055486807767849622 0 0.079737723627182511 0.0050609739746493064 0 0.071782405708908953 0.009276754408603578 0 0.072262059635457607 0.0092990688209642798 0 0.0723793127371824 0.0098764453962620711 0 0.072531703502087513 0.0095513609492054678 0 0.072262059635457607 0.0092990688209642798 0 0.072623207215363736 0.00927744894854024 0 0.072531703502087513 0.0095513609492054678 0 0.072262059635457607 0.0092990688209642798 0 0.0723793127371824 0.0098764453962620711 0 0.072470065471029549 0.0090109699266624089 0 0.072262059635457607 0.0092990688209642798 0 0.072623207215363736 0.00927744894854024 0 0.072470065471029549 0.0090109699266624089 0 0.072127319030605389 0.0089007862435267465 0 0.072262059635457607 0.0092990688209642798 0 0.072127319030605389 0.0089007862435267465 0 0.071782405708908953 0.009276754408603578 0 0.072262059635457607 0.0092990688209642798 0 0.070689472905344997 0.0079152206279821634 0 0.070173472178693366 0.007881093753731902 0 0.070431105097065669 0.0082477005840413311 0 0.069906610070281247 0.0082703837353378905 0 0.070173472178693366 0.007881093753731902 0 0.070431105097065669 0.0082477005840413311 0 0.070689472905344997 0.0079152206279821634 0 0.070878699528194922 0.0081208134155603406 0 0.070431105097065669 0.0082477005840413311 0 0.074783571912004465 0.006042218058944661 0 0.075310429993856676 0.0061292162826228624 0 0.075310429993856676 0.0061292162826228624 0 0.075078758491311431 0.0043463890242069932 0 0.070878699528194922 0.0081208134155603406 0 0.070431105097065669 0.0082477005840413311 0 0.070633432393574988 0.0085905136174606236 0 0.070431105097065669 0.0082477005840413311 0 0.070633432393574988 0.0085905136174606236 0 0.070210372492316597 0.0085903821031137143 0 0.069906610070281247 0.0082703837353378905 0 0.070431105097065669 0.0082477005840413311 0 0.070210372492316597 0.0085903821031137143 0 0.070633432393574988 0.0085905136174606236 0 0.070210372492316597 0.0085903821031137143 0 0.070392855705624216 0.0090990513828176078 0 0.069667485950453661 0.0087513222577443126 0 0.070210372492316597 0.0085903821031137143 0 0.070392855705624216 0.0090990513828176078 0 0.075078758491311431 0.0043463890242069932 0 0.075321365177604141 0.00027150845572463089 0 0.080971743238733726 0.0031162794178853318 0 0.080593166131184293 0.0018489041728394085 0 0.079827846590467363 0.0024490242932780149 0 0.080971743238733726 0.0031162794178853318 0 0.080593166131184293 0.0018489041728394085 0 0.081696426707154698 0.0015661249637852418 0 0.080593166131184293 0.0018489041728394085 0 0.080399569786509986 0.0014948808198126803 0 0.079970787072684943 0.0016682228820102101 0 0.082155375612604845 0.00022139190730447995 0 0.081173965739916476 0.00068676130775756242 0 0.081282105956254486 0.00054001437382073198 0 0.082155375612604845 0.00022139190730447995 0 0.080396398235357644 0.0010559522006265687 0 0.081117262448448815 0.0012667999393800482 0 0.081878327481409607 0.0016232037229956858 0 0.081384840112205092 0.0023026779345113029 0 0.080637903692523688 0.0014088986443886512 0 0.080396398235357644 0.0010559522006265687 0 0.081117262448448815 0.0012667999393800482 0 0.080593166131184293 0.0018489041728394085 0 0.080399569786509986 0.0014948808198126803 0 0.080637903692523688 0.0014088986443886512 0 0.080593166131184293 0.0018489041728394085 0 0.080637903692523688 0.0014088986443886512 0 0.081117262448448815 0.0012667999393800482 0 0.080399569786509986 0.0014948808198126803 0 0.080637903692523688 0.0014088986443886512 0 0.080396398235357644 0.0010559522006265687 0 0.080593166131184293 0.0018489041728394085 0 0.081117262448448815 0.0012667999393800482 0 0.081696426707154698 0.0015661249637852418 0 0.075908047365345663 0.00051419184912179013 0 0.075321365177604141 0.00027150845572463089 0 0.082155375612604845 0.00022139190730447995 0 0.081117262448448815 0.0012667999393800482 0 0.081662385190296227 0.0015134023272371873 0 0.078262031484299152 -0.0026921048766010676 0 0.075321365177604141 0.00027150845572463089 0 0.076040413280177882 -0.0056030374599815441 0 0.076039621743218266 -0.0054272245450173633 0 0.076384787253001032 -0.0058389840195178563 0 0.076040413280177882 -0.0056030374599815441 0 0.07605703922502452 -0.0058131758006606058 0 0.076384787253001032 -0.0058389840195178563 0 0.078516362440048046 0.0020253825598371589 0 0.079088497862829801 0.0026120613400389013 0 0.079396926582959784 0.0019363329282716037 0 0.081964592943729986 0.0035629112738077718 0 0.082261418386281954 0.0034087513378740606 0 0.08224436888870218 0.0039104853292806158 0 0.080931764213664145 0.0041052758769454748 0 0.08026540733491308 0.0048941378209269226 0 0.079173693373526838 0.0053239932880254767 0 0.079650118116184707 0.0043168144508130123 0 0.08012646011539655 0.0048287278263592697 0 0.080931764213664145 0.0041052758769454748 0 0.079737723627182511 0.0050609739746493064 0 0.072398223155517263 0.0098573237779483285 0 0.072532384416877857 0.010002561684856378 0 0.072673951974079193 0.0097173510551927002 0 0.079737723627182511 0.0050609739746493064 0 0.08026540733491308 0.0048941378209269226 0 0.079325761230959455 0.0056539163115453747 0 0.079737723627182511 0.0050609739746493064 0 0.072531703502087513 0.0095513609492054678 0 0.072398223155517263 0.0098573237779483285 0 0.072673951974079193 0.0097173510551927002 0 0.078516362440048046 0.0020253825598371589 0 0.078273407820748708 0.0025441194664027659 0 0.079088497862829801 0.0026120613400389013 0 0.079088497862829801 0.0026120613400389013 0 0.079827846590467363 0.0024490242932780149 0 0.079396926582959784 0.0019363329282716037 0 0.080396398235357644 0.0010559522006265687 0 0.078516362440048046 0.0020253825598371589 0 0.079396926582959784 0.0019363329282716037 0 0.080593166131184293 0.0018489041728394085 0 0.079827846590467363 0.0024490242932780149 0 0.079970787072684943 0.0016682228820102101 0 0.079827846590467363 0.0024490242932780149 0 0.079396926582959784 0.0019363329282716037 0 0.079970787072684943 0.0016682228820102101 0 0.081173965739916476 0.00068676130775756242 0 0.080379396476332188 0.0011286304856845386 0 0.080798945415165885 0.00071721617999799298 0 0.083102388674579045 0.0018042598608812698 0 0.084673772041924431 0.0019576319754171204 0 0.081384840112205092 0.0023026779345113029 0 0.080931764213664145 0.0041052758769454748 0 0.081282105956254486 0.00054001437382073198 0 0.080798945415165885 0.00071721617999799298 0 0.080618656798299659 0.00059736378196648739 0 0.081055193835813402 0.00031313378443938232 0 0.081282105956254486 0.00054001437382073198 0 0.080402796512956759 0.00059120152428450738 0 0.080399569786509986 0.0014948808198126803 0 0.080396398235357644 0.0010559522006265687 0 0.079970787072684943 0.0016682228820102101 0 0.080396398235357644 0.0010559522006265687 0 0.079396926582959784 0.0019363329282716037 0 0.079970787072684943 0.0016682228820102101 0 0.081173965739916476 0.00068676130775756242 0 0.081282105956254486 0.00054001437382073198 0 0.080798945415165885 0.00071721617999799298 0 0.080798945415165885 0.00071721617999799298 0 0.080618656798299659 0.00059736378196648739 0 0.080581699177569022 0.00067849052399589357 0 0.083862299347181785 0.0023595798412405131 0 0.084100536726713526 0.0024238483734156046 0 0.084673772041924431 0.0019576319754171204 0 0.08532692009114716 0.003126093361333218 0 0.084100536726713526 0.0024238483734156046 0 0.08532692009114716 0.003126093361333218 0 0.083517808099987614 0.0030662895389493867 0 0.0836938059186427 0.0026952571373003581 0 0.085280391437862244 0.0030002519198987004 0 0.084673772041924431 0.0019576319754171204 0 0.084100536726713526 0.0024238483734156046 0 0.080931764213664145 0.0041052758769454748 0 0.084100536726713526 0.0024238483734156046 0 0.081964592943729986 0.0035629112738077718 0 0.08167542688663211 0.0041778002365223683 0 0.08224436888870218 0.0039104853292806158 0 0.080379396476332188 0.0011286304856845386 0 0.080798945415165885 0.00071721617999799298 0 0.080585143985213839 0.00068015656263839997 0 0.08167542688663211 0.0041778002365223683 0 0.08224436888870218 0.0039104853292806158 0 0.082161329970099978 0.0042733584347092284 0 0.08026540733491308 0.0048941378209269226 0 0.083705801430650054 0.0047545967972610322 0 0.08224436888870218 0.0039104853292806158 0 0.082161329970099978 0.0042733584347092284 0 0.083037844641678432 0.004243594469559491 0 0.085431977855939686 0.0036142000168211635 0 0.084835112663529666 0.0036476337180097029 0 0.084790077764142366 0.0036000963769356499 0 0.08234839274384817 0.0050248653434288651 0 0.082245498605562406 0.0045734495104480816 0 0.082421025618268903 0.0050220743915805038 0 0.085431977855939686 0.0036142000168211635 0 0.084790077764142366 0.0036000963769356499 0 0.084648459299230192 0.003478264964637782 0 0.082261418386281954 0.0034087513378740606 0 0.08224436888870218 0.0039104853292806158 0 0.083037844641678432 0.004243594469559491 0 0.08532692009114716 0.003126093361333218 0 0.086479013569290816 0.0053192314441663294 0 0.08532692009114716 0.003126093361333218 0 0.083705801430650054 0.0047545967972610322 0 0.083705801430650054 0.0047545967972610322 0 0.083707392243995704 0.0047522809809823815 0 0.073047818981118021 0.0096874869534826682 0 0.07334820944003391 0.0097728162492062062 0 0.073468371169210511 0.010677696994107103 0 0.080432615345927522 0.0064308149081577339 0 0.084264844254855087 0.0049845045180659233 0 0.082026849541133345 0.0046862685713836899 0 0.08234839274384817 0.0050248653434288651 0 0.082245498605562406 0.0045734495104480816 0 0.073157795478377599 0.009640989618571327 0 0.07334820944003391 0.0097728162492062062 0 0.073382191849430844 0.0095524995666545938 0 0.073157795478377599 0.009640989618571327 0 0.073047818981118021 0.0096874869534826682 0 0.07334820944003391 0.0097728162492062062 0 0.080323417588110527 0.0064854477090071968 0 0.080432615345927522 0.0064308149081577339 0 0.072532384416877857 0.010002561684856378 0 0.073026484400784186 0.0097513618478516223 0 0.072673951974079193 0.0097173510551927002 0 0.08026540733491308 0.0048941378209269226 0 0.080432615345927522 0.0064308149081577339 0 0.080975339932084889 0.0061468560534604141 0 0.084196147400295032 0.0063648285937983528 0 0.07334820944003391 0.0097728162492062062 0 0.073909856915790245 0.010567790778965516 0 0.073907288847795932 0.0099332879367076098 0 0.073627108071891961 0.0096539651259147288 0 0.07334820944003391 0.0097728162492062062 0 0.073907288847795932 0.0099332879367076098 0 0.073627108071891961 0.0096539651259147288 0 0.073907288847795932 0.0099332879367076098 0 0.073901145303254964 0.0096359286543739563 0 0.073627108071891961 0.0096539651259147288 0 0.07334820944003391 0.0097728162492062062 0 0.073382191849430844 0.0095524995666545938 0 0.085383818469685527 0.0057532466565709843 0 0.086225508440502252 0.0059079744841924057 0 0.085703394163001406 0.0061880003222030792 0 0.07334820944003391 0.0097728162492062062 0 0.073468371169210511 0.010677696994107103 0 0.074072453868777643 0.010651405676837913 0 0.084835756001092374 0.0036501335527594795 0 0.084790077764142366 0.0036000963769356499 0 0.08471418218765199 0.0036545232876367727 0 0.083705801430650054 0.0047545967972610322 0 0.084264844254855087 0.0049845045180659233 0 0.084264844254855087 0.0049845045180659233 0 0.086479013569290816 0.0053192314441663294 0 0.084790077764142366 0.0036000963769356499 0 0.08471418218765199 0.0036545232876367727 0 0.084648459299230192 0.003478264964637782 0 0.086319860992063416 0.0061602183106992878 0 0.086225508440502252 0.0059079744841924057 0 0.085703394163001406 0.0061880003222030792 0 0.084264844254855087 0.0049845045180659233 0 0.084196147400295032 0.0063648285937983528 0 0.084196147400295032 0.0063648285937983528 0 0.084221055235451647 0.0082699224080670982 0 0.088788207527738874 0.007491084711065076 0 0.084196147400295032 0.0063648285937983528 0 0.073909856915790245 0.010567790778965516 0 0.074458123670133408 0.010256266556309509 0 0.073907288847795932 0.0099332879367076098 0 0.073909856915790245 0.010567790778965516 0 0.074458123670133408 0.010256266556309509 0 0.075060673812165163 0.010698571511591242 0 0.094010662613956797 0.0082299380228208364 0 0.094281344157508593 0.0086079875164219791 0 0.093169003452616722 0.0086894567846866628 0 0.074458123670133408 0.010256266556309509 0 0.075060673812165163 0.010698571511591242 0 0.07487939105180022 0.010162718739601305 0 0.075302546554659497 0.0099127881093342435 0 0.075060673812165163 0.010698571511591242 0 0.07487939105180022 0.010162718739601305 0 0.075302546554659497 0.0099127881093342435 0 0.07487939105180022 0.010162718739601305 0 0.074756567291421674 0.0098185671510684306 0 0.074458123670133408 0.010256266556309509 0 0.07487939105180022 0.010162718739601305 0 0.074756567291421674 0.0098185671510684306 0 0.074756567291421674 0.0098185671510684306 0 0.074296631490906845 0.0096607207688079264 0 0.074611613635099758 0.0092898754135833667 0 0.075302546554659497 0.0099127881093342435 0 0.074756567291421674 0.0098185671510684306 0 0.075102463730367261 0.009458262952818217 0 0.074458123670133408 0.010256266556309509 0 0.073907288847795932 0.0099332879367076098 0 0.074296631490906845 0.0096607207688079264 0 0.074458123670133408 0.010256266556309509 0 0.074756567291421674 0.0098185671510684306 0 0.074296631490906845 0.0096607207688079264 0 0.073907288847795932 0.0099332879367076098 0 0.074296631490906845 0.0096607207688079264 0 0.073901145303254964 0.0096359286543739563 0 0.074296631490906845 0.0096607207688079264 0 0.073901145303254964 0.0096359286543739563 0 0.074043025584295583 0.0092954219401981848 0 0.074296631490906845 0.0096607207688079264 0 0.074043025584295583 0.0092954219401981848 0 0.074611613635099758 0.0092898754135833667 0 0.074043025584295583 0.0092954219401981848 0 0.074611613635099758 0.0092898754135833667 0 0.074330860891687389 0.0088956960321776718 0 0.074756567291421674 0.0098185671510684306 0 0.075102463730367261 0.009458262952818217 0 0.074611613635099758 0.0092898754135833667 0 0.075065698561968874 0.0090825059406163672 0 0.074611613635099758 0.0092898754135833667 0 0.074737301582416996 0.0088013508815392386 0 0.075065698561968874 0.0090825059406163672 0 0.075102463730367261 0.009458262952818217 0 0.074611613635099758 0.0092898754135833667 0 0.075229597679382851 0.008679333398973494 0 0.074465008175729763 0.0081990562135436148 0 0.074737301582416996 0.0088013508815392386 0 0.074465008175729763 0.0081990562135436148 0 0.074737301582416996 0.0088013508815392386 0 0.074330860891687389 0.0088956960321776718 0 0.074611613635099758 0.0092898754135833667 0 0.074737301582416996 0.0088013508815392386 0 0.074330860891687389 0.0088956960321776718 0 0.074465008175729763 0.0081990562135436148 0 0.074330860891687389 0.0088956960321776718 0 0.073768944035317488 0.0088766217265914184 0 0.074465008175729763 0.0081990562135436148 0 0.073768944035317488 0.0088766217265914184 0 0.07349163060010501 0.0084120813543294929 0 0.074043025584295583 0.0092954219401981848 0 0.074330860891687389 0.0088956960321776718 0 0.073768944035317488 0.0088766217265914184 0 0.073768944035317488 0.0088766217265914184 0 0.073355359797551867 0.0089955034950110688 0 0.07349163060010501 0.0084120813543294929 0 0.073355359797551867 0.0089955034950110688 0 0.07349163060010501 0.0084120813543294929 0 0.073042144533808459 0.008671228514861816 0 0.073035632784437227 0.0082285962618054501 0 0.07349163060010501 0.0084120813543294929 0 0.073042144533808459 0.008671228514861816 0 0.073035632784437227 0.0082285962618054501 0 0.07251405349859455 0.008542351216542057 0 0.073042144533808459 0.008671228514861816 0 0.07251405349859455 0.008542351216542057 0 0.073042144533808459 0.008671228514861816 0 0.072883768259220189 0.009046338092724978 0 0.07251405349859455 0.008542351216542057 0 0.072470065471029549 0.0090109699266624089 0 0.072883768259220189 0.009046338092724978 0 0.073355359797551867 0.0089955034950110688 0 0.073042144533808459 0.008671228514861816 0 0.072883768259220189 0.009046338092724978 0 0.072883768259220189 0.009046338092724978 0 0.072896715977903578 0.0094095710536816236 0 0.073220735449001123 0.0093473439404231223 0 0.073355359797551867 0.0089955034950110688 0 0.072883768259220189 0.009046338092724978 0 0.073220735449001123 0.0093473439404231223 0 0.072623207215363736 0.00927744894854024 0 0.072883768259220189 0.009046338092724978 0 0.072896715977903578 0.0094095710536816236 0 0.072470065471029549 0.0090109699266624089 0 0.072623207215363736 0.00927744894854024 0 0.072883768259220189 0.009046338092724978 0 0.072531703502087513 0.0095513609492054678 0 0.072623207215363736 0.00927744894854024 0 0.072896715977903578 0.0094095710536816236 0 0.072531703502087513 0.0095513609492054678 0 0.072673951974079193 0.0097173510551927002 0 0.072896715977903578 0.0094095710536816236 0 0.073026484400784186 0.0097513618478516223 0 0.072673951974079193 0.0097173510551927002 0 0.072896715977903578 0.0094095710536816236 0 0.073157795478377599 0.009640989618571327 0 0.072896715977903578 0.0094095710536816236 0 0.073220735449001123 0.0093473439404231223 0 0.073157795478377599 0.009640989618571327 0 0.073046080286533518 0.0096998486985725024 0 0.072896715977903578 0.0094095710536816236 0 0.080432615345927522 0.0064308149081577339 0 0.080233604009565446 0.0065303752383645804 0 0.073157795478377599 0.009640989618571327 0 0.073220735449001123 0.0093473439404231223 0 0.073382191849430844 0.0095524995666545938 0 0.073220735449001123 0.0093473439404231223 0 0.073382191849430844 0.0095524995666545938 0 0.073596793908770997 0.0093686124926477699 0 0.073627108071891961 0.0096539651259147288 0 0.073382191849430844 0.0095524995666545938 0 0.073596793908770997 0.0093686124926477699 0 0.073627108071891961 0.0096539651259147288 0 0.073901145303254964 0.0096359286543739563 0 0.073596793908770997 0.0093686124926477699 0 0.073901145303254964 0.0096359286543739563 0 0.074043025584295583 0.0092954219401981848 0 0.073596793908770997 0.0093686124926477699 0 0.074043025584295583 0.0092954219401981848 0 0.073768944035317488 0.0088766217265914184 0 0.073596793908770997 0.0093686124926477699 0 0.073768944035317488 0.0088766217265914184 0 0.073355359797551867 0.0089955034950110688 0 0.073596793908770997 0.0093686124926477699 0 0.073355359797551867 0.0089955034950110688 0 0.073220735449001123 0.0093473439404231223 0 0.073596793908770997 0.0093686124926477699 0 0.074998617713014984 -0.00018577010346625721 0 0.080131608903141291 6.170948699407238e-07 0 0.069165623440988283 -3.6613799111482577e-06 0 0.074998617713014984 -0.00018577010346625721 0 0.072365829264365591 -0.00013550828140011475 0 0.071909131774488974 -0.00018549923552843407 0 0.077763450547136251 -0.00043822349917606025 0 0.076737404934673722 -0.00067820868189304628 0 0.074998617713014984 -0.00018577010346625721 0 0.07718348578115608 -0.00020989044601670836 0 0.072365829264365591 -0.00013550828140011475 0 0.071875549754607901 0.00025041749503898329 0 0.072165329265839101 0.00063439470154752421 0 0.072365829264365591 -0.00013550828140011475 0 0.071875549754607901 0.00025041749503898329 0 0.072165329265839101 0.00063439470154752421 0 0.071729125437820895 0.00078830784040281464 0 0.074998617713014984 -0.00018577010346625721 0 0.07718348578115608 -0.00020989044601670836 0 0.079979526773380785 -0.00022739809412381979 0 0.07718348578115608 -0.00020989044601670836 0 0.081444566325280215 -0.00045418012024141095 0 0.079979526773380785 -0.00022739809412381979 0 0.072073214414407699 0.001159532967022311 0 0.071789162142847127 0.0011974222124693716 0 0.071729125437820895 0.00078830784040281464 0 0.077763450547136251 -0.00043822349917606025 0 0.080553535839794674 0.00032776602004966327 0 0.072165329265839101 0.00063439470154752421 0 0.072073214414407699 0.001159532967022311 0 0.071729125437820895 0.00078830784040281464 0 0.081444566325280215 -0.00045418012024141095 0 0.08340492323424778 -0.00011010383115949938 0 0.083456366259873113 0.00072818605988543583 0 0.080553535839794674 0.00032776602004966327 0 0.085626764917749829 0.00187345292641915 0 0.072073214414407699 0.001159532967022311 0 0.071877085850149583 0.0013592969230604999 0 0.071963839813177929 0.0015369379285551485 0 0.072073214414407699 0.001159532967022311 0 0.071877085850149583 0.0013592969230604999 0 0.071789162142847127 0.0011974222124693716 0 0.081444566325280215 -0.00045418012024141095 0 0.08340492323424778 -0.00011010383115949938 0 0.079979526773380785 -0.00022739809412381979 0 0.079979526773380785 -0.00022739809412381979 0 0.080131608903141291 6.170948699407238e-07 0 0.084150216634457042 0.0001718809326962407 0 0.08340492323424778 -0.00011010383115949938 0 0.079979526773380785 -0.00022739809412381979 0 0.084150216634457042 0.0001718809326962407 0 0.074998617713014984 -0.00018577010346625721 0 0.079979526773380785 -0.00022739809412381979 0 0.080131608903141291 6.170948699407238e-07 0 0.080131608903141291 6.170948699407238e-07 0 0.084150216634457042 0.0001718809326962407 0 0.091194474161285843 -9.6557873219281813e-05 0 0.080131608903141291 6.170948699407238e-07 0 0.094993930471220067 -3.3967752943017322e-07 0 0.091194474161285843 -9.6557873219281813e-05 0 0.084150216634457042 0.0001718809326962407 0 0.091194474161285843 -9.6557873219281813e-05 0 0.086130854185374681 0.00069061494900403886 0 0.094993930471220067 -3.3967752943017322e-07 0 0.091194474161285843 -9.6557873219281813e-05 0 0.094990532981127848 -7.8275827928940258e-07 0 0.091194474161285843 -9.6557873219281813e-05 0 0.091608179066022463 -0.00025592061541321472 0 0.089580046930033144 5.9585834862850977e-05 0 0.091194474161285843 -9.6557873219281813e-05 0 0.094990532981127848 -7.8275827928940258e-07 0 0.091608179066022463 -0.00025592061541321472 0 0.09499993100286068 -6.5529662210885379e-09 0 0.094946930418552997 2.3622088165891094e-05 0 0.094982969059969155 1.2162681722580871e-05 0 0.094993018205219146 -1.4805498733898677e-06 0 0.091119205205770354 -0.00015700724728550996 0 0.091608179066022463 -0.00025592061541321472 0 0.089580046930033144 5.9585834862850977e-05 0 0.089599156669885563 0.001210500845711869 0 0.091119205205770354 -0.00015700724728550996 0 0.085626764917749829 0.00187345292641915 0 0.094946930418552997 2.3622088165891094e-05 0 0.094906026169365637 8.4557717084737845e-05 0 0.094951574731596336 4.8209380507625651e-05 0 0.094906026169365637 8.4557717084737845e-05 0 0.094940227467267976 8.4318067469675776e-05 0 0.094951574731596336 4.8209380507625651e-05 0 0.091194474161285843 -9.6557873219281813e-05 0 0.089580046930033144 5.9585834862850977e-05 0 0.086130854185374681 0.00069061494900403886 0 0.089580046930033144 5.9585834862850977e-05 0 0.086130854185374681 0.00069061494900403886 0 0.089599156669885563 0.001210500845711869 0 0.085862964755110127 0.0017848445902588252 0 0.085626764917749829 0.00187345292641915 0 0.08340492323424778 -0.00011010383115949938 0 0.086130854185374681 0.00069061494900403886 0 0.083456366259873113 0.00072818605988543583 0 0.08340492323424778 -0.00011010383115949938 0 0.084150216634457042 0.0001718809326962407 0 0.086130854185374681 0.00069061494900403886 0 0.071963839813177929 0.0015369379285551485 0 0.071806400122900696 0.0014637164225600955 0 0.07176314629829951 0.001526838409215315 0 0.085626764917749829 0.00187345292641915 0 0.086724474833910534 0.0014777078256317127 0 0.071877085850149583 0.0013592969230604999 0 0.071963839813177929 0.0015369379285551485 0 0.071806400122900696 0.0014637164225600955 0 0.071854494003023864 0.0014803312144313226 0 0.07168554336153371 0.0014702302424836455 0 0.072235043260672177 0.0013070087097900405 0 0.086724474833910534 0.0014777078256317127 0 0.084598942214074588 0.0013163562740867508 0 0.071790459021121938 0.0014117822846732664 0 0.071854494003023864 0.0014803312144313226 0 0.07168554336153371 0.0014702302424836455 0 0.071877085850149583 0.0013592969230604999 0 0.071806400122900696 0.0014637164225600955 0 0.071790459021121938 0.0014117822846732664 0 0.071806400122900696 0.0014637164225600955 0 0.071790459021121938 0.0014117822846732664 0 0.07168554336153371 0.0014702302424836455 0 0.086446539652391644 0.0016624082965209608 0 0.086724474833910534 0.0014777078256317127 0 0.071854494003023864 0.0014803312144313226 0 0.072235043260672177 0.0013070087097900405 0 0.07212069334215028 0.0026265577722690368 0 0.094823962789366348 9.5594040051010814e-05 0 0.09479713936322133 1.5529905275074196e-05 0 0.094895518276929325 1.9094238358930149e-05 0 0.086724474833910534 0.0014777078256317127 0 0.091712400075440362 -0.00039311610026160771 0 0.094692266007347245 0.0001134196611730611 0 0.094823962789366348 9.5594040051010814e-05 0 0.09479713936322133 1.5529905275074196e-05 0 0.094940227467267976 8.4318067469675776e-05 0 0.094982833027257157 3.8996910366494256e-05 0 0.094951574731596336 4.8209380507625651e-05 0 0.094946930418552997 2.3622088165891094e-05 0 0.094951574731596336 4.8209380507625651e-05 0 0.094982969059969155 1.2162681722580871e-05 0 0.094982833027257157 3.8996910366494256e-05 0 0.094951574731596336 4.8209380507625651e-05 0 0.094982969059969155 1.2162681722580871e-05 0 0.09479713936322133 1.5529905275074196e-05 0 0.094903225748672174 -2.8238970810977712e-05 0 0.094895518276929325 1.9094238358930149e-05 0 0.091712400075440362 -0.00039311610026160771 0 0.093789341557721242 -0.00037486729495992874 0 0.094982833027257157 3.8996910366494256e-05 0 0.094982969059969155 1.2162681722580871e-05 0 0.095001091058972614 9.1430091511750235e-06 0 0.095001091058972614 9.1430091511750235e-06 0 0.09500000240978218 5.0007525384618629e-09 0 0.095000005358271952 8.3539737853740203e-10 0 0.094982969059969155 1.2162681722580871e-05 0 0.095001091058972614 9.1430091511750235e-06 0 0.09500000240978218 5.0007525384618629e-09 0 0.09499993100286068 -6.5529662210885379e-09 0 0.094982969059969155 1.2162681722580871e-05 0 0.09500000240978218 5.0007525384618629e-09 0 0.094975598711626558 -2.973299965947175e-05 0 0.094999633232855804 -2.1930288587631045e-07 0 0.094953473864347035 -2.5060851966631802e-05 0 0.094975598711626558 -2.973299965947175e-05 0 0.094999633232855804 -2.1930288587631045e-07 0 0.095000424719778986 2.1469817180922237e-07 0 0.094903225748672174 -2.8238970810977712e-05 0 0.094999633232855804 -2.1930288587631045e-07 0 0.094953473864347035 -2.5060851966631802e-05 0 0.093789341557721242 -0.00037486729495992874 0 0.094997739832789752 -1.2462604324757249e-06 0 0.094903225748672174 -2.8238970810977712e-05 0 0.094953473864347035 -2.5060851966631802e-05 0 0.094895518276929325 1.9094238358930149e-05 0 0.094975598711626558 -2.973299965947175e-05 0 0.094953473864347035 -2.5060851966631802e-05 0 0.094942185768251114 -8.1382763262201856e-05 0 0.094953473864347035 -2.5060851966631802e-05 0 0.094932957101582935 1.6359727840610522e-05 0 0.094895518276929325 1.9094238358930149e-05 0 0.094953473864347035 -2.5060851966631802e-05 0 0.094932957101582935 1.6359727840610522e-05 0 0.094952165707683542 -9.8043355376382791e-06 0 0.094823962789366348 9.5594040051010814e-05 0 0.094895518276929325 1.9094238358930149e-05 0 0.094902710212422955 6.0461726331067702e-05 0 0.094932957101582935 1.6359727840610522e-05 0 0.094895518276929325 1.9094238358930149e-05 0 0.094902710212422955 6.0461726331067702e-05 0 0.072235043260672177 0.0013070087097900405 0 0.073483417820858613 0.0012018019232657032 0 0.072882165208204702 0.0019372313686218715 0 0.084598942214074588 0.0013163562740867508 0 0.08437515688559985 0.001391342900782793 0 0.073483417820858613 0.0012018019232657032 0 0.073605001557065453 0.0017616314657818621 0 0.072882165208204702 0.0019372313686218715 0 0.073483417820858613 0.0012018019232657032 0 0.073605001557065453 0.0017616314657818621 0 0.074686603129641302 0.0012692678087131179 0 0.08437515688559985 0.001391342900782793 0 0.084435641038436982 0.001758232785232854 0 0.073483417820858613 0.0012018019232657032 0 0.074686603129641302 0.0012692678087131179 0 0.075091291721177844 0.0011961456869406765 0 0.073605001557065453 0.0017616314657818621 0 0.074686603129641302 0.0012692678087131179 0 0.073454435450858169 0.0026210458732097521 0 0.094932957101582935 1.6359727840610522e-05 0 0.094902710212422955 6.0461726331067702e-05 0 0.094941610721796105 4.0597816382047194e-05 0 0.074686603129641302 0.0012692678087131179 0 0.074689962171818822 0.0038697551333002301 0 0.07273428317085813 0.0038527907926959471 0 0.072368504301642142 0.0014567588935554337 0 0.071009552232977016 0.0023146464810982685 0 0.074689962171818822 0.0038697551333002301 0 0.073575969501959076 0.0053230176580716685 0 0.074115490110991486 0.0068783350261416932 0 0.079993383017858147 0.0044445734623007162 0 0.078619146487942243 0.0057321280172071363 0 0.074689962171818822 0.0038697551333002301 0 0.073575969501959076 0.0053230176580716685 0 0.07273428317085813 0.0038527907926959471 0 0.074783437462510427 0.0040893539831630583 0 0.074115490110991486 0.0068783350261416932 0 0.074955518508471777 0.0069271102219085655 0 0.073575969501959076 0.0053230176580716685 0 0.072599597194139442 0.0060164948066025042 0 0.073307048832077865 0.0063231330445081523 0 0.073575969501959076 0.0053230176580716685 0 0.074115490110991486 0.0068783350261416932 0 0.073307048832077865 0.0063231330445081523 0 0.072599597194139442 0.0060164948066025042 0 0.07273428317085813 0.0038527907926959471 0 0.070638579473374916 0.0067017754618634512 0 0.071009552232977016 0.0023146464810982685 0 0.067158574353218953 0.0039441974774377169 0 0.073575969501959076 0.0053230176580716685 0 0.072599597194139442 0.0060164948066025042 0 0.07273428317085813 0.0038527907926959471 0 0.073454435450858169 0.0026210458732097521 0 0.072882165208204702 0.0019372313686218715 0 0.07212069334215028 0.0026265577722690368 0 0.073605001557065453 0.0017616314657818621 0 0.073454435450858169 0.0026210458732097521 0 0.072882165208204702 0.0019372313686218715 0 0.072235043260672177 0.0013070087097900405 0 0.072882165208204702 0.0019372313686218715 0 0.07212069334215028 0.0026265577722690368 0 0.069415452281784112 0.002646968898253325 0 0.068921365047089733 0.0030061164008827012 0 0.071790459021121938 0.0014117822846732664 0 0.071854494003023864 0.0014803312144313226 0 0.07146080695714585 0.001194890760180358 0 0.071790459021121938 0.0014117822846732664 0 0.07146080695714585 0.001194890760180358 0 0.071789162142847127 0.0011974222124693716 0 0.071877085850149583 0.0013592969230604999 0 0.071790459021121938 0.0014117822846732664 0 0.071789162142847127 0.0011974222124693716 0 0.07146080695714585 0.001194890760180358 0 0.071789162142847127 0.0011974222124693716 0 0.071729125437820895 0.00078830784040281464 0 0.073454435450858169 0.0026210458732097521 0 0.07212069334215028 0.0026265577722690368 0 0.07254745961211613 0.0038122928360859627 0 0.07146080695714585 0.001194890760180358 0 0.071218253495603151 0.00074550211036931394 0 0.071729125437820895 0.00078830784040281464 0 0.068921365047089733 0.0030061164008827012 0 0.067158574353218953 0.0039441974774377169 0 0.067158574353218953 0.0039441974774377169 0 0.065871249374182719 0.0032048012942240685 0 0.071218253495603151 0.00074550211036931394 0 0.071729125437820895 0.00078830784040281464 0 0.071525022343898348 0.00019608755064708211 0 0.071875549754607901 0.00025041749503898329 0 0.071729125437820895 0.00078830784040281464 0 0.071525022343898348 0.00019608755064708211 0 0.057569825046923748 0.0076620854469689557 0 0.058854128630405615 0.0058599198361267892 0 0.056834129802223021 0.0057811924367968132 0 0.071801653968926418 0.0098343518496560953 0 0.072680381107915581 0.0083320160282675162 0 0.073967226024783561 0.0099431129137082901 0 0.070638579473374916 0.0067017754618634512 0 0.071801653968926418 0.0098343518496560953 0 0.072680381107915581 0.0083320160282675162 0 0.067158574353218953 0.0039441974774377169 0 0.065436400837072556 0.007630580241139287 0 0.073967226024783561 0.0099431129137082901 0 0.073735301448195456 0.0078315908213424969 0 0.074955518508471777 0.0069271102219085655 0 0.072680381107915581 0.0083320160282675162 0 0.073967226024783561 0.0099431129137082901 0 0.073735301448195456 0.0078315908213424969 0 0.069281187131129698 0.016490719229474017 0 0.073508836086833285 0.014685421427654305 0 0.070674778612798181 0.031333906461163435 0 0.072750871400755465 0.024693136230205106 0 0.073569812897204601 0.027893713842796486 0 0.073735301448195456 0.0078315908213424969 0 0.074115490110991486 0.0068783350261416932 0 0.072941094427994277 0.0070780858042651749 0 0.072680381107915581 0.0083320160282675162 0 0.073735301448195456 0.0078315908213424969 0 0.072941094427994277 0.0070780858042651749 0 0.073735301448195456 0.0078315908213424969 0 0.074115490110991486 0.0068783350261416932 0 0.074955518508471777 0.0069271102219085655 0 0.074115490110991486 0.0068783350261416932 0 0.073307048832077865 0.0063231330445081523 0 0.072941094427994277 0.0070780858042651749 0 0.072599597194139442 0.0060164948066025042 0 0.073307048832077865 0.0063231330445081523 0 0.072941094427994277 0.0070780858042651749 0 0.070638579473374916 0.0067017754618634512 0 0.072680381107915581 0.0083320160282675162 0 0.072941094427994277 0.0070780858042651749 0 0.072599597194139442 0.0060164948066025042 0 0.070638579473374916 0.0067017754618634512 0 0.072941094427994277 0.0070780858042651749 0 0.080320237921064019 0.027671868859543695 0 0.084289401399623293 0.024305211358066223 0 0.087566623493459977 0.02239193148027796 0 0.070033869849907435 0.031819821885809674 0 0.06925221713025452 0.031783890444763638 0 0.068952699014804719 0.032571523514084759 0 0.076019956348911247 0.023242341852095619 0 0.082485055636829618 0.015146697519320974 0 0.080320237921064019 0.027671868859543695 0 0.07965739195492523 0.024839371166906567 0 0.076382268444645907 0.027059692676044609 0 0.080320237921064019 0.027671868859543695 0 0.084289401399623293 0.024305211358066223 0 0.07965739195492523 0.024839371166906567 0 0.070033869849907435 0.031819821885809674 0 0.06925221713025452 0.031783890444763638 0 0.069529310826711488 0.031187386957631725 0 0.084289401399623293 0.024305211358066223 0 0.081261801823657442 0.022722163951320231 0 0.083320948783472307 0.021333740976852495 0 0.084289401399623293 0.024305211358066223 0 0.085453654674528298 0.021619431707865251 0 0.083320948783472307 0.021333740976852495 0 0.084289401399623293 0.024305211358066223 0 0.081261801823657442 0.022722163951320231 0 0.07965739195492523 0.024839371166906567 0 0.081261801823657442 0.022722163951320231 0 0.07965739195492523 0.024839371166906567 0 0.078843243033075286 0.022677555317582473 0 0.078843243033075286 0.022677555317582473 0 0.076508976976496432 0.02281609287406481 0 0.076851215401828377 0.024653574974448637 0 0.076508976976496432 0.02281609287406481 0 0.076851215401828377 0.024653574974448637 0 0.074989198019985284 0.025586777727439267 0 0.07965739195492523 0.024839371166906567 0 0.078843243033075286 0.022677555317582473 0 0.076851215401828377 0.024653574974448637 0 0.076508976976496432 0.02281609287406481 0 0.072750871400755465 0.024693136230205106 0 0.074989198019985284 0.025586777727439267 0 0.072750871400755465 0.024693136230205106 0 0.074989198019985284 0.025586777727439267 0 0.073569812897204601 0.027893713842796486 0 0.074989198019985284 0.025586777727439267 0 0.076382268444645907 0.027059692676044609 0 0.073569812897204601 0.027893713842796486 0 0.07965739195492523 0.024839371166906567 0 0.076851215401828377 0.024653574974448637 0 0.076382268444645907 0.027059692676044609 0 0.076851215401828377 0.024653574974448637 0 0.074989198019985284 0.025586777727439267 0 0.076382268444645907 0.027059692676044609 0 0.080320237921064019 0.027671868859543695 0 0.076382268444645907 0.027059692676044609 0 0.071993783280207127 0.030808679716554661 0 0.071993783280207127 0.030808679716554661 0 0.069947130083942127 0.030653373177281226 0 0.070392570160446144 0.030208247838207625 0 0.070033869849907435 0.031819821885809674 0 0.071993783280207127 0.030808679716554661 0 0.069947130083942127 0.030653373177281226 0 0.076019956348911247 0.023242341852095619 0 0.074229593870964658 0.025451309481080788 0 0.076382268444645907 0.027059692676044609 0 0.073569812897204601 0.027893713842796486 0 0.071993783280207127 0.030808679716554661 0 0.070674778612798181 0.031333906461163435 0 0.073569812897204601 0.027893713842796486 0 0.071993783280207127 0.030808679716554661 0 0.069947130083942127 0.030653373177281226 0 0.069529310826711488 0.031187386957631725 0 0.068970396352025898 0.030683592717161461 0 0.070033869849907435 0.031819821885809674 0 0.069947130083942127 0.030653373177281226 0 0.069529310826711488 0.031187386957631725 0 0.083594361299647327 0.0084920458716440973 0 0.083992835877742159 0.0084652081760802269 0 0.084112423820115023 0.0078367201685339057 0 0.06925221713025452 0.031783890444763638 0 0.069529310826711488 0.031187386957631725 0 0.068970396352025898 0.030683592717161461 0 0.084567956263430208 0.0088883999583221369 0 0.084492802205202638 0.0086693136367130188 0 0.083992835877742159 0.0084652081760802269 0 0.084112423820115023 0.0078367201685339057 0 0.084626870716181246 0.008666230889251279 0 0.085121226251956145 0.0075448420853483954 0 0.083985044247385968 0.0069817384378427338 0 0.084626870716181246 0.008666230889251279 0 0.085121226251956145 0.0075448420853483954 0 0.084626870716181246 0.008666230889251279 0 0.085230843350522875 0.0088063430195168494 0 0.083985044247385968 0.0069817384378427338 0 0.084809149668669925 0.005541276637341155 0 0.083100619370756149 0.0049125413067505428 0 0.085121226251956145 0.0075448420853483954 0 0.085736952621848356 0.0061975062026126022 0 0.083985044247385968 0.0069817384378427338 0 0.085736952621848356 0.0061975062026126022 0 0.083985044247385968 0.0069817384378427338 0 0.084809149668669925 0.005541276637341155 0 0.085736952621848356 0.0061975062026126022 0 0.084809149668669925 0.005541276637341155 0 0.08580722791432048 0.0050192759422418862 0 0.078013166127773245 0.018551385479931536 0 0.084158636916808305 0.012921722908843785 0 0.084567956263430208 0.0088883999583221369 0 0.085499753671675005 0.011217744639165399 0 0.084112423820115023 0.0078367201685339057 0 0.083679464972677003 0.0070829601217790262 0 0.083765105578919558 0.007014258985033329 0 0.083594361299647327 0.0084920458716440973 0 0.084112423820115023 0.0078367201685339057 0 0.083679464972677003 0.0070829601217790262 0 0.06925221713025452 0.031783890444763638 0 0.068970396352025898 0.030683592717161461 0 0.068794983716725128 0.032702063749185099 0 0.06925221713025452 0.031783890444763638 0 0.068952699014804719 0.032571523514084759 0 0.068794983716725128 0.032702063749185099 0 0.082389500039239005 0.01552204538420952 0 0.082485055636829618 0.015146697519320974 0 0.084289401399623293 0.024305211358066223 0 0.087066965445407193 0.022413489826705553 0 0.085453654674528298 0.021619431707865251 0 0.085453654674528298 0.021619431707865251 0 0.086326320369918441 0.020437478857000386 0 0.086949233998300388 0.021260196936237319 0 0.087066965445407193 0.022413489826705553 0 0.085453654674528298 0.021619431707865251 0 0.086949233998300388 0.021260196936237319 0 0.085453654674528298 0.021619431707865251 0 0.086326320369918441 0.020437478857000386 0 0.08479293722035737 0.019599140598424783 0 0.086326320369918441 0.020437478857000386 0 0.087910333614902109 0.019856606760947908 0 0.086278555944520552 0.019362593355480358 0 0.086326320369918441 0.020437478857000386 0 0.086278555944520552 0.019362593355480358 0 0.08479293722035737 0.019599140598424783 0 0.086326320369918441 0.020437478857000386 0 0.087910333614902109 0.019856606760947908 0 0.086949233998300388 0.021260196936237319 0 0.085620454386830983 0.011652099098611391 0 0.084158636916808305 0.012921722908843785 0 0.087910333614902109 0.019856606760947908 0 0.086949233998300388 0.021260196936237319 0 0.087883076271712476 0.021689970678231016 0 0.086010561727572307 0.014010310876683753 0 0.086576729198892796 0.0059221918529722591 0 0.083614582793283737 0.0083463194954777557 0 0.084158636916808305 0.012921722908843785 0 0.085499753671675005 0.011217744639165399 0 0.087066965445407193 0.022413489826705553 0 0.086949233998300388 0.021260196936237319 0 0.087883076271712476 0.021689970678231016 0 0.082485055636829618 0.015146697519320974 0 0.084158636916808305 0.012921722908843785 0 0.085620454386830983 0.011652099098611391 0 0.085499753671675005 0.011217744639165399 0 0.085499753671675005 0.011217744639165399 0 0.089646972528478877 0.0057728703707120767 0 0.095075342783596015 -0.0022189217714795716 0 0.094992839859283251 -0.0019329008950752413 0 0.094733379644262525 -0.0019589736135772252 0 0.095113225078451713 -0.0021342029459788209 0 0.095075342783596015 -0.0022189217714795716 0 0.094992839859283251 -0.0019329008950752413 0 0.087910333614902109 0.019856606760947908 0 0.085811346539343844 0.017501560728278978 0 0.086278555944520552 0.019362593355480358 0 0.085811346539343844 0.017501560728278978 0 0.086278555944520552 0.019362593355480358 0 0.08479293722035737 0.019599140598424783 0 0.083100619370756149 0.0049125413067505428 0 0.08523000319699657 0.0037143562268432489 0 0.085455962179030037 0.003409867977470176 0 0.083100619370756149 0.0049125413067505428 0 0.08497883568180481 0.0046558431700011726 0 0.08523000319699657 0.0037143562268432489 0 0.085499753671675005 0.011217744639165399 0 0.088998922995475502 0.0052837620980871781 0 0.085605172261987689 0.0090460350179756722 0 0.088528390403285848 0.006629149460388872 0 0.089848954143711079 0.0063667440181751763 0 0.08497883568180481 0.0046558431700011726 0 0.08580722791432048 0.0050192759422418862 0 0.085985565930247768 0.0040229927625566172 0 0.084809149668669925 0.005541276637341155 0 0.08497883568180481 0.0046558431700011726 0 0.08580722791432048 0.0050192759422418862 0 0.084809149668669925 0.005541276637341155 0 0.083100619370756149 0.0049125413067505428 0 0.08497883568180481 0.0046558431700011726 0 0.08497883568180481 0.0046558431700011726 0 0.08523000319699657 0.0037143562268432489 0 0.085985565930247768 0.0040229927625566172 0 0.088978732544650108 0.0052852304424608866 0 0.088998922995475502 0.0052837620980871781 0 0.08523000319699657 0.0037143562268432489 0 0.085469201362201125 0.0033857622446471104 0 0.085985565930247768 0.0040229927625566172 0 0.094733379644262525 -0.0019589736135772252 0 0.094705607328407423 -0.0014814208452143176 0 0.094322782437917391 -0.0016857169095944376 0 0.094733379644262525 -0.0019589736135772252 0 0.094895351349501056 -0.0017085772213436105 0 0.094705607328407423 -0.0014814208452143176 0 0.088528390403285848 0.006629149460388872 0 0.089848954143711079 0.0063667440181751763 0 0.091450881863500311 0.0042153607735087271 0 0.089646972528478877 0.0057728703707120767 0 0.090733595493953142 0.0032879590049573327 0 0.094992839859283251 -0.0019329008950752413 0 0.094733379644262525 -0.0019589736135772252 0 0.094895351349501056 -0.0017085772213436105 0 0.094895351349501056 -0.0017085772213436105 0 0.095147546421993703 -0.001499615136283371 0 0.094705607328407423 -0.0014814208452143176 0 0.094705607328407423 -0.0014814208452143176 0 0.094450405195010037 -0.0014267817874704259 0 0.094322782437917391 -0.0016857169095944376 0 0.085620454386830983 0.011652099098611391 0 0.089963508177974258 0.0066219358235679142 0 0.094992839859283251 -0.0019329008950752413 0 0.094895351349501056 -0.0017085772213436105 0 0.095147546421993703 -0.001499615136283371 0 0.087910333614902109 0.019856606760947908 0 0.085811346539343844 0.017501560728278978 0 0.085166222355858884 0.013034063285747705 0 0.095113225078451713 -0.0021342029459788209 0 0.094992839859283251 -0.0019329008950752413 0 0.095147546421993703 -0.001499615136283371 0 0.085620454386830983 0.011652099098611391 0 0.086513331314730949 0.012573560436483314 0 0.092938945063986797 0.022413418612107057 0 0.093595275776740552 0.01392740021527847 0 0.089815276632086133 0.015021251941857248 0 0.085166222355858884 0.013034063285747705 0 0.08310201365086764 0.014088424261491775 0 0.083967971995457955 0.015542335478128737 0 0.085166222355858884 0.013034063285747705 0 0.082244736254008924 0.012647415328114838 0 0.082870370202183408 0.0110763884258864 0 0.082244736254008924 0.012647415328114838 0 0.08310201365086764 0.014088424261491775 0 0.081064131683014129 0.014896438598322756 0 0.085166222355858884 0.013034063285747705 0 0.082244736254008924 0.012647415328114838 0 0.08310201365086764 0.014088424261491775 0 0.08310201365086764 0.014088424261491775 0 0.082096921896357131 0.015799050926733109 0 0.083967971995457955 0.015542335478128737 0 0.08310201365086764 0.014088424261491775 0 0.081064131683014129 0.014896438598322756 0 0.082096921896357131 0.015799050926733109 0 0.081064131683014129 0.014896438598322756 0 0.082096921896357131 0.015799050926733109 0 0.07993999384772181 0.016717575445452791 0 0.085811346539343844 0.017501560728278978 0 0.085166222355858884 0.013034063285747705 0 0.083967971995457955 0.015542335478128737 0 0.082096921896357131 0.015799050926733109 0 0.083967971995457955 0.015542335478128737 0 0.083644081636118847 0.017491006444722193 0 0.085811346539343844 0.017501560728278978 0 0.083967971995457955 0.015542335478128737 0 0.083644081636118847 0.017491006444722193 0 0.085811346539343844 0.017501560728278978 0 0.083644081636118847 0.017491006444722193 0 0.08479293722035737 0.019599140598424783 0 0.083644081636118847 0.017491006444722193 0 0.08479293722035737 0.019599140598424783 0 0.083007113040132544 0.019491781826234376 0 0.082096921896357131 0.015799050926733109 0 0.083644081636118847 0.017491006444722193 0 0.080967846165002411 0.018270393877072858 0 0.082096921896357131 0.015799050926733109 0 0.080967846165002411 0.018270393877072858 0 0.07993999384772181 0.016717575445452791 0 0.083644081636118847 0.017491006444722193 0 0.080967846165002411 0.018270393877072858 0 0.083007113040132544 0.019491781826234376 0 0.080967846165002411 0.018270393877072858 0 0.081132887253667615 0.020522901161584652 0 0.083007113040132544 0.019491781826234376 0 0.081132887253667615 0.020522901161584652 0 0.083320948783472307 0.021333740976852495 0 0.083007113040132544 0.019491781826234376 0 0.080967846165002411 0.018270393877072858 0 0.081132887253667615 0.020522901161584652 0 0.078690622772348215 0.020531974504088672 0 0.078843243033075286 0.022677555317582473 0 0.081132887253667615 0.020522901161584652 0 0.078690622772348215 0.020531974504088672 0 0.081261801823657442 0.022722163951320231 0 0.078843243033075286 0.022677555317582473 0 0.081132887253667615 0.020522901161584652 0 0.081261801823657442 0.022722163951320231 0 0.081132887253667615 0.020522901161584652 0 0.083320948783472307 0.021333740976852495 0 0.085453654674528298 0.021619431707865251 0 0.083320948783472307 0.021333740976852495 0 0.08479293722035737 0.019599140598424783 0 0.083320948783472307 0.021333740976852495 0 0.08479293722035737 0.019599140598424783 0 0.083007113040132544 0.019491781826234376 0 0.074783437462510427 0.0040893539831630583 0 0.074955518508471777 0.0069271102219085655 0 0.075921248022902191 0.0041128918762447066 0 0.073508836086833285 0.014685421427654305 0 0.078178811172446516 0.010020880412412588 0 0.072750871400755465 0.024693136230205106 0 0.077797182525350769 0.019701694026712752 0 0.07773512607892602 0.01557057856469723 0 0.076508976976496432 0.02281609287406481 0 0.072750871400755465 0.024693136230205106 0 0.077797182525350769 0.019701694026712752 0 0.076508976976496432 0.02281609287406481 0 0.078690622772348215 0.020531974504088672 0 0.077797182525350769 0.019701694026712752 0 0.078843243033075286 0.022677555317582473 0 0.076508976976496432 0.02281609287406481 0 0.078690622772348215 0.020531974504088672 0 0.080967846165002411 0.018270393877072858 0 0.077797182525350769 0.019701694026712752 0 0.07993999384772181 0.016717575445452791 0 0.077797182525350769 0.019701694026712752 0 0.07773512607892602 0.01557057856469723 0 0.07993999384772181 0.016717575445452791 0 0.080967846165002411 0.018270393877072858 0 0.078690622772348215 0.020531974504088672 0 0.077797182525350769 0.019701694026712752 0 0.079993383017858147 0.0044445734623007162 0 0.084435641038436982 0.001758232785232854 0 0.074783437462510427 0.0040893539831630583 0 0.075921248022902191 0.0041128918762447066 0 0.07541193071619981 0.0013024339946556692 0 0.078178811172446516 0.010020880412412588 0 0.084520149711502318 0.0024709303769308005 0 0.082244736254008924 0.012647415328114838 0 0.07773512607892602 0.01557057856469723 0 0.082870370202183408 0.0110763884258864 0 0.082244736254008924 0.012647415328114838 0 0.081064131683014129 0.014896438598322756 0 0.07773512607892602 0.01557057856469723 0 0.081064131683014129 0.014896438598322756 0 0.07773512607892602 0.01557057856469723 0 0.07993999384772181 0.016717575445452791 0 0.075921248022902191 0.0041128918762447066 0 0.07541193071619981 0.0013024339946556692 0 0.076872645470730971 0.0013013855153174514 0 0.074686603129641302 0.0012692678087131179 0 0.074689962171818822 0.0038697551333002301 0 0.075091291721177844 0.0011961456869406765 0 0.07773512607892602 0.01557057856469723 0 0.082870370202183408 0.0110763884258864 0 0.083325239453491101 0.0088850827732029156 0 0.084435641038436982 0.001758232785232854 0 0.084520149711502318 0.0024709303769308005 0 0.094872663474407981 -0.00018344815464576525 0 0.094868162351084417 -0.00018420700640244978 0 0.094881642631381935 -0.00018005122292432779 0 0.089815276632086133 0.015021251941857248 0 0.086044800319472398 0.0072890495852875907 0 0.090942365504364631 0.0095572557987298207 0 0.086513331314730949 0.012573560436483314 0 0.085929896056953378 0.010626727691408138 0 0.085166222355858884 0.013034063285747705 0 0.084227213210403495 0.0089568520004242036 0 0.086044800319472398 0.0072890495852875907 0 0.085166222355858884 0.013034063285747705 0 0.082870370202183408 0.0110763884258864 0 0.084227213210403495 0.0089568520004242036 0 0.082870370202183408 0.0110763884258864 0 0.084227213210403495 0.0089568520004242036 0 0.083325239453491101 0.0088850827732029156 0 0.084514077905967627 0.0024820782626509639 0 0.084520149711502318 0.0024709303769308005 0 0.084227213210403495 0.0089568520004242036 0 0.08352670153793075 0.0089911408034986651 0 0.086044800319472398 0.0072890495852875907 0 0.08352670153793075 0.0089911408034986651 0 0.086044800319472398 0.0072890495852875907 0 0.089684714082807412 0.0024012464584799303 0 0.084520149711502318 0.0024709303769308005 0 0.088018022036663382 0.001518285046473482 0 0.094868162351084417 -0.00018420700640244978 0 0.094881642631381935 -0.00018005122292432779 0 0.094864614485416832 -0.00016984688696557 0 0.090214133810236685 0.0059754229512091039 0 0.086044800319472398 0.0072890495852875907 0 0.089684714082807412 0.0024012464584799303 0 0.090214133810236685 0.0059754229512091039 0 0.086044800319472398 0.0072890495852875907 0 0.090942365504364631 0.0095572557987298207 0 0.094901438745139927 -0.00017057010706315748 0 0.094881642631381935 -0.00018005122292432779 0 0.094864614485416832 -0.00016984688696557 0 0.094932957101582935 1.6359727840610522e-05 0 0.094941610721796105 4.0597816382047194e-05 0 0.094952165707683542 -9.8043355376382791e-06 0 0.084435641038436982 0.001758232785232854 0 0.087483029617698549 -2.7933760586259696e-05 0 0.094872663474407981 -0.00018344815464576525 0 0.094901438745139927 -0.00017057010706315748 0 0.094881642631381935 -0.00018005122292432779 0 0.094953473864347035 -2.5060851966631802e-05 0 0.094952165707683542 -9.8043355376382791e-06 0 0.094942185768251114 -8.1382763262201856e-05 0 0.094901438745139927 -0.00017057010706315748 0 0.094942185768251114 -8.1382763262201856e-05 0 0.094864614485416832 -0.00016984688696557 0 0.087483029617698549 -2.7933760586259696e-05 0 0.088388563636442041 -0.00042170100264944606 0 0.088018022036663382 0.001518285046473482 0 0.089350864750110559 0.00079360735184082036 0 0.094864614485416832 -0.00016984688696557 0 0.094847638686288482 -0.00011085600375609016 0 0.094593689750295792 -0.00011988300509582394 0 0.094942185768251114 -8.1382763262201856e-05 0 0.094864614485416832 -0.00016984688696557 0 0.094847638686288482 -0.00011085600375609016 0 0.094942185768251114 -8.1382763262201856e-05 0 0.094897627613101804 -3.8753118290996511e-05 0 0.094847638686288482 -0.00011085600375609016 0 0.094897627613101804 -3.8753118290996511e-05 0 0.095000424719778986 2.1469817180922237e-07 0 0.094997899511065714 -7.9420077703731383e-07 0 0.094897627613101804 -3.8753118290996511e-05 0 0.094847638686288482 -0.00011085600375609016 0 0.094593689750295792 -0.00011988300509582394 0 0.094897627613101804 -3.8753118290996511e-05 0 0.094593689750295792 -0.00011988300509582394 0 0.094997899511065714 -7.9420077703731383e-07 0 0.094975598711626558 -2.973299965947175e-05 0 0.094942185768251114 -8.1382763262201856e-05 0 0.095000424719778986 2.1469817180922237e-07 0 0.094942185768251114 -8.1382763262201856e-05 0 0.094897627613101804 -3.8753118290996511e-05 0 0.095000424719778986 2.1469817180922237e-07 0 0.094860540355920731 0.00012527687042094922 0 0.095000131242462774 5.1101457382369686e-07 0 0.094928725768150007 0.00023551412159118632 0 0.094860540355920731 0.00012527687042094922 0 0.095000131242462774 5.1101457382369686e-07 0 0.094730924557822588 0.00017987174112930863 0 0.095000131242462774 5.1101457382369686e-07 0 0.094997899511065714 -7.9420077703731383e-07 0 0.094928725768150007 0.00023551412159118632 0 0.094593689750295792 -0.00011988300509582394 0 0.094997899511065714 -7.9420077703731383e-07 0 0.094928725768150007 0.00023551412159118632 0 0.092641845784523863 0.001712933251088862 0 0.092009166459495056 0.0031841426385930504 0 0.089684714082807412 0.0024012464584799303 0 0.094593689750295792 -0.00011988300509582394 0 0.094928725768150007 0.00023551412159118632 0 0.089684714082807412 0.0024012464584799303 0 0.094928725768150007 0.00023551412159118632 0 0.093928396462724231 0.005412976029788844 0 0.094928725768150007 0.00023551412159118632 0 0.094764550855489918 -0.00024043368599892517 0 0.095176298091577488 -0.00067142224421685428 0 0.094860540355920731 0.00012527687042094922 0 0.094928725768150007 0.00023551412159118632 0 0.094764550855489918 -0.00024043368599892517 0 0.094860540355920731 0.00012527687042094922 0 0.094764550855489918 -0.00024043368599892517 0 0.094730924557822588 0.00017987174112930863 0 0.094764550855489918 -0.00024043368599892517 0 0.094518310997411412 -0.00065320508912811474 0 0.095176298091577488 -0.00067142224421685428 0 0.094518310997411412 -0.00065320508912811474 0 0.095176298091577488 -0.00067142224421685428 0 0.094561711574159782 -0.0010586737637348952 0 0.090214133810236685 0.0059754229512091039 0 0.089684714082807412 0.0024012464584799303 0 0.093928396462724231 0.005412976029788844 0 0.090214133810236685 0.0059754229512091039 0 0.093928396462724231 0.005412976029788844 0 0.090942365504364631 0.0095572557987298207 0 0.089963508177974258 0.0066219358235679142 0 0.092009166459495056 0.0031841426385930504 0 0.093595275776740552 0.01392740021527847 0 0.093928396462724231 0.005412976029788844 0 0.090942365504364631 0.0095572557987298207 0 0.095147546421993703 -0.001499615136283371 0 0.095176298091577488 -0.00067142224421685428 0 0.094705607328407423 -0.0014814208452143176 0 0.093595275776740552 0.01392740021527847 0 0.089815276632086133 0.015021251941857248 0 0.090942365504364631 0.0095572557987298207 0 0.095176298091577488 -0.00067142224421685428 0 0.094561711574159782 -0.0010586737637348952 0 0.094705607328407423 -0.0014814208452143176 0 0.094561711574159782 -0.0010586737637348952 0 0.094705607328407423 -0.0014814208452143176 0 0.094450405195010037 -0.0014267817874704259 0 0.090886675925629115 0.0027913392760392629 0 0.090733595493953142 0.0032879590049573327 0 0.091872381464424738 0.0010889671231019903 0 0.090733595493953142 0.0032879590049573327 0 0.094234376183595245 -0.0013406739049084827 0 0.093841200780259329 -0.0012580158908783968 0 0.094322782437917391 -0.0016857169095944376 0 0.094450405195010037 -0.0014267817874704259 0 0.094234376183595245 -0.0013406739049084827 0 0.094322782437917391 -0.0016857169095944376 0 0.090480767400841489 0.00111045220574613 0 0.090313058572166885 0.00095268009016974224 0 0.089754331248603658 0.0017307189314428059 0 0.094561711574159782 -0.0010586737637348952 0 0.094450405195010037 -0.0014267817874704259 0 0.094234376183595245 -0.0013406739049084827 0 0.094234376183595245 -0.0013406739049084827 0 0.094051579613703959 -0.0011654011098933437 0 0.094184076469209968 -0.00097117385856244052 0 0.094234376183595245 -0.0013406739049084827 0 0.094051579613703959 -0.0011654011098933437 0 0.093841200780259329 -0.0012580158908783968 0 0.093956382737631725 -0.0010789403296342544 0 0.094051579613703959 -0.0011654011098933437 0 0.093841200780259329 -0.0012580158908783968 0 0.093956382737631725 -0.0010789403296342544 0 0.094051579613703959 -0.0011654011098933437 0 0.094184076469209968 -0.00097117385856244052 0 0.094561711574159782 -0.0010586737637348952 0 0.094234376183595245 -0.0013406739049084827 0 0.094184076469209968 -0.00097117385856244052 0 0.090310280735909465 0.0027492643862042448 0 0.089798942847950619 0.0034334813074378711 0 0.090480767400841489 0.00111045220574613 0 0.090925050592581533 0.0010155176246903232 0 0.09035698700379588 0.0014397086291411849 0 0.090925050592581533 0.0010155176246903232 0 0.089670167770715806 0.0021335669059452528 0 0.088173777226685526 0.0018357678874456997 0 0.090313058572166885 0.00095268009016974224 0 0.090599182011091989 0.00092241957126771299 0 0.090761068865657921 0.00073931653246643917 0 0.090480767400841489 0.00111045220574613 0 0.090313058572166885 0.00095268009016974224 0 0.090599182011091989 0.00092241957126771299 0 0.090480767400841489 0.00111045220574613 0 0.090599182011091989 0.00092241957126771299 0 0.090925050592581533 0.0010155176246903232 0 0.090599182011091989 0.00092241957126771299 0 0.090761068865657921 0.00073931653246643917 0 0.090925050592581533 0.0010155176246903232 0 0.090313058572166885 0.00095268009016974224 0 0.090761068865657921 0.00073931653246643917 0 0.09103818549944423 0.00032493877479564928 0 0.093841200780259329 -0.0012580158908783968 0 0.093723735294606272 -0.00087159988286745506 0 0.093040208345118239 -0.00072802733629989431 0 0.091872381464424738 0.0010889671231019903 0 0.092067682560256117 0.00051263929111202181 0 0.093956382737631725 -0.0010789403296342544 0 0.093841200780259329 -0.0012580158908783968 0 0.093723735294606272 -0.00087159988286745506 0 0.093723735294606272 -0.00087159988286745506 0 0.093672290000827177 -0.00053514466732078791 0 0.093040208345118239 -0.00072802733629989431 0 0.094518310997411412 -0.00065320508912811474 0 0.094561711574159782 -0.0010586737637348952 0 0.094184076469209968 -0.00097117385856244052 0 0.093956382737631725 -0.0010789403296342544 0 0.093723735294606272 -0.00087159988286745506 0 0.094184076469209968 -0.00097117385856244052 0 0.093723735294606272 -0.00087159988286745506 0 0.094184076469209968 -0.00097117385856244052 0 0.094182230406283415 -0.00056369713149815768 0 0.093723735294606272 -0.00087159988286745506 0 0.093672290000827177 -0.00053514466732078791 0 0.094182230406283415 -0.00056369713149815768 0 0.094764550855489918 -0.00024043368599892517 0 0.094518310997411412 -0.00065320508912811474 0 0.094182230406283415 -0.00056369713149815768 0 0.094518310997411412 -0.00065320508912811474 0 0.094184076469209968 -0.00097117385856244052 0 0.094182230406283415 -0.00056369713149815768 0 0.094245246517842149 -0.00022413443300151604 0 0.093513394167584613 -0.00014048019877024179 0 0.094730924557822588 0.00017987174112930863 0 0.094764550855489918 -0.00024043368599892517 0 0.094182230406283415 -0.00056369713149815768 0 0.094245246517842149 -0.00022413443300151604 0 0.094764550855489918 -0.00024043368599892517 0 0.094245246517842149 -0.00022413443300151604 0 0.094730924557822588 0.00017987174112930863 0 0.093672290000827177 -0.00053514466732078791 0 0.094182230406283415 -0.00056369713149815768 0 0.094245246517842149 -0.00022413443300151604 0 0.093672290000827177 -0.00053514466732078791 0 0.093040208345118239 -0.00072802733629989431 0 0.093513394167584613 -0.00014048019877024179 0 0.093513394167584613 -0.00014048019877024179 0 0.092648160554553785 0.00055079886112896145 0 0.094730924557822588 0.00017987174112930863 0 0.093672290000827177 -0.00053514466732078791 0 0.094245246517842149 -0.00022413443300151604 0 0.093513394167584613 -0.00014048019877024179 0 0.093040208345118239 -0.00072802733629989431 0 0.0928140581191884 -4.300163320684889e-05 0 0.093513394167584613 -0.00014048019877024179 0 0.0928140581191884 -4.300163320684889e-05 0 0.093513394167584613 -0.00014048019877024179 0 0.092648160554553785 0.00055079886112896145 0 0.094999667931168194 -6.8726243062764861e-08 0 0.095021484708336004 5.6887942719590568e-05 0 0.094730924557822588 0.00017987174112930863 0 0.093966615831425931 0.00014547088192767897 0 0.094217950352898774 0.00015507139742495165 0 0.095000131242462774 5.1101457382369686e-07 0 0.094999667931168194 -6.8726243062764861e-08 0 0.094730924557822588 0.00017987174112930863 0 0.094999145695323819 2.5851913981503259e-07 0 0.095000554984238511 -1.0163340269595755e-07 0 0.095083660749814822 -4.8900514389861885e-05 0 0.092648160554553785 0.00055079886112896145 0 0.091932201880465164 2.7515807748074204e-05 0 0.092121971053441692 0.00018641555298562788 0 0.095021484708336004 5.6887942719590568e-05 0 0.095000554984238511 -1.0163340269595755e-07 0 0.095083660749814822 -4.8900514389861885e-05 0 0.093966615831425931 0.00014547088192767897 0 0.093817244456462695 7.5681541394292091e-05 0 0.094999667931168194 -6.8726243062764861e-08 0 0.095021484708336004 5.6887942719590568e-05 0 0.095000554984238511 -1.0163340269595755e-07 0 0.092067682560256117 0.00051263929111202181 0 0.092061282814449905 0.00045299812287526734 0 0.093040208345118239 -0.00072802733629989431 0 0.0928140581191884 -4.300163320684889e-05 0 0.09211381953423052 0.0001849501706100315 0 0.091025098073872296 0.00032399352417481864 0 0.090717085400997224 0.00070139436333496947 0 0.092648160554553785 0.00055079886112896145 0 0.092121971053441692 0.00018641555298562788 0 0.09211381953423052 0.0001849501706100315 0 0.092121971053441692 0.00018641555298562788 0 0.09211381953423052 0.0001849501706100315 0 0.091711169446787866 0.00027174189304085951 0 0.09103818549944423 0.00032493877479564928 0 0.09211381953423052 0.0001849501706100315 0 0.091711169446787866 0.00027174189304085951 0 0.092121971053441692 0.00018641555298562788 0 0.092166265573929429 0.00054120749246009238 0 0.092056530612632706 0.00072003297783212029 0 0.092121971053441692 0.00018641555298562788 0 0.091711169446787866 0.00027174189304085951 0 0.091465773238472783 0.00043105245539117309 0 0.0928140581191884 -4.300163320684889e-05 0 0.092648160554553785 0.00055079886112896145 0 0.09211381953423052 0.0001849501706100315 0 0.091932201880465164 2.7515807748074204e-05 0 0.092121971053441692 0.00018641555298562788 0 0.092148700011770404 0.00038161329336206055 0 0.092121971053441692 0.00018641555298562788 0 0.092166265573929429 0.00054120749246009238 0 0.092148700011770404 0.00038161329336206055 0 0.092503382844541418 0.00046487188290247325 0 0.091932201880465164 2.7515807748074204e-05 0 0.092148700011770404 0.00038161329336206055 0 0.092503382844541418 0.00046487188290247325 0 0.092148700011770404 0.00038161329336206055 0 0.09228452310340092 0.00064363273669471564 0 0.092166265573929429 0.00054120749246009238 0 0.092148700011770404 0.00038161329336206055 0 0.09228452310340092 0.00064363273669471564 0 0.092166265573929429 0.00054120749246009238 0 0.09228452310340092 0.00064363273669471564 0 0.092223825872020826 0.00074488251916958459 0 0.092166265573929429 0.00054120749246009238 0 0.092223825872020826 0.00074488251916958459 0 0.092056530612632706 0.00072003297783212029 0 0.092223825872020826 0.00074488251916958459 0 0.092056530612632706 0.00072003297783212029 0 0.092190612349459994 0.00077330299463201295 0 0.090761068865657921 0.00073931653246643917 0 0.09103818549944423 0.00032493877479564928 0 0.091465773238472783 0.00043105245539117309 0 0.090761068865657921 0.00073931653246643917 0 0.091465773238472783 0.00043105245539117309 0 0.090925050592581533 0.0010155176246903232 0 0.09103818549944423 0.00032493877479564928 0 0.091711169446787866 0.00027174189304085951 0 0.091465773238472783 0.00043105245539117309 0 0.090717085400997224 0.00070139436333496947 0 0.089738873225190086 0.0018920815527136467 0 0.092056530612632706 0.00072003297783212029 0 0.092190612349459994 0.00077330299463201295 0 0.09208908134513076 0.00083036252475494118 0 0.091465773238472783 0.00043105245539117309 0 0.090925050592581533 0.0010155176246903232 0 0.09102183098151144 0.0019181759427754229 0 0.090925050592581533 0.0010155176246903232 0 0.09102183098151144 0.0019181759427754229 0 0.089670167770715806 0.0021335669059452528 0 0.09224922427923242 0.00077093060682418342 0 0.092223825872020826 0.00074488251916958459 0 0.092190612349459994 0.00077330299463201295 0 0.092236933990025999 0.00067115325951659025 0 0.092190612349459994 0.00077330299463201295 0 0.092175360861171646 0.00087769372204269313 0 0.08935237674035941 0.0024639442557225183 0 0.088526449712988953 0.0034091339056932725 0 0.092190612349459994 0.00077330299463201295 0 0.092175360861171646 0.00087769372204269313 0 0.09208908134513076 0.00083036252475494118 0 0.084175220767856176 0.0046473519497695842 0 0.082546238193863447 0.0063599514500070967 0 0.084193905148301759 0.0065804075166867437 0 0.086406577091444531 0.0051998563068108468 0 0.084175220767856176 0.0046473519497695842 0 0.084193905148301759 0.0065804075166867437 0 0.087596371557612698 0.0048681125483852096 0 0.089738873225190086 0.0018920815527136467 0 0.088526449712988953 0.0034091339056932725 0 0.087596371557612698 0.0048681125483852096 0 0.092175360861171646 0.00087769372204269313 0 0.092051065800592663 0.0010042485365851133 0 0.09208908134513076 0.00083036252475494118 0 0.090592404732944026 0.0048945270375483048 0 0.09102183098151144 0.0019181759427754229 0 0.08961683880373153 0.0032490551972177142 0 0.09102183098151144 0.0019181759427754229 0 0.089670167770715806 0.0021335669059452528 0 0.08961683880373153 0.0032490551972177142 0 0.089670167770715806 0.0021335669059452528 0 0.088173777226685526 0.0018357678874456997 0 0.088530441669104787 0.0029746628407454471 0 0.089670167770715806 0.0021335669059452528 0 0.088530441669104787 0.0029746628407454471 0 0.08961683880373153 0.0032490551972177142 0 0.088998922995475502 0.0052837620980871781 0 0.089798942847950619 0.0034334813074378711 0 0.085469201362201125 0.0033857622446471104 0 0.088173777226685526 0.0018357678874456997 0 0.087259648573971366 0.0033017302864292047 0 0.090480767400841489 0.00111045220574613 0 0.09035698700379588 0.0014397086291411849 0 0.089966724309065757 0.0015470183557178532 0 0.089729405962586745 0.0018803270917726017 0 0.09035698700379588 0.0014397086291411849 0 0.089966724309065757 0.0015470183557178532 0 0.088173777226685526 0.0018357678874456997 0 0.088530441669104787 0.0029746628407454471 0 0.087259648573971366 0.0033017302864292047 0 0.088998922995475502 0.0052837620980871781 0 0.090733595493953142 0.0032879590049573327 0 0.087259648573971366 0.0033017302864292047 0 0.085985565930247768 0.0040229927625566172 0 0.087018199276996791 0.0050404574039650081 0 0.085469201362201125 0.0033857622446471104 0 0.087259648573971366 0.0033017302864292047 0 0.085985565930247768 0.0040229927625566172 0 0.087259648573971366 0.0033017302864292047 0 0.087018199276996791 0.0050404574039650081 0 0.088613244272488303 0.0045072219824797283 0 0.08580722791432048 0.0050192759422418862 0 0.085985565930247768 0.0040229927625566172 0 0.087018199276996791 0.0050404574039650081 0 0.090592404732944026 0.0048945270375483048 0 0.08961683880373153 0.0032490551972177142 0 0.088613244272488303 0.0045072219824797283 0 0.088530441669104787 0.0029746628407454471 0 0.08961683880373153 0.0032490551972177142 0 0.088613244272488303 0.0045072219824797283 0 0.088530441669104787 0.0029746628407454471 0 0.087259648573971366 0.0033017302864292047 0 0.088613244272488303 0.0045072219824797283 0 0.082636966940246748 0.007580214390498532 0 0.08236553200324423 0.0081953006851018598 0 0.082602959578106219 0.0078921265002913337 0 0.087596371557612698 0.0048681125483852096 0 0.085536560505530226 0.0070299593033305687 0 0.087018199276996791 0.0050404574039650081 0 0.088613244272488303 0.0045072219824797283 0 0.087986194500649539 0.0070318689410771209 0 0.090592404732944026 0.0048945270375483048 0 0.088613244272488303 0.0045072219824797283 0 0.087986194500649539 0.0070318689410771209 0 0.085121226251956145 0.0075448420853483954 0 0.085736952621848356 0.0061975062026126022 0 0.087986194500649539 0.0070318689410771209 0 0.085736952621848356 0.0061975062026126022 0 0.087018199276996791 0.0050404574039650081 0 0.087986194500649539 0.0070318689410771209 0 0.085736952621848356 0.0061975062026126022 0 0.08580722791432048 0.0050192759422418862 0 0.087018199276996791 0.0050404574039650081 0 0.08236553200324423 0.0081953006851018598 0 0.082473482961337663 0.0086391817168111167 0 0.082572227506701859 0.0089409407670427241 0 0.085121226251956145 0.0075448420853483954 0 0.087986194500649539 0.0070318689410771209 0 0.085230843350522875 0.0088063430195168494 0 0.085536560505530226 0.0070299593033305687 0 0.084443705239631198 0.0081450842593016933 0 0.08236553200324423 0.0081953006851018598 0 0.082473482961337663 0.0086391817168111167 0 0.082585684370174023 0.0085365129043785508 0 0.08236553200324423 0.0081953006851018598 0 0.082585684370174023 0.0085365129043785508 0 0.082602959578106219 0.0078921265002913337 0 0.082585684370174023 0.0085365129043785508 0 0.083004156947198496 0.0086186480248877841 0 0.082602959578106219 0.0078921265002913337 0 0.083004156947198496 0.0086186480248877841 0 0.08344677137935666 0.0076918143733383194 0 0.082602959578106219 0.0078921265002913337 0 0.084237658399541546 0.0079330204515104495 0 0.083004156947198496 0.0086186480248877841 0 0.08344677137935666 0.0076918143733383194 0 0.084237658399541546 0.0079330204515104495 0 0.083004156947198496 0.0086186480248877841 0 0.083223974825932676 0.0092330269085208368 0 0.082546238193863447 0.0063599514500070967 0 0.084193905148301759 0.0065804075166867437 0 0.08344677137935666 0.0076918143733383194 0 0.084237658399541546 0.0079330204515104495 0 0.084193905148301759 0.0065804075166867437 0 0.08344677137935666 0.0076918143733383194 0 0.082546238193863447 0.0063599514500070967 0 0.08344677137935666 0.0076918143733383194 0 0.082602959578106219 0.0078921265002913337 0 0.087596371557612698 0.0048681125483852096 0 0.087031017911617353 0.0058407632675708801 0 0.082541113177960576 0.0090127804871244395 0 0.083223974825932676 0.0092330269085208368 0 0.082228545838179068 0.0089257027592088509 0 0.083004156947198496 0.0086186480248877841 0 0.082541113177960576 0.0090127804871244395 0 0.083223974825932676 0.0092330269085208368 0 0.082585684370174023 0.0085365129043785508 0 0.083004156947198496 0.0086186480248877841 0 0.082541113177960576 0.0090127804871244395 0 0.082473482961337663 0.0086391817168111167 0 0.082585684370174023 0.0085365129043785508 0 0.082517016398820225 0.0087952633284480945 0 0.082585684370174023 0.0085365129043785508 0 0.082541113177960576 0.0090127804871244395 0 0.082517016398820225 0.0087952633284480945 0 0.082473482961337663 0.0086391817168111167 0 0.082548263985662368 0.0088469576062820427 0 0.082572227506701859 0.0089409407670427241 0 0.082548263985662368 0.0088469576062820427 0 0.082740733988145035 0.0089143347339790419 0 0.082572227506701859 0.0089409407670427241 0 0.082473482961337663 0.0086391817168111167 0 0.082517016398820225 0.0087952633284480945 0 0.082548263985662368 0.0088469576062820427 0 0.082517016398820225 0.0087952633284480945 0 0.082548263985662368 0.0088469576062820427 0 0.082618180372934821 0.0088752040748651256 0 0.082517016398820225 0.0087952633284480945 0 0.082618180372934821 0.0088752040748651256 0 0.082549611002279241 0.0088722430651685478 0 0.082548263985662368 0.0088469576062820427 0 0.082618180372934821 0.0088752040748651256 0 0.082740733988145035 0.0089143347339790419 0 0.082618180372934821 0.0088752040748651256 0 0.082549611002279241 0.0088722430651685478 0 0.082750391522621383 0.0087625979771121295 0 0.082618180372934821 0.0088752040748651256 0 0.082750391522621383 0.0087625979771121295 0 0.082869914339467013 0.0088732248294588808 0 0.082618180372934821 0.0088752040748651256 0 0.082869914339467013 0.0088732248294588808 0 0.082740733988145035 0.0089143347339790419 0 0.082541113177960576 0.0090127804871244395 0 0.082517016398820225 0.0087952633284480945 0 0.082549611002279241 0.0088722430651685478 0 0.082541113177960576 0.0090127804871244395 0 0.082549611002279241 0.0088722430651685478 0 0.08246080565839925 0.0086988229225140167 0 0.082549611002279241 0.0088722430651685478 0 0.08246080565839925 0.0086988229225140167 0 0.082750391522621383 0.0087625979771121295 0 0.08246080565839925 0.0086988229225140167 0 0.082245515122121179 0.0082467242182834664 0 0.08214425659265763 0.0087080742316943717 0 0.080454797064062542 0.0083667260099295343 0 0.07974221295909073 0.0081013520281121992 0 0.082750391522621383 0.0087625979771121295 0 0.082695404953873841 0.0083118193729425638 0 0.082988489677143978 0.0086404500573772584 0 0.08246080565839925 0.0086988229225140167 0 0.082750391522621383 0.0087625979771121295 0 0.082921217687306092 0.0081312843054966357 0 0.08246080565839925 0.0086988229225140167 0 0.082921217687306092 0.0081312843054966357 0 0.082245515122121179 0.0082467242182834664 0 0.082921217687306092 0.0081312843054966357 0 0.082245515122121179 0.0082467242182834664 0 0.082371959797808786 0.0077131448026389925 0 0.082245515122121179 0.0082467242182834664 0 0.081349133750061087 0.0080811002124609281 0 0.08214425659265763 0.0087080742316943717 0 0.082245515122121179 0.0082467242182834664 0 0.081349133750061087 0.0080811002124609281 0 0.082371959797808786 0.0077131448026389925 0 0.082541113177960576 0.0090127804871244395 0 0.08246080565839925 0.0086988229225140167 0 0.08214425659265763 0.0087080742316943717 0 0.082541113177960576 0.0090127804871244395 0 0.08214425659265763 0.0087080742316943717 0 0.082228545838179068 0.0089257027592088509 0 0.081349133750061087 0.0080811002124609281 0 0.08214425659265763 0.0087080742316943717 0 0.082228545838179068 0.0089257027592088509 0 0.081523369781407992 0.0083786391638404657 0 0.081349133750061087 0.0080811002124609281 0 0.082228545838179068 0.0089257027592088509 0 0.081523369781407992 0.0083786391638404657 0 0.081349133750061087 0.0080811002124609281 0 0.080650470378295341 0.0078831519495259853 0 0.081349133750061087 0.0080811002124609281 0 0.080650470378295341 0.0078831519495259853 0 0.080094743679003141 0.0080408187772984981 0 0.081349133750061087 0.0080811002124609281 0 0.080094743679003141 0.0080408187772984981 0 0.079161938603001192 0.0076909285524634531 0 0.079912484553547616 0.0073588853988227629 0 0.079433223771006048 0.0072839590698957884 0 0.080094743679003141 0.0080408187772984981 0 0.0794175645771521 0.0082821896055229414 0 0.079161938603001192 0.0076909285524634531 0 0.080094743679003141 0.0080408187772984981 0 0.0794175645771521 0.0082821896055229414 0 0.079681739020386319 0.0087295246091762518 0 0.080650470378295341 0.0078831519495259853 0 0.080094743679003141 0.0080408187772984981 0 0.079681739020386319 0.0087295246091762518 0 0.080650470378295341 0.0078831519495259853 0 0.077286798008066676 0.0083453243080950767 0 0.078163887348433339 0.0082843827452693773 0 0.077286798008066676 0.0083453243080950767 0 0.078163887348433339 0.0082843827452693773 0 0.07745497128688264 0.0081412809545661543 0 0.0794175645771521 0.0082821896055229414 0 0.079681739020386319 0.0087295246091762518 0 0.079091693445920874 0.0086012052570493304 0 0.078873937487712376 0.0083143415555243551 0 0.07836333643626095 0.0086041353966004909 0 0.081093083082173167 0.0080492146234807278 0 0.080650470378295341 0.0078831519495259853 0 0.078163887348433339 0.0082843827452693773 0 0.076915483099486412 0.0081640107324803587 0 0.078163887348433339 0.0082843827452693773 0 0.07745497128688264 0.0081412809545661543 0 0.078640953667128602 0.0079558057321616037 0 0.078568892372662943 0.0080265649285040323 0 0.076915483099486412 0.0081640107324803587 0 0.077023096461023524 0.0080466547463278349 0 0.07745497128688264 0.0081412809545661543 0 0.077023096461023524 0.0080466547463278349 0 0.07745497128688264 0.0081412809545661543 0 0.076745003666305184 0.0083599578750208625 0 0.07836333643626095 0.0086041353966004909 0 0.077755806257958776 0.0088028230736849206 0 0.077286798008066676 0.0083453243080950767 0 0.076745003666305184 0.0083599578750208625 0 0.07619308190088829 0.0086457568836340783 0 0.077286798008066676 0.0083453243080950767 0 0.07745497128688264 0.0081412809545661543 0 0.076745003666305184 0.0083599578750208625 0 0.079681739020386319 0.0087295246091762518 0 0.078615863576870101 0.0088931864563138157 0 0.079091693445920874 0.0086012052570493304 0 0.076745003666305184 0.0083599578750208625 0 0.07643616171455074 0.0083181628934521495 0 0.07619308190088829 0.0086457568836340783 0 0.077023096461023524 0.0080466547463278349 0 0.076745003666305184 0.0083599578750208625 0 0.07643616171455074 0.0083181628934521495 0 0.076724534059187582 0.0080456725895244278 0 0.077023096461023524 0.0080466547463278349 0 0.07643616171455074 0.0083181628934521495 0 0.07749067857305024 0.0092373620071337509 0 0.077985984811125841 0.0091033002315029383 0 0.07757381500620314 0.0090652404734844101 0 0.07749067857305024 0.0092373620071337509 0 0.07757381500620314 0.0090652404734844101 0 0.077403792079162162 0.0091520342950984785 0 0.07757381500620314 0.0090652404734844101 0 0.077403792079162162 0.0091520342950984785 0 0.077430026485936693 0.0090793302584577396 0 0.07749067857305024 0.0092373620071337509 0 0.077403792079162162 0.0091520342950984785 0 0.077305747101558228 0.0091846489781484287 0 0.07749067857305024 0.0092373620071337509 0 0.078088648907102515 0.0093789342684485483 0 0.077985984811125841 0.0091033002315029383 0 0.077985984811125841 0.0091033002315029383 0 0.078263709658284206 0.0088534909761050114 0 0.077952482397840819 0.0089265911300572508 0 0.079681739020386319 0.0087295246091762518 0 0.078088648907102515 0.0093789342684485483 0 0.078615863576870101 0.0088931864563138157 0 0.077985984811125841 0.0091033002315029383 0 0.078615863576870101 0.0088931864563138157 0 0.078263709658284206 0.0088534909761050114 0 0.078088648907102515 0.0093789342684485483 0 0.077985984811125841 0.0091033002315029383 0 0.078615863576870101 0.0088931864563138157 0 0.078615863576870101 0.0088931864563138157 0 0.079091693445920874 0.0086012052570493304 0 0.078601761679030283 0.0086124874315082513 0 0.078615863576870101 0.0088931864563138157 0 0.078263709658284206 0.0088534909761050114 0 0.078601761679030283 0.0086124874315082513 0 0.078263709658284206 0.0088534909761050114 0 0.078175160028859922 0.0086816626472255177 0 0.078601761679030283 0.0086124874315082513 0 0.078175160028859922 0.0086816626472255177 0 0.077893714223377694 0.0087959368237294864 0 0.077963733686605377 0.0086006895176837968 0 0.077893714223377694 0.0087959368237294864 0 0.077703081605691768 0.0088903799634954678 0 0.077963733686605377 0.0086006895176837968 0 0.077893714223377694 0.0087959368237294864 0 0.077952482397840819 0.0089265911300572508 0 0.077720635291877976 0.0089184890423445514 0 0.078175160028859922 0.0086816626472255177 0 0.077893714223377694 0.0087959368237294864 0 0.077952482397840819 0.0089265911300572508 0 0.078263709658284206 0.0088534909761050114 0 0.078175160028859922 0.0086816626472255177 0 0.077952482397840819 0.0089265911300572508 0 0.077985984811125841 0.0091033002315029383 0 0.077952482397840819 0.0089265911300572508 0 0.07757381500620314 0.0090652404734844101 0 0.07757381500620314 0.0090652404734844101 0 0.077541450229713441 0.0089581421756103619 0 0.077423162011369631 0.0090067761316665034 0 0.07757381500620314 0.0090652404734844101 0 0.077720635291877976 0.0089184890423445514 0 0.077709433007985274 0.0088781487545188404 0 0.076016835804129684 0.0086901003889274086 0 0.075977125139553112 0.0086432460637782035 0 0.077952482397840819 0.0089265911300572508 0 0.07757381500620314 0.0090652404734844101 0 0.077720635291877976 0.0089184890423445514 0 0.075977125139553112 0.0086432460637782035 0 0.074158746859772612 0.0081124850853272201 0 0.077893714223377694 0.0087959368237294864 0 0.077720635291877976 0.0089184890423445514 0 0.077703081605691768 0.0088903799634954678 0 0.075984029736864203 0.0086487659699538214 0 0.075977125139553112 0.0086432460637782035 0 0.075977125139553112 0.0086432460637782035 0 0.077146478490441359 0.0076569709560776571 0 0.076296653142530521 0.0068975041333628178 0 0.076274108716664152 0.010224026873348687 0 0.077949358203085836 0.0090648556165440399 0 0.078360553640389977 0.008338636687628612 0 0.077736737636026509 0.0082495633883678011 0 0.079161938603001192 0.0076909285524634531 0 0.077703081605691768 0.0088903799634954678 0 0.077963733686605377 0.0086006895176837968 0 0.077736737636026509 0.0082495633883678011 0 0.077146478490441359 0.0076569709560776571 0 0.074158746859772612 0.0081124850853272201 0 0.077963733686605377 0.0086006895176837968 0 0.078360553640389977 0.008338636687628612 0 0.077736737636026509 0.0082495633883678011 0 0.078175160028859922 0.0086816626472255177 0 0.077963733686605377 0.0086006895176837968 0 0.078360553640389977 0.008338636687628612 0 0.079091693445920874 0.0086012052570493304 0 0.078601761679030283 0.0086124874315082513 0 0.078930504523903974 0.008323499349476576 0 0.078175160028859922 0.0086816626472255177 0 0.078360553640389977 0.008338636687628612 0 0.078601761679030283 0.0086124874315082513 0 0.078360553640389977 0.008338636687628612 0 0.078601761679030283 0.0086124874315082513 0 0.078930504523903974 0.008323499349476576 0 0.078360553640389977 0.008338636687628612 0 0.078930504523903974 0.008323499349476576 0 0.079161938603001192 0.0076909285524634531 0 0.0794175645771521 0.0082821896055229414 0 0.078930504523903974 0.008323499349476576 0 0.079161938603001192 0.0076909285524634531 0 0.0794175645771521 0.0082821896055229414 0 0.079091693445920874 0.0086012052570493304 0 0.078930504523903974 0.008323499349476576 0 0.082695404953873841 0.0083118193729425638 0 0.082656741953770041 0.0077818410946169673 0 0.082877309766946905 0.008084227624772589 0 0.07974221295909073 0.0081013520281121992 0 0.077146478490441359 0.0076569709560776571 0 0.077146478490441359 0.0076569709560776571 0 0.079433223771006048 0.0072839590698957884 0 0.082921217687306092 0.0081312843054966357 0 0.082931302995778 0.0073406024771056006 0 0.082371959797808786 0.0077131448026389925 0 0.069233332161121958 0.0097846731015616712 0 0.072495969480001379 0.0076207033327268074 0 0.082877309766946905 0.008084227624772589 0 0.083132117198031749 0.0080786010348341247 0 0.083027593370800803 0.0083283107649079185 0 0.082877309766946905 0.008084227624772589 0 0.083132117198031749 0.0080786010348341247 0 0.082834286131158549 0.0078465149453411428 0 0.055654186387889243 0.0064108145567753645 0 0.056438731177522412 0.0061903274039631093 0 0.056396330821301459 0.0073905497583411995 0 0.055654186387889243 0.0064108145567753645 0 0.055970628438333059 0.0055718998699169553 0 0.056438731177522412 0.0061903274039631093 0 0.055654186387889243 0.0064108145567753645 0 0.055970628438333059 0.0055718998699169553 0 0.055505820066562593 0.0054486464168408428 0 0.055970628438333059 0.0055718998699169553 0 0.056357127536650828 0.0051105364703595887 0 0.056438731177522412 0.0061903274039631093 0 0.055505820066562593 0.0054486464168408428 0 0.055894810823601308 0.0050444709149701401 0 0.055255422393458146 0.0048885708285370888 0 0.055970628438333059 0.0055718998699169553 0 0.055505820066562593 0.0054486464168408428 0 0.055894810823601308 0.0050444709149701401 0 0.055970628438333059 0.0055718998699169553 0 0.055894810823601308 0.0050444709149701401 0 0.056357127536650828 0.0051105364703595887 0 0.055654186387889243 0.0064108145567753645 0 0.055505820066562593 0.0054486464168408428 0 0.05496418912551302 0.0054990302117706715 0 0.083132117198031749 0.0080786010348341247 0 0.082877180805528916 0.0077588487836441717 0 0.082834286131158549 0.0078465149453411428 0 0.082877322954779703 0.0077568787692473195 0 0.082834286131158549 0.0078465149453411428 0 0.082809686242516459 0.0076699604171205811 0 0.082656741953770041 0.0077818410946169673 0 0.082877309766946905 0.008084227624772589 0 0.082834286131158549 0.0078465149453411428 0 0.082656741953770041 0.0077818410946169673 0 0.082834286131158549 0.0078465149453411428 0 0.082809686242516459 0.0076699604171205811 0 0.072495969480001379 0.0076207033327268074 0 0.072661967739688943 0.0075030673402693105 0 0.055505820066562593 0.0054486464168408428 0 0.05496418912551302 0.0054990302117706715 0 0.055255422393458146 0.0048885708285370888 0 0.072495969480001379 0.0076207033327268074 0 0.069852253495345032 0.008226118589431182 0 0.074158746859772612 0.0081124850853272201 0 0.069852253495345032 0.008226118589431182 0 0.070267594572663905 0.0089607364054126015 0 0.069262986330710083 0.0076431937641852753 0 0.072017695861938139 0.0057359679194689435 0 0.072495969480001379 0.0076207033327268074 0 0.074158746859772612 0.0081124850853272201 0 0.077541450229713441 0.0089581421756103619 0 0.077426556068314639 0.0088505807228102407 0 0.07741765584670228 0.0089470828574296397 0 0.077426556068314639 0.0088505807228102407 0 0.07741765584670228 0.0089470828574296397 0 0.077328349672272534 0.0089410506243517707 0 0.077541450229713441 0.0089581421756103619 0 0.07741765584670228 0.0089470828574296397 0 0.077423162011369631 0.0090067761316665034 0 0.077348522860335847 0.0090185780815075084 0 0.077328349672272534 0.0089410506243517707 0 0.077276490730834257 0.0090859023229188061 0 0.07757381500620314 0.0090652404734844101 0 0.077423162011369631 0.0090067761316665034 0 0.077430026485936693 0.0090793302584577396 0 0.07741765584670228 0.0089470828574296397 0 0.077423162011369631 0.0090067761316665034 0 0.077348522860335847 0.0090185780815075084 0 0.077423162011369631 0.0090067761316665034 0 0.077430026485936693 0.0090793302584577396 0 0.077356954948074166 0.0090825729403205598 0 0.077423162011369631 0.0090067761316665034 0 0.077348522860335847 0.0090185780815075084 0 0.077356954948074166 0.0090825729403205598 0 0.07741765584670228 0.0089470828574296397 0 0.077348522860335847 0.0090185780815075084 0 0.077328349672272534 0.0089410506243517707 0 0.069852253495345032 0.008226118589431182 0 0.066512024124222136 0.0075550647159878343 0 0.069852253495345032 0.008226118589431182 0 0.066008220032655052 0.0091237214067613065 0 0.055894810823601308 0.0050444709149701401 0 0.055255422393458146 0.0048885708285370888 0 0.056379504476410706 0.0041674810721308141 0 0.0574352919830943 0.0034772384933828837 0 0.056379504476410706 0.0041674810721308141 0 0.056889860886864332 0.004662001413418034 0 0.055894810823601308 0.0050444709149701401 0 0.056379504476410706 0.0041674810721308141 0 0.056357127536650828 0.0051105364703595887 0 0.056889860886864332 0.004662001413418034 0 0.055807645655485315 0.005117636776615384 0 0.056160783863888987 0.0069085220001548998 0 0.056889860886864332 0.004662001413418034 0 0.055807645655485315 0.005117636776615384 0 0.056249965495270809 0.0042684547537932185 0 0.056379504476410706 0.0041674810721308141 0 0.056889860886864332 0.004662001413418034 0 0.056249965495270809 0.0042684547537932185 0 0.077276490730834257 0.0090859023229188061 0 0.077319385743437552 0.0091371497878201206 0 0.077236737015895937 0.0091973125162496672 0 0.077319385743437552 0.0091371497878201206 0 0.077403792079162162 0.0091520342950984785 0 0.077305747101558228 0.0091846489781484287 0 0.077319385743437552 0.0091371497878201206 0 0.077403792079162162 0.0091520342950984785 0 0.077356954948074166 0.0090825729403205598 0 0.077403792079162162 0.0091520342950984785 0 0.077430026485936693 0.0090793302584577396 0 0.077356954948074166 0.0090825729403205598 0 0.077348522860335847 0.0090185780815075084 0 0.077276490730834257 0.0090859023229188061 0 0.077356954948074166 0.0090825729403205598 0 0.077276490730834257 0.0090859023229188061 0 0.077319385743437552 0.0091371497878201206 0 0.077356954948074166 0.0090825729403205598 0 0.053149992854619743 0.00397856133375021 0 0.054406770467076496 0.0050913486280638734 0 0.055906891401612535 0.0036794216408114104 0 0.053149992854619743 0.00397856133375021 0 0.052406014357463511 0.0055343445639325787 0 0.054406770467076496 0.0050913486280638734 0 0.052406014357463511 0.0055343445639325787 0 0.054406770467076496 0.0050913486280638734 0 0.053814386371095202 0.0064992379543014926 0 0.054406770467076496 0.0050913486280638734 0 0.055807645655485315 0.005117636776615384 0 0.053814386371095202 0.0064992379543014926 0 0.055807645655485315 0.005117636776615384 0 0.056249965495270809 0.0042684547537932185 0 0.055906891401612535 0.0036794216408114104 0 0.054406770467076496 0.0050913486280638734 0 0.055807645655485315 0.005117636776615384 0 0.055906891401612535 0.0036794216408114104 0 0.055906891401612535 0.0036794216408114104 0 0.056706257478233435 0.0044282223322949172 0 0.06162066563210792 0.0063353679857468684 0 0.056249965495270809 0.0042684547537932185 0 0.055906891401612535 0.0036794216408114104 0 0.056706257478233435 0.0044282223322949172 0 0.056379504476410706 0.0041674810721308141 0 0.056249965495270809 0.0042684547537932185 0 0.056706257478233435 0.0044282223322949172 0 0.056379504476410706 0.0041674810721308141 0 0.056706257478233435 0.0044282223322949172 0 0.056357127536650828 0.0051105364703595887 0 0.058592154293257266 0.0050684629531664721 0 0.059168003700402962 0.0056684545786690474 0 0.055906891401612535 0.0036794216408114104 0 0.053711301904221256 0.00053679611765169544 0 0.052613400075534354 0.0021625596471069575 0 0.053149992854619743 0.00397856133375021 0 0.055906891401612535 0.0036794216408114104 0 0.052613400075534354 0.0021625596471069575 0 0.053711301904221256 0.00053679611765169544 0 0.052747804754463369 0.0010400518401946818 0 0.052613400075534354 0.0021625596471069575 0 0.06162066563210792 0.0063353679857468684 0 0.058166092953961572 0.0068941747545612792 0 0.06097389302462608 0.010858226270329969 0 0.053711301904221256 0.00053679611765169544 0 0.053118272139086806 0.00021062613218627364 0 0.052747804754463369 0.0010400518401946818 0 0.063016150306706056 0.0088379993404358835 0 0.064014007030460063 0.010549535382048135 0 0.056357127536650828 0.0051105364703595887 0 0.058166092953961572 0.0068941747545612792 0 0.055922938382081233 0.010397430261436452 0 0.056706257478233435 0.0044282223322949172 0 0.056357127536650828 0.0051105364703595887 0 0.058166092953961572 0.0068941747545612792 0 0.056706257478233435 0.0044282223322949172 0 0.06162066563210792 0.0063353679857468684 0 0.058166092953961572 0.0068941747545612792 0 0.055922938382081233 0.010397430261436452 0 0.059216230799170586 0.013935603396081483 0 0.06097389302462608 0.010858226270329969 0 0.058166092953961572 0.0068941747545612792 0 0.055922938382081233 0.010397430261436452 0 0.06097389302462608 0.010858226270329969 0 0.064014007030460063 0.010549535382048135 0 0.067421656056433035 0.014788168133477273 0 0.055922938382081233 0.010397430261436452 0 0.059216230799170586 0.013935603396081483 0 0.055521578305750621 0.017378628724261793 0 0.059216230799170586 0.013935603396081483 0 0.06097389302462608 0.010858226270329969 0 0.062951645190522085 0.01452766850929204 0 0.06162066563210792 0.0063353679857468684 0 0.06097389302462608 0.010858226270329969 0 0.066813955417884222 0.013175043339429844 0 0.059168003700402962 0.0056684545786690474 0 0.06076742163160806 0.0080097798487950029 0 0.053711301904221256 0.00053679611765169544 0 0.052988756929839675 0.00062840023892839225 0 0.053118272139086806 0.00021062613218627364 0 0.06097389302462608 0.010858226270329969 0 0.066813955417884222 0.013175043339429844 0 0.062951645190522085 0.01452766850929204 0 0.066813955417884222 0.013175043339429844 0 0.062951645190522085 0.01452766850929204 0 0.065670927431794132 0.017626567157416582 0 0.062951645190522085 0.01452766850929204 0 0.061862802168850317 0.017822285509552206 0 0.065670927431794132 0.017626567157416582 0 0.061862802168850317 0.017822285509552206 0 0.065670927431794132 0.017626567157416582 0 0.065808014342703267 0.021157381350522954 0 0.065670927431794132 0.017626567157416582 0 0.065808014342703267 0.021157381350522954 0 0.07090654084457787 0.021390051221412958 0 0.061862802168850317 0.017822285509552206 0 0.065808014342703267 0.021157381350522954 0 0.06174640936565938 0.024386626719202616 0 0.065808014342703267 0.021157381350522954 0 0.068031604826043909 0.025286539114728866 0 0.07090654084457787 0.021390051221412958 0 0.065808014342703267 0.021157381350522954 0 0.068031604826043909 0.025286539114728866 0 0.06174640936565938 0.024386626719202616 0 0.068615796626936051 0.021838052138604184 0 0.067421656056433035 0.014788168133477273 0 0.069599369310015063 0.029383150603939923 0 0.069298180553544197 0.028936326217162179 0 0.069245716443840283 0.02947245545249505 0 0.061862802168850317 0.017822285509552206 0 0.06174640936565938 0.024386626719202616 0 0.055521578305750621 0.017378628724261793 0 0.059216230799170586 0.013935603396081483 0 0.061862802168850317 0.017822285509552206 0 0.055521578305750621 0.017378628724261793 0 0.059216230799170586 0.013935603396081483 0 0.062951645190522085 0.01452766850929204 0 0.061862802168850317 0.017822285509552206 0 0.069233332161121958 0.0097846731015616712 0 0.067421656056433035 0.014788168133477273 0 0.083132117198031749 0.0080786010348341247 0 0.08338577508543045 0.0083932533752819633 0 0.083027593370800803 0.0083283107649079185 0 0.08338577508543045 0.0083932533752819633 0 0.083027593370800803 0.0083283107649079185 0 0.082988489677143978 0.0086404500573772584 0 0.082695404953873841 0.0083118193729425638 0 0.082877309766946905 0.008084227624772589 0 0.083027593370800803 0.0083283107649079185 0 0.082695404953873841 0.0083118193729425638 0 0.083027593370800803 0.0083283107649079185 0 0.082988489677143978 0.0086404500573772584 0 0.08338577508543045 0.0083932533752819633 0 0.083202126606875176 0.0088323442242820415 0 0.083352603787956378 0.0090512634235273351 0 0.08338577508543045 0.0083932533752819633 0 0.082988489677143978 0.0086404500573772584 0 0.083202126606875176 0.0088323442242820415 0 0.067421656056433035 0.014788168133477273 0 0.07361715313767131 0.018377675121825473 0 0.083352603787956378 0.0090512634235273351 0 0.083414987801582144 0.0090265465223069771 0 0.083714761207845267 0.0087803636782675092 0 0.083202126606875176 0.0088323442242820415 0 0.083352603787956378 0.0090512634235273351 0 0.083414987801582144 0.0090265465223069771 0 0.082988489677143978 0.0086404500573772584 0 0.083202126606875176 0.0088323442242820415 0 0.082869914339467013 0.0088732248294588808 0 0.082750391522621383 0.0087625979771121295 0 0.082988489677143978 0.0086404500573772584 0 0.082869914339467013 0.0088732248294588808 0 0.083414987801582144 0.0090265465223069771 0 0.082869914339467013 0.0088732248294588808 0 0.082740733988145035 0.0089143347339790419 0 0.083202126606875176 0.0088323442242820415 0 0.083414987801582144 0.0090265465223069771 0 0.082869914339467013 0.0088732248294588808 0 0.083414987801582144 0.0090265465223069771 0 0.082740733988145035 0.0089143347339790419 0 0.082572227506701859 0.0089409407670427241 0 0.08408291523234826 0.0084854988512002936 0 0.084443705239631198 0.0081450842593016933 0 0.083414987801582144 0.0090265465223069771 0 0.084626870716181246 0.008666230889251279 0 0.085230843350522875 0.0088063430195168494 0 0.083992835877742159 0.0084652081760802269 0 0.084626870716181246 0.008666230889251279 0 0.083714761207845267 0.0087803636782675092 0 0.083594361299647327 0.0084920458716440973 0 0.083352603787956378 0.0090512634235273351 0 0.083714761207845267 0.0087803636782675092 0 0.083414987801582144 0.0090265465223069771 0 0.084626870716181246 0.008666230889251279 0 0.083714761207845267 0.0087803636782675092 0 0.078013166127773245 0.018551385479931536 0 0.07361715313767131 0.018377675121825473 0 0.083594361299647327 0.0084920458716440973 0 0.083992835877742159 0.0084652081760802269 0 0.083714761207845267 0.0087803636782675092 0 0.068970396352025898 0.030683592717161461 0 0.069245716443840283 0.02947245545249505 0 0.069731616629431725 0.029936711751277632 0 0.069947130083942127 0.030653373177281226 0 0.068970396352025898 0.030683592717161461 0 0.069731616629431725 0.029936711751277632 0 0.069947130083942127 0.030653373177281226 0 0.069731616629431725 0.029936711751277632 0 0.070392570160446144 0.030208247838207625 0 0.069731616629431725 0.029936711751277632 0 0.070392570160446144 0.030208247838207625 0 0.069371217860881448 0.029614013066278571 0 0.071993783280207127 0.030808679716554661 0 0.070392570160446144 0.030208247838207625 0 0.070537231858567445 0.030520265447945168 0 0.070392570160446144 0.030208247838207625 0 0.069371217860881448 0.029614013066278571 0 0.070537231858567445 0.030520265447945168 0 0.069731616629431725 0.029936711751277632 0 0.069371217860881448 0.029614013066278571 0 0.069586618488772317 0.029614626456289688 0 0.068031604826043909 0.025286539114728866 0 0.06174640936565938 0.024386626719202616 0 0.069371217860881448 0.029614013066278571 0 0.069599369310015063 0.029383150603939923 0 0.069371217860881448 0.029614013066278571 0 0.069586618488772317 0.029614626456289688 0 0.068615796626936051 0.021838052138604184 0 0.069368526608066167 0.024249882767657927 0 0.069599369310015063 0.029383150603939923 0 0.069245716443840283 0.02947245545249505 0 0.069586618488772317 0.029614626456289688 0 0.069245716443840283 0.02947245545249505 0 0.069731616629431725 0.029936711751277632 0 0.069586618488772317 0.029614626456289688 0 0.05609462988929121 0.0038836586925733883 0 0.057518613706900416 0.0044436155483293461 0 0.057391147880580376 0.0030913582090334188 0 0.068031604826043909 0.025286539114728866 0 0.069371217860881448 0.029614013066278571 0 0.07305542227116231 0.028324608764512798 0 0.069281187131129698 0.016490719229474017 0 0.064653302474726199 0.011858508200363186 0 0.070674778612798181 0.031333906461163435 0 0.07305542227116231 0.028324608764512798 0 0.070537231858567445 0.030520265447945168 0 0.069371217860881448 0.029614013066278571 0 0.07305542227116231 0.028324608764512798 0 0.070537231858567445 0.030520265447945168 0 0.070674778612798181 0.031333906461163435 0 0.071993783280207127 0.030808679716554661 0 0.070537231858567445 0.030520265447945168 0 0.065436400837072556 0.007630580241139287 0 0.064653302474726199 0.011858508200363186 0 0.071801653968926418 0.0098343518496560953 0 0.073967226024783561 0.0099431129137082901 0 0.072957027084061835 0.012960284735554559 0 0.056834129802223021 0.0057811924367968132 0 0.05609462988929121 0.0038836586925733883 0 0.057518613706900416 0.0044436155483293461 0 0.058854128630405615 0.0058599198361267892 0 0.056834129802223021 0.0057811924367968132 0 0.057518613706900416 0.0044436155483293461 0 0.058854128630405615 0.0058599198361267892 0 0.057518613706900416 0.0044436155483293461 0 0.05879507097559495 0.0044505640341778964 0 0.058854128630405615 0.0058599198361267892 0 0.05879507097559495 0.0044505640341778964 0 0.060187696383447398 0.0040128939845684641 0 0.065871249374182719 0.0032048012942240685 0 0.065694513926254763 0.0018095442794103971 0 0.058483961448792962 0.003408874397048926 0 0.059685472157063317 0.0022421373409584446 0 0.060187696383447398 0.0040128939845684641 0 0.05879507097559495 0.0044505640341778964 0 0.058483961448792962 0.003408874397048926 0 0.060187696383447398 0.0040128939845684641 0 0.057518613706900416 0.0044436155483293461 0 0.058483961448792962 0.003408874397048926 0 0.057391147880580376 0.0030913582090334188 0 0.057518613706900416 0.0044436155483293461 0 0.05879507097559495 0.0044505640341778964 0 0.058483961448792962 0.003408874397048926 0 0.057391147880580376 0.0030913582090334188 0 0.058140172121761279 0.0019789941601057667 0 0.05673083490812042 0.0017356854656828864 0 0.058483961448792962 0.003408874397048926 0 0.057391147880580376 0.0030913582090334188 0 0.058140172121761279 0.0019789941601057667 0 0.058483961448792962 0.003408874397048926 0 0.058140172121761279 0.0019789941601057667 0 0.059685472157063317 0.0022421373409584446 0 0.058140172121761279 0.0019789941601057667 0 0.059685472157063317 0.0022421373409584446 0 0.059286086196018349 0.00062997212442623062 0 0.058140172121761279 0.0019789941601057667 0 0.057787684629649234 0.00089342636069590598 0 0.05673083490812042 0.0017356854656828864 0 0.058140172121761279 0.0019789941601057667 0 0.057787684629649234 0.00089342636069590598 0 0.059286086196018349 0.00062997212442623062 0 0.056067047476257389 0.0028350290497877783 0 0.055073884764945749 0.0012809554569867267 0 0.055753501259316093 0.00058971501022756054 0 0.056067047476257389 0.0028350290497877783 0 0.054301483585314933 0.0018477945357748254 0 0.055073884764945749 0.0012809554569867267 0 0.054951710864002648 0.0064186658498545657 0 0.056067047476257389 0.0028350290497877783 0 0.053904071536577718 0.0036566353993245865 0 0.05609462988929121 0.0038836586925733883 0 0.057391147880580376 0.0030913582090334188 0 0.05673083490812042 0.0017356854656828864 0 0.064653302474726199 0.011858508200363186 0 0.061164465280406803 0.0046375976572432245 0 0.064653302474726199 0.011858508200363186 0 0.062911792943091099 0.011150767393953655 0 0.068031604826043909 0.025286539114728866 0 0.07305542227116231 0.028324608764512798 0 0.07090654084457787 0.021390051221412958 0 0.066813955417884222 0.013175043339429844 0 0.065670927431794132 0.017626567157416582 0 0.07090654084457787 0.021390051221412958 0 0.06076742163160806 0.0080097798487950029 0 0.062911792943091099 0.011150767393953655 0 0.056067047476257389 0.0028350290497877783 0 0.053904071536577718 0.0036566353993245865 0 0.054301483585314933 0.0018477945357748254 0 0.052988756929839675 0.00062840023892839225 0 0.053904071536577718 0.0036566353993245865 0 0.054301483585314933 0.0018477945357748254 0 0.052988756929839675 0.00062840023892839225 0 0.054301483585314933 0.0018477945357748254 0 0.054387424722814888 0.00058243619544829381 0 0.052988756929839675 0.00062840023892839225 0 0.054387424722814888 0.00058243619544829381 0 0.053118272139086806 0.00021062613218627364 0 0.054387424722814888 0.00058243619544829381 0 0.053118272139086806 0.00021062613218627364 0 0.056512514216505591 -0.0011170733104380241 0 0.054301483585314933 0.0018477945357748254 0 0.054387424722814888 0.00058243619544829381 0 0.055073884764945749 0.0012809554569867267 0 0.056067047476257389 0.0028350290497877783 0 0.055753501259316093 0.00058971501022756054 0 0.057174190001781824 -0.00048777913647707761 0 0.061164465280406803 0.0046375976572432245 0 0.060357076702197199 0.0023182110323273783 0 0.054387424722814888 0.00058243619544829381 0 0.055753501259316093 0.00058971501022756054 0 0.056512514216505591 -0.0011170733104380241 0 0.054387424722814888 0.00058243619544829381 0 0.055073884764945749 0.0012809554569867267 0 0.055753501259316093 0.00058971501022756054 0 0.055753501259316093 0.00058971501022756054 0 0.056512514216505591 -0.0011170733104380241 0 0.057174190001781824 -0.00048777913647707761 0 0.049214683805892133 0.00073753361431228199 0 0.0509291875180031 0.0011555302406320788 0 0.049805136650355887 0.0023078658604362735 0 0.051543334700345826 0.0015354539282953395 0 0.0509291875180031 0.0011555302406320788 0 0.049805136650355887 0.0023078658604362735 0 0.049214683805892133 0.00073753361431228199 0 0.049805136650355887 0.0023078658604362735 0 0.048145163823686388 0.0023008105410355266 0 0.052943011658534128 2.4461739782466916e-05 0 0.052803983426872987 3.311999853120197e-05 0 0.053118272139086806 0.00021062613218627364 0 0.049214683805892133 0.00073753361431228199 0 0.0509291875180031 0.0011555302406320788 0 0.053118272139086806 0.00021062613218627364 0 0.051543334700345826 0.0015354539282953395 0 0.052747804754463369 0.0010400518401946818 0 0.053118272139086806 0.00021062613218627364 0 0.051543334700345826 0.0015354539282953395 0 0.0509291875180031 0.0011555302406320788 0 0.051543334700345826 0.0015354539282953395 0 0.052747804754463369 0.0010400518401946818 0 0.052613400075534354 0.0021625596471069575 0 0.051543334700345826 0.0015354539282953395 0 0.052613400075534354 0.0021625596471069575 0 0.051282998610349136 0.0035675668497023587 0 0.051543334700345826 0.0015354539282953395 0 0.051282998610349136 0.0035675668497023587 0 0.049805136650355887 0.0023078658604362735 0 0.053149992854619743 0.00397856133375021 0 0.052613400075534354 0.0021625596471069575 0 0.051282998610349136 0.0035675668497023587 0 0.049805136650355887 0.0023078658604362735 0 0.049665530022818857 0.0042039192199515808 0 0.048435880600453118 0.0036585072872573816 0 0.051282998610349136 0.0035675668497023587 0 0.049805136650355887 0.0023078658604362735 0 0.049665530022818857 0.0042039192199515808 0 0.049665530022818857 0.0042039192199515808 0 0.050396710366852823 0.005584809059486863 0 0.048560359018899941 0.0057528256373347289 0 0.049665530022818857 0.0042039192199515808 0 0.048435880600453118 0.0036585072872573816 0 0.048560359018899941 0.0057528256373347289 0 0.052406014357463511 0.0055343445639325787 0 0.051282998610349136 0.0035675668497023587 0 0.050396710366852823 0.005584809059486863 0 0.051282998610349136 0.0035675668497023587 0 0.049665530022818857 0.0042039192199515808 0 0.050396710366852823 0.005584809059486863 0 0.053149992854619743 0.00397856133375021 0 0.052406014357463511 0.0055343445639325787 0 0.051282998610349136 0.0035675668497023587 0 0.047119427080281988 0.0047884818671172641 0 0.045346622324008677 0.0041190900477434764 0 0.046073688571805667 0.0063410496187743162 0 0.047119427080281988 0.0047884818671172641 0 0.047071695272942235 0.0032373592839264544 0 0.045346622324008677 0.0041190900477434764 0 0.047119427080281988 0.0047884818671172641 0 0.048435880600453118 0.0036585072872573816 0 0.048560359018899941 0.0057528256373347289 0 0.047119427080281988 0.0047884818671172641 0 0.048435880600453118 0.0036585072872573816 0 0.047071695272942235 0.0032373592839264544 0 0.048145163823686388 0.0023008105410355266 0 0.047071695272942235 0.0032373592839264544 0 0.046192033931265947 0.001941251273515535 0 0.048435880600453118 0.0036585072872573816 0 0.048145163823686388 0.0023008105410355266 0 0.047071695272942235 0.0032373592839264544 0 0.049805136650355887 0.0023078658604362735 0 0.048435880600453118 0.0036585072872573816 0 0.048145163823686388 0.0023008105410355266 0 0.047071695272942235 0.0032373592839264544 0 0.046192033931265947 0.001941251273515535 0 0.045346622324008677 0.0041190900477434764 0 0.05914257419753579 -0.0014860163904894964 0 0.058738397780274301 -0.00029899677745639657 0 0.060039384490817881 -0.0010172522240668692 0 0.052803983426872987 3.311999853120197e-05 0 0.052273532173997751 0.0001949728225531238 0 0.049214683805892133 0.00073753361431228199 0 0.048145163823686388 0.0023008105410355266 0 0.046192033931265947 0.001941251273515535 0 0.05914257419753579 -0.0014860163904894964 0 0.057174190001781824 -0.00048777913647707761 0 0.058738397780274301 -0.00029899677745639657 0 0.056512514216505591 -0.0011170733104380241 0 0.05914257419753579 -0.0014860163904894964 0 0.057174190001781824 -0.00048777913647707761 0 0.057787684629649234 0.00089342636069590598 0 0.05673083490812042 0.0017356854656828864 0 0.057174190001781824 -0.00048777913647707761 0 0.057787684629649234 0.00089342636069590598 0 0.057174190001781824 -0.00048777913647707761 0 0.058738397780274301 -0.00029899677745639657 0 0.057787684629649234 0.00089342636069590598 0 0.058738397780274301 -0.00029899677745639657 0 0.059286086196018349 0.00062997212442623062 0 0.058738397780274301 -0.00029899677745639657 0 0.059286086196018349 0.00062997212442623062 0 0.060039384490817881 -0.0010172522240668692 0 0.059286086196018349 0.00062997212442623062 0 0.061173350532214309 0.00024904154014859082 0 0.060867713328023258 0.001089285872548943 0 0.059531792844716609 -0.00029529384647002642 0 0.059718715534150965 -0.00058411658249275453 0 0.059286086196018349 0.00062997212442623062 0 0.060617633164739462 -0.00026647393053077627 0 0.060039384490817881 -0.0010172522240668692 0 0.061173350532214309 0.00024904154014859082 0 0.061835759196820182 0.0010442599084038396 0 0.062135373579164155 0.0002057943158224477 0 0.061173350532214309 0.00024904154014859082 0 0.062135373579164155 0.0002057943158224477 0 0.060867713328023258 0.001089285872548943 0 0.060872895516992091 -0.0012310990805017917 0 0.061262585206254105 -0.0013645494731948176 0 0.061622624240812468 -0.00094189840197966043 0 0.059718715534150965 -0.00058411658249275453 0 0.058895033653924247 -0.0009218737966065865 0 0.060617633164739462 -0.00026647393053077627 0 0.060872895516992091 -0.0012310990805017917 0 0.061622624240812468 -0.00094189840197966043 0 0.060872895516992091 -0.0012310990805017917 0 0.061262585206254105 -0.0013645494731948176 0 0.060924878024264911 -0.0015835185349623376 0 0.05914257419753579 -0.0014860163904894964 0 0.060039384490817881 -0.0010172522240668692 0 0.060937173221402088 -0.0017564885172717834 0 0.060617633164739462 -0.00026647393053077627 0 0.060872895516992091 -0.0012310990805017917 0 0.060039384490817881 -0.0010172522240668692 0 0.060872895516992091 -0.0012310990805017917 0 0.060039384490817881 -0.0010172522240668692 0 0.060937173221402088 -0.0017564885172717834 0 0.052273532173997751 0.0001949728225531238 0 0.050178385030353698 0.00069273346562670664 0 0.046192033931265947 0.001941251273515535 0 0.043574265118810226 0.0027795599117691919 0 0.045346622324008677 0.0041190900477434764 0 0.050500399300572596 0.00039613644881739298 0 0.050178385030353698 0.00069273346562670664 0 0.061262585206254105 -0.0013645494731948176 0 0.060924878024264911 -0.0015835185349623376 0 0.061612713705670848 -0.0015018486159099477 0 0.050178385030353698 0.00069273346562670664 0 0.04586099253370543 0.0023595853180614496 0 0.043720536702823526 0.0017005637617848117 0 0.043863271711990046 7.7368386672494772e-05 0 0.044597816561933457 0.00092736566800963479 0 0.043863271711990046 7.7368386672494772e-05 0 0.044910295169076894 -1.0660836113431223e-05 0 0.044597816561933457 0.00092736566800963479 0 0.043425754428340228 0.0050737123387499519 0 0.045346622324008677 0.0041190900477434764 0 0.044504401744941552 0.0062480245077880733 0 0.043574265118810226 0.0027795599117691919 0 0.043425754428340228 0.0050737123387499519 0 0.045346622324008677 0.0041190900477434764 0 0.048210499105005973 0.00010144743038662938 0 0.048254921905112776 -1.8569441084650819e-06 0 0.049863169474242811 0.00018355238611640409 0 0.048210499105005973 0.00010144743038662938 0 0.04677224742397388 -4.4880683576192061e-05 0 0.04761884801110812 0.00042464426770713056 0 0.048210499105005973 0.00010144743038662938 0 0.048254921905112776 -1.8569441084650819e-06 0 0.04677224742397388 -4.4880683576192061e-05 0 0.051454391582414681 -0.00096823385884253635 0 0.052878982135582932 -2.2114236689952324e-06 0 0.044910295169076894 -1.0660836113431223e-05 0 0.045589149378658968 0.00099812804557671995 0 0.044597816561933457 0.00092736566800963479 0 0.04677224742397388 -4.4880683576192061e-05 0 0.044910295169076894 -1.0660836113431223e-05 0 0.04761884801110812 0.00042464426770713056 0 0.043720536702823526 0.0017005637617848117 0 0.044597816561933457 0.00092736566800963479 0 0.04571243504249816 0.0011828755339940856 0 0.050178385030353698 0.00069273346562670664 0 0.053462640746768042 0.00040096780223178535 0 0.060924878024264911 -0.0015835185349623376 0 0.061612713705670848 -0.0015018486159099477 0 0.062142847650079179 -0.0018681063579969457 0 0.045589149378658968 0.00099812804557671995 0 0.044597816561933457 0.00092736566800963479 0 0.04571243504249816 0.0011828755339940856 0 0.061262585206254105 -0.0013645494731948176 0 0.061612713705670848 -0.0015018486159099477 0 0.06165650876192616 -0.0012981279133169089 0 0.061612713705670848 -0.0015018486159099477 0 0.062010864790513306 -0.0014286378370039819 0 0.06165650876192616 -0.0012981279133169089 0 0.061612713705670848 -0.0015018486159099477 0 0.062010864790513306 -0.0014286378370039819 0 0.062142847650079179 -0.0018681063579969457 0 0.053462640746768042 0.00040096780223178535 0 0.054343535457111118 -0.00041157834909673211 0 0.048230834127723464 0.00042496961805956563 0 0.049863169474242811 0.00018355238611640409 0 0.050581309884593244 0.0014308886615923351 0 0.062010864790513306 -0.0014286378370039819 0 0.062142847650079179 -0.0018681063579969457 0 0.062445409538988104 -0.0014022827386361242 0 0.048254921905112776 -1.8569441084650819e-06 0 0.049863169474242811 0.00018355238611640409 0 0.0527046645775801 4.8407976042068002e-06 0 0.04761884801110812 0.00042464426770713056 0 0.048230834127723464 0.00042496961805956563 0 0.049863169474242811 0.00018355238611640409 0 0.048210499105005973 0.00010144743038662938 0 0.04761884801110812 0.00042464426770713056 0 0.049863169474242811 0.00018355238611640409 0 0.052878982135582932 -2.2114236689952324e-06 0 0.053462640746768042 0.00040096780223178535 0 0.049863169474242811 0.00018355238611640409 0 0.050581309884593244 0.0014308886615923351 0 0.0527046645775801 4.8407976042068002e-06 0 0.054343535457111118 -0.00041157834909673211 0 0.052716620874222367 -1.9601389367079245e-07 0 0.053323788985536254 -1.0838899650009085e-06 0 0.052714303967647112 -4.3161652486475946e-09 0 0.055131849065357286 1.4845726956614215e-10 0 0.056741047125723407 0.0026304194673979465 0 0.05515272119865916 7.6445833010878542e-06 0 0.061835759196820182 0.0010442599084038396 0 0.054343535457111118 -0.00041157834909673211 0 0.055132964331406832 -4.1273205116858342e-07 0 0.05515272119865916 7.6445833010878542e-06 0 0.061835759196820182 0.0010442599084038396 0 0.062135373579164155 0.0002057943158224477 0 0.054343535457111118 -0.00041157834909673211 0 0.058895033653924247 -0.0009218737966065865 0 0.062010864790513306 -0.0014286378370039819 0 0.062445409538988104 -0.0014022827386361242 0 0.061622624240812468 -0.00094189840197966043 0 0.061262585206254105 -0.0013645494731948176 0 0.06165650876192616 -0.0012981279133169089 0 0.061622624240812468 -0.00094189840197966043 0 0.062010864790513306 -0.0014286378370039819 0 0.06165650876192616 -0.0012981279133169089 0 0.061622624240812468 -0.00094189840197966043 0 0.05515272119865916 7.6445833010878542e-06 0 0.062135373579164155 0.0002057943158224477 0 0.069165623440988283 -3.6613799111482577e-06 0 0.062135373579164155 0.0002057943158224477 0 0.068023673307609792 0.00014328014820003769 0 0.069165623440988283 -3.6613799111482577e-06 0 0.064732144472442604 0.00059565734994508754 0 0.065232467657529436 0.0008630502772031905 0 0.062135373579164155 0.0002057943158224477 0 0.060867713328023258 0.001089285872548943 0 0.061480915567155583 0.0020439112708903356 0 0.059685472157063317 0.0022421373409584446 0 0.059286086196018349 0.00062997212442623062 0 0.060867713328023258 0.001089285872548943 0 0.059685472157063317 0.0022421373409584446 0 0.060867713328023258 0.001089285872548943 0 0.061480915567155583 0.0020439112708903356 0 0.065232467657529436 0.0008630502772031905 0 0.065694513926254763 0.0018095442794103971 0 0.059685472157063317 0.0022421373409584446 0 0.061480915567155583 0.0020439112708903356 0 0.060187696383447398 0.0040128939845684641 0 0.068023673307609792 0.00014328014820003769 0 0.070360466805246172 -0.00012027836183042962 0 0.071494968780608403 -0.00024383529142384827 0 0.071875549754607901 0.00025041749503898329 0 0.071494968780608403 -0.00024383529142384827 0 0.072365829264365591 -0.00013550828140011475 0 0.071875549754607901 0.00025041749503898329 0 0.071525022343898348 0.00019608755064708211 0 0.071494968780608403 -0.00024383529142384827 0 0.070360466805246172 -0.00012027836183042962 0 0.071494968780608403 -0.00024383529142384827 0 0.072365829264365591 -0.00013550828140011475 0 0.070360466805246172 -0.00012027836183042962 0 0.072365829264365591 -0.00013550828140011475 0 0.071909131774488974 -0.00018549923552843407 0 0.068023673307609792 0.00014328014820003769 0 0.070360466805246172 -0.00012027836183042962 0 0.069165623440988283 -3.6613799111482577e-06 0 0.074998617713014984 -0.00018577010346625721 0 0.071909131774488974 -0.00018549923552843407 0 0.069165623440988283 -3.6613799111482577e-06 0 0.070360466805246172 -0.00012027836183042962 0 0.071909131774488974 -0.00018549923552843407 0 0.069165623440988283 -3.6613799111482577e-06 0 0.021532634545037618 0.00090672457113849926 0 0.022218735208776229 0.0018627361626954307 0 0.021307851970302272 0.0029623126470932123 0 0.02839788294011495 0.0030793764236027653 0 0.029161932052301703 0.0037608859211972186 0 0.022473447604290465 0.0011909039783726508 0 0.023749954031399054 0.0013223574949137566 0 0.022429541482855194 0.00094832383986200735 0 0.023749954031399054 0.0013223574949137566 0 0.025299376986507471 0.00056143150014986037 0 0.022429541482855194 0.00094832383986200735 0 0.022473447604290465 0.0011909039783726508 0 0.021532634545037618 0.00090672457113849926 0 0.022218735208776229 0.0018627361626954307 0 0.022473447604290465 0.0011909039783726508 0 0.021532634545037618 0.00090672457113849926 0 0.022429541482855194 0.00094832383986200735 0 0.022218735208776229 0.0018627361626954307 0 0.023039759919388943 0.0027349931420829481 0 0.021307851970302272 0.0029623126470932123 0 0.022218735208776229 0.0018627361626954307 0 0.023749954031399054 0.0013223574949137566 0 0.023039759919388943 0.0027349931420829481 0 0.022473447604290465 0.0011909039783726508 0 0.022218735208776229 0.0018627361626954307 0 0.023749954031399054 0.0013223574949137566 0 0.023749954031399054 0.0013223574949137566 0 0.02467744346245165 0.0021099810778402064 0 0.023039759919388943 0.0027349931420829481 0 0.023749954031399054 0.0013223574949137566 0 0.02467744346245165 0.0021099810778402064 0 0.025690387387192579 0.0010618755679303448 0 0.02467744346245165 0.0021099810778402064 0 0.025690387387192579 0.0010618755679303448 0 0.02857492680248536 0.00083199022648959206 0 0.023749954031399054 0.0013223574949137566 0 0.025690387387192579 0.0010618755679303448 0 0.025299376986507471 0.00056143150014986037 0 0.025690387387192579 0.0010618755679303448 0 0.02857492680248536 0.00083199022648959206 0 0.025299376986507471 0.00056143150014986037 0 0.029361586131009216 2.5564605803422409e-06 0 0.025299376986507471 0.00056143150014986037 0 0.023829573660197469 1.9525068321121533e-06 0 0.029361586131009216 2.5564605803422409e-06 0 0.02857492680248536 0.00083199022648959206 0 0.025299376986507471 0.00056143150014986037 0 0.025299376986507471 0.00056143150014986037 0 0.023829573660197469 1.9525068321121533e-06 0 0.022402499224008172 0.00084392225353567053 0 0.025299376986507471 0.00056143150014986037 0 0.022402499224008172 0.00084392225353567053 0 0.022429541482855194 0.00094832383986200735 0 0.022402499224008172 0.00084392225353567053 0 0.020512881145746897 0.0016695833982588058 0 0.019653024746698423 0.0013540359692481554 0 0.020512881145746897 0.0016695833982588058 0 0.02171832395587139 0.00095072571959402405 0 0.017753016855749714 0.0034656643822528546 0 0.022402499224008172 0.00084392225353567053 0 0.022429541482855194 0.00094832383986200735 0 0.020512881145746897 0.0016695833982588058 0 0.021532634545037618 0.00090672457113849926 0 0.022429541482855194 0.00094832383986200735 0 0.020512881145746897 0.0016695833982588058 0 0.021532634545037618 0.00090672457113849926 0 0.020512881145746897 0.0016695833982588058 0 0.02171832395587139 0.00095072571959402405 0 0.014088907826823415 0.0067094059614137827 0 0.016181423929212454 0.01237675932246198 0 0.017753016855749714 0.0034656643822528546 0 0.02329669787258188 0.0067431409602092202 0 0.022663138936218304 0.0054450953903900359 0 0.014088907826823415 0.0067094059614137827 0 0.013737925860226857 0.010635283121455954 0 0.01200378966007604 0.010293867855315308 0 0.013737925860226857 0.010635283121455954 0 0.01200378966007604 0.010293867855315308 0 0.012848312510270394 0.012897827468440806 0 0.013737925860226857 0.010635283121455954 0 0.016181423929212454 0.01237675932246198 0 0.012848312510270394 0.012897827468440806 0 0.014088907826823415 0.0067094059614137827 0 0.013737925860226857 0.010635283121455954 0 0.016181423929212454 0.01237675932246198 0 0.014088907826823415 0.0067094059614137827 0 0.01200378966007604 0.010293867855315308 0 0.0093966746098123818 0.0078773956955249733 0 0.01200378966007604 0.010293867855315308 0 0.0089297263201256853 0.012286806020394302 0 0.011053033865261986 0.012523077651911312 0 0.01200378966007604 0.010293867855315308 0 0.011053033865261986 0.012523077651911312 0 0.012848312510270394 0.012897827468440806 0 0.0089297263201256853 0.012286806020394302 0 0.0063342429793769852 0.011531177505176357 0 0.0093966746098123818 0.0078773956955249733 0 0.01200378966007604 0.010293867855315308 0 0.0089297263201256853 0.012286806020394302 0 0.0093966746098123818 0.0078773956955249733 0 0.0089297263201256853 0.012286806020394302 0 0.010546831865779472 0.014507731594150882 0 0.0082722455415385164 0.014927439303277388 0 0.010546831865779472 0.014507731594150882 0 0.012848312510270394 0.012897827468440806 0 0.012681100531393116 0.015472192638882963 0 0.0089297263201256853 0.012286806020394302 0 0.011053033865261986 0.012523077651911312 0 0.010546831865779472 0.014507731594150882 0 0.011053033865261986 0.012523077651911312 0 0.010546831865779472 0.014507731594150882 0 0.012848312510270394 0.012897827468440806 0 0.010546831865779472 0.014507731594150882 0 0.012681100531393116 0.015472192638882963 0 0.010191864149766354 0.016853182997106749 0 0.0082722455415385164 0.014927439303277388 0 0.010191864149766354 0.016853182997106749 0 0.0070608275301487083 0.017219147309151615 0 0.010546831865779472 0.014507731594150882 0 0.0082722455415385164 0.014927439303277388 0 0.010191864149766354 0.016853182997106749 0 0.02171832395587139 0.00095072571959402405 0 0.021733179917507825 0.00072563745743972825 0 0.02166538029474474 0.00074450054924403333 0 0.021532634545037618 0.00090672457113849926 0 0.02171832395587139 0.00095072571959402405 0 0.02166538029474474 0.00074450054924403333 0 0.02329669787258188 0.0067431409602092202 0 0.025531085335418605 0.0086286433782821765 0 0.016181423929212454 0.01237675932246198 0 0.012681100531393116 0.015472192638882963 0 0.014341033895890089 0.017738597826350778 0 0.016181423929212454 0.01237675932246198 0 0.012848312510270394 0.012897827468440806 0 0.012681100531393116 0.015472192638882963 0 0.014341033895890089 0.017738597826350778 0 0.010550090857485791 0.019645199357585668 0 0.013311378709623791 0.022654825644145796 0 0.025531085335418605 0.0086286433782821765 0 0.030723762857746882 0.0083243946568508278 0 0.021733179917507825 0.00072563745743972825 0 0.021721756759176123 0.00068220490341447241 0 0.02166538029474474 0.00074450054924403333 0 0.012681100531393116 0.015472192638882963 0 0.014341033895890089 0.017738597826350778 0 0.011939602015040371 0.01745139708683336 0 0.014341033895890089 0.017738597826350778 0 0.011939602015040371 0.01745139708683336 0 0.010550090857485791 0.019645199357585668 0 0.010191864149766354 0.016853182997106749 0 0.010550090857485791 0.019645199357585668 0 0.0070608275301487083 0.017219147309151615 0 0.012681100531393116 0.015472192638882963 0 0.011939602015040371 0.01745139708683336 0 0.010191864149766354 0.016853182997106749 0 0.011939602015040371 0.01745139708683336 0 0.010191864149766354 0.016853182997106749 0 0.010550090857485791 0.019645199357585668 0 0.031197232493032884 0.0083976329772495768 0 0.027403891963860099 0.011996128610274171 0 0.045041666288490476 0.010544337484935407 0 0.046161232141999339 0.0097174138843058588 0 0.046711547877626505 0.010524656027300121 0 0.010550090857485791 0.019645199357585668 0 0.012805115269848791 0.023024477760346947 0 0.006233135879545393 0.022444609282631187 0 0.021733179917507825 0.00072563745743972825 0 0.021721756759176123 0.00068220490341447241 0 0.021757988389417806 0.00066882390554473927 0 0.031665369156281098 0.0055873757736736671 0 0.030723762857746882 0.0083243946568508278 0 0.031665369156281098 0.0055873757736736671 0 0.033915441595555061 0.0058702508487449984 0 0.010550090857485791 0.019645199357585668 0 0.013311378709623791 0.022654825644145796 0 0.012805115269848791 0.023024477760346947 0 0.030723762857746882 0.0083243946568508278 0 0.031197232493032884 0.0083976329772495768 0 0.031856665815381123 0.0066320458212598384 0 0.031667191824432971 0.0078740509786945981 0 0.030267559566785243 0.0078516617244577102 0 0.030723762857746882 0.0083243946568508278 0 0.03129503733439884 0.0081166250803975017 0 0.03129503733439884 0.0081166250803975017 0 0.031197232493032884 0.0083976329772495768 0 0.031824692915186734 0.0073319167903531718 0 0.033574283688359949 0.0059871088260848148 0 0.031984722454909652 0.0056593914674564648 0 0.03129503733439884 0.0081166250803975017 0 0.033915441595555061 0.0058702508487449984 0 0.033574283688359949 0.0059871088260848148 0 0.033619979576576232 0.0056861829332930059 0 0.031984722454909652 0.0056593914674564648 0 0.042336423294390482 0.001840274282643732 0 0.039968434731553489 0.0018296888993296265 0 0.041372695170605857 0.00046186149074577712 0 0.033915441595555061 0.0058702508487449984 0 0.034926517873053731 0.0027489135747337545 0 0.03101195014667742 0.00050382675550082658 0 0.031543216138861685 0.00055328218255512075 0 0.031320390667390847 0.00024630801538329331 0 0.031062692739608943 0.00024930874374710899 0 0.03101195014667742 0.00050382675550082658 0 0.031320390667390847 0.00024630801538329331 0 0.031665369156281098 0.0055873757736736671 0 0.029161932052301703 0.0037608859211972186 0 0.031665369156281098 0.0055873757736736671 0 0.030537162125889396 0.0049768921661212159 0 0.020810958863233326 0.0072846570721882432 0 0.023779744054733223 0.0050616568465216448 0 0.021307851970302272 0.0029623126470932123 0 0.031062692739608943 0.00024930874374710899 0 0.031320390667390847 0.00024630801538329331 0 0.031348022819266186 9.1188454737461941e-05 0 0.031320390667390847 0.00024630801538329331 0 0.031348022819266186 9.1188454737461941e-05 0 0.03151428267069608 -9.5278985003158294e-05 0 0.02467744346245165 0.0021099810778402064 0 0.023779744054733223 0.0050616568465216448 0 0.023039759919388943 0.0027349931420829481 0 0.023779744054733223 0.0050616568465216448 0 0.023039759919388943 0.0027349931420829481 0 0.021307851970302272 0.0029623126470932123 0 0.029361586131009216 2.5564605803422409e-06 0 0.03151428267069608 -9.5278985003158294e-05 0 0.034884791745550252 9.0417193180343859e-07 0 0.029361586131009216 2.5564605803422409e-06 0 0.02857492680248536 0.00083199022648959206 0 0.03151428267069608 -9.5278985003158294e-05 0 0.02857492680248536 0.00083199022648959206 0 0.031348022819266186 9.1188454737461941e-05 0 0.03151428267069608 -9.5278985003158294e-05 0 0.030451088485254772 0.0045518838452541007 0 0.030537162125889396 0.0049768921661212159 0 0.02467744346245165 0.0021099810778402064 0 0.02857492680248536 0.00083199022648959206 0 0.023779744054733223 0.0050616568465216448 0 0.034926517873053731 0.0027489135747337545 0 0.034891912584751675 8.1711790186311129e-06 0 0.031543216138861685 0.00055328218255512075 0 0.03151428267069608 -9.5278985003158294e-05 0 0.034884791745550252 9.0417193180343859e-07 0 0.031543216138861685 0.00055328218255512075 0 0.031320390667390847 0.00024630801538329331 0 0.03151428267069608 -9.5278985003158294e-05 0 0.039968434731553489 0.0018296888993296265 0 0.034898900312718431 5.7912479392386541e-06 0 0.03987334868706198 -0.00011686608576070705 0 0.034898900312718431 5.7912479392386541e-06 0 0.03987334868706198 -0.00011686608576070705 0 0.039346197067353261 -2.6196663297262179e-06 0 0.042336423294390482 0.001840274282643732 0 0.041372695170605857 0.00046186149074577712 0 0.042671947542361865 -0.0005304243019326688 0 0.039968434731553489 0.0018296888993296265 0 0.03987334868706198 -0.00011686608576070705 0 0.041372695170605857 0.00046186149074577712 0 0.03987334868706198 -0.00011686608576070705 0 0.041372695170605857 0.00046186149074577712 0 0.041747794648198958 -0.00045792670213510504 0 0.041372695170605857 0.00046186149074577712 0 0.041747794648198958 -0.00045792670213510504 0 0.042671947542361865 -0.0005304243019326688 0 0.03987334868706198 -0.00011686608576070705 0 0.041747794648198958 -0.00045792670213510504 0 0.041876883417200264 -0.00056043907899386259 0 0.041747794648198958 -0.00045792670213510504 0 0.042736159722470385 -0.00080096968158775022 0 0.042671947542361865 -0.0005304243019326688 0 0.041747794648198958 -0.00045792670213510504 0 0.042736159722470385 -0.00080096968158775022 0 0.041876883417200264 -0.00056043907899386259 0 0.039346197067353261 -2.6196663297262179e-06 0 0.041876883417200264 -0.00056043907899386259 0 0.043801326438477416 -8.155046954827146e-07 0 0.03987334868706198 -0.00011686608576070705 0 0.039346197067353261 -2.6196663297262179e-06 0 0.041876883417200264 -0.00056043907899386259 0 0.041876883417200264 -0.00056043907899386259 0 0.043801326438477416 -8.155046954827146e-07 0 0.044391179374956777 -0.000621665801894455 0 0.042736159722470385 -0.00080096968158775022 0 0.044391179374956777 -0.000621665801894455 0 0.043317374128988999 -0.00089826523679717169 0 0.042736159722470385 -0.00080096968158775022 0 0.041876883417200264 -0.00056043907899386259 0 0.044391179374956777 -0.000621665801894455 0 0.04677224742397388 -4.4880683576192061e-05 0 0.044910295169076894 -1.0660836113431223e-05 0 0.044391179374956777 -0.000621665801894455 0 0.044910295169076894 -1.0660836113431223e-05 0 0.044391179374956777 -0.000621665801894455 0 0.043317374128988999 -0.00089826523679717169 0 0.048254921905112776 -1.8569441084650819e-06 0 0.043801326438477416 -8.155046954827146e-07 0 0.044391179374956777 -0.000621665801894455 0 0.048254921905112776 -1.8569441084650819e-06 0 0.04677224742397388 -4.4880683576192061e-05 0 0.044391179374956777 -0.000621665801894455 0 0.045346622324008677 0.0041190900477434764 0 0.044504401744941552 0.0062480245077880733 0 0.046073688571805667 0.0063410496187743162 0 0.044504401744941552 0.0062480245077880733 0 0.045232740473603941 0.0078173680636907696 0 0.046073688571805667 0.0063410496187743162 0 0.04586099253370543 0.0023595853180614496 0 0.042699965910200269 0.0031980320674315902 0 0.043425754428340228 0.0050737123387499519 0 0.044504401744941552 0.0062480245077880733 0 0.043304908003078929 0.0072780970104457674 0 0.043863271711990046 7.7368386672494772e-05 0 0.044910295169076894 -1.0660836113431223e-05 0 0.043317374128988999 -0.00089826523679717169 0 0.044504401744941552 0.0062480245077880733 0 0.043304908003078929 0.0072780970104457674 0 0.045232740473603941 0.0078173680636907696 0 0.043304908003078929 0.0072780970104457674 0 0.045232740473603941 0.0078173680636907696 0 0.044145582524735702 0.0086870037944419796 0 0.045232740473603941 0.0078173680636907696 0 0.0451455696013707 0.0091816539782576187 0 0.044145582524735702 0.0086870037944419796 0 0.0451455696013707 0.0091816539782576187 0 0.044145582524735702 0.0086870037944419796 0 0.043961505418016258 0.0096280844401239758 0 0.043304908003078929 0.0072780970104457674 0 0.044145582524735702 0.0086870037944419796 0 0.043119453518430384 0.0094082149816690774 0 0.042736159722470385 -0.00080096968158775022 0 0.043317374128988999 -0.00089826523679717169 0 0.042671947542361865 -0.0005304243019326688 0 0.042699965910200269 0.0031980320674315902 0 0.039216972266138996 0.0043594645115299932 0 0.044145582524735702 0.0086870037944419796 0 0.043961505418016258 0.0096280844401239758 0 0.043119453518430384 0.0094082149816690774 0 0.043607490549829778 0.01169321367482732 0 0.04377943308179584 0.011696251964344956 0 0.043961505418016258 0.0096280844401239758 0 0.03129503733439884 0.0081166250803975017 0 0.033335111970634226 0.0085514820121073819 0 0.042888727633557062 0.011485167838609834 0 0.043961505418016258 0.0096280844401239758 0 0.043119453518430384 0.0094082149816690774 0 0.043634411326754927 0.011497245230761108 0 0.042888727633557062 0.011485167838609834 0 0.043961505418016258 0.0096280844401239758 0 0.033915441595555061 0.0058702508487449984 0 0.039216972266138996 0.0043594645115299932 0 0.031197232493032884 0.0083976329772495768 0 0.039217393233032104 0.006644729264988939 0 0.04377943308179584 0.011696251964344956 0 0.043961505418016258 0.0096280844401239758 0 0.045415297836094035 0.010470557866578897 0 0.0451455696013707 0.0091816539782576187 0 0.043961505418016258 0.0096280844401239758 0 0.045415297836094035 0.010470557866578897 0 0.039217393233032104 0.006644729264988939 0 0.041401187262121837 0.006279448309306478 0 0.046161232141999339 0.0097174138843058588 0 0.047332593653389696 0.0098064110941441015 0 0.046711547877626505 0.010524656027300121 0 0.046161232141999339 0.0097174138843058588 0 0.047332593653389696 0.0098064110941441015 0 0.047088060434332966 0.0091238857945517646 0 0.047332593653389696 0.0098064110941441015 0 0.047088060434332966 0.0091238857945517646 0 0.04835600433638694 0.0093900411228125466 0 0.047332593653389696 0.0098064110941441015 0 0.04835600433638694 0.0093900411228125466 0 0.048316619014226431 0.010232448580799566 0 0.047088060434332966 0.0091238857945517646 0 0.048430707883338323 0.0080904975424678713 0 0.04835600433638694 0.0093900411228125466 0 0.0451455696013707 0.0091816539782576187 0 0.045415297836094035 0.010470557866578897 0 0.047088060434332966 0.0091238857945517646 0 0.045232740473603941 0.0078173680636907696 0 0.0451455696013707 0.0091816539782576187 0 0.047088060434332966 0.0091238857945517646 0 0.045232740473603941 0.0078173680636907696 0 0.047088060434332966 0.0091238857945517646 0 0.046857253904883225 0.0077338639926223304 0 0.045232740473603941 0.0078173680636907696 0 0.046857253904883225 0.0077338639926223304 0 0.046073688571805667 0.0063410496187743162 0 0.047088060434332966 0.0091238857945517646 0 0.046857253904883225 0.0077338639926223304 0 0.048430707883338323 0.0080904975424678713 0 0.046857253904883225 0.0077338639926223304 0 0.048430707883338323 0.0080904975424678713 0 0.047482260128351716 0.0066917032146667273 0 0.047119427080281988 0.0047884818671172641 0 0.047482260128351716 0.0066917032146667273 0 0.048560359018899941 0.0057528256373347289 0 0.048430707883338323 0.0080904975424678713 0 0.047482260128351716 0.0066917032146667273 0 0.048560359018899941 0.0057528256373347289 0 0.047119427080281988 0.0047884818671172641 0 0.047482260128351716 0.0066917032146667273 0 0.046073688571805667 0.0063410496187743162 0 0.046857253904883225 0.0077338639926223304 0 0.047482260128351716 0.0066917032146667273 0 0.046073688571805667 0.0063410496187743162 0 0.05119626137132012 0.0070280734479897244 0 0.049599950402663268 0.0070016128129649939 0 0.049970561226069833 0.0082502268607785225 0 0.050396710366852823 0.005584809059486863 0 0.05119626137132012 0.0070280734479897244 0 0.049599950402663268 0.0070016128129649939 0 0.052406014357463511 0.0055343445639325787 0 0.050396710366852823 0.005584809059486863 0 0.05119626137132012 0.0070280734479897244 0 0.050396710366852823 0.005584809059486863 0 0.048560359018899941 0.0057528256373347289 0 0.049599950402663268 0.0070016128129649939 0 0.048430707883338323 0.0080904975424678713 0 0.048560359018899941 0.0057528256373347289 0 0.049599950402663268 0.0070016128129649939 0 0.048430707883338323 0.0080904975424678713 0 0.049970561226069833 0.0082502268607785225 0 0.049441779565987207 0.0091030827503276075 0 0.048430707883338323 0.0080904975424678713 0 0.049599950402663268 0.0070016128129649939 0 0.049970561226069833 0.0082502268607785225 0 0.049970561226069833 0.0082502268607785225 0 0.050225860824402419 0.0089054912062120316 0 0.051726312514137403 0.0083632929518255225 0 0.05119626137132012 0.0070280734479897244 0 0.049970561226069833 0.0082502268607785225 0 0.051726312514137403 0.0083632929518255225 0 0.049970561226069833 0.0082502268607785225 0 0.050225860824402419 0.0089054912062120316 0 0.049441779565987207 0.0091030827503276075 0 0.050225860824402419 0.0089054912062120316 0 0.049441779565987207 0.0091030827503276075 0 0.049896435470619595 0.0092110889581262668 0 0.049441779565987207 0.0091030827503276075 0 0.049345801986505886 0.0093405673800513282 0 0.049896435470619595 0.0092110889581262668 0 0.048430707883338323 0.0080904975424678713 0 0.049441779565987207 0.0091030827503276075 0 0.04835600433638694 0.0093900411228125466 0 0.04835600433638694 0.0093900411228125466 0 0.048963361067810553 0.0095534588079284818 0 0.048316619014226431 0.010232448580799566 0 0.049441779565987207 0.0091030827503276075 0 0.04835600433638694 0.0093900411228125466 0 0.048963361067810553 0.0095534588079284818 0 0.049441779565987207 0.0091030827503276075 0 0.048963361067810553 0.0095534588079284818 0 0.049345801986505886 0.0093405673800513282 0 0.048963361067810553 0.0095534588079284818 0 0.048906918130199581 0.0095044702824308384 0 0.049345801986505886 0.0093405673800513282 0 -0.0013009781804510161 0.018656543988961962 0 -0.0011749049230877311 0.017839025149153139 0 -0.0019592241008185391 0.017434250083817878 0 -0.0011749049230877311 0.017839025149153139 0 -0.0022841791940126466 0.016496390364757529 0 -0.0018089108719243261 0.016360974014663198 0 -0.0011749049230877311 0.017839025149153139 0 -0.0022841791940126466 0.016496390364757529 0 -0.0019592241008185391 0.017434250083817878 0 -0.0011749049230877311 0.017839025149153139 0 0.0011647556400571247 0.018440911376298805 0 -0.00018153322610474002 0.016852157115984936 0 -0.0011749049230877311 0.017839025149153139 0 0.00069939250181674112 0.02068261697865436 0 0.0011647556400571247 0.018440911376298805 0 -0.0011749049230877311 0.017839025149153139 0 -0.0018089108719243261 0.016360974014663198 0 -0.00018153322610474002 0.016852157115984936 0 -0.0013009781804510161 0.018656543988961962 0 -0.0011749049230877311 0.017839025149153139 0 0.00069939250181674112 0.02068261697865436 0 0.024334461228936722 0.013129660226096919 0 0.025383690548228529 0.013177952912957846 0 0.048963361067810553 0.0095534588079284818 0 0.048906918130199581 0.0095044702824308384 0 0.048316619014226431 0.010232448580799566 0 0.025383690548228529 0.013177952912957846 0 0.027403891963860099 0.011996128610274171 0 0.00069939250181674112 0.02068261697865436 0 0.0045451458530411087 0.019379971543104439 0 0.0011647556400571247 0.018440911376298805 0 0.047332593653389696 0.0098064110941441015 0 0.048316619014226431 0.010232448580799566 0 0.046711547877626505 0.010524656027300121 0 0.00069939250181674112 0.02068261697865436 0 0.006233135879545393 0.022444609282631187 0 0.0045451458530411087 0.019379971543104439 0 0.010550090857485791 0.019645199357585668 0 0.006233135879545393 0.022444609282631187 0 0.0045451458530411087 0.019379971543104439 0 0.010550090857485791 0.019645199357585668 0 0.0045451458530411087 0.019379971543104439 0 0.0070608275301487083 0.017219147309151615 0 0.0045451458530411087 0.019379971543104439 0 0.0070608275301487083 0.017219147309151615 0 0.0029297130725674594 0.016782277888670455 0 0.0045451458530411087 0.019379971543104439 0 0.0011647556400571247 0.018440911376298805 0 0.0029297130725674594 0.016782277888670455 0 0.0011647556400571247 0.018440911376298805 0 0.0029297130725674594 0.016782277888670455 0 -0.00018153322610474002 0.016852157115984936 0 0.0029297130725674594 0.016782277888670455 0 0.00089829832152693286 0.015588062337898627 0 -0.00018153322610474002 0.016852157115984936 0 0.0029297130725674594 0.016782277888670455 0 0.0027822028068762786 0.014850267815534775 0 0.0055956510508290702 0.014365188439542861 0 0.0029297130725674594 0.016782277888670455 0 0.0027822028068762786 0.014850267815534775 0 0.00089829832152693286 0.015588062337898627 0 0.0027822028068762786 0.014850267815534775 0 0.00089829832152693286 0.015588062337898627 0 0.00094035775176698705 0.013951323472900099 0 0.0070608275301487083 0.017219147309151615 0 0.0029297130725674594 0.016782277888670455 0 0.0055956510508290702 0.014365188439542861 0 0.0082722455415385164 0.014927439303277388 0 0.0070608275301487083 0.017219147309151615 0 0.0055956510508290702 0.014365188439542861 0 0.0027822028068762786 0.014850267815534775 0 0.0055956510508290702 0.014365188439542861 0 0.0036847247143745308 0.012457473017598383 0 0.0089297263201256853 0.012286806020394302 0 0.0082722455415385164 0.014927439303277388 0 0.0055956510508290702 0.014365188439542861 0 0.0063342429793769852 0.011531177505176357 0 0.0052162331795256511 0.009020743973152669 0 0.0093966746098123818 0.0078773956955249733 0 0.0089297263201256853 0.012286806020394302 0 0.0055956510508290702 0.014365188439542861 0 0.0063342429793769852 0.011531177505176357 0 0.0055956510508290702 0.014365188439542861 0 0.0063342429793769852 0.011531177505176357 0 0.0036847247143745308 0.012457473017598383 0 0.0063342429793769852 0.011531177505176357 0 0.0036847247143745308 0.012457473017598383 0 0.0052162331795256511 0.009020743973152669 0 0.00094035775176698705 0.013951323472900099 0 0.0036847247143745308 0.012457473017598383 0 0.0012744843261126813 0.010897537498251347 0 0.0027822028068762786 0.014850267815534775 0 0.00094035775176698705 0.013951323472900099 0 0.0036847247143745308 0.012457473017598383 0 0.0036847247143745308 0.012457473017598383 0 0.0012744843261126813 0.010897537498251347 0 0.0052162331795256511 0.009020743973152669 0 0.00094035775176698705 0.013951323472900099 0 0.0012744843261126813 0.010897537498251347 0 -0.0011231697779364074 0.01392390510675915 0 -0.0043038442052967798 0.014714559487034101 0 -0.0027657898151717546 0.015510514084168219 0 -0.0018274336504349206 0.015390665308712149 0 0.0012744843261126813 0.010897537498251347 0 -0.0011231697779364074 0.01392390510675915 0 -0.0043038442052967798 0.014714559487034101 0 -0.0011231697779364074 0.01392390510675915 0 -0.0043038442052967798 0.014714559487034101 0 -0.0018274336504349206 0.015390665308712149 0 0.00094035775176698705 0.013951323472900099 0 -0.0011231697779364074 0.01392390510675915 0 -0.0018274336504349206 0.015390665308712149 0 -0.0043038442052967798 0.014714559487034101 0 -0.0027657898151717546 0.015510514084168219 0 -0.0024230830284383714 0.016002808249711641 0 -0.0043038442052967798 0.014714559487034101 0 -0.0024230830284383714 0.016002808249711641 0 -0.0052434597623026652 0.016144526821939273 0 -0.0027657898151717546 0.015510514084168219 0 -0.0018089108719243261 0.016360974014663198 0 -0.0018274336504349206 0.015390665308712149 0 -0.0027657898151717546 0.015510514084168219 0 -0.0022841791940126466 0.016496390364757529 0 -0.0018089108719243261 0.016360974014663198 0 -0.0018089108719243261 0.016360974014663198 0 -0.00018153322610474002 0.016852157115984936 0 -0.0018274336504349206 0.015390665308712149 0 0.00089829832152693286 0.015588062337898627 0 -0.00018153322610474002 0.016852157115984936 0 -0.0018274336504349206 0.015390665308712149 0 0.00089829832152693286 0.015588062337898627 0 0.00094035775176698705 0.013951323472900099 0 -0.0018274336504349206 0.015390665308712149 0 -0.00253348691597467 0.016412628861077139 0 -0.0023215942561702427 0.016736746659276863 0 -0.0023840366350773687 0.016156060165871022 0 -0.00253348691597467 0.016412628861077139 0 -0.0023215942561702427 0.016736746659276863 0 -0.0025259061548086052 0.01673801204234928 0 -0.0027657898151717546 0.015510514084168219 0 -0.0022841791940126466 0.016496390364757529 0 -0.0023840366350773687 0.016156060165871022 0 -0.0022841791940126466 0.016496390364757529 0 -0.0023215942561702427 0.016736746659276863 0 -0.0023840366350773687 0.016156060165871022 0 -0.0023840366350773687 0.016156060165871022 0 -0.0024230830284383714 0.016002808249711641 0 -0.0024873580524477244 0.016122491230550904 0 -0.0086312001334092059 0.017052165744674778 0 -0.0098048028882064178 0.016861059336829364 0 -0.0027657898151717546 0.015510514084168219 0 -0.0023840366350773687 0.016156060165871022 0 -0.0024230830284383714 0.016002808249711641 0 -0.00253348691597467 0.016412628861077139 0 -0.0023840366350773687 0.016156060165871022 0 -0.0024873580524477244 0.016122491230550904 0 -0.0098048028882064178 0.016861059336829364 0 -0.0080694192534174394 0.015589918556802397 0 -0.00253348691597467 0.016412628861077139 0 -0.0024873580524477244 0.016122491230550904 0 -0.0029201267035763563 0.016198127159920733 0 -0.02030871282546776 0.020611102611112375 0 -0.022766494921427426 0.020276240368325964 0 -0.021784598617381103 0.018251092611271856 0 -0.02202037390582659 0.018837822164330574 0 -0.022384219339484951 0.0185183772194734 0 -0.021134891910006445 0.018788481665322473 0 -0.02202037390582659 0.018837822164330574 0 -0.021134891910006445 0.018788481665322473 0 -0.02229556715898821 0.018720095041623228 0 -0.02202037390582659 0.018837822164330574 0 -0.022384219339484951 0.0185183772194734 0 -0.022595714036459536 0.018984462338466408 0 -0.0080694192534174394 0.015589918556802397 0 -0.0088732469010569907 0.016156752706591181 0 -0.019229423726818136 0.019227511182542897 0 -0.021134891910006445 0.018788481665322473 0 -0.019398972377316571 0.01946662327686615 0 -0.0080694192534174394 0.015589918556802397 0 -0.011217665318308128 0.016231946939509849 0 -0.019398972377316571 0.01946662327686615 0 -0.018576125718333898 0.019754921603761182 0 -0.022446930326344993 0.019799037543811217 0 -0.019229423726818136 0.019227511182542897 0 -0.019398972377316571 0.01946662327686615 0 -0.019585736362492428 0.019031878956479297 0 -0.0080694192534174394 0.015589918556802397 0 0.0052218730826696768 0.01441433731800537 0 -0.019398972377316571 0.01946662327686615 0 -0.018576125718333898 0.019754921603761182 0 -0.019585736362492428 0.019031878956479297 0 -0.018576125718333898 0.019754921603761182 0 -0.013235232848237116 0.016584407992973487 0 -0.0086857565960312549 0.019095851091177937 0 -0.00253348691597467 0.016412628861077139 0 -0.0029201267035763563 0.016198127159920733 0 -0.0027121270987318733 0.016525878963773801 0 -0.0029201267035763563 0.016198127159920733 0 -0.0027121270987318733 0.016525878963773801 0 -0.0028471419936459933 0.016794839871939131 0 -0.0027121270987318733 0.016525878963773801 0 -0.0025259061548086052 0.01673801204234928 0 -0.0028471419936459933 0.016794839871939131 0 -0.00253348691597467 0.016412628861077139 0 -0.0027121270987318733 0.016525878963773801 0 -0.0025259061548086052 0.01673801204234928 0 0.0052218730826696768 0.01441433731800537 0 0.026560463196657086 0.011431004095405053 0 -0.0025259061548086052 0.01673801204234928 0 -0.0028471419936459933 0.016794839871939131 0 -0.0023326544748352132 0.01716400271217635 0 -0.0028471419936459933 0.016794839871939131 0 -0.0023326544748352132 0.01716400271217635 0 -0.0025204593345877543 0.017606896415544419 0 -0.019585736362492428 0.019031878956479297 0 -0.016593968561039566 0.010566285700499037 0 -0.021969042665444593 0.0037617961483874963 0 -0.013235232848237116 0.016584407992973487 0 -0.013422011280235751 0.013566868983362996 0 -0.0089408788214330702 0.014037855044922175 0 -0.018576125718333898 0.019754921603761182 0 -0.013235232848237116 0.016584407992973487 0 -0.016406344104356707 0.016505048284438086 0 -0.013235232848237116 0.016584407992973487 0 -0.016406344104356707 0.016505048284438086 0 -0.013422011280235751 0.013566868983362996 0 -0.019585736362492428 0.019031878956479297 0 -0.016406344104356707 0.016505048284438086 0 -0.016593968561039566 0.010566285700499037 0 -0.018576125718333898 0.019754921603761182 0 -0.019585736362492428 0.019031878956479297 0 -0.016406344104356707 0.016505048284438086 0 -0.013422011280235751 0.013566868983362996 0 -0.0093724579713899657 0.0087694686637786647 0 -0.0089408788214330702 0.014037855044922175 0 -0.016593968561039566 0.010566285700499037 0 -0.013422011280235751 0.013566868983362996 0 -0.0093724579713899657 0.0087694686637786647 0 -0.016406344104356707 0.016505048284438086 0 -0.016593968561039566 0.010566285700499037 0 -0.013422011280235751 0.013566868983362996 0 0.026205508044231184 0.0095254288839091966 0 0.021912704625057237 0.0068890731125522608 0 -0.016593968561039566 0.010566285700499037 0 -0.014291547297390145 0.0038592443836980312 0 -0.0093724579713899657 0.0087694686637786647 0 -0.016593968561039566 0.010566285700499037 0 -0.014291547297390145 0.0038592443836980312 0 -0.021969042665444593 0.0037617961483874963 0 0.026205508044231184 0.0095254288839091966 0 0.044109366342396074 0.013909109332833047 0 0.026205508044231184 0.0095254288839091966 0 0.026560463196657086 0.011431004095405053 0 0.03020813666485072 0.0068503352072633262 0 0.033446731634127959 0.0069067408008312622 0 0.033755205162274073 0.010408284717663228 0 0.026560463196657086 0.011431004095405053 0 0.024178228067015254 0.012507725076364084 0 0.047684672868670216 0.0086296047637661379 0 0.048437060241963793 0.0087961486841228488 0 0.048043564736247019 0.0089629946911433823 0 -0.0023326544748352132 0.01716400271217635 0 -0.0025204593345877543 0.017606896415544419 0 -0.0016538861623775901 0.01774782598744069 0 0.026560463196657086 0.011431004095405053 0 0.044109366342396074 0.013909109332833047 0 -0.0023215942561702427 0.016736746659276863 0 -0.0023326544748352132 0.01716400271217635 0 -0.0016538861623775901 0.01774782598744069 0 -0.0023215942561702427 0.016736746659276863 0 -0.0025259061548086052 0.01673801204234928 0 -0.0023326544748352132 0.01716400271217635 0 -0.0022841791940126466 0.016496390364757529 0 -0.0023215942561702427 0.016736746659276863 0 -0.0019592241008185391 0.017434250083817878 0 -0.0023215942561702427 0.016736746659276863 0 -0.0016538861623775901 0.01774782598744069 0 -0.0019592241008185391 0.017434250083817878 0 0.024334461228936722 0.013129660226096919 0 0.024178228067015254 0.012507725076364084 0 0.048906918130199581 0.0095044702824308384 0 0.048437060241963793 0.0087961486841228488 0 0.049345801986505886 0.0093405673800513282 0 -0.0013009781804510161 0.018656543988961962 0 -0.0016538861623775901 0.01774782598744069 0 -0.0019592241008185391 0.017434250083817878 0 0.048437060241963793 0.0087961486841228488 0 0.049345801986505886 0.0093405673800513282 0 0.049223681538615761 0.0091632785079479133 0 0.049345801986505886 0.0093405673800513282 0 0.049223681538615761 0.0091632785079479133 0 0.049896435470619595 0.0092110889581262668 0 0.048437060241963793 0.0087961486841228488 0 0.048555633740177587 0.0090341550812849027 0 0.048043564736247019 0.0089629946911433823 0 0.048437060241963793 0.0087961486841228488 0 0.048555633740177587 0.0090341550812849027 0 0.049223681538615761 0.0091632785079479133 0 0.048555633740177587 0.0090341550812849027 0 0.049223681538615761 0.0091632785079479133 0 0.048532352719879254 0.0093622430876222421 0 0.048532352719879254 0.0093622430876222421 0 0.049891575108817206 0.0093035534497489126 0 0.049592000486942331 0.0098796213098390259 0 0.049223681538615761 0.0091632785079479133 0 0.048532352719879254 0.0093622430876222421 0 0.049891575108817206 0.0093035534497489126 0 0.054631278774967422 0.011730736381917043 0 0.054752813534771405 0.011806469511080045 0 0.076885693668529861 0.0096217852899811527 0 0.076779002375038985 0.009529998770021586 0 0.076924494731766435 0.0095032895405154274 0 0.0523186491296493 0.0137289650854629 0 0.054752813534771405 0.011806469511080045 0 0.049223681538615761 0.0091632785079479133 0 0.049896435470619595 0.0092110889581262668 0 0.049891575108817206 0.0093035534497489126 0 0.049891575108817206 0.0093035534497489126 0 0.050672176798092675 0.008899677382034784 0 0.050396089996145761 0.0090629464789845765 0 0.049896435470619595 0.0092110889581262668 0 0.049891575108817206 0.0093035534497489126 0 0.050672176798092675 0.008899677382034784 0 0.050225860824402419 0.0089054912062120316 0 0.049896435470619595 0.0092110889581262668 0 0.050672176798092675 0.008899677382034784 0 0.050225860824402419 0.0089054912062120316 0 0.051726312514137403 0.0083632929518255225 0 0.050672176798092675 0.008899677382034784 0 0.051726312514137403 0.0083632929518255225 0 0.054272685420259752 0.010735522325382964 0 0.0540266067965035 0.0080331951541183447 0 0.051726312514137403 0.0083632929518255225 0 0.050672176798092675 0.008899677382034784 0 0.050396089996145761 0.0090629464789845765 0 0.053699331474632898 0.010736973402197866 0 0.054752813534771405 0.011806469511080045 0 0.076779002375038985 0.009529998770021586 0 0.076924494731766435 0.0095032895405154274 0 0.077025209576438644 0.0093050662645748298 0 0.054752813534771405 0.011806469511080045 0 0.062348338414905023 0.008218739276644637 0 0.054272685420259752 0.010735522325382964 0 0.0540266067965035 0.0080331951541183447 0 0.056160783863888987 0.0069085220001548998 0 0.0540266067965035 0.0080331951541183447 0 0.056160783863888987 0.0069085220001548998 0 0.053814386371095202 0.0064992379543014926 0 0.055807645655485315 0.005117636776615384 0 0.056160783863888987 0.0069085220001548998 0 0.053814386371095202 0.0064992379543014926 0 0.052406014357463511 0.0055343445639325787 0 0.05119626137132012 0.0070280734479897244 0 0.053814386371095202 0.0064992379543014926 0 0.05119626137132012 0.0070280734479897244 0 0.051726312514137403 0.0083632929518255225 0 0.053814386371095202 0.0064992379543014926 0 0.051726312514137403 0.0083632929518255225 0 0.0540266067965035 0.0080331951541183447 0 0.053814386371095202 0.0064992379543014926 0 0.077326452283437999 0.0089776223063573642 0 0.077305747101558228 0.0091846489781484287 0 0.07676406629279782 0.0089392645091841989 0 0.077326452283437999 0.0089776223063573642 0 0.077305747101558228 0.0091846489781484287 0 0.077304388920054673 0.0091305387880888846 0 0.077319385743437552 0.0091371497878201206 0 0.077305747101558228 0.0091846489781484287 0 0.077304388920054673 0.0091305387880888846 0 0.064259306103839925 0.010442939371776075 0 0.059986318066156064 0.011075966885926672 0 0.077319385743437552 0.0091371497878201206 0 0.077304388920054673 0.0091305387880888846 0 0.077236737015895937 0.0091973125162496672 0 0.066512024124222136 0.0075550647159878343 0 0.062348338414905023 0.008218739276644637 0 0.077326452283437999 0.0089776223063573642 0 0.077304388920054673 0.0091305387880888846 0 0.077236737015895937 0.0091973125162496672 0 0.077276490730834257 0.0090859023229188061 0 0.077025209576438644 0.0093050662645748298 0 0.077236737015895937 0.0091973125162496672 0 0.077326452283437999 0.0089776223063573642 0 0.077236737015895937 0.0091973125162496672 0 0.077535994807010969 0.0086405222246282408 0 0.077025209576438644 0.0093050662645748298 0 0.077236737015895937 0.0091973125162496672 0 0.077007658688673597 0.0095174812604392027 0 0.076924494731766435 0.0095032895405154274 0 0.077025209576438644 0.0093050662645748298 0 0.077007658688673597 0.0095174812604392027 0 0.077326452283437999 0.0089776223063573642 0 0.077132917882840768 0.0085537543782007539 0 0.07676406629279782 0.0089392645091841989 0 0.077326452283437999 0.0089776223063573642 0 0.077535994807010969 0.0086405222246282408 0 0.077132917882840768 0.0085537543782007539 0 0.077132917882840768 0.0085537543782007539 0 0.077218683109144315 0.0080980101992193104 0 0.076790357086958153 0.0078915752386325526 0 0.077535994807010969 0.0086405222246282408 0 0.077132917882840768 0.0085537543782007539 0 0.077218683109144315 0.0080980101992193104 0 0.077535994807010969 0.0086405222246282408 0 0.077218683109144315 0.0080980101992193104 0 0.077444221606192826 0.0077848813565543412 0 0.059986318066156064 0.011075966885926672 0 0.044109366342396074 0.013909109332833047 0 0.076885693668529861 0.0096217852899811527 0 0.077007658688673597 0.0095174812604392027 0 0.076877284232486506 0.0097010203048247656 0 0.076885693668529861 0.0096217852899811527 0 0.076924494731766435 0.0095032895405154274 0 0.077007658688673597 0.0095174812604392027 0 0.048532352719879254 0.0093622430876222421 0 0.047864707996686677 0.0090178542072682794 0 0.048043564736247019 0.0089629946911433823 0 0.0523186491296493 0.0137289650854629 0 0.044109366342396074 0.013909109332833047 0 0.048555633740177587 0.0090341550812849027 0 0.048532352719879254 0.0093622430876222421 0 0.048043564736247019 0.0089629946911433823 0 0.047684672868670216 0.0086296047637661379 0 0.047869093458104951 0.0090155908653701058 0 0.048043564736247019 0.0089629946911433823 0 0.044109366342396074 0.013909109332833047 0 0.044272306248186934 0.013829070509878662 0 0.035997885808535177 0.026219341184936844 0 0.028307015300737152 0.018443523729888507 0 0.04266626293968994 0.014429505131425867 0 0.077218683109144315 0.0080980101992193104 0 0.077444221606192826 0.0077848813565543412 0 0.076790357086958153 0.0078915752386325526 0 0.044109366342396074 0.013909109332833047 0 0.057547139651621247 0.011052935970504862 0 0.076790357086958153 0.0078915752386325526 0 0.075913834631613678 0.0079117429648680598 0 0.07676406629279782 0.0089392645091841989 0 0.077132917882840768 0.0085537543782007539 0 0.076790357086958153 0.0078915752386325526 0 0.07676406629279782 0.0089392645091841989 0 0.04266626293968994 0.014429505131425867 0 0.057609545826078912 0.010436520571029598 0 0.051983611493996641 0.026528403921509909 0 0.057609545826078912 0.010436520571029598 0 0.063853985136910277 0.018508611651845551 0 0.051983611493996641 0.026528403921509909 0 0.057547139651621247 0.011052935970504862 0 0.064939738185592344 0.0094911904013688878 0 0.075913834631613678 0.0079117429648680598 0 0.07676406629279782 0.0089392645091841989 0 0.075426600942793146 0.0087646353505998181 0 0.07676406629279782 0.0089392645091841989 0 0.076049374567198985 0.0088024651950781452 0 0.075426600942793146 0.0087646353505998181 0 0.07619308190088829 0.0086457568836340783 0 0.07676406629279782 0.0089392645091841989 0 0.076049374567198985 0.0088024651950781452 0 0.077755806257958776 0.0088028230736849206 0 0.077552581631385203 0.0087936980319689422 0 0.07749067857305024 0.0092373620071337509 0 0.078088648907102515 0.0093789342684485483 0 0.07676406629279782 0.0089392645091841989 0 0.07749067857305024 0.0092373620071337509 0 0.077305747101558228 0.0091846489781484287 0 0.07676406629279782 0.0089392645091841989 0 0.07643616171455074 0.0083181628934521495 0 0.075830285029722 0.0086569043806490383 0 0.076315904522020292 0.0082123644851197358 0 0.075830285029722 0.0086569043806490383 0 0.075220579137688481 0.0085844589623319152 0 0.076315904522020292 0.0082123644851197358 0 0.076724534059187582 0.0080456725895244278 0 0.07643616171455074 0.0083181628934521495 0 0.076315904522020292 0.0082123644851197358 0 0.07619308190088829 0.0086457568836340783 0 0.076049374567198985 0.0088024651950781452 0 0.075830285029722 0.0086569043806490383 0 0.07643616171455074 0.0083181628934521495 0 0.07619308190088829 0.0086457568836340783 0 0.075830285029722 0.0086569043806490383 0 0.075830285029722 0.0086569043806490383 0 0.075426600942793146 0.0087646353505998181 0 0.075220579137688481 0.0085844589623319152 0 0.076049374567198985 0.0088024651950781452 0 0.075830285029722 0.0086569043806490383 0 0.075426600942793146 0.0087646353505998181 0 0.075220579137688481 0.0085844589623319152 0 0.076280601078202601 0.0087072042876132332 0 0.076315904522020292 0.0082123644851197358 0 0.075426600942793146 0.0087646353505998181 0 0.075220579137688481 0.0085844589623319152 0 0.073564328916703545 0.0087870693006053581 0 0.075220579137688481 0.0085844589623319152 0 0.073564328916703545 0.0087870693006053581 0 0.076280601078202601 0.0087072042876132332 0 0.073564328916703545 0.0087870693006053581 0 0.072321277226785705 0.015366614715501556 0 0.077770125165508922 0.011165475509885331 0 0.073564328916703545 0.0087870693006053581 0 0.06843960050763763 0.014390628572045632 0 0.072321277226785705 0.015366614715501556 0 0.064939738185592344 0.0094911904013688878 0 0.068282464152323155 0.0088155501966257072 0 0.075913834631613678 0.0079117429648680598 0 0.075426600942793146 0.0087646353505998181 0 0.073564328916703545 0.0087870693006053581 0 0.057609545826078912 0.010436520571029598 0 0.073564328916703545 0.0087870693006053581 0 0.06843960050763763 0.014390628572045632 0 0.057609545826078912 0.010436520571029598 0 0.06843960050763763 0.014390628572045632 0 0.063853985136910277 0.018508611651845551 0 0.06843960050763763 0.014390628572045632 0 0.063853985136910277 0.018508611651845551 0 0.06891051669939105 0.019458061184557358 0 0.063853985136910277 0.018508611651845551 0 0.06891051669939105 0.019458061184557358 0 0.0682428373498387 0.026108132591672391 0 0.072321277226785705 0.015366614715501556 0 0.071108024844045964 0.024198827482232246 0 0.077770125165508922 0.011165475509885331 0 0.058621536217907368 0.0093087693441489903 0 0.068839960863458644 0.0062434597418908515 0 0.072321277226785705 0.015366614715501556 0 0.06891051669939105 0.019458061184557358 0 0.071108024844045964 0.024198827482232246 0 0.058621536217907368 0.0093087693441489903 0 0.070650644830703005 0.0072282438121136954 0 0.06843960050763763 0.014390628572045632 0 0.072321277226785705 0.015366614715501556 0 0.06891051669939105 0.019458061184557358 0 0.050916900305380833 0.011151294255279155 0 0.049662851142095059 0.0098122854324948702 0 0.016648188332201126 0.0080879924630697219 0 0.017902811430908435 0.011819126908336692 0 0.025367675305204007 0.0095786118097090749 0 0.070258807974759349 0.0079250450561795076 0 0.069867413339608025 0.0081890004423413962 0 0.072183037254139465 0.0080836078186606215 0 0.06891051669939105 0.019458061184557358 0 0.071108024844045964 0.024198827482232246 0 0.0682428373498387 0.026108132591672391 0 0.058621536217907368 0.0093087693441489903 0 0.050916900305380833 0.011151294255279155 0 0.016648188332201126 0.0080879924630697219 0 0.017902811430908435 0.011819126908336692 0 0.015320694648067075 0.0084318246535055423 0 0.017902811430908435 0.011819126908336692 0 0.01428791595615427 0.014823644456749628 0 0.020280108081754445 0.018467740114502265 0 0.017902811430908435 0.011819126908336692 0 0.020280108081754445 0.018467740114502265 0 0.025367675305204007 0.0095786118097090749 0 0.01428791595615427 0.014823644456749628 0 0.0078995023652847444 0.015128123330940404 0 0.011973377166109689 0.019336553560124387 0 0.017902811430908435 0.011819126908336692 0 0.01428791595615427 0.014823644456749628 0 0.014879265255573513 0.011683371110167918 0 0.01428791595615427 0.014823644456749628 0 0.014879265255573513 0.011683371110167918 0 0.011728788819931387 0.012067676912359358 0 0.01428791595615427 0.014823644456749628 0 0.011728788819931387 0.012067676912359358 0 0.0078995023652847444 0.015128123330940404 0 0.011728788819931387 0.012067676912359358 0 0.0070726631242181478 0.010509436458424677 0 0.0078995023652847444 0.015128123330940404 0 0.050916900305380833 0.011151294255279155 0 0.030944863704576473 0.011565004436663541 0 0.017880479128572147 0.0072078747091110767 0 0.015320694648067075 0.0084318246535055423 0 0.0029769854082993749 0.0047421734976340916 0 0.011728788819931387 0.012067676912359358 0 0.015320694648067075 0.0084318246535055423 0 0.0070726631242181478 0.010509436458424677 0 0.063853985136910277 0.018508611651845551 0 0.0682428373498387 0.026108132591672391 0 0.051983611493996641 0.026528403921509909 0 0.017902811430908435 0.011819126908336692 0 0.014879265255573513 0.011683371110167918 0 0.015320694648067075 0.0084318246535055423 0 0.014879265255573513 0.011683371110167918 0 0.011728788819931387 0.012067676912359358 0 0.015320694648067075 0.0084318246535055423 0 0.050916900305380833 0.011151294255279155 0 0.049839792436636964 0.011577053543310034 0 0.015320694648067075 0.0084318246535055423 0 0.0029769854082993749 0.0047421734976340916 0 0.0070726631242181478 0.010509436458424677 0 0.0029769854082993749 0.0047421734976340916 0 -0.0011036892699933752 0.01337949889302318 0 0.0070726631242181478 0.010509436458424677 0 0.026205508044231184 0.0095254288839091966 0 0.030944863704576473 0.011565004436663541 0 -0.014306699073162638 0.0036673205429869809 0 0.0029769854082993749 0.0047421734976340916 0 -0.0093724579713899657 0.0087694686637786647 0 0.0029769854082993749 0.0047421734976340916 0 -0.0093724579713899657 0.0087694686637786647 0 -0.0011036892699933752 0.01337949889302318 0 0.035997885808535177 0.026219341184936844 0 0.04266626293968994 0.014429505131425867 0 0.051983611493996641 0.026528403921509909 0 -0.0011036892699933752 0.01337949889302318 0 0.0040921165114068975 0.019819909181435186 0 -0.0086857565960312549 0.019095851091177937 0 -0.0093724579713899657 0.0087694686637786647 0 -0.0011036892699933752 0.01337949889302318 0 -0.0089408788214330702 0.014037855044922175 0 -0.0011036892699933752 0.01337949889302318 0 -0.0089408788214330702 0.014037855044922175 0 -0.0086857565960312549 0.019095851091177937 0 -0.013235232848237116 0.016584407992973487 0 -0.0089408788214330702 0.014037855044922175 0 -0.0086857565960312549 0.019095851091177937 0 -0.0011036892699933752 0.01337949889302318 0 0.0070726631242181478 0.010509436458424677 0 0.0078995023652847444 0.015128123330940404 0 -0.0011036892699933752 0.01337949889302318 0 0.0078995023652847444 0.015128123330940404 0 0.0040921165114068975 0.019819909181435186 0 -0.01134341022056572 0.020007982101223301 0 -0.006226593015319388 0.020024598684046289 0 0.0078995023652847444 0.015128123330940404 0 0.0040921165114068975 0.019819909181435186 0 0.011973377166109689 0.019336553560124387 0 0.0040921165114068975 0.019819909181435186 0 -0.0011776488931192132 0.024232131362651756 0 0.012314944500962101 0.024962322796691038 0 0.0040921165114068975 0.019819909181435186 0 -0.0011776488931192132 0.024232131362651756 0 -0.0086857565960312549 0.019095851091177937 0 -0.014389946506691745 0.019567472632820694 0 -0.01134341022056572 0.020007982101223301 0 -0.021134891910006445 0.018788481665322473 0 -0.019398972377316571 0.01946662327686615 0 -0.022446930326344993 0.019799037543811217 0 -0.018576125718333898 0.019754921603761182 0 -0.0011776488931192132 0.024232131362651756 0 -0.0086857565960312549 0.019095851091177937 0 -0.021134891910006445 0.018788481665322473 0 -0.022789781540252661 0.018756756097858974 0 -0.02229556715898821 0.018720095041623228 0 -0.021134891910006445 0.018788481665322473 0 -0.022446930326344993 0.019799037543811217 0 -0.022789781540252661 0.018756756097858974 0 -0.022446930326344993 0.019799037543811217 0 -0.022789781540252661 0.018756756097858974 0 -0.023505750647869444 0.01920518023196234 0 -0.022789781540252661 0.018756756097858974 0 -0.023505750647869444 0.01920518023196234 0 -0.02340177458133625 0.018642666426250242 0 -0.006226593015319388 0.020024598684046289 0 -0.0018791356373584563 0.018723748446219112 0 -0.023505750647869444 0.01920518023196234 0 -0.023747244241265512 0.018631637627191715 0 -0.023826098049994197 0.018898028379262903 0 0.012314944500962101 0.024962322796691038 0 0.020280108081754445 0.018467740114502265 0 0.021727116903625738 0.02556308406410587 0 0.01428791595615427 0.014823644456749628 0 0.020280108081754445 0.018467740114502265 0 0.011973377166109689 0.019336553560124387 0 0.012314944500962101 0.024962322796691038 0 0.020280108081754445 0.018467740114502265 0 0.011973377166109689 0.019336553560124387 0 0.0040921165114068975 0.019819909181435186 0 0.012314944500962101 0.024962322796691038 0 0.011973377166109689 0.019336553560124387 0 -0.02362090078925631 0.018468597145189038 0 -0.023557604742129139 0.018391681797382067 0 -0.02340177458133625 0.018642666426250242 0 -0.02362090078925631 0.018468597145189038 0 -0.023557604742129139 0.018391681797382067 0 -0.023654081352037663 0.018338556297267359 0 -0.02362090078925631 0.018468597145189038 0 -0.023745296324961192 0.018409082357712159 0 -0.023747244241265512 0.018631637627191715 0 -0.02362090078925631 0.018468597145189038 0 -0.023745296324961192 0.018409082357712159 0 -0.023654081352037663 0.018338556297267359 0 -0.023745296324961192 0.018409082357712159 0 -0.023747244241265512 0.018631637627191715 0 -0.023878908489294019 0.018464569194091826 0 -0.023505750647869444 0.01920518023196234 0 -0.023747244241265512 0.018631637627191715 0 -0.02340177458133625 0.018642666426250242 0 -0.02362090078925631 0.018468597145189038 0 -0.023747244241265512 0.018631637627191715 0 -0.02340177458133625 0.018642666426250242 0 -0.022789781540252661 0.018756756097858974 0 -0.022874427829233782 0.018571404489462113 0 -0.023231548105666352 0.018507391239788607 0 -0.022789781540252661 0.018756756097858974 0 -0.02340177458133625 0.018642666426250242 0 -0.023231548105666352 0.018507391239788607 0 -0.022789781540252661 0.018756756097858974 0 -0.02229556715898821 0.018720095041623228 0 -0.022874427829233782 0.018571404489462113 0 -0.02229556715898821 0.018720095041623228 0 -0.022874427829233782 0.018571404489462113 0 -0.022878334058432027 0.018580380892865136 0 -0.022874427829233782 0.018571404489462113 0 -0.022878334058432027 0.018580380892865136 0 -0.023261627416755033 0.018492819042801863 0 -0.022874427829233782 0.018571404489462113 0 -0.023261627416755033 0.018492819042801863 0 -0.023231548105666352 0.018507391239788607 0 -0.023261627416755033 0.018492819042801863 0 -0.023591169718201407 0.018383802208116435 0 -0.023671021464575254 0.018427669701045538 0 -0.022878334058432027 0.018580380892865136 0 -0.023261627416755033 0.018492819042801863 0 -0.023323536779017991 0.018518665154930388 0 -0.023557604742129139 0.018391681797382067 0 -0.02340177458133625 0.018642666426250242 0 -0.023231548105666352 0.018507391239788607 0 -0.023261627416755033 0.018492819042801863 0 -0.023231548105666352 0.018507391239788607 0 -0.023591169718201407 0.018383802208116435 0 -0.023557604742129139 0.018391681797382067 0 -0.023231548105666352 0.018507391239788607 0 -0.023591169718201407 0.018383802208116435 0 -0.023557604742129139 0.018391681797382067 0 -0.023591169718201407 0.018383802208116435 0 -0.023748959446144812 0.018319359124659068 0 -0.023591169718201407 0.018383802208116435 0 -0.023748959446144812 0.018319359124659068 0 -0.024033486155827538 0.01834670665082095 0 -0.023591169718201407 0.018383802208116435 0 -0.024033486155827538 0.01834670665082095 0 -0.023671021464575254 0.018427669701045538 0 -0.023748959446144812 0.018319359124659068 0 -0.024033486155827538 0.01834670665082095 0 -0.024158503359489807 0.018527958553663796 0 -0.023323536779017991 0.018518665154930388 0 -0.024074838501682527 0.018510685953840887 0 -0.023323403777916984 0.018499797710649499 0 -0.023323536779017991 0.018518665154930388 0 -0.023671021464575254 0.018427669701045538 0 -0.024074838501682527 0.018510685953840887 0 -0.023261627416755033 0.018492819042801863 0 -0.023323536779017991 0.018518665154930388 0 -0.023671021464575254 0.018427669701045538 0 -0.024033486155827538 0.01834670665082095 0 -0.023671021464575254 0.018427669701045538 0 -0.024074838501682527 0.018510685953840887 0 -0.026931212720871799 0.012696652463986428 0 -0.025574831150193933 0.014297908594481618 0 -0.024074838501682527 0.018510685953840887 0 -0.025356445468053063 0.018361258622788104 0 -0.023323403777916984 0.018499797710649499 0 -0.025356445468053063 0.018361258622788104 0 -0.025346735518374044 0.015677307256548784 0 -0.023323403777916984 0.018499797710649499 0 -0.024033486155827538 0.01834670665082095 0 -0.024074838501682527 0.018510685953840887 0 -0.025356445468053063 0.018361258622788104 0 -0.02867149310477948 0.019606369394266503 0 -0.034775503583153823 0.018717343594931851 0 -0.031197647854113723 0.014990108266301644 0 -0.024033486155827538 0.01834670665082095 0 -0.025356445468053063 0.018361258622788104 0 -0.024158503359489807 0.018527958553663796 0 -0.028881628112211413 0.012313223908533099 0 -0.029137917091846908 0.012151305953188706 0 -0.025356445468053063 0.018361258622788104 0 -0.02867149310477948 0.019606369394266503 0 -0.028209112088938455 0.016624994889830134 0 -0.023748959446144812 0.018319359124659068 0 -0.024158503359489807 0.018527958553663796 0 -0.023637224166383787 0.018345852996578531 0 -0.029137917091846908 0.012151305953188706 0 -0.032503255016628568 0.011429586803560524 0 -0.029137917091846908 0.012151305953188706 0 -0.0284587688356116 0.011639125171653095 0 -0.029600139289919229 0.008988428824038561 0 -0.031181208951568867 0.008721152088719852 0 -0.031438891530905733 0.0094282876175308308 0 -0.023748959446144812 0.018319359124659068 0 -0.023637224166383787 0.018345852996578531 0 -0.023654081352037663 0.018338556297267359 0 -0.023557604742129139 0.018391681797382067 0 -0.023748959446144812 0.018319359124659068 0 -0.023654081352037663 0.018338556297267359 0 -0.023637224166383787 0.018345852996578531 0 -0.023741247279750768 0.01830093707714877 0 -0.023840928829906037 0.018225696971178779 0 -0.0284587688356116 0.011639125171653095 0 -0.028992705589553167 0.0099533123152966297 0 -0.023745296324961192 0.018409082357712159 0 -0.023741247279750768 0.01830093707714877 0 -0.023851850984841102 0.018355161884540502 0 -0.023745296324961192 0.018409082357712159 0 -0.023654081352037663 0.018338556297267359 0 -0.023741247279750768 0.01830093707714877 0 -0.023637224166383787 0.018345852996578531 0 -0.023654081352037663 0.018338556297267359 0 -0.023741247279750768 0.01830093707714877 0 -0.031438891530905733 0.0094282876175308308 0 -0.032762803932877504 0.0084579267130062748 0 -0.0332749129074539 0.0098693639767997859 0 -0.031181208951568867 0.008721152088719852 0 -0.031438891530905733 0.0094282876175308308 0 -0.032762803932877504 0.0084579267130062748 0 -0.032503255016628568 0.011429586803560524 0 -0.035698093651341231 0.009762515103481223 0 -0.034775503583153823 0.018717343594931851 0 -0.035762414907746017 0.013905544311376052 0 -0.039566169618389858 0.017890726471514164 0 -0.035762414907746017 0.013905544311376052 0 -0.039566169618389858 0.017890726471514164 0 -0.040537510031035368 0.014340263539889138 0 -0.034775503583153823 0.018717343594931851 0 -0.035762414907746017 0.013905544311376052 0 -0.031197647854113723 0.014990108266301644 0 -0.035762414907746017 0.013905544311376052 0 -0.030334160723478509 0.010441931772827432 0 -0.031197647854113723 0.014990108266301644 0 -0.035762414907746017 0.013905544311376052 0 -0.034919628381203598 0.0093596842739032578 0 -0.030334160723478509 0.010441931772827432 0 -0.035762414907746017 0.013905544311376052 0 -0.038609508217366195 0.011197219509102317 0 -0.034919628381203598 0.0093596842739032578 0 -0.035762414907746017 0.013905544311376052 0 -0.038609508217366195 0.011197219509102317 0 -0.040537510031035368 0.014340263539889138 0 -0.038609508217366195 0.011197219509102317 0 -0.034919628381203598 0.0093596842739032578 0 -0.038311437862960651 0.0075732794669048156 0 -0.034919628381203598 0.0093596842739032578 0 -0.031444079013986138 0.0082027433315988614 0 -0.035516001470548696 0.0061494652461124791 0 -0.034919628381203598 0.0093596842739032578 0 -0.038311437862960651 0.0075732794669048156 0 -0.035516001470548696 0.0061494652461124791 0 -0.038311437862960651 0.0075732794669048156 0 -0.038442415758696502 0.0050521466539884844 0 -0.035516001470548696 0.0061494652461124791 0 -0.029296002353823045 0.0074115986254832877 0 -0.031444079013986138 0.0082027433315988614 0 -0.032215026190107375 0.0051736108173030641 0 -0.031444079013986138 0.0082027433315988614 0 -0.032215026190107375 0.0051736108173030641 0 -0.035516001470548696 0.0061494652461124791 0 -0.034919628381203598 0.0093596842739032578 0 -0.031444079013986138 0.0082027433315988614 0 -0.030334160723478509 0.010441931772827432 0 -0.029296002353823045 0.0074115986254832877 0 -0.031444079013986138 0.0082027433315988614 0 -0.028479372373318802 0.009784782022775395 0 -0.031444079013986138 0.0082027433315988614 0 -0.030334160723478509 0.010441931772827432 0 -0.028479372373318802 0.009784782022775395 0 -0.027843227920297607 0.011625726606476545 0 -0.026931212720871799 0.012696652463986428 0 -0.030334160723478509 0.010441931772827432 0 -0.028382695203384812 0.010054195685689864 0 -0.028479372373318802 0.009784782022775395 0 -0.030334160723478509 0.010441931772827432 0 -0.031197647854113723 0.014990108266301644 0 -0.025346735518374044 0.015677307256548784 0 -0.031197647854113723 0.014990108266301644 0 -0.028209112088938455 0.016624994889830134 0 -0.025346735518374044 0.015677307256548784 0 -0.02867149310477948 0.019606369394266503 0 -0.031197647854113723 0.014990108266301644 0 -0.028209112088938455 0.016624994889830134 0 -0.025356445468053063 0.018361258622788104 0 -0.028209112088938455 0.016624994889830134 0 -0.025346735518374044 0.015677307256548784 0 -0.027391526097722579 0.0096680177982668009 0 -0.027488912001651666 0.0097892675214122302 0 -0.025730522030674118 0.0092315962790363009 0 -0.028382695203384812 0.010054195685689864 0 -0.027391526097722579 0.0096680177982668009 0 -0.028479372373318802 0.009784782022775395 0 -0.025978035718153662 0.0023981976691505673 0 -0.021684824276935261 0.0072943454551749106 0 -0.025730522030674118 0.0092315962790363009 0 -0.027228593500948649 0.006215214491955781 0 -0.026922677652463044 0.0077787770547968951 0 -0.027228593500948649 0.006215214491955781 0 -0.027985543467162314 0.0040979456417606069 0 -0.027488912001651666 0.0097892675214122302 0 -0.028479372373318802 0.009784782022775395 0 -0.02723542188070599 0.0084539893829542068 0 -0.027391526097722579 0.0096680177982668009 0 -0.027488912001651666 0.0097892675214122302 0 -0.028479372373318802 0.009784782022775395 0 -0.029296002353823045 0.0074115986254832877 0 -0.028479372373318802 0.009784782022775395 0 -0.02723542188070599 0.0084539893829542068 0 -0.026163827735391408 -0.0011817467980531273 0 -0.026135951392534492 -0.0012982729964120918 0 -0.023256513805580348 -0.00061910869808009552 0 -0.025978035718153662 0.0023981976691505673 0 -0.026163827735391408 -0.0011817467980531273 0 -0.023256513805580348 -0.00061910869808009552 0 -0.026163827735391408 -0.0011817467980531273 0 -0.026135951392534492 -0.0012982729964120918 0 -0.02713007053896261 -0.00018374889035478777 0 -0.027985543467162314 0.0040979456417606069 0 -0.029538395814304817 0.0035513751261428339 0 -0.026163827735391408 -0.0011817467980531273 0 -0.02713007053896261 -0.00018374889035478777 0 -0.026988680647834277 -8.8823963571860255e-05 0 -0.02723542188070599 0.0084539893829542068 0 -0.028138957375299277 0.0066850706372956689 0 -0.026968360199872164 0.0051897858397863695 0 -0.029296002353823045 0.0074115986254832877 0 -0.02723542188070599 0.0084539893829542068 0 -0.028138957375299277 0.0066850706372956689 0 -0.029296002353823045 0.0074115986254832877 0 -0.028138957375299277 0.0066850706372956689 0 -0.02911002797534044 0.0055288298298456417 0 -0.022446083137841639 -0.0019594418255479383 0 -0.019421578666796703 -0.0018882486637180156 0 -0.024957461028833325 -0.0023325740730394413 0 -0.019422677596136341 -0.0016750095850211737 0 -0.018976666218483609 -0.0036996188081214266 0 -0.024957461028833325 -0.0023325740730394413 0 -0.030314463910616221 -0.0017815396853744861 0 -0.028573852661939448 9.2520271801974403e-05 0 -0.024957461028833325 -0.0023325740730394413 0 -0.026135951392534492 -0.0012982729964120918 0 -0.026897857661114882 -0.0003923678579856275 0 -0.024957461028833325 -0.0023325740730394413 0 -0.026135951392534492 -0.0012982729964120918 0 -0.023256513805580348 -0.00061910869808009552 0 -0.023256513805580348 -0.00061910869808009552 0 -0.019422677596136341 -0.0016750095850211737 0 -0.017814967946951834 0.0016109119270718486 0 -0.024957461028833325 -0.0023325740730394413 0 -0.023256513805580348 -0.00061910869808009552 0 -0.019422677596136341 -0.0016750095850211737 0 -0.023256513805580348 -0.00061910869808009552 0 -0.017814967946951834 0.0016109119270718486 0 -0.020424334167580258 0.0037340567208241481 0 -0.025978035718153662 0.0023981976691505673 0 -0.023256513805580348 -0.00061910869808009552 0 -0.020424334167580258 0.0037340567208241481 0 -0.025978035718153662 0.0023981976691505673 0 -0.020424334167580258 0.0037340567208241481 0 -0.021684824276935261 0.0072943454551749106 0 -0.017814967946951834 0.0016109119270718486 0 -0.020424334167580258 0.0037340567208241481 0 -0.015117270139616019 0.0047244955025482838 0 -0.020424334167580258 0.0037340567208241481 0 -0.017349817815815211 0.0074965116028568217 0 -0.015117270139616019 0.0047244955025482838 0 -0.017349817815815211 0.0074965116028568217 0 -0.014689142069133505 0.01061722687203749 0 -0.012999573170545346 0.0077741379046546944 0 -0.017349817815815211 0.0074965116028568217 0 -0.012999573170545346 0.0077741379046546944 0 -0.015117270139616019 0.0047244955025482838 0 -0.017349817815815211 0.0074965116028568217 0 -0.014689142069133505 0.01061722687203749 0 -0.019194634748322077 0.010702272165494386 0 -0.014689142069133505 0.01061722687203749 0 -0.019194634748322077 0.010702272165494386 0 -0.017292039739056495 0.014163450949421549 0 -0.019194634748322077 0.010702272165494386 0 -0.021684824276935261 0.0072943454551749106 0 -0.022914474167860969 0.011323504024814543 0 -0.019194634748322077 0.010702272165494386 0 -0.022914474167860969 0.011323504024814543 0 -0.020860060788626043 0.014246264765022453 0 -0.017349817815815211 0.0074965116028568217 0 -0.019194634748322077 0.010702272165494386 0 -0.021684824276935261 0.0072943454551749106 0 -0.020424334167580258 0.0037340567208241481 0 -0.017349817815815211 0.0074965116028568217 0 -0.021684824276935261 0.0072943454551749106 0 -0.021684824276935261 0.0072943454551749106 0 -0.025730522030674118 0.0092315962790363009 0 -0.022914474167860969 0.011323504024814543 0 -0.027391526097722579 0.0096680177982668009 0 -0.025730522030674118 0.0092315962790363009 0 -0.02748925698428583 0.0098652328096623474 0 -0.028382695203384812 0.010054195685689864 0 -0.027391526097722579 0.0096680177982668009 0 -0.02748925698428583 0.0098652328096623474 0 -0.025730522030674118 0.0092315962790363009 0 -0.02748925698428583 0.0098652328096623474 0 -0.025585283067946375 0.013146955856424081 0 -0.023323536779017991 0.018518665154930388 0 -0.023323403777916984 0.018499797710649499 0 -0.022733720267476012 0.01841757470450802 0 -0.025574831150193933 0.014297908594481618 0 -0.024297847102510328 0.015907258192624084 0 -0.025730522030674118 0.0092315962790363009 0 -0.022914474167860969 0.011323504024814543 0 -0.025585283067946375 0.013146955856424081 0 -0.022914474167860969 0.011323504024814543 0 -0.025585283067946375 0.013146955856424081 0 -0.020860060788626043 0.014246264765022453 0 -0.024297847102510328 0.015907258192624084 0 -0.023528844292793963 0.016924723298921099 0 -0.022733720267476012 0.01841757470450802 0 -0.02256142631550033 0.0185399680232665 0 -0.021784598617381103 0.018251092611271856 0 -0.025585283067946375 0.013146955856424081 0 -0.021784598617381103 0.018251092611271856 0 -0.020860060788626043 0.014246264765022453 0 -0.022878334058432027 0.018580380892865136 0 -0.023323536779017991 0.018518665154930388 0 -0.022733720267476012 0.01841757470450802 0 -0.022878334058432027 0.018580380892865136 0 -0.022733720267476012 0.01841757470450802 0 -0.02256142631550033 0.0185399680232665 0 -0.022878334058432027 0.018580380892865136 0 -0.022552322089404862 0.018750750018869732 0 -0.02256142631550033 0.0185399680232665 0 -0.02229556715898821 0.018720095041623228 0 -0.022878334058432027 0.018580380892865136 0 -0.022552322089404862 0.018750750018869732 0 -0.022552322089404862 0.018750750018869732 0 -0.02256142631550033 0.0185399680232665 0 -0.022595714036459536 0.018984462338466408 0 -0.02202037390582659 0.018837822164330574 0 -0.022552322089404862 0.018750750018869732 0 -0.022595714036459536 0.018984462338466408 0 -0.02202037390582659 0.018837822164330574 0 -0.02229556715898821 0.018720095041623228 0 -0.022552322089404862 0.018750750018869732 0 -0.02256142631550033 0.0185399680232665 0 -0.022595714036459536 0.018984462338466408 0 -0.021784598617381103 0.018251092611271856 0 -0.022766494921427426 0.020276240368325964 0 -0.022595714036459536 0.018984462338466408 0 -0.021784598617381103 0.018251092611271856 0 -0.014071145103804068 0.020214753002332008 0 -0.02030871282546776 0.020611102611112375 0 -0.018518748332966857 0.017718479122607465 0 -0.021784598617381103 0.018251092611271856 0 -0.018518748332966857 0.017718479122607465 0 -0.020860060788626043 0.014246264765022453 0 -0.02030871282546776 0.020611102611112375 0 -0.021784598617381103 0.018251092611271856 0 -0.018518748332966857 0.017718479122607465 0 -0.014071145103804068 0.020214753002332008 0 -0.018518748332966857 0.017718479122607465 0 -0.014722154308691488 0.016209979254978215 0 -0.014071145103804068 0.020214753002332008 0 -0.014722154308691488 0.016209979254978215 0 -0.010427217894486361 0.015716405093277777 0 -0.014722154308691488 0.016209979254978215 0 -0.017292039739056495 0.014163450949421549 0 -0.012289372150563062 0.01351508585592825 0 -0.018518748332966857 0.017718479122607465 0 -0.014722154308691488 0.016209979254978215 0 -0.017292039739056495 0.014163450949421549 0 -0.014689142069133505 0.01061722687203749 0 -0.017292039739056495 0.014163450949421549 0 -0.012289372150563062 0.01351508585592825 0 -0.019194634748322077 0.010702272165494386 0 -0.017292039739056495 0.014163450949421549 0 -0.020860060788626043 0.014246264765022453 0 -0.018518748332966857 0.017718479122607465 0 -0.017292039739056495 0.014163450949421549 0 -0.020860060788626043 0.014246264765022453 0 -0.0072560659869370476 0.014290284906415316 0 -0.0044415339248668004 0.015858864171245195 0 -0.0050143623444293796 0.012071638709841286 0 -0.0072560659869370476 0.014290284906415316 0 -0.012289372150563062 0.01351508585592825 0 -0.010427217894486361 0.015716405093277777 0 -0.0072560659869370476 0.014290284906415316 0 -0.012289372150563062 0.01351508585592825 0 -0.0093575322735086341 0.010303796795628088 0 -0.014722154308691488 0.016209979254978215 0 -0.012289372150563062 0.01351508585592825 0 -0.010427217894486361 0.015716405093277777 0 -0.014071145103804068 0.020214753002332008 0 -0.010427217894486361 0.015716405093277777 0 -0.0052434597623026652 0.016144526821939273 0 -0.0072560659869370476 0.014290284906415316 0 -0.010427217894486361 0.015716405093277777 0 -0.0052434597623026652 0.016144526821939273 0 -0.0086312001334092059 0.017052165744674778 0 -0.0076534881646428505 0.016904452289684856 0 -0.0072560659869370476 0.014290284906415316 0 -0.0052434597623026652 0.016144526821939273 0 -0.0044415339248668004 0.015858864171245195 0 -0.0017463264594624983 0.011979587064988991 0 0.0001787257807784008 0.010104427575179223 0 -0.0043038442052967798 0.014714559487034101 0 -0.0052434597623026652 0.016144526821939273 0 -0.0044415339248668004 0.015858864171245195 0 0.0012744843261126813 0.010897537498251347 0 0.0023016940342844507 0.004871469122844781 0 0.0052162331795256511 0.009020743973152669 0 0.0012744843261126813 0.010897537498251347 0 -0.0043038442052967798 0.014714559487034101 0 0.0023016940342844507 0.004871469122844781 0 0.0023016940342844507 0.004871469122844781 0 0.0076475316709666485 0.0047914952991890093 0 0.0052162331795256511 0.009020743973152669 0 0.0076475316709666485 0.0047914952991890093 0 0.0052162331795256511 0.009020743973152669 0 0.0093966746098123818 0.0078773956955249733 0 0.0001787257807784008 0.010104427575179223 0 0.0038379789459097495 0.0067875109851593006 0 0.0023016940342844507 0.004871469122844781 0 0.0076475316709666485 0.0047914952991890093 0 0.0085925928226980794 0.0013265070238433275 0 -0.0044415339248668004 0.015858864171245195 0 -0.0050143623444293796 0.012071638709841286 0 0.0014691769539200879 0.011446010077639193 0 -0.0050143623444293796 0.012071638709841286 0 0.0014691769539200879 0.011446010077639193 0 -0.0042230268090560396 0.0073719916132821296 0 0.0014691769539200879 0.011446010077639193 0 0.00072517403745955172 0.0041685966330233517 0 -0.0042230268090560396 0.0073719916132821296 0 0.00072517403745955172 0.0041685966330233517 0 -0.0042230268090560396 0.0073719916132821296 0 -0.0043814835860791412 0.0019517216800721312 0 -0.0042230268090560396 0.0073719916132821296 0 -0.0093168988192213024 0.0056448694832256447 0 -0.0093575322735086341 0.010303796795628088 0 -0.0050143623444293796 0.012071638709841286 0 -0.0042230268090560396 0.0073719916132821296 0 -0.0093575322735086341 0.010303796795628088 0 -0.0072560659869370476 0.014290284906415316 0 -0.0050143623444293796 0.012071638709841286 0 -0.0093575322735086341 0.010303796795628088 0 -0.014689142069133505 0.01061722687203749 0 -0.012289372150563062 0.01351508585592825 0 -0.0093575322735086341 0.010303796795628088 0 -0.014689142069133505 0.01061722687203749 0 -0.0093575322735086341 0.010303796795628088 0 -0.012999573170545346 0.0077741379046546944 0 -0.0093168988192213024 0.0056448694832256447 0 -0.0093575322735086341 0.010303796795628088 0 -0.012999573170545346 0.0077741379046546944 0 -0.0093168988192213024 0.0056448694832256447 0 -0.012999573170545346 0.0077741379046546944 0 -0.015117270139616019 0.0047244955025482838 0 -0.017814967946951834 0.0016109119270718486 0 -0.015117270139616019 0.0047244955025482838 0 -0.012185819346273672 0.0017497875980382626 0 -0.0093168988192213024 0.0056448694832256447 0 -0.015117270139616019 0.0047244955025482838 0 -0.012185819346273672 0.0017497875980382626 0 -0.0093168988192213024 0.0056448694832256447 0 -0.012185819346273672 0.0017497875980382626 0 -0.0043814835860791412 0.0019517216800721312 0 -0.012185819346273672 0.0017497875980382626 0 -0.0083787518924646649 -0.0029479650656328645 0 -0.0043814835860791412 0.0019517216800721312 0 -0.019422677596136341 -0.0016750095850211737 0 -0.017814967946951834 0.0016109119270718486 0 -0.012185819346273672 0.0017497875980382626 0 -0.019422677596136341 -0.0016750095850211737 0 -0.012185819346273672 0.0017497875980382626 0 -0.0083787518924646649 -0.0029479650656328645 0 -0.019422677596136341 -0.0016750095850211737 0 -0.0083787518924646649 -0.0029479650656328645 0 -0.013241303400739736 -0.0095424844424798847 0 -0.0083787518924646649 -0.0029479650656328645 0 -0.013241303400739736 -0.0095424844424798847 0 -0.0044445319289978238 -0.0086071957251150286 0 -0.019421578666796703 -0.0018882486637180156 0 -0.01171070797840979 -0.0023633116593041732 0 -0.018933274154961665 -0.0025583603751671963 0 -0.019421578666796703 -0.0018882486637180156 0 0.0020105320016294381 -0.0064824389041875539 0 -0.0044445319289978238 -0.0086071957251150286 0 0.00019582887965090393 -0.0027722128431074272 0 -0.0060885268112642931 -0.002111393738014943 0 -0.01171070797840979 -0.0023633116593041732 0 -0.0083787518924646649 -0.0029479650656328645 0 -0.0044445319289978238 -0.0086071957251150286 0 0.00019582887965090393 -0.0027722128431074272 0 0.00019582887965090393 -0.0027722128431074272 0 -0.0043814835860791412 0.0019517216800721312 0 0.0021035040845572444 0.00079766920935904343 0 -0.0083787518924646649 -0.0029479650656328645 0 0.00019582887965090393 -0.0027722128431074272 0 -0.0043814835860791412 0.0019517216800721312 0 -0.0042230268090560396 0.0073719916132821296 0 -0.0093168988192213024 0.0056448694832256447 0 -0.0043814835860791412 0.0019517216800721312 0 0.00072517403745955172 0.0041685966330233517 0 -0.0043814835860791412 0.0019517216800721312 0 0.0021035040845572444 0.00079766920935904343 0 0.00072517403745955172 0.0041685966330233517 0 0.0021035040845572444 0.00079766920935904343 0 0.0085812675007855572 0.0023678499623392456 0 0.0052575054196548092 -0.00092986592473287002 0 0.0090914817941531289 -0.00018601653538444706 0 0.0085812675007855572 0.0023678499623392456 0 0.0021035040845572444 0.00079766920935904343 0 0.0052575054196548092 -0.00092986592473287002 0 0.0085812675007855572 0.0023678499623392456 0 0.0052575054196548092 -0.00092986592473287002 0 0.0060956669918968741 -0.001508378569680619 0 0.0090914817941531289 -0.00018601653538444706 0 0.00019582887965090393 -0.0027722128431074272 0 0.0021035040845572444 0.00079766920935904343 0 0.0052575054196548092 -0.00092986592473287002 0 0.0020105320016294381 -0.0064824389041875539 0 0.00019582887965090393 -0.0027722128431074272 0 0.0048108051324899483 -0.0028664297926171596 0 0.00019582887965090393 -0.0027722128431074272 0 0.0052575054196548092 -0.00092986592473287002 0 0.0048108051324899483 -0.0028664297926171596 0 0.0052575054196548092 -0.00092986592473287002 0 0.0048108051324899483 -0.0028664297926171596 0 0.0060956669918968741 -0.001508378569680619 0 0.0048108051324899483 -0.0028664297926171596 0 0.0047903366645408452 -0.0021296199667645691 0 0.0060956669918968741 -0.001508378569680619 0 0.0048108051324899483 -0.0028664297926171596 0 0.0053518838720856927 -0.0027989896310269546 0 0.0047903366645408452 -0.0021296199667645691 0 0.0020105320016294381 -0.0064824389041875539 0 0.0048108051324899483 -0.0028664297926171596 0 0.0053518838720856927 -0.0027989896310269546 0 -0.0060885268112642931 -0.002111393738014943 0 -0.0023471405013154481 -0.0015789974462275384 0 0.001716764206363129 -5.7184553317090231e-07 0 0.00092655305756752712 8.3773543913443296e-05 0 0.0039371905858265437 -0.00095563271701159874 0 0.00092655305756752712 8.3773543913443296e-05 0 0.0047903366645408452 -0.0021296199667645691 0 0.0039371905858265437 -0.00095563271701159874 0 0.0053518838720856927 -0.0027989896310269546 0 0.00092655305756752712 8.3773543913443296e-05 0 0.0047903366645408452 -0.0021296199667645691 0 -0.0023471405013154481 -0.0015789974462275384 0 -0.0011166740430645478 -0.0013082138067683157 0 -0.0053586823436625455 0.001057845723609562 0 0.00092655305756752712 8.3773543913443296e-05 0 -0.0023068829728602521 -0.00051172751218624504 0 0.0047903366645408452 -0.0021296199667645691 0 0.0060956669918968741 -0.001508378569680619 0 0.0039371905858265437 -0.00095563271701159874 0 0.0060956669918968741 -0.001508378569680619 0 0.0039371905858265437 -0.00095563271701159874 0 0.0072466526055871569 -2.2720532493417659e-06 0 0.001716764206363129 -5.7184553317090231e-07 0 0.0039371905858265437 -0.00095563271701159874 0 0.0072466526055871569 -2.2720532493417659e-06 0 0.0060956669918968741 -0.001508378569680619 0 0.0072466526055871569 -2.2720532493417659e-06 0 0.0090914817941531289 -0.00018601653538444706 0 0.0072466526055871569 -2.2720532493417659e-06 0 0.0090914817941531289 -0.00018601653538444706 0 0.012773647200318228 6.2818234621973114e-07 0 0.0090914817941531289 -0.00018601653538444706 0 0.012773647200318228 6.2818234621973114e-07 0 0.012182544508380324 0.0006253640170982576 0 0.012773647200318228 6.2818234621973114e-07 0 0.012182544508380324 0.0006253640170982576 0 0.018302779402415269 1.1080020778694569e-06 0 0.012182544508380324 0.0006253640170982576 0 0.018302779402415269 1.1080020778694569e-06 0 0.014172093596228815 0.0011772325199251922 0 0.0090914817941531289 -0.00018601653538444706 0 0.012182544508380324 0.0006253640170982576 0 0.0085812675007855572 0.0023678499623392456 0 0.0085812675007855572 0.0023678499623392456 0 0.012067677937800305 0.0022777415510843438 0 0.014172093596228815 0.0011772325199251922 0 0.0085925928226980794 0.0013265070238433275 0 0.0085812675007855572 0.0023678499623392456 0 0.012067677937800305 0.0022777415510843438 0 0.0014691769539200879 0.011446010077639193 0 0.00072517403745955172 0.0041685966330233517 0 0.0085812675007855572 0.0023678499623392456 0 0.0038379789459097495 0.0067875109851593006 0 0.0059122701876107801 0.0048217956592798003 0 0.012182544508380324 0.0006253640170982576 0 0.0085812675007855572 0.0023678499623392456 0 0.014172093596228815 0.0011772325199251922 0 0.012067677937800305 0.0022777415510843438 0 0.017753016855749714 0.0034656643822528546 0 0.014172093596228815 0.0011772325199251922 0 0.0076475316709666485 0.0047914952991890093 0 0.0085925928226980794 0.0013265070238433275 0 0.012067677937800305 0.0022777415510843438 0 0.014088907826823415 0.0067094059614137827 0 0.012067677937800305 0.0022777415510843438 0 0.0093966746098123818 0.0078773956955249733 0 0.0076475316709666485 0.0047914952991890093 0 0.012067677937800305 0.0022777415510843438 0 0.0093966746098123818 0.0078773956955249733 0 0.014088907826823415 0.0067094059614137827 0 0.012067677937800305 0.0022777415510843438 0 0.017753016855749714 0.0034656643822528546 0 0.020512881145746897 0.0016695833982588058 0 0.017753016855749714 0.0034656643822528546 0 0.019653024746698423 0.0013540359692481554 0 0.017753016855749714 0.0034656643822528546 0 0.019653024746698423 0.0013540359692481554 0 0.014172093596228815 0.0011772325199251922 0 0.023829573660197469 1.9525068321121533e-06 0 0.019653024746698423 0.0013540359692481554 0 0.018302779402415269 1.1080020778694569e-06 0 0.023829573660197469 1.9525068321121533e-06 0 0.022402499224008172 0.00084392225353567053 0 0.019653024746698423 0.0013540359692481554 0 0.019653024746698423 0.0013540359692481554 0 0.018302779402415269 1.1080020778694569e-06 0 0.014172093596228815 0.0011772325199251922 0 -0.03317305785381925 -0.014737249056478633 0 -0.032896579000616294 -0.01477451823997135 0 -0.033204253543671111 -0.014925113480090785 0 -0.032896579000616294 -0.01477451823997135 0 -0.033204253543671111 -0.014925113480090785 0 -0.032764755229139561 -0.014979446595908644 0 -0.033204253543671111 -0.014925113480090785 0 -0.032764755229139561 -0.014979446595908644 0 -0.033100888553039172 -0.015286835608575893 0 -0.033204253543671111 -0.014925113480090785 0 -0.033431586139166643 -0.014781920656654712 0 -0.03360924088093583 -0.015088245722909734 0 -0.033431586139166643 -0.014781920656654712 0 -0.03360924088093583 -0.015088245722909734 0 -0.033741975243107736 -0.014804649486675925 0 -0.033431586139166643 -0.014781920656654712 0 -0.033556973534383694 -0.014597057365477067 0 -0.033741975243107736 -0.014804649486675925 0 -0.033311039965746837 -0.01466375970616361 0 -0.033431586139166643 -0.014781920656654712 0 -0.033556973534383694 -0.014597057365477067 0 -0.03317305785381925 -0.014737249056478633 0 -0.033311039965746837 -0.01466375970616361 0 -0.033431586139166643 -0.014781920656654712 0 -0.03317305785381925 -0.014737249056478633 0 -0.033204253543671111 -0.014925113480090785 0 -0.033431586139166643 -0.014781920656654712 0 -0.033556973534383694 -0.014597057365477067 0 -0.033074748781803068 -0.014546690045365634 0 -0.033798077957350854 -0.0145127305833698 0 0.016555896470228374 -0.012398624568031574 0 0.015932313186755396 -0.012259352859757976 0 0.017134055245388656 -0.012165009367984213 0 -0.0030684875244718058 -0.0090951415990617041 0 -0.0056271168752902662 -0.014014287506634054 0 -0.033311039965746837 -0.01466375970616361 0 -0.033556973534383694 -0.014597057365477067 0 -0.033074748781803068 -0.014546690045365634 0 0.016555896470228374 -0.012398624568031574 0 0.016954557202904442 -0.012566362731023102 0 0.016728405217532352 -0.012733113763641892 0 0.016555896470228374 -0.012398624568031574 0 0.016348634597225766 -0.012789963032506459 0 0.016728405217532352 -0.012733113763641892 0 0.016555896470228374 -0.012398624568031574 0 0.016216239817350694 -0.012372452869984941 0 0.015932313186755396 -0.012259352859757976 0 0.016555896470228374 -0.012398624568031574 0 0.016216239817350694 -0.012372452869984941 0 0.016348634597225766 -0.012789963032506459 0 0.016216239817350694 -0.012372452869984941 0 0.016107973930762697 -0.012572690084853082 0 0.016348634597225766 -0.012789963032506459 0 0.016216239817350694 -0.012372452869984941 0 0.016107973930762697 -0.012572690084853082 0 0.016046364408298673 -0.012344902701208941 0 0.01595236013722556 -0.012279370750777251 0 0.015932313186755396 -0.012259352859757976 0 0.016329954884340348 -0.012250119063788121 0 0.016107973930762697 -0.012572690084853082 0 0.01595236013722556 -0.012279370750777251 0 0.016046364408298673 -0.012344902701208941 0 0.016216239817350694 -0.012372452869984941 0 0.016046364408298673 -0.012344902701208941 0 0.015932313186755396 -0.012259352859757976 0 0.01595236013722556 -0.012279370750777251 0 0.016046364408298673 -0.012344902701208941 0 0.015932313186755396 -0.012259352859757976 0 -0.03317305785381925 -0.014737249056478633 0 -0.032896579000616294 -0.01477451823997135 0 -0.033074748781803068 -0.014546690045365634 0 -0.03317305785381925 -0.014737249056478633 0 -0.033311039965746837 -0.01466375970616361 0 -0.033074748781803068 -0.014546690045365634 0 -0.0030684875244718058 -0.0090951415990617041 0 0.02703544262904033 -0.00046412095697991171 0 -0.032896579000616294 -0.01477451823997135 0 -0.033074748781803068 -0.014546690045365634 0 -0.032320799416277989 -0.014732866254611262 0 0.02703544262904033 -0.00046412095697991171 0 0.039993589927290241 -0.0041851622145434118 0 0.01595236013722556 -0.012279370750777251 0 0.016329954884340348 -0.012250119063788121 0 0.016136362586089786 -0.012090973976524711 0 0.074402253734152102 0.0064054640660934992 0 0.074628279009325144 0.006596232056871168 0 0.07476177933608924 0.0065839589516347753 0 0.02703544262904033 -0.00046412095697991171 0 0.055794476276959375 0.0048197335384458102 0 0.02703544262904033 -0.00046412095697991171 0 0.01560393719132778 0.0018554847341649926 0 -0.032320799416277989 -0.014732866254611262 0 -0.032382467530498144 -0.015260411886576779 0 -0.032204022686427684 -0.015228331213880791 0 -0.032320799416277989 -0.014732866254611262 0 -0.032764755229139561 -0.014979446595908644 0 -0.032382467530498144 -0.015260411886576779 0 -0.032896579000616294 -0.01477451823997135 0 -0.032320799416277989 -0.014732866254611262 0 -0.032764755229139561 -0.014979446595908644 0 -0.032764755229139561 -0.014979446595908644 0 -0.032382467530498144 -0.015260411886576779 0 -0.033100888553039172 -0.015286835608575893 0 -0.032382467530498144 -0.015260411886576779 0 -0.032731821968881213 -0.015582927305984587 0 -0.033100888553039172 -0.015286835608575893 0 -0.032382467530498144 -0.015260411886576779 0 -0.032138586093178621 -0.015483900599930539 0 -0.032321230235140996 -0.015372070751898118 0 -0.032382467530498144 -0.015260411886576779 0 -0.032204022686427684 -0.015228331213880791 0 -0.032321230235140996 -0.015372070751898118 0 -0.032138586093178621 -0.015483900599930539 0 -0.032321230235140996 -0.015372070751898118 0 -0.032548567037667675 -0.015073371614008525 0 -0.032138586093178621 -0.015483900599930539 0 -0.032731821968881213 -0.015582927305984587 0 -0.032864989062043194 -0.016176340488160759 0 -0.032382467530498144 -0.015260411886576779 0 -0.032138586093178621 -0.015483900599930539 0 -0.032731821968881213 -0.015582927305984587 0 -0.032731821968881213 -0.015582927305984587 0 -0.03349774169819416 -0.016008909255930438 0 -0.032864989062043194 -0.016176340488160759 0 -0.032731821968881213 -0.015582927305984587 0 -0.03349774169819416 -0.016008909255930438 0 -0.033100888553039172 -0.015286835608575893 0 -0.033204253543671111 -0.014925113480090785 0 -0.033100888553039172 -0.015286835608575893 0 -0.03360924088093583 -0.015088245722909734 0 -0.033100888553039172 -0.015286835608575893 0 -0.03360924088093583 -0.015088245722909734 0 -0.033908764447414461 -0.015560497481571069 0 -0.03349774169819416 -0.016008909255930438 0 -0.033100888553039172 -0.015286835608575893 0 -0.033908764447414461 -0.015560497481571069 0 -0.03349774169819416 -0.016008909255930438 0 -0.033908764447414461 -0.015560497481571069 0 -0.034224954746481621 -0.016075944400066378 0 -0.033908764447414461 -0.015560497481571069 0 -0.034653360947655795 -0.015699382244837357 0 -0.034224954746481621 -0.016075944400066378 0 -0.035362328466816577 -0.01849552072480477 0 -0.034967192247945152 -0.018448422973436761 0 -0.035251550465899395 -0.018240279555146257 0 -0.035362328466816577 -0.01849552072480477 0 -0.034967192247945152 -0.018448422973436761 0 -0.035203635954690032 -0.01894296980174745 0 -0.034653360947655795 -0.015699382244837357 0 -0.034132812341069858 -0.015150650820460463 0 -0.034658102063384065 -0.014948630081828659 0 -0.025624481446847494 -0.016227482573329437 0 -0.016427104480785139 -0.017871381448250592 0 -0.033908764447414461 -0.015560497481571069 0 -0.034653360947655795 -0.015699382244837357 0 -0.034132812341069858 -0.015150650820460463 0 -0.03360924088093583 -0.015088245722909734 0 -0.033908764447414461 -0.015560497481571069 0 -0.034132812341069858 -0.015150650820460463 0 -0.0039737558285999099 -0.016032562227070404 0 -0.0033585440576672891 -0.016993595868350159 0 -0.03491573981203442 -0.018458289355740898 0 -0.034967192247945152 -0.018448422973436761 0 -0.034943326397985329 -0.018201055327433237 0 -0.03491573981203442 -0.018458289355740898 0 -0.034967192247945152 -0.018448422973436761 0 -0.035044366792006884 -0.01832810464374415 0 -0.034967192247945152 -0.018448422973436761 0 -0.034943326397985329 -0.018201055327433237 0 -0.034416958856438327 -0.018012468818482039 0 -0.024008690059389701 -0.02180625647264281 0 -0.016427104480785139 -0.017871381448250592 0 0.024005732932796502 -0.012537000366511154 0 0.023053210832317518 -0.014251941299083819 0 0.024079429694794003 -0.013996648761366264 0 0.023053210832317518 -0.014251941299083819 0 0.024079429694794003 -0.013996648761366264 0 0.023813503056495822 -0.014996638051120019 0 0.024598365949019603 -0.014690630028150084 0 0.024079429694794003 -0.013996648761366264 0 0.023813503056495822 -0.014996638051120019 0 0.023053210832317518 -0.014251941299083819 0 0.023813503056495822 -0.014996638051120019 0 0.023082651350358863 -0.015434295797628629 0 0.024580366680950462 -0.015364457567761131 0 0.023813503056495822 -0.014996638051120019 0 0.023767926345213266 -0.01605674905308711 0 0.023813503056495822 -0.014996638051120019 0 0.023082651350358863 -0.015434295797628629 0 0.023767926345213266 -0.01605674905308711 0 -0.0033585440576672891 -0.016993595868350159 0 -0.00028158583663557418 -0.01704336153650679 0 -0.034943326397985329 -0.018201055327433237 0 -0.034570071280030971 -0.017577936094278917 0 -0.034416958856438327 -0.018012468818482039 0 0.023053210832317518 -0.014251941299083819 0 0.023082651350358863 -0.015434295797628629 0 0.022009306783222951 -0.016087764403668058 0 0.023405615418560132 -0.01580078667880477 0 0.024050890087962826 -0.016200710575819646 0 0.024409653665102931 -0.015802893421960642 0 -0.00028158583663557418 -0.01704336153650679 0 0.017449167440585615 -0.01649171652764508 0 0.023082651350358863 -0.015434295797628629 0 0.022009306783222951 -0.016087764403668058 0 0.023767926345213266 -0.01605674905308711 0 0.023405615418560132 -0.01580078667880477 0 0.02296607104418133 -0.016647606939642477 0 0.023653121853740584 -0.016415253014666602 0 0.023405615418560132 -0.01580078667880477 0 0.024050890087962826 -0.016200710575819646 0 0.023653121853740584 -0.016415253014666602 0 0.024050890087962826 -0.016200710575819646 0 0.024473591943008542 -0.016295046101572393 0 0.024409653665102931 -0.015802893421960642 0 0.024918370679570107 -0.016105869310281858 0 0.024473591943008542 -0.016295046101572393 0 0.024409653665102931 -0.015802893421960642 0 -0.034132812341069858 -0.015150650820460463 0 -0.034191034535230154 -0.014732446019381153 0 -0.034658102063384065 -0.014948630081828659 0 -0.034191034535230154 -0.014732446019381153 0 -0.033741975243107736 -0.014804649486675925 0 -0.034066759130654108 -0.01432546327333303 0 -0.033556973534383694 -0.014597057365477067 0 -0.033741975243107736 -0.014804649486675925 0 -0.033798077957350854 -0.0145127305833698 0 -0.0097091010989710912 -0.011528729757109427 0 -0.0056271168752902662 -0.014014287506634054 0 -0.034132812341069858 -0.015150650820460463 0 -0.034191034535230154 -0.014732446019381153 0 -0.033741975243107736 -0.014804649486675925 0 -0.03360924088093583 -0.015088245722909734 0 -0.034132812341069858 -0.015150650820460463 0 -0.033741975243107736 -0.014804649486675925 0 -0.016427104480785139 -0.017871381448250592 0 -0.0068674240434939736 -0.016198597594234691 0 -0.034191034535230154 -0.014732446019381153 0 -0.034658102063384065 -0.014948630081828659 0 -0.034263376916584667 -0.014335982319297103 0 -0.034570071280030971 -0.017577936094278917 0 -0.034416958856438327 -0.018012468818482039 0 -0.034449265309427039 -0.01757521902083033 0 -0.016427104480785139 -0.017871381448250592 0 -0.0065208393963184248 -0.015234676135679606 0 -0.012168134775819224 -0.015766370163584929 0 -0.012240666087160972 -0.015395562523167964 0 -0.011935300957978724 -0.015388171065356747 0 -0.00028158583663557418 -0.01704336153650679 0 0.0061658175820787121 -0.015254494962302601 0 0.00048855908855373505 -0.016526189736293332 0 0.001157280765922165 -0.016579411627738756 0 0.00097875341016624771 -0.016876939088976327 0 -0.00037502106217716344 -0.016910552126193704 0 -3.0411098039372631e-05 -0.01690304440602192 0 0.00038413684903531491 -0.015452446816588751 0 -3.0411098039372631e-05 -0.01690304440602192 0 0.00048855908855373505 -0.016526189736293332 0 0.00038413684903531491 -0.015452446816588751 0 -3.0411098039372631e-05 -0.01690304440602192 0 0.00048855908855373505 -0.016526189736293332 0 0.00097875341016624771 -0.016876939088976327 0 -0.0068674240434939736 -0.016198597594234691 0 -0.0065208393963184248 -0.015234676135679606 0 -0.00028158583663557418 -0.01704336153650679 0 -0.0068674240434939736 -0.016198597594234691 0 0.00048855908855373505 -0.016526189736293332 0 0.001157280765922165 -0.016579411627738756 0 0.00038413684903531491 -0.015452446816588751 0 0.017268691909494659 -0.012330423574652126 0 0.017134055245388656 -0.012165009367984213 0 0.016954557202904442 -0.012566362731023102 0 -0.002978100617691333 -0.014081660872258922 0 -0.0065208393963184248 -0.015234676135679606 0 -0.0065208393963184248 -0.015234676135679606 0 -0.0056271168752902662 -0.014014287506634054 0 -0.034191034535230154 -0.014732446019381153 0 -0.034263376916584667 -0.014335982319297103 0 -0.034066759130654108 -0.01432546327333303 0 -0.001102532133248429 -0.016050706668875127 0 0.00068833434979581934 -0.013027477502085914 0 -0.0031770119901927889 -0.013086448340209252 0 -0.002978100617691333 -0.014081660872258922 0 -0.0056271168752902662 -0.014014287506634054 0 0.016555896470228374 -0.012398624568031574 0 0.017134055245388656 -0.012165009367984213 0 0.016954557202904442 -0.012566362731023102 0 0.016954557202904442 -0.012566362731023102 0 0.017057523500975863 -0.013214603199040297 0 0.016728405217532352 -0.012733113763641892 0 0.019355053877424765 -0.010503674831716671 0 0.018102491790966624 -0.012659870849620527 0 0.019375543237626164 -0.01263785234043749 0 0.017268691909494659 -0.012330423574652126 0 0.016954557202904442 -0.012566362731023102 0 0.017057523500975863 -0.013214603199040297 0 -0.002978100617691333 -0.014081660872258922 0 0.0057768115615374474 -0.010540062864456051 0 0.018102491790966624 -0.012659870849620527 0 0.019375543237626164 -0.01263785234043749 0 0.018796071387327112 -0.013742067554739159 0 0.019355053877424765 -0.010503674831716671 0 0.019375543237626164 -0.01263785234043749 0 0.020709638950614333 -0.012386465881226251 0 -0.002978100617691333 -0.014081660872258922 0 0.0061658175820787121 -0.015254494962302601 0 0.0061658175820787121 -0.015254494962302601 0 0.014987746316292572 -0.017447709356783761 0 0.019375543237626164 -0.01263785234043749 0 0.020709638950614333 -0.012386465881226251 0 0.020016565390086498 -0.013850024260188297 0 0.0061658175820787121 -0.015254494962302601 0 0.0077002795167998329 -0.013937627837674561 0 0.020016565390086498 -0.013850024260188297 0 0.020869132772967921 -0.015096330735398334 0 0.022034649490369498 -0.01418807643785364 0 0.020757323795590716 -0.01238913735601248 0 0.020016565390086498 -0.013850024260188297 0 0.022034649490369498 -0.01418807643785364 0 0.020869132772967921 -0.015096330735398334 0 0.022034649490369498 -0.01418807643785364 0 0.021329656292913224 -0.016523864305702147 0 0.020016565390086498 -0.013850024260188297 0 0.020869132772967921 -0.015096330735398334 0 0.020082829405181319 -0.015795190030666085 0 0.020016565390086498 -0.013850024260188297 0 0.018697038680618519 -0.01515291285858659 0 0.020082829405181319 -0.015795190030666085 0 0.018697038680618519 -0.01515291285858659 0 0.018080637158575927 -0.01409154230272784 0 0.018796071387327112 -0.013742067554739159 0 0.018697038680618519 -0.01515291285858659 0 0.018080637158575927 -0.01409154230272784 0 0.016731359088595736 -0.014833665964498846 0 0.018102491790966624 -0.012659870849620527 0 0.018080637158575927 -0.01409154230272784 0 0.018796071387327112 -0.013742067554739159 0 0.019375543237626164 -0.01263785234043749 0 0.020016565390086498 -0.013850024260188297 0 0.018796071387327112 -0.013742067554739159 0 0.020016565390086498 -0.013850024260188297 0 0.018697038680618519 -0.01515291285858659 0 0.018796071387327112 -0.013742067554739159 0 0.025137519165702536 -0.016743589588357886 0 0.024313549412201731 -0.016679516144282397 0 0.024764054670416084 -0.01711367055256174 0 0.02495312068247886 -0.016434386314692954 0 0.024473591943008542 -0.016295046101572393 0 0.024313549412201731 -0.016679516144282397 0 0.024050890087962826 -0.016200710575819646 0 0.024473591943008542 -0.016295046101572393 0 0.024313549412201731 -0.016679516144282397 0 0.024313549412201731 -0.016679516144282397 0 0.023742436981913671 -0.016883292150750847 0 0.024241144811535401 -0.017295124697977688 0 0.02296607104418133 -0.016647606939642477 0 0.023742436981913671 -0.016883292150750847 0 0.023419922547451896 -0.017263474414753618 0 0.02296607104418133 -0.016647606939642477 0 0.023742436981913671 -0.016883292150750847 0 0.023653121853740584 -0.016415253014666602 0 0.024313549412201731 -0.016679516144282397 0 0.023742436981913671 -0.016883292150750847 0 0.023653121853740584 -0.016415253014666602 0 0.024050890087962826 -0.016200710575819646 0 0.024313549412201731 -0.016679516144282397 0 0.023653121853740584 -0.016415253014666602 0 0.023419922547451896 -0.017263474414753618 0 0.024241144811535401 -0.017295124697977688 0 0.023865948758087539 -0.017893576460997228 0 0.023742436981913671 -0.016883292150750847 0 0.023419922547451896 -0.017263474414753618 0 0.024241144811535401 -0.017295124697977688 0 0.014987746316292572 -0.017447709356783761 0 0.020384563975627934 -0.01789399389776869 0 0.024969842790140161 -0.017561542868734924 0 0.024241144811535401 -0.017295124697977688 0 0.024764054670416084 -0.01711367055256174 0 0.024969842790140161 -0.017561542868734924 0 0.024241144811535401 -0.017295124697977688 0 0.023865948758087539 -0.017893576460997228 0 0.024313549412201731 -0.016679516144282397 0 0.024241144811535401 -0.017295124697977688 0 0.024764054670416084 -0.01711367055256174 0 0.02490347457603017 -0.017343401807750271 0 0.023803753391884841 -0.016971472028010873 0 0.024216310653588261 -0.017675310606097529 0 0.024040091268045877 -0.017142985877173604 0 0.020384563975627934 -0.01789399389776869 0 0.025538809643273406 -0.016806681230818039 0 0.02490347457603017 -0.017343401807750271 0 0.023803753391884841 -0.016971472028010873 0 0.023378540152273121 -0.016333845390296559 0 0.022718279063733627 -0.0181999524581711 0 0.024216310653588261 -0.017675310606097529 0 0.022034649490369498 -0.01418807643785364 0 0.023268587768348736 -0.015961252910458468 0 0.021329656292913224 -0.016523864305702147 0 0.023378540152273121 -0.016333845390296559 0 0.022718279063733627 -0.0181999524581711 0 0.021547372082910691 -0.016719291916104755 0 0.020384563975627934 -0.01789399389776869 0 0.020763237551684448 -0.018071397061684133 0 0.020384563975627934 -0.01789399389776869 0 0.020830858185821616 -0.017531430781187188 0 0.021426324626302697 -0.019532074477943539 0 0.024062736959666032 -0.019346925265869772 0 0.022718279063733627 -0.0181999524581711 0 0.024062736959666032 -0.019346925265869772 0 0.022718279063733627 -0.0181999524581711 0 0.024216310653588261 -0.017675310606097529 0 0.025529861250738094 -0.019440501785835965 0 0.024062736959666032 -0.019346925265869772 0 0.02514191314380192 -0.018246486580990817 0 0.024062736959666032 -0.019346925265869772 0 0.024216310653588261 -0.017675310606097529 0 0.02514191314380192 -0.018246486580990817 0 0.02490347457603017 -0.017343401807750271 0 0.024216310653588261 -0.017675310606097529 0 0.02514191314380192 -0.018246486580990817 0 0.018697038680618519 -0.01515291285858659 0 0.018645176252466509 -0.017114482202848388 0 0.016731359088595736 -0.014833665964498846 0 0.019477484142449399 -0.017146389807628646 0 0.019230047650100592 -0.016298590619467552 0 0.020082829405181319 -0.015795190030666085 0 0.019477484142449399 -0.017146389807628646 0 0.018645176252466509 -0.017114482202848388 0 0.019230047650100592 -0.016298590619467552 0 0.018697038680618519 -0.01515291285858659 0 0.018645176252466509 -0.017114482202848388 0 0.019230047650100592 -0.016298590619467552 0 0.018697038680618519 -0.01515291285858659 0 0.019230047650100592 -0.016298590619467552 0 0.020082829405181319 -0.015795190030666085 0 0.020869132772967921 -0.015096330735398334 0 0.020082829405181319 -0.015795190030666085 0 0.021329656292913224 -0.016523864305702147 0 0.019477484142449399 -0.017146389807628646 0 0.020082829405181319 -0.015795190030666085 0 0.021329656292913224 -0.016523864305702147 0 0.020617350572377822 -0.017518042282128481 0 0.020830858185821616 -0.017531430781187188 0 0.021426324626302697 -0.019532074477943539 0 0.022718279063733627 -0.0181999524581711 0 0.021547372082910691 -0.016719291916104755 0 0.021426324626302697 -0.019532074477943539 0 0.019477484142449399 -0.017146389807628646 0 0.021547372082910691 -0.016719291916104755 0 0.021426324626302697 -0.019532074477943539 0 0.019477484142449399 -0.017146389807628646 0 0.018645176252466509 -0.017114482202848388 0 0.046576877854269089 -0.0066545114844907905 0 0.046078526119723878 -0.0057234250100121307 0 0.071425396391645413 0.0054917950164837526 0 0.072516282975912102 0.0043649984560172692 0 0.072657681685095288 0.0052949715019885739 0 0.072516282975912102 0.0043649984560172692 0 0.072657681685095288 0.0052949715019885739 0 0.073270915775321424 0.0046409563305183817 0 0.073145916146215184 0.0060813133887458546 0 0.072657681685095288 0.0052949715019885739 0 0.073270915775321424 0.0046409563305183817 0 0.07380315959332899 0.0071870962020801491 0 0.073694169172545454 0.0069551214170638451 0 0.073973388402879023 0.00688574550129751 0 0.07380315959332899 0.0071870962020801491 0 0.073973388402879023 0.00688574550129751 0 0.074166441408083025 0.0070614303739485644 0 0.073973388402879023 0.00688574550129751 0 0.073859649001587299 0.00663756539070971 0 0.074217499514045909 0.0067697801741054831 0 0.073973388402879023 0.00688574550129751 0 0.074217499514045909 0.0067697801741054831 0 0.074166441408083025 0.0070614303739485644 0 0.046078526119723878 -0.0057234250100121307 0 0.045765927378880432 -0.0042037304474760954 0 0.073694169172545454 0.0069551214170638451 0 0.073973388402879023 0.00688574550129751 0 0.073859649001587299 0.00663756539070971 0 0.072516282975912102 0.0043649984560172692 0 0.073270915775321424 0.0046409563305183817 0 0.07342869333075755 0.003333400114187248 0 0.018645176252466509 -0.017114482202848388 0 0.016004711826966597 -0.014478709701807837 0 0.016731359088595736 -0.014833665964498846 0 0.059357632396011571 0.0022210103365317966 0 0.045765927378880432 -0.0042037304474760954 0 0.018102491790966624 -0.012659870849620527 0 0.018080637158575927 -0.01409154230272784 0 0.016731359088595736 -0.014833665964498846 0 0.017057523500975863 -0.013214603199040297 0 0.016482863270511482 -0.013672921703702634 0 0.016731359088595736 -0.014833665964498846 0 0.0057768115615374474 -0.010540062864456051 0 0.0078203936928782133 -0.01047216634347504 0 0.045765927378880432 -0.0042037304474760954 0 0.039225686038038353 -0.0067917807956808752 0 0.016482863270511482 -0.013672921703702634 0 0.016004711826966597 -0.014478709701807837 0 0.015886821207558906 -0.013239153707661062 0 0.016482863270511482 -0.013672921703702634 0 0.016004711826966597 -0.014478709701807837 0 0.016731359088595736 -0.014833665964498846 0 0.073859649001587299 0.00663756539070971 0 0.07416205971147026 0.0064967207038585644 0 0.074217499514045909 0.0067697801741054831 0 0.045765927378880432 -0.0042037304474760954 0 0.039993589927290241 -0.0041851622145434118 0 0.016047744633068371 -0.011913447909408499 0 0.016014409030818189 -0.012066364114735542 0 0.016136362586089786 -0.012090973976524711 0 0.01595236013722556 -0.012279370750777251 0 0.016014409030818189 -0.012066364114735542 0 0.016136362586089786 -0.012090973976524711 0 0.016107973930762697 -0.012572690084853082 0 0.01595236013722556 -0.012279370750777251 0 0.015886821207558906 -0.013239153707661062 0 0.037159165760800007 -0.0074832684795453179 0 0.039225686038038353 -0.0067917807956808752 0 0.016107973930762697 -0.012572690084853082 0 0.015886821207558906 -0.013239153707661062 0 0.016348634597225766 -0.012789963032506459 0 0.017057523500975863 -0.013214603199040297 0 0.016348634597225766 -0.012789963032506459 0 0.016728405217532352 -0.012733113763641892 0 0.017057523500975863 -0.013214603199040297 0 0.016482863270511482 -0.013672921703702634 0 0.016348634597225766 -0.012789963032506459 0 0.016482863270511482 -0.013672921703702634 0 0.015886821207558906 -0.013239153707661062 0 0.016348634597225766 -0.012789963032506459 0 0.074402253734152102 0.0064054640660934992 0 0.074628279009325144 0.006596232056871168 0 0.07416205971147026 0.0064967207038585644 0 0.074628279009325144 0.006596232056871168 0 0.07416205971147026 0.0064967207038585644 0 0.074569298821939675 0.0066891073114377121 0 0.07416205971147026 0.0064967207038585644 0 0.074569298821939675 0.0066891073114377121 0 0.074217499514045909 0.0067697801741054831 0 0.074569298821939675 0.0066891073114377121 0 0.074564551942343502 0.0069323394539784668 0 0.074778998949757161 0.0068110477214842514 0 0.074569298821939675 0.0066891073114377121 0 0.074217499514045909 0.0067697801741054831 0 0.074564551942343502 0.0069323394539784668 0 0.074217499514045909 0.0067697801741054831 0 0.074166441408083025 0.0070614303739485644 0 0.074564551942343502 0.0069323394539784668 0 0.074456638235079892 0.0071993524663976167 0 0.074166441408083025 0.0070614303739485644 0 0.074564551942343502 0.0069323394539784668 0 0.074815603092447419 0.0073318691303356567 0 0.074456638235079892 0.0071993524663976167 0 0.074564551942343502 0.0069323394539784668 0 0.074815603092447419 0.0073318691303356567 0 0.074564551942343502 0.0069323394539784668 0 0.075015066352547788 0.0069100908627307087 0 0.075015066352547788 0.0069100908627307087 0 0.074778998949757161 0.0068110477214842514 0 0.074936582281570782 0.0067423681044055774 0 0.074564551942343502 0.0069323394539784668 0 0.075015066352547788 0.0069100908627307087 0 0.074778998949757161 0.0068110477214842514 0 0.075015066352547788 0.0069100908627307087 0 0.075133771750555328 0.0067629336806116257 0 0.074936582281570782 0.0067423681044055774 0 0.075015066352547788 0.0069100908627307087 0 0.07548719819255427 0.0070021971500558331 0 0.075133771750555328 0.0067629336806116257 0 0.075291031626314592 0.0073051232297468459 0 0.075015066352547788 0.0069100908627307087 0 0.07548719819255427 0.0070021971500558331 0 0.075053558846298621 0.0065592915898838424 0 0.075035356065366585 0.0063924237603303546 0 0.07548719819255427 0.0070021971500558331 0 0.074901201705192044 0.0065668976475133636 0 0.075133771750555328 0.0067629336806116257 0 0.076518755060132976 0.0076009541925452038 0 0.07548719819255427 0.0070021971500558331 0 0.076358418980234016 0.0068928156796943113 0 0.074901201705192044 0.0065668976475133636 0 0.074905821644669968 0.0068111699151487586 0 0.074314224673445492 0.0064652595374480922 0 0.074901201705192044 0.0065668976475133636 0 0.075133771750555328 0.0067629336806116257 0 0.074905821644669968 0.0068111699151487586 0 0.075133771750555328 0.0067629336806116257 0 0.074905821644669968 0.0068111699151487586 0 0.074936582281570782 0.0067423681044055774 0 0.074905821644669968 0.0068111699151487586 0 0.074888349553512201 0.0067512924715839185 0 0.074883321969739139 0.0069432011994267949 0 0.074628279009325144 0.006596232056871168 0 0.074888349553512201 0.0067512924715839185 0 0.074936582281570782 0.0067423681044055774 0 0.074569298821939675 0.0066891073114377121 0 0.074778998949757161 0.0068110477214842514 0 0.074936582281570782 0.0067423681044055774 0 0.074628279009325144 0.006596232056871168 0 0.074569298821939675 0.0066891073114377121 0 0.074936582281570782 0.0067423681044055774 0 0.074905821644669968 0.0068111699151487586 0 0.074888349553512201 0.0067512924715839185 0 0.074936582281570782 0.0067423681044055774 0 0.076280601078202601 0.0087072042876132332 0 0.077398151530311571 0.0082624026877540155 0 0.077770125165508922 0.011165475509885331 0 0.076280601078202601 0.0087072042876132332 0 0.076315904522020292 0.0082123644851197358 0 0.077398151530311571 0.0082624026877540155 0 0.076980010608505955 0.00787524115055214 0 0.076724534059187582 0.0080456725895244278 0 0.076315904522020292 0.0082123644851197358 0 0.076998383226162453 0.0075906322246162622 0 0.076980010608505955 0.00787524115055214 0 0.077398151530311571 0.0082624026877540155 0 0.076980010608505955 0.00787524115055214 0 0.076315904522020292 0.0082123644851197358 0 0.077398151530311571 0.0082624026877540155 0 0.076998383226162453 0.0075906322246162622 0 0.076358418980234016 0.0068928156796943113 0 0.076876009320956062 0.0067483547071308736 0 0.076998383226162453 0.0075906322246162622 0 0.077198549059471308 0.0069382721543297804 0 0.076876009320956062 0.0067483547071308736 0 0.077198549059471308 0.0069382721543297804 0 0.076876009320956062 0.0067483547071308736 0 0.077110581386675495 0.0068035900551575391 0 0.075526356814355031 0.0068326581461584639 0 0.074681341874951984 0.0067784966219969949 0 0.075035356065366585 0.0063924237603303546 0 0.074645533919142776 0.0060717242562988031 0 0.074905821644669968 0.0068111699151487586 0 0.074314224673445492 0.0064652595374480922 0 0.074141515869160957 0.0069926520635347211 0 0.074905821644669968 0.0068111699151487586 0 0.074141515869160957 0.0069926520635347211 0 0.074575137528284846 0.0073224883749893471 0 0.074141515869160957 0.0069926520635347211 0 0.07334272728775057 0.0065506493195592319 0 0.073077744695213609 0.007256454454603798 0 0.074141515869160957 0.0069926520635347211 0 0.073077744695213609 0.007256454454603798 0 0.073727651341210135 0.007738562050215848 0 0.074314224673445492 0.0064652595374480922 0 0.074141515869160957 0.0069926520635347211 0 0.07334272728775057 0.0065506493195592319 0 0.074645533919142776 0.0060717242562988031 0 0.073228790429134258 0.0057915228288568394 0 0.074681341874951984 0.0067784966219969949 0 0.070650644830703005 0.0072282438121136954 0 0.077198549059471308 0.0069382721543297804 0 0.077110581386675495 0.0068035900551575391 0 0.076977965805055323 0.0068241752120654546 0 0.073228790429134258 0.0057915228288568394 0 0.068839960863458644 0.0062434597418908515 0 0.07334272728775057 0.0065506493195592319 0 0.073077744695213609 0.007256454454603798 0 0.071846746494204333 0.0070468712773090591 0 0.073077744695213609 0.007256454454603798 0 0.071846746494204333 0.0070468712773090591 0 0.072183037254139465 0.0080836078186606215 0 0.077110581386675495 0.0068035900551575391 0 0.076916866407537601 0.0070176678405843443 0 0.076977965805055323 0.0068241752120654546 0 0.076533834774914156 0.0071845916091763575 0 0.076916866407537601 0.0070176678405843443 0 0.076977965805055323 0.0068241752120654546 0 0.073564328916703545 0.0087870693006053581 0 0.076280601078202601 0.0087072042876132332 0 0.077770125165508922 0.011165475509885331 0 0.020280108081754445 0.018467740114502265 0 0.025367675305204007 0.0095786118097090749 0 0.028401872612948274 0.019028006953713497 0 0.070258807974759349 0.0079250450561795076 0 0.071846746494204333 0.0070468712773090591 0 0.072183037254139465 0.0080836078186606215 0 0.025367675305204007 0.0095786118097090749 0 0.032117933543551032 0.01566725908047617 0 0.032824559483745991 0.010679133042494716 0 0.073077744695213609 0.007256454454603798 0 0.072183037254139465 0.0080836078186606215 0 0.073727651341210135 0.007738562050215848 0 0.049662851142095059 0.0098122854324948702 0 0.052979557083619157 0.009129824027549591 0 0.025367675305204007 0.0095786118097090749 0 0.032117933543551032 0.01566725908047617 0 0.028401872612948274 0.019028006953713497 0 0.032117933543551032 0.01566725908047617 0 0.032824559483745991 0.010679133042494716 0 0.039790905835315735 0.01126694835853828 0 0.074141515869160957 0.0069926520635347211 0 0.073727651341210135 0.007738562050215848 0 0.074575137528284846 0.0073224883749893471 0 0.052979557083619157 0.009129824027549591 0 0.056547018234057576 0.0084356705409839496 0 0.032117933543551032 0.01566725908047617 0 0.039790905835315735 0.01126694835853828 0 0.039944064634358935 0.016996898772061047 0 0.034907061927085967 0.019771161751075315 0 0.039944064634358935 0.016996898772061047 0 0.041189220159158234 0.02216904371995965 0 0.032117933543551032 0.01566725908047617 0 0.034907061927085967 0.019771161751075315 0 0.039944064634358935 0.016996898772061047 0 0.041189220159158234 0.02216904371995965 0 0.041806289179504151 0.026001076728896816 0 0.036174164305118141 0.027721487277171289 0 0.034907061927085967 0.019771161751075315 0 0.041189220159158234 0.02216904371995965 0 0.036174164305118141 0.027721487277171289 0 0.034907061927085967 0.019771161751075315 0 0.031189464434516413 0.023745064156940079 0 0.036174164305118141 0.027721487277171289 0 0.031189464434516413 0.023745064156940079 0 0.029373391152141024 0.026356329206852099 0 0.036174164305118141 0.027721487277171289 0 0.032117933543551032 0.01566725908047617 0 0.034907061927085967 0.019771161751075315 0 0.028401872612948274 0.019028006953713497 0 0.034907061927085967 0.019771161751075315 0 0.028401872612948274 0.019028006953713497 0 0.031189464434516413 0.023745064156940079 0 0.028401872612948274 0.019028006953713497 0 0.031189464434516413 0.023745064156940079 0 0.028649378404837771 0.023050014322884612 0 0.028401872612948274 0.019028006953713497 0 0.028649378404837771 0.023050014322884612 0 0.026062774073059302 0.023206143091184423 0 0.031189464434516413 0.023745064156940079 0 0.029373391152141024 0.026356329206852099 0 0.028649378404837771 0.023050014322884612 0 0.029373391152141024 0.026356329206852099 0 0.028649378404837771 0.023050014322884612 0 0.026062774073059302 0.023206143091184423 0 0.029373391152141024 0.026356329206852099 0 0.026062774073059302 0.023206143091184423 0 0.021727116903625738 0.02556308406410587 0 -0.00077214251471957531 0.014647949741174919 0 -0.0018791356373584563 0.018723748446219112 0 0.020280108081754445 0.018467740114502265 0 0.028401872612948274 0.019028006953713497 0 0.026062774073059302 0.023206143091184423 0 0.020280108081754445 0.018467740114502265 0 0.026062774073059302 0.023206143091184423 0 0.021727116903625738 0.02556308406410587 0 0.049869932452926855 0.015568916248267728 0 0.055217180901470389 0.016026189821219592 0 0.051238971333449124 0.020349124755371657 0 0.049869932452926855 0.015568916248267728 0 0.055217180901470389 0.016026189821219592 0 0.052900201436393929 0.011846214079541673 0 0.05908899036680601 0.011930848020238 0 0.055217180901470389 0.016026189821219592 0 0.052900201436393929 0.011846214079541673 0 0.074628279009325144 0.006596232056871168 0 0.074888349553512201 0.0067512924715839185 0 0.07476177933608924 0.0065839589516347753 0 0.049869932452926855 0.015568916248267728 0 0.052900201436393929 0.011846214079541673 0 0.046472202495597727 0.011603526203567544 0 0.055794476276959375 0.0048197335384458102 0 0.058849382334566297 0.0072433868715451183 0 0.074888349553512201 0.0067512924715839185 0 0.07476177933608924 0.0065839589516347753 0 0.074883321969739139 0.0069432011994267949 0 0.074905821644669968 0.0068111699151487586 0 0.074575137528284846 0.0073224883749893471 0 0.074883321969739139 0.0069432011994267949 0 0.056547018234057576 0.0084356705409839496 0 0.058849382334566297 0.0072433868715451183 0 0.039790905835315735 0.01126694835853828 0 0.046472202495597727 0.011603526203567544 0 0.039944064634358935 0.016996898772061047 0 0.046472202495597727 0.011603526203567544 0 0.039944064634358935 0.016996898772061047 0 0.045772856432086069 0.01840944271103466 0 0.049869932452926855 0.015568916248267728 0 0.046472202495597727 0.011603526203567544 0 0.045772856432086069 0.01840944271103466 0 0.039944064634358935 0.016996898772061047 0 0.045772856432086069 0.01840944271103466 0 0.041189220159158234 0.02216904371995965 0 0.041189220159158234 0.02216904371995965 0 0.0470591917780371 0.024836153650069647 0 0.041806289179504151 0.026001076728896816 0 0.045772856432086069 0.01840944271103466 0 0.041189220159158234 0.02216904371995965 0 0.0470591917780371 0.024836153650069647 0 0.002526436060787248 0.0013131412390548884 0 0.0088936827201908722 0.0019614209256387989 0 -0.033514114211087499 -0.014870802167187279 0 -0.032742139196684367 -0.015436483718957738 0 -0.033239531811364804 -0.014680164270840545 0 0.049869932452926855 0.015568916248267728 0 0.045772856432086069 0.01840944271103466 0 0.051238971333449124 0.020349124755371657 0 0.045772856432086069 0.01840944271103466 0 0.0470591917780371 0.024836153650069647 0 0.051238971333449124 0.020349124755371657 0 -0.032204022686427684 -0.015228331213880791 0 -0.032742139196684367 -0.015436483718957738 0 -0.032321230235140996 -0.015372070751898118 0 0.01560393719132778 0.0018554847341649926 0 0.0088936827201908722 0.0019614209256387989 0 -0.032742139196684367 -0.015436483718957738 0 -0.032548567037667675 -0.015073371614008525 0 -0.033239531811364804 -0.014680164270840545 0 -0.032742139196684367 -0.015436483718957738 0 -0.032321230235140996 -0.015372070751898118 0 -0.032548567037667675 -0.015073371614008525 0 -0.032548567037667675 -0.015073371614008525 0 -0.0328696714861718 -0.01443114379724408 0 -0.031937124480950159 -0.014059433353928872 0 -0.032548567037667675 -0.015073371614008525 0 -0.0328696714861718 -0.01443114379724408 0 -0.033239531811364804 -0.014680164270840545 0 -0.031476621555309114 -0.01684031155024953 0 -0.031339161230505244 -0.017511222778576724 0 -0.031579472884706021 -0.01717753751812888 0 -0.031937124480950159 -0.014059433353928872 0 -0.033061107135295711 -0.013212486716104936 0 -0.03278092965908333 -0.010335725493441344 0 -0.033292932324326494 -0.015359226764782208 0 -0.035074188360870423 -0.014522987358398996 0 -0.0328696714861718 -0.01443114379724408 0 -0.031937124480950159 -0.014059433353928872 0 -0.033061107135295711 -0.013212486716104936 0 -0.0328696714861718 -0.01443114379724408 0 -0.033061107135295711 -0.013212486716104936 0 -0.033660521572921542 -0.01424480325975783 0 -0.035785620482596731 -0.012193051212240834 0 -0.033931428172405791 -0.012271306504717222 0 -0.033660521572921542 -0.01424480325975783 0 -0.033061107135295711 -0.013212486716104936 0 -0.033931428172405791 -0.012271306504717222 0 -0.033660521572921542 -0.01424480325975783 0 -0.033514114211087499 -0.014870802167187279 0 -0.033239531811364804 -0.014680164270840545 0 -0.033490796093078201 -0.014240974647593654 0 -0.033660521572921542 -0.01424480325975783 0 -0.033239531811364804 -0.014680164270840545 0 -0.033490796093078201 -0.014240974647593654 0 -0.0328696714861718 -0.01443114379724408 0 -0.033660521572921542 -0.01424480325975783 0 -0.033239531811364804 -0.014680164270840545 0 0.0470591917780371 0.024836153650069647 0 0.041806289179504151 0.026001076728896816 0 0.042736182517266158 0.029303713840090114 0 -0.006245622493407048 -0.00053649980725856204 0 -0.016819247496720362 -0.004196340419762969 0 0.002526436060787248 0.0013131412390548884 0 -0.006245622493407048 -0.00053649980725856204 0 -0.033514114211087499 -0.014870802167187279 0 -0.033886374443291199 -0.014357956779148074 0 -0.033490796093078201 -0.014240974647593654 0 0.041806289179504151 0.026001076728896816 0 0.042736182517266158 0.029303713840090114 0 0.036174164305118141 0.027721487277171289 0 -0.033045496813202582 -0.01395649426720201 0 -0.033299483190597584 -0.014290763664312884 0 -0.032426186203542394 -0.014446854138031854 0 -0.031876037009990865 -0.0047088073429718737 0 -0.026160527927492669 0.0011927237777203861 0 -0.006245622493407048 -0.00053649980725856204 0 -0.026160527927492669 0.0011927237777203861 0 -0.038246765093625755 -0.013602040032919467 0 -0.040258209502297852 -0.011999624024244371 0 -0.042511439024452903 -0.012303673969071326 0 -0.038246765093625755 -0.013602040032919467 0 -0.03819192906206427 -0.01141181601096182 0 -0.040258209502297852 -0.011999624024244371 0 -0.035785620482596731 -0.012193051212240834 0 -0.033660521572921542 -0.01424480325975783 0 -0.038246765093625755 -0.013602040032919467 0 -0.033660521572921542 -0.01424480325975783 0 -0.033490796093078201 -0.014240974647593654 0 -0.033299483190597584 -0.014290763664312884 0 -0.033045496813202582 -0.01395649426720201 0 -0.033490796093078201 -0.014240974647593654 0 -0.033299483190597584 -0.014290763664312884 0 -0.032469606205261521 -0.0065076105358493012 0 -0.031876037009990865 -0.0047088073429718737 0 -0.035785620482596731 -0.012193051212240834 0 -0.038246765093625755 -0.013602040032919467 0 -0.03819192906206427 -0.01141181601096182 0 -0.035785620482596731 -0.012193051212240834 0 -0.03819192906206427 -0.01141181601096182 0 -0.036605554186017353 -0.010545334699818274 0 -0.03819192906206427 -0.01141181601096182 0 -0.037901980268815937 -0.0096700745134610504 0 -0.036605554186017353 -0.010545334699818274 0 -0.03819192906206427 -0.01141181601096182 0 -0.037901980268815937 -0.0096700745134610504 0 -0.039940600684277155 -0.009898768846033015 0 -0.037901980268815937 -0.0096700745134610504 0 -0.036605554186017353 -0.010545334699818274 0 -0.036761856313632699 -0.0087624590520481889 0 -0.041289214521138692 -0.01027480435587951 0 -0.044021888919586215 -0.012753456071600524 0 -0.04371543456454547 -0.0087463493811675112 0 -0.035223496829466301 -0.006563497218681047 0 -0.026160527927492669 0.0011927237777203861 0 -0.040258209502297852 -0.011999624024244371 0 -0.039940600684277155 -0.009898768846033015 0 -0.042511439024452903 -0.012303673969071326 0 -0.03819192906206427 -0.01141181601096182 0 -0.040258209502297852 -0.011999624024244371 0 -0.039940600684277155 -0.009898768846033015 0 -0.042763751020153624 -0.0066469079580968385 0 -0.039833314762732851 -0.0078065241515590991 0 -0.044872386369617094 -0.007993141481456632 0 -0.041289214521138692 -0.01027480435587951 0 -0.039833314762732851 -0.0078065241515590991 0 -0.04371543456454547 -0.0087463493811675112 0 -0.041582097052821898 -0.0021338860228194132 0 -0.041304966942446432 -0.0010921466939447133 0 -0.042763751020153624 -0.0066469079580968385 0 -0.039833314762732851 -0.0078065241515590991 0 -0.040166601231407403 -0.0059830644625876259 0 -0.036605554186017353 -0.010545334699818274 0 -0.036761856313632699 -0.0087624590520481889 0 -0.035112064829684687 -0.0087338196902185094 0 -0.037901980268815937 -0.0096700745134610504 0 -0.036761856313632699 -0.0087624590520481889 0 -0.037818800885929912 -0.0073436085777677249 0 -0.041289214521138692 -0.01027480435587951 0 -0.039833314762732851 -0.0078065241515590991 0 -0.037818800885929912 -0.0073436085777677249 0 -0.037901980268815937 -0.0096700745134610504 0 -0.039940600684277155 -0.009898768846033015 0 -0.037818800885929912 -0.0073436085777677249 0 -0.035223496829466301 -0.006563497218681047 0 -0.036510803858995376 -0.007537047026303997 0 -0.039833314762732851 -0.0078065241515590991 0 -0.038149369528926808 -0.0060044549326725869 0 -0.040166601231407403 -0.0059830644625876259 0 -0.039833314762732851 -0.0078065241515590991 0 -0.037818800885929912 -0.0073436085777677249 0 -0.038149369528926808 -0.0060044549326725869 0 -0.037818800885929912 -0.0073436085777677249 0 -0.036539401048531428 -0.0072328216066165005 0 -0.038149369528926808 -0.0060044549326725869 0 -0.036761856313632699 -0.0087624590520481889 0 -0.037818800885929912 -0.0073436085777677249 0 -0.036539401048531428 -0.0072328216066165005 0 -0.035074188360870423 -0.014522987358398996 0 -0.039463546272260522 -0.012942396768741338 0 -0.036539401048531428 -0.0072328216066165005 0 -0.035112064829684687 -0.0087338196902185094 0 -0.034981120348674552 -0.0050437549384505396 0 -0.035112064829684687 -0.0087338196902185094 0 -0.03278092965908333 -0.010335725493441344 0 -0.034981120348674552 -0.0050437549384505396 0 -0.031339161230505244 -0.017511222778576724 0 -0.031434521951142852 -0.017780795652087455 0 -0.03125286305454858 -0.017810090220163742 0 -0.036761856313632699 -0.0087624590520481889 0 -0.036539401048531428 -0.0072328216066165005 0 -0.035112064829684687 -0.0087338196902185094 0 -0.031520122131583318 -0.017640529368639395 0 -0.031339161230505244 -0.017511222778576724 0 -0.031638785971749329 -0.01750896995452424 0 -0.031520122131583318 -0.017640529368639395 0 -0.031339161230505244 -0.017511222778576724 0 -0.031434521951142852 -0.017780795652087455 0 -0.031520122131583318 -0.017640529368639395 0 -0.031434521951142852 -0.017780795652087455 0 -0.031673010022315352 -0.017749690806471936 0 -0.031339161230505244 -0.017511222778576724 0 -0.031638785971749329 -0.01750896995452424 0 -0.031579472884706021 -0.01717753751812888 0 -0.033061107135295711 -0.013212486716104936 0 -0.033931428172405791 -0.012271306504717222 0 -0.03278092965908333 -0.010335725493441344 0 -0.033931428172405791 -0.012271306504717222 0 -0.03278092965908333 -0.010335725493441344 0 -0.034670815217828339 -0.010762510918131135 0 -0.035785620482596731 -0.012193051212240834 0 -0.036605554186017353 -0.010545334699818274 0 -0.034670815217828339 -0.010762510918131135 0 -0.035785620482596731 -0.012193051212240834 0 -0.033931428172405791 -0.012271306504717222 0 -0.034670815217828339 -0.010762510918131135 0 -0.036605554186017353 -0.010545334699818274 0 -0.035112064829684687 -0.0087338196902185094 0 -0.034670815217828339 -0.010762510918131135 0 -0.035112064829684687 -0.0087338196902185094 0 -0.03278092965908333 -0.010335725493441344 0 -0.034670815217828339 -0.010762510918131135 0 -0.023878908489294019 0.018464569194091826 0 -0.023970207365853383 0.018586812807428455 0 -0.024003388053694025 0.018375429500917001 0 -0.023745296324961192 0.018409082357712159 0 -0.023851850984841102 0.018355161884540502 0 -0.023878908489294019 0.018464569194091826 0 -0.023851850984841102 0.018355161884540502 0 -0.023878908489294019 0.018464569194091826 0 -0.024003388053694025 0.018375429500917001 0 -0.023747244241265512 0.018631637627191715 0 -0.023878908489294019 0.018464569194091826 0 -0.023970207365853383 0.018586812807428455 0 -0.023747244241265512 0.018631637627191715 0 -0.023826098049994197 0.018898028379262903 0 -0.023970207365853383 0.018586812807428455 0 -0.024082688191233777 0.018743034796134556 0 -0.023826098049994197 0.018898028379262903 0 -0.023970207365853383 0.018586812807428455 0 -0.023970207365853383 0.018586812807428455 0 -0.024129587128999874 0.018558059914740983 0 -0.024138718438483232 0.018420589071747408 0 -0.024082688191233777 0.018743034796134556 0 -0.024129587128999874 0.018558059914740983 0 -0.024394702559181091 0.018486849491010891 0 -0.024082688191233777 0.018743034796134556 0 -0.023970207365853383 0.018586812807428455 0 -0.024129587128999874 0.018558059914740983 0 -0.023970207365853383 0.018586812807428455 0 -0.024138718438483232 0.018420589071747408 0 -0.024003388053694025 0.018375429500917001 0 -0.024138718438483232 0.018420589071747408 0 -0.024003388053694025 0.018375429500917001 0 -0.02420081304898487 0.018255858895340024 0 -0.028818860381827262 0.012210475651101395 0 -0.030384026822767148 0.0084107520559176616 0 -0.024365973121749471 0.018228660661381336 0 -0.024854956931886496 0.018045620410152664 0 -0.024237450310508505 0.017940099811942743 0 -0.024138718438483232 0.018420589071747408 0 -0.024365973121749471 0.018228660661381336 0 -0.024237450310508505 0.017940099811942743 0 -0.024365973121749471 0.018228660661381336 0 -0.024394702559181091 0.018486849491010891 0 -0.024854956931886496 0.018045620410152664 0 -0.024138718438483232 0.018420589071747408 0 -0.024365973121749471 0.018228660661381336 0 -0.024394702559181091 0.018486849491010891 0 -0.00077214251471957531 0.014647949741174919 0 0.0087717333227087871 0.01189804100300999 0 -0.002178985082286115 0.010384082914984506 0 -0.0042677590131773519 0.0083653887023198998 0 -0.0053943680610826286 0.0094175221742046362 0 -0.00077214251471957531 0.014647949741174919 0 -0.012608310769948665 0.0097441556049049655 0 -0.024129587128999874 0.018558059914740983 0 -0.024138718438483232 0.018420589071747408 0 -0.024394702559181091 0.018486849491010891 0 -0.006245622493407048 -0.00053649980725856204 0 0.0087717333227087871 0.01189804100300999 0 -0.0042677590131773519 0.0083653887023198998 0 -0.0053943680610826286 0.0094175221742046362 0 -0.0062445050213271597 0.0078214439622192374 0 -0.0085787802967497283 0.0084752534158000874 0 -0.0053943680610826286 0.0094175221742046362 0 -0.0062445050213271597 0.0078214439622192374 0 -0.012608310769948665 0.0097441556049049655 0 -0.026160527927492669 0.0011927237777203861 0 -0.0042677590131773519 0.0083653887023198998 0 -0.0062445050213271597 0.0078214439622192374 0 -0.0064592802781753174 0.0063068746696643323 0 -0.0085787802967497283 0.0084752534158000874 0 -0.0062445050213271597 0.0078214439622192374 0 -0.0064592802781753174 0.0063068746696643323 0 -0.026160527927492669 0.0011927237777203861 0 -0.035779539816567549 0.0032218033844137418 0 -0.044021888919586215 -0.012753456071600524 0 -0.04371543456454547 -0.0087463493811675112 0 -0.047245262510583558 -0.009443649666952594 0 -0.029257620197842799 0.0025154616521520174 0 -0.033641284241548809 0.006939435690871746 0 -0.032357740056542746 0.0044883205915580565 0 -0.041304966942446432 -0.0010921466939447133 0 -0.035779539816567549 0.0032218033844137418 0 -0.044872386369617094 -0.007993141481456632 0 -0.045202450291277993 -0.0070037156855919389 0 -0.045155894068185487 -0.0071148502695228795 0 -0.042763751020153624 -0.0066469079580968385 0 -0.044872386369617094 -0.007993141481456632 0 -0.045670132021091485 -0.006723388247630668 0 -0.044872386369617094 -0.007993141481456632 0 -0.045670132021091485 -0.006723388247630668 0 -0.045155894068185487 -0.0071148502695228795 0 -0.045670132021091485 -0.006723388247630668 0 -0.045155894068185487 -0.0071148502695228795 0 -0.044391694900929771 -0.0076040453069089404 0 -0.045155894068185487 -0.0071148502695228795 0 -0.045166243992150454 -0.0069707074110616687 0 -0.044391694900929771 -0.0076040453069089404 0 -0.037936900139467933 0.0049235581312815141 0 -0.038666356662032962 0.0056631694097975692 0 -0.037655338537871057 0.0058135328492461601 0 -0.036002295519135689 0.0035178768214290251 0 -0.043226093225747449 0.0017162186015874847 0 -0.045202450291277993 -0.0070037156855919389 0 -0.045155894068185487 -0.0071148502695228795 0 -0.045166243992150454 -0.0069707074110616687 0 -0.0354093927299724 0.0092701931556542268 0 -0.035357540715607892 0.0094292371699499361 0 -0.034340614463504844 0.0081989914920283877 0 -0.036002295519135689 0.0035178768214290251 0 -0.035051973438728436 0.0040465997444209317 0 -0.034763693251237945 0.00078461596030751125 0 -0.038201376124283433 0.0042596830200434463 0 -0.039647554902918082 -0.00019867508327964492 0 -0.035779539816567549 0.0032218033844137418 0 -0.035051973438728436 0.0040465997444209317 0 -0.035779539816567549 0.0032218033844137418 0 -0.036002295519135689 0.0035178768214290251 0 -0.035051973438728436 0.0040465997444209317 0 -0.030384026822767148 0.0084107520559176616 0 -0.034241924210018322 0.0068191800265800864 0 -0.032357740056542746 0.0044883205915580565 0 -0.035212099199481893 0.0038193679966374919 0 -0.029257620197842799 0.0025154616521520174 0 -0.032357740056542746 0.0044883205915580565 0 -0.035212099199481893 0.0038193679966374919 0 -0.026160527927492669 0.0011927237777203861 0 -0.030384026822767148 0.0084107520559176616 0 -0.033641284241548809 0.006939435690871746 0 -0.034241924210018322 0.0068191800265800864 0 -0.032357740056542746 0.0044883205915580565 0 -0.035051973438728436 0.0040465997444209317 0 -0.028992705589553167 0.0099533123152966297 0 -0.030384026822767148 0.0084107520559176616 0 -0.028992705589553167 0.0099533123152966297 0 -0.030235965680905679 0.008666796256004335 0 -0.030328397214192525 0.0083759681001377047 0 -0.030928776099505551 0.0085402908983542719 0 -0.024003388053694025 0.018375429500917001 0 -0.02420081304898487 0.018255858895340024 0 -0.023915601724953269 0.018218367838854433 0 -0.035357540715607892 0.0094292371699499361 0 -0.0332749129074539 0.0098693639767997859 0 -0.034340614463504844 0.0081989914920283877 0 -0.036002295519135689 0.0035178768214290251 0 -0.038919234602538322 0.0066512048306596539 0 -0.032762803932877504 0.0084579267130062748 0 -0.0332749129074539 0.0098693639767997859 0 -0.034340614463504844 0.0081989914920283877 0 -0.027503578321265241 0.010748012367688749 0 -0.028992705589553167 0.0099533123152966297 0 -0.023851850984841102 0.018355161884540502 0 -0.024003388053694025 0.018375429500917001 0 -0.023915601724953269 0.018218367838854433 0 -0.023741247279750768 0.01830093707714877 0 -0.023851850984841102 0.018355161884540502 0 -0.023915601724953269 0.018218367838854433 0 -0.038609508217366195 0.011197219509102317 0 -0.042258542964685591 0.012229317101454803 0 -0.040537510031035368 0.014340263539889138 0 -0.042258542964685591 0.012229317101454803 0 -0.040537510031035368 0.014340263539889138 0 -0.043437429742056055 0.014282323071685489 0 -0.039566169618389858 0.017890726471514164 0 -0.040537510031035368 0.014340263539889138 0 -0.04294043807894532 0.016174569286757996 0 -0.039566169618389858 0.017890726471514164 0 -0.04294043807894532 0.016174569286757996 0 -0.043907106679357377 0.017143292060411121 0 -0.035698093651341231 0.009762515103481223 0 -0.038919234602538322 0.0066512048306596539 0 -0.040537510031035368 0.014340263539889138 0 -0.04294043807894532 0.016174569286757996 0 -0.043437429742056055 0.014282323071685489 0 -0.04294043807894532 0.016174569286757996 0 -0.044664637021624674 0.01566581991135926 0 -0.043437429742056055 0.014282323071685489 0 -0.04294043807894532 0.016174569286757996 0 -0.043846639124080947 0.016994598861692349 0 -0.044664637021624674 0.01566581991135926 0 -0.03937542378688369 0.0072143843537553504 0 -0.038919234602538322 0.0066512048306596539 0 -0.044664637021624674 0.01566581991135926 0 -0.043437429742056055 0.014282323071685489 0 -0.045513350818624405 0.014506002994367575 0 -0.043437429742056055 0.014282323071685489 0 -0.044813067816947147 0.012743206513364549 0 -0.045513350818624405 0.014506002994367575 0 -0.042258542964685591 0.012229317101454803 0 -0.043437429742056055 0.014282323071685489 0 -0.044813067816947147 0.012743206513364549 0 -0.042258542964685591 0.012229317101454803 0 -0.044813067816947147 0.012743206513364549 0 -0.045230340744768331 0.010861182374010327 0 -0.044813067816947147 0.012743206513364549 0 -0.045513350818624405 0.014506002994367575 0 -0.048736422356464811 0.012056399963382813 0 -0.045513350818624405 0.014506002994367575 0 -0.04743239555450051 0.016297055870892717 0 -0.048736422356464811 0.012056399963382813 0 -0.043846639124080947 0.016994598861692349 0 -0.044664637021624674 0.01566581991135926 0 -0.04743239555450051 0.016297055870892717 0 -0.038919234602538322 0.0066512048306596539 0 -0.043226093225747449 0.0017162186015874847 0 -0.044664637021624674 0.01566581991135926 0 -0.045513350818624405 0.014506002994367575 0 -0.04743239555450051 0.016297055870892717 0 -0.045670132021091485 -0.006723388247630668 0 -0.044391694900929771 -0.0076040453069089404 0 -0.047513470159806011 -0.0093588430118544987 0 -0.05772793459078953 -0.01062446291742546 0 -0.056465655876136979 -0.010448925141911317 0 -0.057140854234940641 -0.0085925332782026582 0 -0.043226093225747449 0.0017162186015874847 0 -0.049193653860081607 -0.0017014199523555954 0 -0.056465655876136979 -0.010448925141911317 0 -0.057140854234940641 -0.0085925332782026582 0 -0.056020208030055169 -0.0092217328673930409 0 -0.043226093225747449 0.0017162186015874847 0 -0.048990674818786439 0.00092478046915690109 0 -0.048990674818786439 0.00092478046915690109 0 -0.051805977229092678 0.0006122098306418222 0 -0.057140854234940641 -0.0085925332782026582 0 -0.056863719935919016 -0.0066036843561908471 0 -0.055667855670884767 -0.0081700195422136045 0 -0.048736422356464811 0.012056399963382813 0 -0.0500526880523487 0.008940951824961265 0 -0.047306930395137732 0.009345738028223782 0 -0.0500526880523487 0.008940951824961265 0 -0.047306930395137732 0.009345738028223782 0 -0.04735329448261643 0.0071470473100560235 0 -0.047306930395137732 0.009345738028223782 0 -0.044049587999247651 0.00830918283883284 0 -0.04735329448261643 0.0071470473100560235 0 -0.044813067816947147 0.012743206513364549 0 -0.048736422356464811 0.012056399963382813 0 -0.045230340744768331 0.010861182374010327 0 -0.048736422356464811 0.012056399963382813 0 -0.047306930395137732 0.009345738028223782 0 -0.045230340744768331 0.010861182374010327 0 -0.042258542964685591 0.012229317101454803 0 -0.045230340744768331 0.010861182374010327 0 -0.041181551252874912 0.0095285254765415314 0 -0.043909111202061167 0.0089942300244771085 0 -0.042837226945440565 0.0071093515473939469 0 -0.045230340744768331 0.010861182374010327 0 -0.041181551252874912 0.0095285254765415314 0 -0.041915514075093765 0.0058942536828338705 0 -0.047306930395137732 0.009345738028223782 0 -0.045230340744768331 0.010861182374010327 0 -0.044049587999247651 0.00830918283883284 0 -0.038311437862960651 0.0075732794669048156 0 -0.041915514075093765 0.0058942536828338705 0 -0.038442415758696502 0.0050521466539884844 0 -0.038311437862960651 0.0075732794669048156 0 -0.041181551252874912 0.0095285254765415314 0 -0.041915514075093765 0.0058942536828338705 0 -0.038609508217366195 0.011197219509102317 0 -0.042258542964685591 0.012229317101454803 0 -0.041181551252874912 0.0095285254765415314 0 -0.038609508217366195 0.011197219509102317 0 -0.038311437862960651 0.0075732794669048156 0 -0.041181551252874912 0.0095285254765415314 0 -0.053694984047635626 -0.009750065678945756 0 -0.054351517344502359 -0.0093861635135515445 0 -0.053507209986266679 -0.0087935750711332882 0 -0.053694984047635626 -0.009750065678945756 0 -0.052453557897215806 -0.0093267101208609048 0 -0.053507209986266679 -0.0087935750711332882 0 -0.047357918473094437 -0.011464649115774019 0 -0.04994557094753159 -0.01024610751208537 0 -0.047164713826960844 -0.011574021845108457 0 -0.047357918473094437 -0.011464649115774019 0 -0.04315582010484189 -0.012679723151826128 0 -0.043166824672261163 -0.012692780579774502 0 -0.043159099676441867 -0.012683211447558629 0 -0.043166824672261163 -0.012692780579774502 0 -0.043159099676441867 -0.012683211447558629 0 -0.043162510358743987 -0.012686080885589994 0 -0.043159099676441867 -0.012683211447558629 0 -0.043155464552800234 -0.012681528012514423 0 -0.043154838799182658 -0.012677884009275619 0 -0.043162510358743987 -0.012686080885589994 0 -0.043155464552800234 -0.012681528012514423 0 -0.043160844403955186 -0.012684208582167225 0 -0.038507189450293883 -0.01447804445624311 0 -0.038894586978473568 -0.015616778301459532 0 -0.043159099676441867 -0.012683211447558629 0 -0.043162510358743987 -0.012686080885589994 0 -0.043155464552800234 -0.012681528012514423 0 -0.043155464552800234 -0.012681528012514423 0 -0.043154838799182658 -0.012677884009275619 0 -0.043151978922416498 -0.01267521641712426 0 -0.038507189450293883 -0.01447804445624311 0 -0.039463546272260522 -0.012942396768741338 0 -0.04315582010484189 -0.012679723151826128 0 -0.043159099676441867 -0.012683211447558629 0 -0.043154838799182658 -0.012677884009275619 0 -0.04315582010484189 -0.012679723151826128 0 -0.043154838799182658 -0.012677884009275619 0 -0.0431531601722644 -0.012672401623381794 0 -0.043154838799182658 -0.012677884009275619 0 -0.0431531601722644 -0.012672401623381794 0 -0.043151978922416498 -0.01267521641712426 0 -0.03950916361361894 -0.012903728002438898 0 -0.039463546272260522 -0.012942396768741338 0 -0.034981120348674552 -0.0050437549384505396 0 -0.038149369528926808 -0.0060044549326725869 0 -0.039391334680920639 -0.0038050864190512144 0 -0.0431531601722644 -0.012672401623381794 0 -0.043152306106721938 -0.012671118648762875 0 -0.043151170644807453 -0.012659599741448287 0 -0.04315582010484189 -0.012679723151826128 0 -0.0431531601722644 -0.012672401623381794 0 -0.043151170644807453 -0.012659599741448287 0 -0.047164713826960844 -0.011574021845108457 0 -0.044718230423365077 -0.011206585497314712 0 -0.039463546272260522 -0.012942396768741338 0 -0.044718230423365077 -0.011206585497314712 0 -0.036539401048531428 -0.0072328216066165005 0 -0.034981120348674552 -0.0050437549384505396 0 -0.038149369528926808 -0.0060044549326725869 0 -0.038149369528926808 -0.0060044549326725869 0 -0.039391334680920639 -0.0038050864190512144 0 -0.040166601231407403 -0.0059830644625876259 0 -0.055062633211246152 -0.01000801015881002 0 -0.055014522508503819 -0.0098134606827661106 0 -0.054351517344502359 -0.0093861635135515445 0 -0.055347213957581645 -0.0099087273048779345 0 -0.055062633211246152 -0.01000801015881002 0 -0.055014522508503819 -0.0098134606827661106 0 -0.044797504952350388 -0.011191780434437939 0 -0.044718230423365077 -0.011206585497314712 0 -0.056465655876136979 -0.010448925141911317 0 -0.054579409974425418 -0.010111977425951608 0 -0.055346585882630861 -0.0097115668773097904 0 -0.045670132021091485 -0.006723388247630668 0 -0.047513470159806011 -0.0093588430118544987 0 -0.054579409974425418 -0.010111977425951608 0 -0.045670132021091485 -0.006723388247630668 0 -0.055347213957581645 -0.0099087273048779345 0 -0.054579409974425418 -0.010111977425951608 0 -0.042763751020153624 -0.0066469079580968385 0 -0.045670132021091485 -0.006723388247630668 0 -0.039391334680920639 -0.0038050864190512144 0 -0.045670132021091485 -0.006723388247630668 0 -0.055347213957581645 -0.0099087273048779345 0 -0.056237152633431452 -0.0096690478230770979 0 -0.049193653860081607 -0.0017014199523555954 0 -0.050951171522696528 -0.0027474012231888047 0 -0.045181840258522767 -0.010133386745754955 0 -0.044718230423365077 -0.011206585497314712 0 -0.042763751020153624 -0.0066469079580968385 0 -0.039391334680920639 -0.0038050864190512144 0 -0.040166601231407403 -0.0059830644625876259 0 -0.055347213957581645 -0.0099087273048779345 0 -0.055014522508503819 -0.0098134606827661106 0 -0.054579409974425418 -0.010111977425951608 0 -0.055014522508503819 -0.0098134606827661106 0 -0.054579409974425418 -0.010111977425951608 0 -0.055346585882630861 -0.0097115668773097904 0 -0.056465655876136979 -0.010448925141911317 0 -0.055346585882630861 -0.0097115668773097904 0 -0.056020208030055169 -0.0092217328673930409 0 -0.057140854234940641 -0.0085925332782026582 0 -0.056020208030055169 -0.0092217328673930409 0 -0.055667855670884767 -0.0081700195422136045 0 -0.055346585882630861 -0.0097115668773097904 0 -0.056020208030055169 -0.0092217328673930409 0 -0.055245815123709949 -0.0092633947876588438 0 -0.055014522508503819 -0.0098134606827661106 0 -0.055346585882630861 -0.0097115668773097904 0 -0.055245815123709949 -0.0092633947876588438 0 -0.055245815123709949 -0.0092633947876588438 0 -0.054950063398668252 -0.0087888759188249968 0 -0.055667855670884767 -0.0081700195422136045 0 -0.056020208030055169 -0.0092217328673930409 0 -0.055245815123709949 -0.0092633947876588438 0 -0.055667855670884767 -0.0081700195422136045 0 -0.053694984047635626 -0.009750065678945756 0 -0.055062633211246152 -0.01000801015881002 0 -0.054351517344502359 -0.0093861635135515445 0 -0.054351517344502359 -0.0093861635135515445 0 -0.054950063398668252 -0.0087888759188249968 0 -0.054481697627304052 -0.0082230324385994726 0 -0.055014522508503819 -0.0098134606827661106 0 -0.055245815123709949 -0.0092633947876588438 0 -0.054351517344502359 -0.0093861635135515445 0 -0.055245815123709949 -0.0092633947876588438 0 -0.054351517344502359 -0.0093861635135515445 0 -0.054950063398668252 -0.0087888759188249968 0 -0.054950063398668252 -0.0087888759188249968 0 -0.054481697627304052 -0.0082230324385994726 0 -0.055667855670884767 -0.0081700195422136045 0 -0.054481697627304052 -0.0082230324385994726 0 -0.055667855670884767 -0.0081700195422136045 0 -0.054879829248864732 -0.0065544502897943273 0 -0.056863719935919016 -0.0066036843561908471 0 -0.055667855670884767 -0.0081700195422136045 0 -0.054879829248864732 -0.0065544502897943273 0 -0.054879829248864732 -0.0065544502897943273 0 -0.053226163818541769 -0.0071210102244347786 0 -0.052561160649064687 -0.0049569865426323982 0 -0.054481697627304052 -0.0082230324385994726 0 -0.054879829248864732 -0.0065544502897943273 0 -0.053226163818541769 -0.0071210102244347786 0 -0.054351517344502359 -0.0093861635135515445 0 -0.054481697627304052 -0.0082230324385994726 0 -0.053507209986266679 -0.0087935750711332882 0 -0.054481697627304052 -0.0082230324385994726 0 -0.053226163818541769 -0.0071210102244347786 0 -0.053507209986266679 -0.0087935750711332882 0 -0.051243362309530034 -0.010516598361773421 0 -0.051755327992366547 -0.0080703367320570044 0 -0.050280757588046482 -0.0090273914043505488 0 -0.053226163818541769 -0.0071210102244347786 0 -0.053507209986266679 -0.0087935750711332882 0 -0.051755327992366547 -0.0080703367320570044 0 -0.051243362309530034 -0.010516598361773421 0 -0.053507209986266679 -0.0087935750711332882 0 -0.051755327992366547 -0.0080703367320570044 0 -0.051897489362059422 -0.0066384224352920981 0 -0.049915780162295365 -0.0065199178732122318 0 -0.052561160649064687 -0.0049569865426323982 0 -0.053226163818541769 -0.0071210102244347786 0 -0.051897489362059422 -0.0066384224352920981 0 -0.052561160649064687 -0.0049569865426323982 0 -0.051755327992366547 -0.0080703367320570044 0 -0.051897489362059422 -0.0066384224352920981 0 -0.049915780162295365 -0.0065199178732122318 0 -0.053226163818541769 -0.0071210102244347786 0 -0.051755327992366547 -0.0080703367320570044 0 -0.051897489362059422 -0.0066384224352920981 0 -0.053076410639687384 -0.0061661626373753229 0 -0.051690171537173417 -0.0059622013774929738 0 -0.051462979137889879 -0.0067069307379242103 0 -0.053076410639687384 -0.0061661626373753229 0 -0.051690171537173417 -0.0059622013774929738 0 -0.052402055360122518 -0.0054591007290513598 0 -0.053076410639687384 -0.0061661626373753229 0 -0.051462979137889879 -0.0067069307379242103 0 -0.051628709807618654 -0.0076286320656588644 0 -0.046671978721834859 -0.010748177592733457 0 -0.048868788755944734 -0.0088104814212966055 0 -0.046794827448698818 -0.012818967792577391 0 -0.050833421304302337 -0.0068483553532558868 0 -0.047553332513778669 -0.0096364474375607821 0 -0.049915780162295365 -0.0065199178732122318 0 -0.045873230378991305 -0.0095373603073890707 0 -0.047024425929092784 -0.0093619174917794097 0 -0.045432594458247128 -0.0097490336231500427 0 -0.046671978721834859 -0.010748177592733457 0 -0.045220464328039403 -0.012225363281603382 0 -0.045432594458247128 -0.0097490336231500427 0 -0.046671978721834859 -0.010748177592733457 0 -0.047024425929092784 -0.0093619174917794097 0 -0.047553332513778669 -0.0096364474375607821 0 -0.0475097257609206 -0.0096406525097373404 0 -0.046671978721834859 -0.010748177592733457 0 -0.047024425929092784 -0.0093619174917794097 0 -0.048868788755944734 -0.0088104814212966055 0 -0.050280757588046482 -0.0090273914043505488 0 -0.048868788755944734 -0.0088104814212966055 0 -0.049385798985790028 -0.010073027373828206 0 -0.049915780162295365 -0.0065199178732122318 0 -0.047024425929092784 -0.0093619174917794097 0 -0.048868788755944734 -0.0088104814212966055 0 -0.051755327992366547 -0.0080703367320570044 0 -0.049915780162295365 -0.0065199178732122318 0 -0.050280757588046482 -0.0090273914043505488 0 -0.049915780162295365 -0.0065199178732122318 0 -0.050280757588046482 -0.0090273914043505488 0 -0.048868788755944734 -0.0088104814212966055 0 -0.048167533763694793 -0.011134366736234236 0 -0.044557292827924984 -0.012800191687674021 0 -0.045606366690626642 -0.010847060812191693 0 -0.046628887162433769 -0.0098673005056687212 0 -0.048167533763694793 -0.011134366736234236 0 -0.047616433897320051 -0.008342683581996628 0 -0.046628887162433769 -0.0098673005056687212 0 -0.045606366690626642 -0.010847060812191693 0 -0.045048319260530573 -0.0091324799736352182 0 -0.046628887162433769 -0.0098673005056687212 0 -0.048167533763694793 -0.011134366736234236 0 -0.045606366690626642 -0.010847060812191693 0 -0.051690171537173417 -0.0059622013774929738 0 -0.05002765597718839 -0.0065052523752861646 0 -0.051413808497617272 -0.0047861522964945946 0 -0.051690171537173417 -0.0059622013774929738 0 -0.051462979137889879 -0.0067069307379242103 0 -0.05002765597718839 -0.0065052523752861646 0 -0.051462979137889879 -0.0067069307379242103 0 -0.05002765597718839 -0.0065052523752861646 0 -0.05081821912715543 -0.0072551620762480234 0 -0.051628709807618654 -0.0076286320656588644 0 -0.05081821912715543 -0.0072551620762480234 0 -0.050146506144512659 -0.0079936628131838331 0 -0.044467019645932311 -0.011228621004936361 0 -0.041579862251768254 -0.011948968739297421 0 -0.042683288682305288 -0.012914341700359575 0 -0.05002765597718839 -0.0065052523752861646 0 -0.05081821912715543 -0.0072551620762480234 0 -0.050146506144512659 -0.0079936628131838331 0 -0.047553332513778669 -0.0096364474375607821 0 -0.045764282428698261 -0.010616914865508942 0 -0.051462979137889879 -0.0067069307379242103 0 -0.051628709807618654 -0.0076286320656588644 0 -0.05081821912715543 -0.0072551620762480234 0 -0.047553332513778669 -0.0096364474375607821 0 -0.046393708349598439 -0.010594376690522626 0 -0.047961744170434056 -0.0086370607392777781 0 -0.043582341266141897 -0.011866882975025809 0 -0.05002765597718839 -0.0065052523752861646 0 -0.050146506144512659 -0.0079936628131838331 0 -0.048618437682651255 -0.0083435434072151784 0 -0.048167533763694793 -0.011134366736234236 0 -0.044743692989400966 -0.015558303710265739 0 -0.044557292827924984 -0.012800191687674021 0 -0.045764282428698261 -0.010616914865508942 0 -0.043582341266141897 -0.011866882975025809 0 -0.041579862251768254 -0.011948968739297421 0 -0.039781419391234869 -0.013458200439344134 0 -0.038517621800987577 -0.01317678391939496 0 -0.03925937858660062 -0.014534284644387541 0 -0.039781419391234869 -0.013458200439344134 0 -0.040726608483678033 -0.013545541006965763 0 -0.03925937858660062 -0.014534284644387541 0 -0.040726608483678033 -0.013545541006965763 0 -0.04028380041164821 -0.01485988553824687 0 -0.03925937858660062 -0.014534284644387541 0 -0.039781419391234869 -0.013458200439344134 0 -0.038838167791117172 -0.014024974927821305 0 -0.041579862251768254 -0.011948968739297421 0 -0.039781419391234869 -0.013458200439344134 0 -0.040726608483678033 -0.013545541006965763 0 -0.040726608483678033 -0.013545541006965763 0 -0.04028380041164821 -0.01485988553824687 0 -0.041484185499395976 -0.014340099073142208 0 -0.040726608483678033 -0.013545541006965763 0 -0.041484185499395976 -0.014340099073142208 0 -0.042683288682305288 -0.012914341700359575 0 -0.041484185499395976 -0.014340099073142208 0 -0.042683288682305288 -0.012914341700359575 0 -0.042666999188586067 -0.014896501958299091 0 -0.041579862251768254 -0.011948968739297421 0 -0.040726608483678033 -0.013545541006965763 0 -0.042683288682305288 -0.012914341700359575 0 -0.045432594458247128 -0.0097490336231500427 0 -0.042683288682305288 -0.012914341700359575 0 -0.045220464328039403 -0.012225363281603382 0 -0.042683288682305288 -0.012914341700359575 0 -0.044733990244232566 -0.014239459498136414 0 -0.045220464328039403 -0.012225363281603382 0 -0.042683288682305288 -0.012914341700359575 0 -0.044733990244232566 -0.014239459498136414 0 -0.042666999188586067 -0.014896501958299091 0 -0.044733990244232566 -0.014239459498136414 0 -0.043343323142167781 -0.016898851470421576 0 -0.042666999188586067 -0.014896501958299091 0 -0.043343323142167781 -0.016898851470421576 0 -0.042666999188586067 -0.014896501958299091 0 -0.041355999699964556 -0.016018958288803179 0 -0.041484185499395976 -0.014340099073142208 0 -0.042666999188586067 -0.014896501958299091 0 -0.041355999699964556 -0.016018958288803179 0 -0.041355999699964556 -0.016018958288803179 0 -0.03876098005432755 -0.017926456264026912 0 -0.038900434059547497 -0.016667018758779847 0 -0.043343323142167781 -0.016898851470421576 0 -0.041355999699964556 -0.016018958288803179 0 -0.03876098005432755 -0.017926456264026912 0 -0.04028380041164821 -0.01485988553824687 0 -0.041484185499395976 -0.014340099073142208 0 -0.041355999699964556 -0.016018958288803179 0 -0.04028380041164821 -0.01485988553824687 0 -0.041355999699964556 -0.016018958288803179 0 -0.040054636973777417 -0.015816226746301093 0 -0.041355999699964556 -0.016018958288803179 0 -0.040054636973777417 -0.015816226746301093 0 -0.038900434059547497 -0.016667018758779847 0 -0.040054636973777417 -0.015816226746301093 0 -0.039032545866879126 -0.015775100101274076 0 -0.038900434059547497 -0.016667018758779847 0 -0.04028380041164821 -0.01485988553824687 0 -0.040054636973777417 -0.015816226746301093 0 -0.039032545866879126 -0.015775100101274076 0 -0.03925937858660062 -0.014534284644387541 0 -0.04028380041164821 -0.01485988553824687 0 -0.039032545866879126 -0.015775100101274076 0 -0.044650243414296104 -0.012002857983078017 0 -0.043852770411518888 -0.013460965819870897 0 -0.048868788755944734 -0.0088104814212966055 0 -0.049562386588141855 -0.011377425950984668 0 -0.049385798985790028 -0.010073027373828206 0 -0.043166824672261163 -0.012692780579774502 0 -0.043162510358743987 -0.012686080885589994 0 -0.043170651394604027 -0.01269162360774651 0 -0.047357918473094437 -0.011464649115774019 0 -0.043852770411518888 -0.013460965819870897 0 -0.047357918473094437 -0.011464649115774019 0 -0.047886204863116934 -0.011495030958032629 0 -0.05095179156539513 -0.010647969821194451 0 -0.049562386588141855 -0.011377425950984668 0 -0.049385798985790028 -0.010073027373828206 0 -0.051243362309530034 -0.010516598361773421 0 -0.050280757588046482 -0.0090273914043505488 0 -0.049385798985790028 -0.010073027373828206 0 -0.048868788755944734 -0.0088104814212966055 0 -0.049685426770581194 -0.014270178806560988 0 -0.046794827448698818 -0.012818967792577391 0 -0.044733990244232566 -0.014239459498136414 0 -0.049685426770581194 -0.014270178806560988 0 -0.046794827448698818 -0.012818967792577391 0 -0.044733990244232566 -0.014239459498136414 0 -0.046794827448698818 -0.012818967792577391 0 -0.045220464328039403 -0.012225363281603382 0 -0.046671978721834859 -0.010748177592733457 0 -0.046794827448698818 -0.012818967792577391 0 -0.045220464328039403 -0.012225363281603382 0 -0.044733990244232566 -0.014239459498136414 0 -0.043343323142167781 -0.016898851470421576 0 -0.049685426770581194 -0.014270178806560988 0 -0.042083273076478779 -0.015593744822897559 0 -0.043852770411518888 -0.013460965819870897 0 -0.041042784302452923 -0.016826840298438599 0 -0.04314756045265089 -0.015771975625419706 0 -0.042323185523997123 -0.016753942788264291 0 -0.042323185523997123 -0.016753942788264291 0 -0.042032713623382567 -0.017205869180154931 0 -0.043433252850963826 -0.017382679553999913 0 -0.041042784302452923 -0.016826840298438599 0 -0.042323185523997123 -0.016753942788264291 0 -0.042032713623382567 -0.017205869180154931 0 -0.043852770411518888 -0.013460965819870897 0 -0.038894586978473568 -0.015616778301459532 0 -0.043162510358743987 -0.012686080885589994 0 -0.043170651394604027 -0.01269162360774651 0 -0.043160844403955186 -0.012684208582167225 0 -0.04314756045265089 -0.015771975625419706 0 -0.042323185523997123 -0.016753942788264291 0 -0.043433252850963826 -0.017382679553999913 0 -0.031520122131583318 -0.017640529368639395 0 -0.031673010022315352 -0.017749690806471936 0 -0.031638785971749329 -0.01750896995452424 0 -0.031824096913755401 -0.018821633675338081 0 -0.031677155187495344 -0.018048226122771207 0 -0.032386333327580751 -0.018308659411426408 0 -0.038894586978473568 -0.015616778301459532 0 -0.037152560694480294 -0.016367877747884507 0 -0.037152560694480294 -0.016367877747884507 0 -0.036592118249646415 -0.016481205997449674 0 -0.031677155187495344 -0.018048226122771207 0 -0.032096180250552747 -0.017435319498867445 0 -0.031579472884706021 -0.01717753751812888 0 -0.031677155187495344 -0.018048226122771207 0 -0.032191064519499428 -0.017876626152081524 0 -0.032096180250552747 -0.017435319498867445 0 -0.031677155187495344 -0.018048226122771207 0 -0.032191064519499428 -0.017876626152081524 0 -0.032386333327580751 -0.018308659411426408 0 -0.032593306133757195 -0.017714742732032746 0 -0.032924953937008582 -0.018008349465477077 0 -0.033042322003672048 -0.017504056331206899 0 -0.032191064519499428 -0.017876626152081524 0 -0.032096180250552747 -0.017435319498867445 0 -0.032593306133757195 -0.017714742732032746 0 -0.032191064519499428 -0.017876626152081524 0 -0.032593306133757195 -0.017714742732032746 0 -0.032386333327580751 -0.018308659411426408 0 -0.032593306133757195 -0.017714742732032746 0 -0.032924953937008582 -0.018008349465477077 0 -0.032386333327580751 -0.018308659411426408 0 -0.038894586978473568 -0.015616778301459532 0 -0.037306548826807111 -0.017137995413769324 0 -0.032924953937008582 -0.018008349465477077 0 -0.032386333327580751 -0.018308659411426408 0 -0.033046173345606097 -0.018618851502859454 0 -0.031824096913755401 -0.018821633675338081 0 -0.032386333327580751 -0.018308659411426408 0 -0.033046173345606097 -0.018618851502859454 0 -0.042032713623382567 -0.017205869180154931 0 -0.043433252850963826 -0.017382679553999913 0 -0.041326565584116369 -0.017851776874919428 0 -0.041042784302452923 -0.016826840298438599 0 -0.042032713623382567 -0.017205869180154931 0 -0.041326565584116369 -0.017851776874919428 0 -0.037306548826807111 -0.017137995413769324 0 -0.036789928747912586 -0.017733443135531653 0 -0.041042784302452923 -0.016826840298438599 0 -0.041326565584116369 -0.017851776874919428 0 -0.040064528050860838 -0.017751641692584825 0 -0.041326565584116369 -0.017851776874919428 0 -0.040064528050860838 -0.017751641692584825 0 -0.039102422638409691 -0.018396260166129216 0 -0.041042784302452923 -0.016826840298438599 0 -0.040064528050860838 -0.017751641692584825 0 -0.03876098005432755 -0.017926456264026912 0 -0.033046173345606097 -0.018618851502859454 0 -0.034435725009708019 -0.018523911904821198 0 -0.033972254160381632 -0.018169389522280383 0 -0.042083273076478779 -0.015593744822897559 0 -0.040504898336324729 -0.016637269847752989 0 -0.040064528050860838 -0.017751641692584825 0 -0.039102422638409691 -0.018396260166129216 0 -0.03876098005432755 -0.017926456264026912 0 -0.034226308495608225 -0.017695724298138135 0 -0.033516453194478477 -0.017867596274753979 0 -0.033369964750012263 -0.016948167961314188 0 -0.033972254160381632 -0.018169389522280383 0 -0.034226308495608225 -0.017695724298138135 0 -0.034774795692744824 -0.018087236389121287 0 -0.034435725009708019 -0.018523911904821198 0 -0.033972254160381632 -0.018169389522280383 0 -0.034774795692744824 -0.018087236389121287 0 -0.033972254160381632 -0.018169389522280383 0 -0.034226308495608225 -0.017695724298138135 0 -0.033516453194478477 -0.017867596274753979 0 -0.033046173345606097 -0.018618851502859454 0 -0.033972254160381632 -0.018169389522280383 0 -0.033516453194478477 -0.017867596274753979 0 -0.032924953937008582 -0.018008349465477077 0 -0.033046173345606097 -0.018618851502859454 0 -0.033516453194478477 -0.017867596274753979 0 -0.032924953937008582 -0.018008349465477077 0 -0.033516453194478477 -0.017867596274753979 0 -0.033042322003672048 -0.017504056331206899 0 -0.033042322003672048 -0.017504056331206899 0 -0.033369964750012263 -0.016948167961314188 0 -0.032594520828363283 -0.016913785240027662 0 -0.033516453194478477 -0.017867596274753979 0 -0.033042322003672048 -0.017504056331206899 0 -0.033369964750012263 -0.016948167961314188 0 -0.033369964750012263 -0.016948167961314188 0 -0.032864989062043194 -0.016176340488160759 0 -0.032594520828363283 -0.016913785240027662 0 -0.034226308495608225 -0.017695724298138135 0 -0.033369964750012263 -0.016948167961314188 0 -0.034192688281843103 -0.016766801526823732 0 -0.03349774169819416 -0.016008909255930438 0 -0.033369964750012263 -0.016948167961314188 0 -0.034192688281843103 -0.016766801526823732 0 -0.03349774169819416 -0.016008909255930438 0 -0.034192688281843103 -0.016766801526823732 0 -0.034224954746481621 -0.016075944400066378 0 -0.03349774169819416 -0.016008909255930438 0 -0.033369964750012263 -0.016948167961314188 0 -0.032864989062043194 -0.016176340488160759 0 -0.032138586093178621 -0.015483900599930539 0 -0.032864989062043194 -0.016176340488160759 0 -0.032594520828363283 -0.016913785240027662 0 -0.032138586093178621 -0.015483900599930539 0 -0.032548567037667675 -0.015073371614008525 0 -0.031937124480950159 -0.014059433353928872 0 -0.032138586093178621 -0.015483900599930539 0 -0.031476621555309114 -0.01684031155024953 0 -0.031961866826184217 -0.016815288813476589 0 -0.032138586093178621 -0.015483900599930539 0 -0.031961866826184217 -0.016815288813476589 0 -0.032594520828363283 -0.016913785240027662 0 -0.032891381505752534 -0.015530676503428398 0 -0.033292932324326494 -0.015359226764782208 0 -0.031476621555309114 -0.01684031155024953 0 -0.031961866826184217 -0.016815288813476589 0 -0.031579472884706021 -0.01717753751812888 0 -0.032096180250552747 -0.017435319498867445 0 -0.031961866826184217 -0.016815288813476589 0 -0.031579472884706021 -0.01717753751812888 0 -0.032096180250552747 -0.017435319498867445 0 -0.031961866826184217 -0.016815288813476589 0 -0.032594520828363283 -0.016913785240027662 0 -0.032096180250552747 -0.017435319498867445 0 -0.032593306133757195 -0.017714742732032746 0 -0.032594520828363283 -0.016913785240027662 0 -0.032593306133757195 -0.017714742732032746 0 -0.033042322003672048 -0.017504056331206899 0 -0.032594520828363283 -0.016913785240027662 0 -0.03521513751814561 -0.018131726879278796 0 -0.035541784479832958 -0.017971933998360091 0 -0.035481738855507552 -0.01791263032610595 0 -0.03521513751814561 -0.018131726879278796 0 -0.035481738855507552 -0.01791263032610595 0 -0.034901704952632465 -0.017968838434243437 0 -0.03521513751814561 -0.018131726879278796 0 -0.035251550465899395 -0.018240279555146257 0 -0.035541784479832958 -0.017971933998360091 0 -0.03521513751814561 -0.018131726879278796 0 -0.03490976028292099 -0.018250354004459582 0 -0.034901704952632465 -0.017968838434243437 0 -0.034480136954949184 -0.01822336772052275 0 -0.03490976028292099 -0.018250354004459582 0 -0.034901704952632465 -0.017968838434243437 0 -0.03521513751814561 -0.018131726879278796 0 -0.03490976028292099 -0.018250354004459582 0 -0.035044366792006884 -0.01832810464374415 0 -0.034480136954949184 -0.01822336772052275 0 -0.03491573981203442 -0.018458289355740898 0 -0.03490976028292099 -0.018250354004459582 0 -0.03491573981203442 -0.018458289355740898 0 -0.03490976028292099 -0.018250354004459582 0 -0.035044366792006884 -0.01832810464374415 0 -0.034967192247945152 -0.018448422973436761 0 -0.035044366792006884 -0.01832810464374415 0 -0.035251550465899395 -0.018240279555146257 0 -0.03521513751814561 -0.018131726879278796 0 -0.035044366792006884 -0.01832810464374415 0 -0.035251550465899395 -0.018240279555146257 0 -0.035251550465899395 -0.018240279555146257 0 -0.035500696660757912 -0.018082133017066234 0 -0.035541784479832958 -0.017971933998360091 0 -0.025624481446847494 -0.016227482573329437 0 -0.029592640453148585 -0.016528735814743664 0 -0.035362328466816577 -0.01849552072480477 0 -0.035251550465899395 -0.018240279555146257 0 -0.035500696660757912 -0.018082133017066234 0 -0.034653360947655795 -0.015699382244837357 0 -0.034856391003645307 -0.016544282282835963 0 -0.034224954746481621 -0.016075944400066378 0 -0.034192688281843103 -0.016766801526823732 0 -0.034856391003645307 -0.016544282282835963 0 -0.034224954746481621 -0.016075944400066378 0 -0.029592640453148585 -0.016528735814743664 0 -0.03069007414481301 -0.016838073083686914 0 -0.034226308495608225 -0.017695724298138135 0 -0.034192688281843103 -0.016766801526823732 0 -0.035187194747474601 -0.017799261901985459 0 -0.034192688281843103 -0.016766801526823732 0 -0.034856391003645307 -0.016544282282835963 0 -0.035187194747474601 -0.017799261901985459 0 -0.035500696660757912 -0.018082133017066234 0 -0.035541784479832958 -0.017971933998360091 0 -0.035187194747474601 -0.017799261901985459 0 -0.035541784479832958 -0.017971933998360091 0 -0.036022586684833179 -0.018099197544713914 0 -0.035481738855507552 -0.01791263032610595 0 -0.035541784479832958 -0.017971933998360091 0 -0.036022586684833179 -0.018099197544713914 0 -0.035187194747474601 -0.017799261901985459 0 -0.036022586684833179 -0.018099197544713914 0 -0.035187194747474601 -0.017799261901985459 0 -0.034774795692744824 -0.018087236389121287 0 -0.034435725009708019 -0.018523911904821198 0 -0.036022586684833179 -0.018099197544713914 0 -0.034774795692744824 -0.018087236389121287 0 -0.034226308495608225 -0.017695724298138135 0 -0.035187194747474601 -0.017799261901985459 0 -0.034774795692744824 -0.018087236389121287 0 -0.039102422638409691 -0.018396260166129216 0 -0.036022586684833179 -0.018099197544713914 0 -0.037767293285157634 -0.01773012815156437 0 -0.036789928747912586 -0.017733443135531653 0 -0.036542341408583548 -0.017877279010609211 0 -0.039102422638409691 -0.018396260166129216 0 -0.03876098005432755 -0.017926456264026912 0 -0.037767293285157634 -0.01773012815156437 0 -0.037767293285157634 -0.01773012815156437 0 -0.038016356509203146 -0.017161659499586868 0 -0.037001459939226621 -0.017085244284633348 0 -0.03876098005432755 -0.017926456264026912 0 -0.037767293285157634 -0.01773012815156437 0 -0.038016356509203146 -0.017161659499586868 0 -0.03876098005432755 -0.017926456264026912 0 -0.038016356509203146 -0.017161659499586868 0 -0.038900434059547497 -0.016667018758779847 0 -0.036022586684833179 -0.018099197544713914 0 -0.037001459939226621 -0.017085244284633348 0 -0.036093260765069579 -0.01687064415410228 0 -0.036022586684833179 -0.018099197544713914 0 -0.036093260765069579 -0.01687064415410228 0 -0.035649138458424434 -0.017472144577991157 0 -0.036022586684833179 -0.018099197544713914 0 -0.037767293285157634 -0.01773012815156437 0 -0.037001459939226621 -0.017085244284633348 0 -0.036093260765069579 -0.01687064415410228 0 -0.035649138458424434 -0.017472144577991157 0 -0.035559363831516616 -0.016864517096517095 0 -0.035649138458424434 -0.017472144577991157 0 -0.035115700350228297 -0.017556616958746576 0 -0.035559363831516616 -0.016864517096517095 0 -0.036022586684833179 -0.018099197544713914 0 -0.035649138458424434 -0.017472144577991157 0 -0.035481738855507552 -0.01791263032610595 0 -0.035649138458424434 -0.017472144577991157 0 -0.035481738855507552 -0.01791263032610595 0 -0.035115700350228297 -0.017556616958746576 0 -0.035481738855507552 -0.01791263032610595 0 -0.034901704952632465 -0.017968838434243437 0 -0.035115700350228297 -0.017556616958746576 0 -0.034901704952632465 -0.017968838434243437 0 -0.034673204500308391 -0.017594215268991666 0 -0.035115700350228297 -0.017556616958746576 0 -0.034439647260539386 -0.017797207790804823 0 -0.034901704952632465 -0.017968838434243437 0 -0.034673204500308391 -0.017594215268991666 0 -0.034673204500308391 -0.017594215268991666 0 -0.035115700350228297 -0.017556616958746576 0 -0.034742579052958251 -0.017202834955282284 0 -0.034742579052958251 -0.017202834955282284 0 -0.034957072982667585 -0.016699577338781253 0 -0.035559363831516616 -0.016864517096517095 0 -0.035115700350228297 -0.017556616958746576 0 -0.034742579052958251 -0.017202834955282284 0 -0.035559363831516616 -0.016864517096517095 0 -0.034957072982667585 -0.016699577338781253 0 -0.035559363831516616 -0.016864517096517095 0 -0.036154133197759633 -0.015928464041282325 0 -0.034957072982667585 -0.016699577338781253 0 -0.036154133197759633 -0.015928464041282325 0 -0.034861634653511504 -0.015862460211255727 0 -0.036093260765069579 -0.01687064415410228 0 -0.036154133197759633 -0.015928464041282325 0 -0.03668893755957936 -0.015996057432682721 0 -0.036093260765069579 -0.01687064415410228 0 -0.035559363831516616 -0.016864517096517095 0 -0.036154133197759633 -0.015928464041282325 0 -0.038881076781256789 -0.013990771224289598 0 -0.040169835881821429 -0.013460254342643108 0 -0.036154133197759633 -0.015928464041282325 0 -0.04053026041344944 -0.016174519490066468 0 -0.038685231829007974 -0.0140613177250198 0 -0.036154133197759633 -0.015928464041282325 0 -0.036549697290274491 -0.014075852910256353 0 -0.038685231829007974 -0.0140613177250198 0 -0.036154133197759633 -0.015928464041282325 0 -0.035278726194336571 -0.014677901837046838 0 -0.036549697290274491 -0.014075852910256353 0 -0.035278726194336571 -0.014677901837046838 0 -0.034535708532162375 -0.015042239413802385 0 -0.034861634653511504 -0.015862460211255727 0 -0.034286266221237378 -0.014229141012301598 0 -0.035278726194336571 -0.014677901837046838 0 -0.034535708532162375 -0.015042239413802385 0 -0.036154133197759633 -0.015928464041282325 0 -0.035278726194336571 -0.014677901837046838 0 -0.034861634653511504 -0.015862460211255727 0 -0.03925937858660062 -0.014534284644387541 0 -0.038289347767820447 -0.015329367974848761 0 -0.039032545866879126 -0.015775100101274076 0 -0.038289347767820447 -0.015329367974848761 0 -0.039032545866879126 -0.015775100101274076 0 -0.037723423529468329 -0.016223503614377657 0 -0.038016356509203146 -0.017161659499586868 0 -0.038900434059547497 -0.016667018758779847 0 -0.037723423529468329 -0.016223503614377657 0 -0.039032545866879126 -0.015775100101274076 0 -0.038900434059547497 -0.016667018758779847 0 -0.037723423529468329 -0.016223503614377657 0 -0.038016356509203146 -0.017161659499586868 0 -0.037001459939226621 -0.017085244284633348 0 -0.037723423529468329 -0.016223503614377657 0 -0.038289347767820447 -0.015329367974848761 0 -0.037723423529468329 -0.016223503614377657 0 -0.037600846228372911 -0.015282073952681299 0 -0.037723423529468329 -0.016223503614377657 0 -0.03668893755957936 -0.015996057432682721 0 -0.037600846228372911 -0.015282073952681299 0 -0.037001459939226621 -0.017085244284633348 0 -0.037723423529468329 -0.016223503614377657 0 -0.03668893755957936 -0.015996057432682721 0 -0.037001459939226621 -0.017085244284633348 0 -0.036093260765069579 -0.01687064415410228 0 -0.03668893755957936 -0.015996057432682721 0 -0.036154133197759633 -0.015928464041282325 0 -0.03668893755957936 -0.015996057432682721 0 -0.036735124929439311 -0.014994507781623662 0 -0.03668893755957936 -0.015996057432682721 0 -0.036735124929439311 -0.014994507781623662 0 -0.037600846228372911 -0.015282073952681299 0 -0.040169835881821429 -0.013460254342643108 0 -0.043582341266141897 -0.011866882975025809 0 -0.036735124929439311 -0.014994507781623662 0 -0.038083186123756649 -0.014262101854804709 0 -0.038376868658300756 -0.013717802366721921 0 -0.036735124929439311 -0.014994507781623662 0 -0.037600846228372911 -0.015282073952681299 0 -0.038083186123756649 -0.014262101854804709 0 -0.04053026041344944 -0.016174519490066468 0 -0.044743692989400966 -0.015558303710265739 0 -0.042919645283053628 -0.014505002671690167 0 -0.037600846228372911 -0.015282073952681299 0 -0.038083186123756649 -0.014262101854804709 0 -0.038423560515471744 -0.014686804736848471 0 -0.039781419391234869 -0.013458200439344134 0 -0.038517621800987577 -0.01317678391939496 0 -0.038838167791117172 -0.014024974927821305 0 -0.043401117044326594 -0.012040492088456266 0 -0.043582341266141897 -0.011866882975025809 0 -0.038083186123756649 -0.014262101854804709 0 -0.038517621800987577 -0.01317678391939496 0 -0.038838167791117172 -0.014024974927821305 0 -0.03925937858660062 -0.014534284644387541 0 -0.038838167791117172 -0.014024974927821305 0 -0.038423560515471744 -0.014686804736848471 0 -0.038083186123756649 -0.014262101854804709 0 -0.038838167791117172 -0.014024974927821305 0 -0.038423560515471744 -0.014686804736848471 0 -0.038289347767820447 -0.015329367974848761 0 -0.037600846228372911 -0.015282073952681299 0 -0.038423560515471744 -0.014686804736848471 0 -0.03925937858660062 -0.014534284644387541 0 -0.038289347767820447 -0.015329367974848761 0 -0.038423560515471744 -0.014686804736848471 0 -0.044743692989400966 -0.015558303710265739 0 -0.044557292827924984 -0.012800191687674021 0 -0.042919645283053628 -0.014505002671690167 0 -0.044557292827924984 -0.012800191687674021 0 -0.042919645283053628 -0.014505002671690167 0 -0.041855864052398474 -0.013464179297938134 0 -0.044557292827924984 -0.012800191687674021 0 -0.041855864052398474 -0.013464179297938134 0 -0.043164088053755892 -0.011419856839311258 0 -0.041855864052398474 -0.013464179297938134 0 -0.040129699577778684 -0.011870758940390549 0 -0.043164088053755892 -0.011419856839311258 0 -0.04053026041344944 -0.016174519490066468 0 -0.042919645283053628 -0.014505002671690167 0 -0.041855864052398474 -0.013464179297938134 0 -0.04053026041344944 -0.016174519490066468 0 -0.041855864052398474 -0.013464179297938134 0 -0.038685231829007974 -0.0140613177250198 0 -0.041855864052398474 -0.013464179297938134 0 -0.040129699577778684 -0.011870758940390549 0 -0.038685231829007974 -0.0140613177250198 0 -0.040129699577778684 -0.011870758940390549 0 -0.042250261080070975 -0.0096058819006887095 0 -0.038824474132104818 -0.0089006250264881161 0 -0.040129699577778684 -0.011870758940390549 0 -0.042250261080070975 -0.0096058819006887095 0 -0.043164088053755892 -0.011419856839311258 0 -0.042250261080070975 -0.0096058819006887095 0 -0.043164088053755892 -0.011419856839311258 0 -0.045048319260530573 -0.0091324799736352182 0 -0.043164088053755892 -0.011419856839311258 0 -0.045606366690626642 -0.010847060812191693 0 -0.045048319260530573 -0.0091324799736352182 0 -0.044557292827924984 -0.012800191687674021 0 -0.043164088053755892 -0.011419856839311258 0 -0.045606366690626642 -0.010847060812191693 0 -0.035681491002867126 -0.013183262313629996 0 -0.034702178561900894 -0.013096509081620675 0 -0.03589636604054941 -0.011290891759457539 0 -0.035681491002867126 -0.013183262313629996 0 -0.037113865981315351 -0.012307862826570606 0 -0.03589636604054941 -0.011290891759457539 0 -0.035681491002867126 -0.013183262313629996 0 -0.034702178561900894 -0.013096509081620675 0 -0.034955389990695127 -0.013796489584935935 0 -0.034286266221237378 -0.014229141012301598 0 -0.034702178561900894 -0.013096509081620675 0 -0.034955389990695127 -0.013796489584935935 0 -0.034286266221237378 -0.014229141012301598 0 -0.035278726194336571 -0.014677901837046838 0 -0.034955389990695127 -0.013796489584935935 0 -0.035278726194336571 -0.014677901837046838 0 -0.035681491002867126 -0.013183262313629996 0 -0.034955389990695127 -0.013796489584935935 0 -0.035278726194336571 -0.014677901837046838 0 -0.035681491002867126 -0.013183262313629996 0 -0.036549697290274491 -0.014075852910256353 0 -0.036549697290274491 -0.014075852910256353 0 -0.038685231829007974 -0.0140613177250198 0 -0.037113865981315351 -0.012307862826570606 0 -0.040129699577778684 -0.011870758940390549 0 -0.038685231829007974 -0.0140613177250198 0 -0.037113865981315351 -0.012307862826570606 0 -0.035681491002867126 -0.013183262313629996 0 -0.036549697290274491 -0.014075852910256353 0 -0.037113865981315351 -0.012307862826570606 0 -0.037872668450392985 -0.014093469005526323 0 -0.037397292349586754 -0.015677743946288066 0 -0.026768509786369327 -0.036333885238581026 0 -0.027096623141341709 -0.031916034030761549 0 -0.032155701229114542 -0.033544461951915523 0 -0.040129699577778684 -0.011870758940390549 0 -0.037113865981315351 -0.012307862826570606 0 -0.038824474132104818 -0.0089006250264881161 0 -0.030461639546388589 -0.02008089101135218 0 -0.037397292349586754 -0.015677743946288066 0 -0.037113865981315351 -0.012307862826570606 0 -0.03589636604054941 -0.011290891759457539 0 -0.038072505958109647 -0.010135085526416588 0 -0.021833961696612121 -0.0359143657112206 0 -0.026768509786369327 -0.036333885238581026 0 -0.022764636644460122 -0.033433083138253661 0 -0.021833961696612121 -0.0359143657112206 0 -0.022382703352344872 -0.037782970586441124 0 -0.026768509786369327 -0.036333885238581026 0 -0.024144078102038179 -0.022874975310439725 0 -0.030461639546388589 -0.02008089101135218 0 -0.021480102701892829 -0.038886060208184581 0 -0.022382703352344872 -0.037782970586441124 0 -0.026768509786369327 -0.036333885238581026 0 -0.026768509786369327 -0.036333885238581026 0 -0.027096623141341709 -0.031916034030761549 0 -0.022764636644460122 -0.033433083138253661 0 -0.033749935310725857 -0.012609094757388426 0 -0.034702178561900894 -0.013096509081620675 0 -0.03589636604054941 -0.011290891759457539 0 -0.027096623141341709 -0.031916034030761549 0 -0.022764636644460122 -0.033433083138253661 0 -0.019764083289538267 -0.030111752574626147 0 -0.027096623141341709 -0.031916034030761549 0 -0.027682985692685111 -0.02743831538250939 0 -0.019764083289538267 -0.030111752574626147 0 -0.032155701229114542 -0.033544461951915523 0 -0.030709468873162379 -0.028839405255854964 0 -0.03525783327523712 -0.026655427039235183 0 -0.027096623141341709 -0.031916034030761549 0 -0.032155701229114542 -0.033544461951915523 0 -0.030709468873162379 -0.028839405255854964 0 -0.027096623141341709 -0.031916034030761549 0 -0.030709468873162379 -0.028839405255854964 0 -0.027682985692685111 -0.02743831538250939 0 -0.030709468873162379 -0.028839405255854964 0 -0.031305211238295751 -0.024704836502221484 0 -0.027682985692685111 -0.02743831538250939 0 -0.030709468873162379 -0.028839405255854964 0 -0.031305211238295751 -0.024704836502221484 0 -0.03525783327523712 -0.026655427039235183 0 -0.027682985692685111 -0.02743831538250939 0 -0.025236631438266838 -0.022749518422366489 0 -0.019764083289538267 -0.030111752574626147 0 -0.031305211238295751 -0.024704836502221484 0 -0.027682985692685111 -0.02743831538250939 0 -0.025236631438266838 -0.022749518422366489 0 -0.045048319260530573 -0.0091324799736352182 0 -0.043999614428018419 -0.0067461599517389887 0 -0.047616433897320051 -0.008342683581996628 0 -0.042250261080070975 -0.0096058819006887095 0 -0.045048319260530573 -0.0091324799736352182 0 -0.043999614428018419 -0.0067461599517389887 0 -0.047130612468562913 -0.0074869868398760205 0 -0.048420671966282386 -0.0068016067713053087 0 -0.047735292102287233 -0.0062361781101685455 0 -0.037397292349586754 -0.015677743946288066 0 -0.039746668873101611 -0.015228892673274366 0 -0.042250261080070975 -0.0096058819006887095 0 -0.038824474132104818 -0.0089006250264881161 0 -0.043999614428018419 -0.0067461599517389887 0 -0.037397292349586754 -0.015677743946288066 0 -0.045171184004887226 -0.009609905465238433 0 -0.031305211238295751 -0.024704836502221484 0 -0.03525783327523712 -0.026655427039235183 0 -0.033776994316458329 -0.022109979018546281 0 -0.048420671966282386 -0.0068016067713053087 0 -0.047735292102287233 -0.0062361781101685455 0 -0.048402954946692452 -0.0063304158869565072 0 -0.047735292102287233 -0.0062361781101685455 0 -0.048402954946692452 -0.0063304158869565072 0 -0.047904839222346701 -0.0059740232520824384 0 -0.048402954946692452 -0.0063304158869565072 0 -0.048925518639815119 -0.0058448581932479355 0 -0.049054654317583643 -0.0062766241402791379 0 -0.048420671966282386 -0.0068016067713053087 0 -0.048402954946692452 -0.0063304158869565072 0 -0.049054654317583643 -0.0062766241402791379 0 -0.047904839222346701 -0.0059740232520824384 0 -0.047814218173624003 -0.0064507426778610761 0 -0.04583580663589449 -0.0076967893654014278 0 -0.047904839222346701 -0.0059740232520824384 0 -0.049799742559793157 -0.0029990896664490638 0 -0.049523480448003837 -0.0047853093801855148 0 -0.048925518639815119 -0.0058448581932479355 0 -0.047904839222346701 -0.0059740232520824384 0 -0.049523480448003837 -0.0047853093801855148 0 -0.048402954946692452 -0.0063304158869565072 0 -0.048925518639815119 -0.0058448581932479355 0 -0.047904839222346701 -0.0059740232520824384 0 -0.039746668873101611 -0.015228892673274366 0 -0.041773707040167203 -0.012939552170562051 0 -0.047735292102287233 -0.0062361781101685455 0 -0.047904839222346701 -0.0059740232520824384 0 -0.047814218173624003 -0.0064507426778610761 0 -0.03525783327523712 -0.026655427039235183 0 -0.038161001138745577 -0.020078266563688905 0 -0.033776994316458329 -0.022109979018546281 0 -0.038161001138745577 -0.020078266563688905 0 -0.033776994316458329 -0.022109979018546281 0 -0.033978579539381 -0.018928007009445271 0 -0.033978579539381 -0.018928007009445271 0 -0.035213367230547764 -0.015473449230057182 0 -0.036543426790024626 -0.018011165961903428 0 -0.033978579539381 -0.018928007009445271 0 -0.035213367230547764 -0.015473449230057182 0 -0.030753403982787017 -0.016137912514140301 0 -0.035213367230547764 -0.015473449230057182 0 -0.036543426790024626 -0.018011165961903428 0 -0.037998174525845529 -0.015879025145782419 0 -0.038161001138745577 -0.020078266563688905 0 -0.036543426790024626 -0.018011165961903428 0 -0.037998174525845529 -0.015879025145782419 0 -0.038161001138745577 -0.020078266563688905 0 -0.033978579539381 -0.018928007009445271 0 -0.036543426790024626 -0.018011165961903428 0 -0.047814218173624003 -0.0064507426778610761 0 -0.0459906671175353 -0.0080717126568266972 0 -0.04583580663589449 -0.0076967893654014278 0 -0.048069543233816951 -0.0059736966073958269 0 -0.048387028217366831 -0.0055058379237331078 0 -0.041773707040167203 -0.012939552170562051 0 -0.043138705921974323 -0.010709965346027276 0 -0.038161001138745577 -0.020078266563688905 0 -0.037998174525845529 -0.015879025145782419 0 -0.041106023906406566 -0.014062235512335278 0 -0.025236631438266838 -0.022749518422366489 0 -0.026241660242744689 -0.017227073017624148 0 -0.019319541124131621 -0.019957384096655595 0 -0.025236631438266838 -0.022749518422366489 0 -0.030083749116166621 -0.020234128383317829 0 -0.026241660242744689 -0.017227073017624148 0 -0.031305211238295751 -0.024704836502221484 0 -0.025236631438266838 -0.022749518422366489 0 -0.030083749116166621 -0.020234128383317829 0 -0.031305211238295751 -0.024704836502221484 0 -0.033776994316458329 -0.022109979018546281 0 -0.030083749116166621 -0.020234128383317829 0 -0.033776994316458329 -0.022109979018546281 0 -0.033978579539381 -0.018928007009445271 0 -0.030083749116166621 -0.020234128383317829 0 -0.030753403982787017 -0.016137912514140301 0 -0.026241660242744689 -0.017227073017624148 0 -0.028757939080485587 -0.012040675045558563 0 -0.030083749116166621 -0.020234128383317829 0 -0.030753403982787017 -0.016137912514140301 0 -0.026241660242744689 -0.017227073017624148 0 -0.033978579539381 -0.018928007009445271 0 -0.030083749116166621 -0.020234128383317829 0 -0.030753403982787017 -0.016137912514140301 0 -0.026241660242744689 -0.017227073017624148 0 -0.028757939080485587 -0.012040675045558563 0 -0.022902724676070737 -0.012713666920208901 0 -0.025564001134743289 -0.0085824759503380366 0 -0.028757939080485587 -0.012040675045558563 0 -0.022902724676070737 -0.012713666920208901 0 -0.025564001134743289 -0.0085824759503380366 0 -0.024852220354762044 -0.0047507922727225487 0 -0.030463643151613644 -0.0059225307144993335 0 -0.025564001134743289 -0.0085824759503380366 0 -0.028757939080485587 -0.012040675045558563 0 -0.030463643151613644 -0.0059225307144993335 0 -0.028757939080485587 -0.012040675045558563 0 -0.033615285516018369 -0.011553036822350779 0 -0.030463643151613644 -0.0059225307144993335 0 -0.033615285516018369 -0.011553036822350779 0 -0.035347659942167022 -0.0081967460188778572 0 -0.030463643151613644 -0.0059225307144993335 0 -0.030753403982787017 -0.016137912514140301 0 -0.028757939080485587 -0.012040675045558563 0 -0.033615285516018369 -0.011553036822350779 0 -0.035213367230547764 -0.015473449230057182 0 -0.030753403982787017 -0.016137912514140301 0 -0.033615285516018369 -0.011553036822350779 0 -0.035213367230547764 -0.015473449230057182 0 -0.037333946131536441 -0.013193707392857338 0 -0.033615285516018369 -0.011553036822350779 0 -0.035213367230547764 -0.015473449230057182 0 -0.037998174525845529 -0.015879025145782419 0 -0.037333946131536441 -0.013193707392857338 0 -0.037333946131536441 -0.013193707392857338 0 -0.033615285516018369 -0.011553036822350779 0 -0.037408480721021112 -0.010305791848466295 0 -0.037998174525845529 -0.015879025145782419 0 -0.037333946131536441 -0.013193707392857338 0 -0.038966553797651182 -0.01375277371386182 0 -0.037998174525845529 -0.015879025145782419 0 -0.041106023906406566 -0.014062235512335278 0 -0.038966553797651182 -0.01375277371386182 0 -0.041106023906406566 -0.014062235512335278 0 -0.038966553797651182 -0.01375277371386182 0 -0.039409204132823478 -0.011875473647036892 0 -0.037333946131536441 -0.013193707392857338 0 -0.038966553797651182 -0.01375277371386182 0 -0.039409204132823478 -0.011875473647036892 0 -0.037333946131536441 -0.013193707392857338 0 -0.039409204132823478 -0.011875473647036892 0 -0.037408480721021112 -0.010305791848466295 0 -0.041106023906406566 -0.014062235512335278 0 -0.039409204132823478 -0.011875473647036892 0 -0.041485648651218919 -0.010204092422580148 0 -0.041106023906406566 -0.014062235512335278 0 -0.041485648651218919 -0.010204092422580148 0 -0.04463361528594794 -0.0079992128700651904 0 -0.041485648651218919 -0.010204092422580148 0 -0.040059575587560341 -0.0093915637898644953 0 -0.04161769490579631 -0.007519427896873882 0 -0.039409204132823478 -0.011875473647036892 0 -0.040059575587560341 -0.0093915637898644953 0 -0.037408480721021112 -0.010305791848466295 0 -0.040059575587560341 -0.0093915637898644953 0 -0.038716495962946101 -0.0076352296329442737 0 -0.037408480721021112 -0.010305791848466295 0 -0.039409204132823478 -0.011875473647036892 0 -0.041485648651218919 -0.010204092422580148 0 -0.040059575587560341 -0.0093915637898644953 0 -0.040059575587560341 -0.0093915637898644953 0 -0.038716495962946101 -0.0076352296329442737 0 -0.04161769490579631 -0.007519427896873882 0 -0.038716495962946101 -0.0076352296329442737 0 -0.04161769490579631 -0.007519427896873882 0 -0.040896501793186865 -0.0052146184534134351 0 -0.041485648651218919 -0.010204092422580148 0 -0.04161769490579631 -0.007519427896873882 0 -0.04463361528594794 -0.0079992128700651904 0 -0.035347659942167022 -0.0081967460188778572 0 -0.036776841165081446 -0.0051462756515555305 0 -0.030463643151613644 -0.0059225307144993335 0 -0.033615285516018369 -0.011553036822350779 0 -0.037408480721021112 -0.010305791848466295 0 -0.035347659942167022 -0.0081967460188778572 0 -0.038716495962946101 -0.0076352296329442737 0 -0.037408480721021112 -0.010305791848466295 0 -0.035347659942167022 -0.0081967460188778572 0 -0.038716495962946101 -0.0076352296329442737 0 -0.035347659942167022 -0.0081967460188778572 0 -0.036776841165081446 -0.0051462756515555305 0 -0.034161979837087061 -0.002380482876184962 0 -0.036776841165081446 -0.0051462756515555305 0 -0.040607909945356693 -0.0010430430068214473 0 -0.034161979837087061 -0.002380482876184962 0 -0.036776841165081446 -0.0051462756515555305 0 -0.030463643151613644 -0.0059225307144993335 0 -0.036776841165081446 -0.0051462756515555305 0 -0.040896501793186865 -0.0052146184534134351 0 -0.040607909945356693 -0.0010430430068214473 0 -0.040896501793186865 -0.0052146184534134351 0 -0.040607909945356693 -0.0010430430068214473 0 -0.045126581078929306 -0.0039697163196535101 0 -0.04161769490579631 -0.007519427896873882 0 -0.040896501793186865 -0.0052146184534134351 0 -0.043770751601855666 -0.0063044372059638575 0 -0.038716495962946101 -0.0076352296329442737 0 -0.036776841165081446 -0.0051462756515555305 0 -0.040896501793186865 -0.0052146184534134351 0 -0.034161979837087061 -0.002380482876184962 0 -0.031071299936174614 0.00060361589540674436 0 -0.03597087624927553 0.0031531793866595983 0 -0.034161979837087061 -0.002380482876184962 0 -0.040607909945356693 -0.0010430430068214473 0 -0.03597087624927553 0.0031531793866595983 0 -0.031071299936174614 0.00060361589540674436 0 -0.026098827779097181 -0.00024748559066845282 0 -0.030463643151613644 -0.0059225307144993335 0 -0.031071299936174614 0.00060361589540674436 0 -0.026098827779097181 -0.00024748559066845282 0 -0.030759009614023947 0.0058697127154696913 0 -0.026098827779097181 -0.00024748559066845282 0 -0.024852220354762044 -0.0047507922727225487 0 -0.030463643151613644 -0.0059225307144993335 0 -0.034161979837087061 -0.002380482876184962 0 -0.031071299936174614 0.00060361589540674436 0 -0.030463643151613644 -0.0059225307144993335 0 -0.054909762712995955 -5.8872564159661202e-05 0 -0.05561061977145422 0.00081820701943901685 0 -0.054004835526698068 0.00091873018350724031 0 -0.056070589162143102 0.00010320084208260585 0 -0.056610153543031637 0.00090933003911979711 0 -0.05561061977145422 0.00081820701943901685 0 -0.054909762712995955 -5.8872564159661202e-05 0 -0.056070589162143102 0.00010320084208260585 0 -0.05561061977145422 0.00081820701943901685 0 -0.054909762712995955 -5.8872564159661202e-05 0 -0.056070589162143102 0.00010320084208260585 0 -0.055618729300445563 -0.0010613789185582704 0 -0.056070589162143102 0.00010320084208260585 0 -0.056947380528053523 -6.5214329627783012e-05 0 -0.055618729300445563 -0.0010613789185582704 0 -0.056070589162143102 0.00010320084208260585 0 -0.056947380528053523 -6.5214329627783012e-05 0 -0.057280654439163435 0.00066281159479084745 0 -0.056947380528053523 -6.5214329627783012e-05 0 -0.057280654439163435 0.00066281159479084745 0 -0.058053971931535012 0.00067972154745330187 0 -0.056070589162143102 0.00010320084208260585 0 -0.057280654439163435 0.00066281159479084745 0 -0.056610153543031637 0.00090933003911979711 0 -0.057280654439163435 0.00066281159479084745 0 -0.056610153543031637 0.00090933003911979711 0 -0.057525571983277152 0.0013817592859628859 0 -0.056610153543031637 0.00090933003911979711 0 -0.057525571983277152 0.0013817592859628859 0 -0.056684942696050448 0.0014597704832745207 0 -0.057280654439163435 0.00066281159479084745 0 -0.057525571983277152 0.0013817592859628859 0 -0.058035821822303442 0.0011860076857219759 0 -0.057525571983277152 0.0013817592859628859 0 -0.058161669599948923 0.0018943539207813358 0 -0.057488158430039307 0.0018684890767788895 0 -0.057525571983277152 0.0013817592859628859 0 -0.058202461407363307 0.0015544877899649101 0 -0.058161669599948923 0.0018943539207813358 0 -0.057525571983277152 0.0013817592859628859 0 -0.058202461407363307 0.0015544877899649101 0 -0.058035821822303442 0.0011860076857219759 0 -0.057525571983277152 0.0013817592859628859 0 -0.056684942696050448 0.0014597704832745207 0 -0.057488158430039307 0.0018684890767788895 0 -0.055908604112711535 0.0016386779054897735 0 -0.05561061977145422 0.00081820701943901685 0 -0.054004835526698068 0.00091873018350724031 0 -0.056684942696050448 0.0014597704832745207 0 -0.055908604112711535 0.0016386779054897735 0 -0.056882104772683725 0.002271084210996672 0 -0.055908604112711535 0.0016386779054897735 0 -0.054004835526698068 0.00091873018350724031 0 -0.055485387273573807 0.0031295356224967539 0 -0.056684942696050448 0.0014597704832745207 0 -0.055908604112711535 0.0016386779054897735 0 -0.05561061977145422 0.00081820701943901685 0 -0.056610153543031637 0.00090933003911979711 0 -0.056684942696050448 0.0014597704832745207 0 -0.05561061977145422 0.00081820701943901685 0 -0.049813495150690765 -0.0028691514575206077 0 -0.04664709182288071 -0.00018435835076753519 0 -0.050060379248070393 0.0019875603868793465 0 -0.05168344832479279 -0.00071542827304269343 0 -0.053099060919966169 0.0015275579007305847 0 -0.049813495150690765 -0.0028691514575206077 0 -0.04664709182288071 -0.00018435835076753519 0 -0.045126581078929306 -0.0039697163196535101 0 -0.040607909945356693 -0.0010430430068214473 0 -0.04664709182288071 -0.00018435835076753519 0 -0.045087185066902034 0.003239600938308591 0 -0.040607909945356693 -0.0010430430068214473 0 -0.04664709182288071 -0.00018435835076753519 0 -0.045126581078929306 -0.0039697163196535101 0 -0.049813495150690765 -0.0028691514575206077 0 -0.045126581078929306 -0.0039697163196535101 0 -0.045492887976106268 -0.0084519585134024237 0 -0.045126581078929306 -0.0039697163196535101 0 -0.043770751601855666 -0.0063044372059638575 0 -0.045492887976106268 -0.0084519585134024237 0 -0.040896501793186865 -0.0052146184534134351 0 -0.045126581078929306 -0.0039697163196535101 0 -0.043770751601855666 -0.0063044372059638575 0 -0.05168344832479279 -0.00071542827304269343 0 -0.049553477901947481 -0.003919768352717414 0 -0.054004835526698068 0.00091873018350724031 0 -0.053556311783876466 -0.00051098257220827587 0 -0.052079518696894068 -0.00078546135679971303 0 -0.054909762712995955 -5.8872564159661202e-05 0 -0.054004835526698068 0.00091873018350724031 0 -0.053556311783876466 -0.00051098257220827587 0 -0.054909762712995955 -5.8872564159661202e-05 0 -0.053556311783876466 -0.00051098257220827587 0 -0.053896185901286905 -0.001365025718223429 0 -0.053556311783876466 -0.00051098257220827587 0 -0.05285737127450487 -0.0014372766287649044 0 -0.052079518696894068 -0.00078546135679971303 0 -0.053556311783876466 -0.00051098257220827587 0 -0.05285737127450487 -0.0014372766287649044 0 -0.053896185901286905 -0.001365025718223429 0 -0.0459906671175353 -0.0080717126568266972 0 -0.04463361528594794 -0.0079992128700651904 0 -0.045492887976106268 -0.0084519585134024237 0 -0.043770751601855666 -0.0063044372059638575 0 -0.04463361528594794 -0.0079992128700651904 0 -0.045492887976106268 -0.0084519585134024237 0 -0.04161769490579631 -0.007519427896873882 0 -0.043770751601855666 -0.0063044372059638575 0 -0.04463361528594794 -0.0079992128700651904 0 -0.0459906671175353 -0.0080717126568266972 0 -0.045492887976106268 -0.0084519585134024237 0 -0.04583580663589449 -0.0076967893654014278 0 -0.043138705921974323 -0.010709965346027276 0 -0.043789313471012635 -0.0094215859472240714 0 -0.052079518696894068 -0.00078546135679971303 0 -0.051907578318096413 -0.0022869413655088777 0 -0.049799742559793157 -0.0029990896664490638 0 -0.049553477901947481 -0.003919768352717414 0 -0.048387028217366831 -0.0055058379237331078 0 -0.05285737127450487 -0.0014372766287649044 0 -0.052079518696894068 -0.00078546135679971303 0 -0.051907578318096413 -0.0022869413655088777 0 -0.053896185901286905 -0.001365025718223429 0 -0.053045302252470318 -0.0022356680730152988 0 -0.053813402795497539 -0.0023424047044729962 0 -0.05285737127450487 -0.0014372766287649044 0 -0.053896185901286905 -0.001365025718223429 0 -0.053045302252470318 -0.0022356680730152988 0 -0.05285737127450487 -0.0014372766287649044 0 -0.051907578318096413 -0.0022869413655088777 0 -0.053045302252470318 -0.0022356680730152988 0 -0.051907578318096413 -0.0022869413655088777 0 -0.053045302252470318 -0.0022356680730152988 0 -0.052379767909812774 -0.0030728635057960876 0 -0.053045302252470318 -0.0022356680730152988 0 -0.053556943608559719 -0.00295979439418677 0 -0.052379767909812774 -0.0030728635057960876 0 -0.053045302252470318 -0.0022356680730152988 0 -0.053813402795497539 -0.0023424047044729962 0 -0.053556943608559719 -0.00295979439418677 0 -0.053813402795497539 -0.0023424047044729962 0 -0.054544556286840837 -0.0021168420915309849 0 -0.054402722540012056 -0.0028667510264163338 0 -0.053813402795497539 -0.0023424047044729962 0 -0.054402722540012056 -0.0028667510264163338 0 -0.053556943608559719 -0.00295979439418677 0 -0.054544556286840837 -0.0021168420915309849 0 -0.055385389381080459 -0.0020452967479848696 0 -0.055189783874939419 -0.0027574004400617866 0 -0.054544556286840837 -0.0021168420915309849 0 -0.055189783874939419 -0.0027574004400617866 0 -0.054402722540012056 -0.0028667510264163338 0 -0.054544556286840837 -0.0021168420915309849 0 -0.055618729300445563 -0.0010613789185582704 0 -0.055385389381080459 -0.0020452967479848696 0 -0.053896185901286905 -0.001365025718223429 0 -0.053813402795497539 -0.0023424047044729962 0 -0.054544556286840837 -0.0021168420915309849 0 -0.054909762712995955 -5.8872564159661202e-05 0 -0.053896185901286905 -0.001365025718223429 0 -0.055618729300445563 -0.0010613789185582704 0 -0.053896185901286905 -0.001365025718223429 0 -0.054544556286840837 -0.0021168420915309849 0 -0.055618729300445563 -0.0010613789185582704 0 -0.055618729300445563 -0.0010613789185582704 0 -0.056156261179412491 -0.0019886976826859362 0 -0.057078401301575994 -0.00083471854560634388 0 -0.056947380528053523 -6.5214329627783012e-05 0 -0.055618729300445563 -0.0010613789185582704 0 -0.057078401301575994 -0.00083471854560634388 0 -0.055618729300445563 -0.0010613789185582704 0 -0.056156261179412491 -0.0019886976826859362 0 -0.055385389381080459 -0.0020452967479848696 0 -0.056156261179412491 -0.0019886976826859362 0 -0.055385389381080459 -0.0020452967479848696 0 -0.055189783874939419 -0.0027574004400617866 0 -0.056156261179412491 -0.0019886976826859362 0 -0.055189783874939419 -0.0027574004400617866 0 -0.055776969155752081 -0.0030326549868330958 0 -0.056156261179412491 -0.0019886976826859362 0 -0.055776969155752081 -0.0030326549868330958 0 -0.056108231934282236 -0.0030430901426830282 0 -0.055776969155752081 -0.0030326549868330958 0 -0.056058455478096535 -0.0033337091553338623 0 -0.055313337416086961 -0.0034337733498972815 0 -0.055776969155752081 -0.0030326549868330958 0 -0.056058455478096535 -0.0033337091553338623 0 -0.056108231934282236 -0.0030430901426830282 0 -0.056058455478096535 -0.0033337091553338623 0 -0.055313337416086961 -0.0034337733498972815 0 -0.054965288573938051 -0.0042310828870373201 0 -0.055189783874939419 -0.0027574004400617866 0 -0.055776969155752081 -0.0030326549868330958 0 -0.055313337416086961 -0.0034337733498972815 0 -0.055189783874939419 -0.0027574004400617866 0 -0.054402722540012056 -0.0028667510264163338 0 -0.054435869803870461 -0.0036228784160278102 0 -0.055189783874939419 -0.0027574004400617866 0 -0.055313337416086961 -0.0034337733498972815 0 -0.054435869803870461 -0.0036228784160278102 0 -0.053556943608559719 -0.00295979439418677 0 -0.054435869803870461 -0.0036228784160278102 0 -0.053001607240398138 -0.0038846409193289593 0 -0.054402722540012056 -0.0028667510264163338 0 -0.053556943608559719 -0.00295979439418677 0 -0.054435869803870461 -0.0036228784160278102 0 -0.054435869803870461 -0.0036228784160278102 0 -0.053722077802012595 -0.0047511613053837541 0 -0.053001607240398138 -0.0038846409193289593 0 -0.054435869803870461 -0.0036228784160278102 0 -0.054965288573938051 -0.0042310828870373201 0 -0.053722077802012595 -0.0047511613053837541 0 -0.055313337416086961 -0.0034337733498972815 0 -0.054435869803870461 -0.0036228784160278102 0 -0.054965288573938051 -0.0042310828870373201 0 -0.054965288573938051 -0.0042310828870373201 0 -0.053722077802012595 -0.0047511613053837541 0 -0.055135567321564785 -0.0056038353078437112 0 -0.053722077802012595 -0.0047511613053837541 0 -0.055135567321564785 -0.0056038353078437112 0 -0.052635548946681966 -0.0063123669484674459 0 -0.053174106122069818 -0.0044207208027101574 0 -0.051650104490189218 -0.0050923062521281443 0 -0.056058455478096535 -0.0033337091553338623 0 -0.054965288573938051 -0.0042310828870373201 0 -0.055135567321564785 -0.0056038353078437112 0 -0.052699166370057247 -0.0032539188004319535 0 -0.053604185079272691 -0.0038934183359568995 0 -0.053862478041566096 -0.0031337361827941832 0 -0.056058455478096535 -0.0033337091553338623 0 -0.056633858563072251 -0.0025377938195867535 0 -0.05588959303204135 -0.002662304660798562 0 -0.053174106122069818 -0.0044207208027101574 0 -0.054298916416294925 -0.0039142275693025055 0 -0.054131050422432693 -0.0036761279017403494 0 -0.053174106122069818 -0.0044207208027101574 0 -0.049799742559793157 -0.0029990896664490638 0 -0.050508977636905074 -0.0039535031244757211 0 -0.049523480448003837 -0.0047853093801855148 0 -0.050508977636905074 -0.0039535031244757211 0 -0.050462575089129179 -0.0046269010208136261 0 -0.049523480448003837 -0.0047853093801855148 0 -0.049799742559793157 -0.0029990896664490638 0 -0.051169887727378925 -0.0032613801880538966 0 -0.050508977636905074 -0.0039535031244757211 0 -0.051907578318096413 -0.0022869413655088777 0 -0.049799742559793157 -0.0029990896664490638 0 -0.051169887727378925 -0.0032613801880538966 0 -0.050508977636905074 -0.0039535031244757211 0 -0.051524997332173257 -0.0041209744374298141 0 -0.050462575089129179 -0.0046269010208136261 0 -0.051169887727378925 -0.0032613801880538966 0 -0.050508977636905074 -0.0039535031244757211 0 -0.051524997332173257 -0.0041209744374298141 0 -0.051524997332173257 -0.0041209744374298141 0 -0.053001607240398138 -0.0038846409193289593 0 -0.052222091667932874 -0.00491661879782581 0 -0.051524997332173257 -0.0041209744374298141 0 -0.052379767909812774 -0.0030728635057960876 0 -0.053001607240398138 -0.0038846409193289593 0 -0.051907578318096413 -0.0022869413655088777 0 -0.051169887727378925 -0.0032613801880538966 0 -0.052379767909812774 -0.0030728635057960876 0 -0.051169887727378925 -0.0032613801880538966 0 -0.051524997332173257 -0.0041209744374298141 0 -0.052379767909812774 -0.0030728635057960876 0 -0.053556943608559719 -0.00295979439418677 0 -0.052379767909812774 -0.0030728635057960876 0 -0.053001607240398138 -0.0038846409193289593 0 -0.053722077802012595 -0.0047511613053837541 0 -0.053001607240398138 -0.0038846409193289593 0 -0.052222091667932874 -0.00491661879782581 0 -0.053722077802012595 -0.0047511613053837541 0 -0.052222091667932874 -0.00491661879782581 0 -0.052635548946681966 -0.0063123669484674459 0 -0.052222091667932874 -0.00491661879782581 0 -0.050568671320487091 -0.0053664286735582677 0 -0.052635548946681966 -0.0063123669484674459 0 -0.051524997332173257 -0.0041209744374298141 0 -0.052222091667932874 -0.00491661879782581 0 -0.050568671320487091 -0.0053664286735582677 0 -0.050568671320487091 -0.0053664286735582677 0 -0.049054654317583643 -0.0062766241402791379 0 -0.052635548946681966 -0.0063123669484674459 0 -0.051524997332173257 -0.0041209744374298141 0 -0.050462575089129179 -0.0046269010208136261 0 -0.050568671320487091 -0.0053664286735582677 0 -0.050462575089129179 -0.0046269010208136261 0 -0.050568671320487091 -0.0053664286735582677 0 -0.049709854391285654 -0.0054231373193714153 0 -0.048925518639815119 -0.0058448581932479355 0 -0.049709854391285654 -0.0054231373193714153 0 -0.049054654317583643 -0.0062766241402791379 0 -0.050568671320487091 -0.0053664286735582677 0 -0.049709854391285654 -0.0054231373193714153 0 -0.049054654317583643 -0.0062766241402791379 0 -0.048925518639815119 -0.0058448581932479355 0 -0.049709854391285654 -0.0054231373193714153 0 -0.049523480448003837 -0.0047853093801855148 0 -0.050462575089129179 -0.0046269010208136261 0 -0.049709854391285654 -0.0054231373193714153 0 -0.049523480448003837 -0.0047853093801855148 0 -0.050851019958440581 -0.0053528090797571228 0 -0.051650104490189218 -0.0050923062521281443 0 -0.045171184004887226 -0.009609905465238433 0 -0.04718098671681932 -0.0080962493465487201 0 -0.048420671966282386 -0.0068016067713053087 0 -0.049054654317583643 -0.0062766241402791379 0 -0.049196287822321626 -0.0059774726092667622 0 -0.049054654317583643 -0.0062766241402791379 0 -0.049196287822321626 -0.0059774726092667622 0 -0.049740474380870259 -0.0055178772508707929 0 -0.043999614428018419 -0.0067461599517389887 0 -0.049196287822321626 -0.0059774726092667622 0 -0.047584181815624918 -0.0069654033261208536 0 -0.049196287822321626 -0.0059774726092667622 0 -0.047584181815624918 -0.0069654033261208536 0 -0.049078652882139202 -0.0067979854244266114 0 -0.049078652882139202 -0.0067979854244266114 0 -0.049740474380870259 -0.0055178772508707929 0 -0.050509511116364696 -0.0075542977942527579 0 -0.049196287822321626 -0.0059774726092667622 0 -0.049078652882139202 -0.0067979854244266114 0 -0.049740474380870259 -0.0055178772508707929 0 -0.049078652882139202 -0.0067979854244266114 0 -0.050509511116364696 -0.0075542977942527579 0 -0.047616433897320051 -0.008342683581996628 0 -0.048167533763694793 -0.011134366736234236 0 -0.050509511116364696 -0.0075542977942527579 0 -0.047616433897320051 -0.008342683581996628 0 -0.047961744170434056 -0.0086370607392777781 0 -0.05072508372764397 -0.0063676170340683375 0 -0.043999614428018419 -0.0067461599517389887 0 -0.047584181815624918 -0.0069654033261208536 0 -0.047616433897320051 -0.008342683581996628 0 -0.047584181815624918 -0.0069654033261208536 0 -0.049078652882139202 -0.0067979854244266114 0 -0.047616433897320051 -0.008342683581996628 0 -0.046628887162433769 -0.0098673005056687212 0 -0.045048319260530573 -0.0091324799736352182 0 -0.047616433897320051 -0.008342683581996628 0 -0.052699166370057247 -0.0032539188004319535 0 -0.053604185079272691 -0.0038934183359568995 0 -0.052937331625411074 -0.0046588617255625096 0 -0.053604185079272691 -0.0038934183359568995 0 -0.052937331625411074 -0.0046588617255625096 0 -0.054385650115436245 -0.0047307062806042468 0 -0.052699166370057247 -0.0032539188004319535 0 -0.051413808497617272 -0.0047861522964945946 0 -0.052937331625411074 -0.0046588617255625096 0 -0.053174106122069818 -0.0044207208027101574 0 -0.05072508372764397 -0.0063676170340683375 0 -0.052109502633779635 -0.0051050946245465925 0 -0.049740474380870259 -0.0055178772508707929 0 -0.050509511116364696 -0.0075542977942527579 0 -0.051690171537173417 -0.0059622013774929738 0 -0.051413808497617272 -0.0047861522964945946 0 -0.052402055360122518 -0.0054591007290513598 0 -0.051413808497617272 -0.0047861522964945946 0 -0.052402055360122518 -0.0054591007290513598 0 -0.052937331625411074 -0.0046588617255625096 0 -0.053076410639687384 -0.0061661626373753229 0 -0.052402055360122518 -0.0054591007290513598 0 -0.052937331625411074 -0.0046588617255625096 0 -0.053076410639687384 -0.0061661626373753229 0 -0.052937331625411074 -0.0046588617255625096 0 -0.054385650115436245 -0.0047307062806042468 0 -0.050833421304302337 -0.0068483553532558868 0 -0.052827330731127088 -0.00520268330511042 0 -0.053604185079272691 -0.0038934183359568995 0 -0.054385650115436245 -0.0047307062806042468 0 -0.054439993273895947 -0.0037194956389605149 0 -0.053604185079272691 -0.0038934183359568995 0 -0.054439993273895947 -0.0037194956389605149 0 -0.053862478041566096 -0.0031337361827941832 0 -0.052561160649064687 -0.0049569865426323982 0 -0.055007570261775419 -0.0036440084726507825 0 -0.055306107398764487 -0.0049017678791482113 0 -0.054385650115436245 -0.0047307062806042468 0 -0.054439993273895947 -0.0037194956389605149 0 -0.055007570261775419 -0.0036440084726507825 0 -0.052827330731127088 -0.00520268330511042 0 -0.053695321777250733 -0.004479825275765301 0 -0.054879829248864732 -0.0065544502897943273 0 -0.052561160649064687 -0.0049569865426323982 0 -0.055306107398764487 -0.0049017678791482113 0 -0.056863719935919016 -0.0066036843561908471 0 -0.054879829248864732 -0.0065544502897943273 0 -0.055306107398764487 -0.0049017678791482113 0 -0.056863719935919016 -0.0066036843561908471 0 -0.055306107398764487 -0.0049017678791482113 0 -0.056451405506010674 -0.0044399874792653343 0 -0.051805977229092678 0.0006122098306418222 0 -0.053462876880495273 8.692961827743986e-05 0 -0.055007570261775419 -0.0036440084726507825 0 -0.055306107398764487 -0.0049017678791482113 0 -0.056451405506010674 -0.0044399874792653343 0 -0.055007570261775419 -0.0036440084726507825 0 -0.056004798319274303 -0.0030185050899709455 0 -0.055454175975734078 -0.0029942268358405422 0 -0.055007570261775419 -0.0036440084726507825 0 -0.056451405506010674 -0.0044399874792653343 0 -0.056004798319274303 -0.0030185050899709455 0 -0.053462876880495273 8.692961827743986e-05 0 -0.054621929804772928 -0.00076599520459396016 0 -0.051958590519539494 0.0057800935903770468 0 -0.054199985575566621 0.0021062344045953939 0 -0.050824168971332656 0.0026818071702824865 0 -0.054199985575566621 0.0021062344045953939 0 -0.053708313133004663 -1.2986511959170345e-05 0 -0.050824168971332656 0.0026818071702824865 0 -0.054621929804772928 -0.00076599520459396016 0 -0.055360938452817289 -0.0014585545566937798 0 -0.054199985575566621 0.0021062344045953939 0 -0.053708313133004663 -1.2986511959170345e-05 0 -0.055947325593627202 -0.0015547409350269753 0 -0.056004798319274303 -0.0030185050899709455 0 -0.05576832488162544 -0.0027866553830519108 0 -0.055454175975734078 -0.0029942268358405422 0 -0.056004798319274303 -0.0030185050899709455 0 -0.05576832488162544 -0.0027866553830519108 0 -0.056121212374346204 -0.0025287438525239936 0 -0.05576832488162544 -0.0027866553830519108 0 -0.055454175975734078 -0.0029942268358405422 0 -0.055550166508614961 -0.0028329586126867859 0 -0.055454175975734078 -0.0029942268358405422 0 -0.055394528987636672 -0.0029877540074650035 0 -0.055550166508614961 -0.0028329586126867859 0 -0.055394528987636672 -0.0029877540074650035 0 -0.055550166508614961 -0.0028329586126867859 0 -0.055571511108279799 -0.0030362741753955989 0 -0.055394528987636672 -0.0029877540074650035 0 -0.055571511108279799 -0.0030362741753955989 0 -0.055076344968644352 -0.0030851616803521985 0 -0.055550166508614961 -0.0028329586126867859 0 -0.055680799285264579 -0.0028870204597161346 0 -0.055571511108279799 -0.0030362741753955989 0 -0.055680799285264579 -0.0028870204597161346 0 -0.055861658308351013 -0.0031049984135149236 0 -0.055571511108279799 -0.0030362741753955989 0 -0.056058455478096535 -0.0033337091553338623 0 -0.055861658308351013 -0.0031049984135149236 0 -0.056108231934282236 -0.0030430901426830282 0 -0.055680799285264579 -0.0028870204597161346 0 -0.055861658308351013 -0.0031049984135149236 0 -0.056108231934282236 -0.0030430901426830282 0 -0.056058455478096535 -0.0033337091553338623 0 -0.055861658308351013 -0.0031049984135149236 0 -0.055719665016547522 -0.0030333399856667881 0 -0.055861658308351013 -0.0031049984135149236 0 -0.055571511108279799 -0.0030362741753955989 0 -0.055719665016547522 -0.0030333399856667881 0 -0.054298916416294925 -0.0039142275693025055 0 -0.054609226652052173 -0.003773865174293102 0 -0.055719665016547522 -0.0030333399856667881 0 -0.05588959303204135 -0.002662304660798562 0 -0.055076344968644352 -0.0030851616803521985 0 -0.054439993273895947 -0.0037194956389605149 0 -0.053862478041566096 -0.0031337361827941832 0 -0.055076344968644352 -0.0030851616803521985 0 -0.055571511108279799 -0.0030362741753955989 0 -0.055719665016547522 -0.0030333399856667881 0 -0.055076344968644352 -0.0030851616803521985 0 -0.056058455478096535 -0.0033337091553338623 0 -0.055719665016547522 -0.0030333399856667881 0 -0.05588959303204135 -0.002662304660798562 0 -0.054439993273895947 -0.0037194956389605149 0 -0.055007570261775419 -0.0036440084726507825 0 -0.055076344968644352 -0.0030851616803521985 0 -0.055007570261775419 -0.0036440084726507825 0 -0.055454175975734078 -0.0029942268358405422 0 -0.055076344968644352 -0.0030851616803521985 0 -0.055454175975734078 -0.0029942268358405422 0 -0.055394528987636672 -0.0029877540074650035 0 -0.055076344968644352 -0.0030851616803521985 0 -0.041809469346709059 0.0050454599348856207 0 -0.044049587999247651 0.00830918283883284 0 -0.045119705757679346 0.0054906630382000506 0 -0.041192988992907985 0.0042528394059477741 0 -0.042837226945440565 0.0071093515473939469 0 -0.03963202659599252 0.0028859506449042875 0 -0.041915514075093765 0.0058942536828338705 0 -0.038442415758696502 0.0050521466539884844 0 -0.044049587999247651 0.00830918283883284 0 -0.045119705757679346 0.0054906630382000506 0 -0.04735329448261643 0.0071470473100560235 0 -0.041809469346709059 0.0050454599348856207 0 -0.045119705757679346 0.0054906630382000506 0 -0.044690662432288704 0.0028944468503189994 0 -0.045119705757679346 0.0054906630382000506 0 -0.04735329448261643 0.0071470473100560235 0 -0.047739336426531068 0.0037123481016825377 0 -0.04735329448261643 0.0071470473100560235 0 -0.0493682223863822 0.0055261064204535863 0 -0.047739336426531068 0.0037123481016825377 0 -0.0500526880523487 0.008940951824961265 0 -0.04735329448261643 0.0071470473100560235 0 -0.0493682223863822 0.0055261064204535863 0 -0.0500526880523487 0.008940951824961265 0 -0.051958590519539494 0.0057800935903770468 0 -0.0493682223863822 0.0055261064204535863 0 -0.051958590519539494 0.0057800935903770468 0 -0.0493682223863822 0.0055261064204535863 0 -0.050824168971332656 0.0026818071702824865 0 -0.0493682223863822 0.0055261064204535863 0 -0.050824168971332656 0.0026818071702824865 0 -0.047739336426531068 0.0037123481016825377 0 -0.050824168971332656 0.0026818071702824865 0 -0.050394468160454904 0.00022043391354644031 0 -0.048184962815754621 0.0013690448531775824 0 -0.053708313133004663 -1.2986511959170345e-05 0 -0.050824168971332656 0.0026818071702824865 0 -0.050394468160454904 0.00022043391354644031 0 -0.050025585019806751 0.0014108557732777933 0 -0.050706591627199607 0.0008917148977977495 0 -0.050394468160454904 0.00022043391354644031 0 -0.048184962815754621 0.0013690448531775824 0 -0.048350450569398636 -0.0012062456123023459 0 -0.047743825549944531 0.0011371517141375795 0 -0.044187978807052955 -0.00057146409118173246 0 -0.047801655635793583 -0.0014981588208702664 0 -0.047743825549944531 0.0011371517141375795 0 -0.047739336426531068 0.0037123481016825377 0 -0.044690662432288704 0.0028944468503189994 0 -0.050025585019806751 0.0014108557732777933 0 -0.049798469592630089 0.0019662959381791523 0 -0.050824168971332656 0.0026818071702824865 0 -0.048184962815754621 0.0013690448531775824 0 -0.047739336426531068 0.0037123481016825377 0 -0.045119705757679346 0.0054906630382000506 0 -0.047739336426531068 0.0037123481016825377 0 -0.044690662432288704 0.0028944468503189994 0 -0.044690662432288704 0.0028944468503189994 0 -0.044187978807052955 -0.00057146409118173246 0 -0.04189571275537491 0.0021569293550018302 0 -0.047743825549944531 0.0011371517141375795 0 -0.044690662432288704 0.0028944468503189994 0 -0.044187978807052955 -0.00057146409118173246 0 -0.046682082503370373 0.0015322195037433812 0 -0.044038857745278055 0.0020266706948101178 0 -0.04791392173432401 0.0030479024842445268 0 -0.044851702176306234 0.0036244174736321413 0 -0.044873813770650181 0.0021112001672876413 0 -0.044187978807052955 -0.00057146409118173246 0 -0.04189571275537491 0.0021569293550018302 0 -0.040190553313862981 0.00070630541375298257 0 -0.041809469346709059 0.0050454599348856207 0 -0.044690662432288704 0.0028944468503189994 0 -0.04189571275537491 0.0021569293550018302 0 -0.047167130590043321 0.00033773017923694631 0 -0.046169404401592694 0.0012481109039203099 0 -0.045361781315753524 -1.2945600177753403e-05 0 -0.047167130590043321 0.00033773017923694631 0 -0.046169404401592694 0.0012481109039203099 0 -0.048527716345897594 0.0011843802700428853 0 -0.04791392173432401 0.0030479024842445268 0 -0.046169404401592694 0.0012481109039203099 0 -0.044873813770650181 0.0021112001672876413 0 -0.04791392173432401 0.0030479024842445268 0 -0.046169404401592694 0.0012481109039203099 0 -0.048527716345897594 0.0011843802700428853 0 -0.04791392173432401 0.0030479024842445268 0 -0.048527716345897594 0.0011843802700428853 0 -0.049885553351309238 0.002469949697367886 0 -0.046682082503370373 0.0015322195037433812 0 -0.050706591627199607 0.0008917148977977495 0 -0.048527716345897594 0.0011843802700428853 0 -0.049876527489497308 0.00059670616034917666 0 -0.049885553351309238 0.002469949697367886 0 -0.052572305591038974 0.00015221845981295962 0 -0.050706591627199607 0.0008917148977977495 0 -0.058546316847641666 -0.00040190573428003368 0 -0.05865937464994557 -0.0022902109761072779 0 -0.057428628234702003 -0.0020098810346811254 0 -0.053708313133004663 -1.2986511959170345e-05 0 -0.050394468160454904 0.00022043391354644031 0 -0.051578658525627145 -0.0018266639333275926 0 -0.050706591627199607 0.0008917148977977495 0 -0.053197647072352992 -0.00022746189178236118 0 -0.050394468160454904 0.00022043391354644031 0 -0.048350450569398636 -0.0012062456123023459 0 -0.051578658525627145 -0.0018266639333275926 0 -0.058546316847641666 -0.00040190573428003368 0 -0.057428628234702003 -0.0020098810346811254 0 -0.057152033628439729 -0.00088146606172781472 0 -0.058546316847641666 -0.00040190573428003368 0 -0.057152033628439729 -0.00088146606172781472 0 -0.057483646272864328 0.00019902537214246018 0 -0.058546316847641666 -0.00040190573428003368 0 -0.058069265090909677 0.0011066275535145493 0 -0.057483646272864328 0.00019902537214246018 0 -0.058069265090909677 0.0011066275535145493 0 -0.057483646272864328 0.00019902537214246018 0 -0.057823907864653662 0.0013888381184661589 0 -0.052572305591038974 0.00015221845981295962 0 -0.053498731690645736 -0.00014110574333904837 0 -0.049876527489497308 0.00059670616034917666 0 -0.05031178145203561 -0.00027367754609127501 0 -0.048791718625030622 -0.00027970826446326876 0 -0.047167130590043321 0.00033773017923694631 0 -0.048527716345897594 0.0011843802700428853 0 -0.048791718625030622 -0.00027970826446326876 0 -0.048527716345897594 0.0011843802700428853 0 -0.049876527489497308 0.00059670616034917666 0 -0.048791718625030622 -0.00027970826446326876 0 -0.05031178145203561 -0.00027367754609127501 0 -0.048791718625030622 -0.00027970826446326876 0 -0.050277598425817034 -0.00052300338638460071 0 -0.048791718625030622 -0.00027970826446326876 0 -0.048311003549910712 -0.00078859847576071788 0 -0.04663999081489216 -0.0007676458255218854 0 -0.047167130590043321 0.00033773017923694631 0 -0.048791718625030622 -0.00027970826446326876 0 -0.04663999081489216 -0.0007676458255218854 0 -0.055743494515694318 -0.0019393086930828457 0 -0.055114700229635112 -0.0019894112649586002 0 -0.056028334307291643 -0.00063380710970252713 0 -0.055743494515694318 -0.0019393086930828457 0 -0.055114700229635112 -0.0019894112649586002 0 -0.055708175793614777 -0.0024968939157195545 0 -0.056156261179412491 -0.0019886976826859362 0 -0.057078401301575994 -0.00083471854560634388 0 -0.058417398520648714 -0.0010972966336767487 0 -0.057078401301575994 -0.00083471854560634388 0 -0.058417398520648714 -0.0010972966336767487 0 -0.058198321287634767 0.0001424184135849862 0 -0.055680799285264579 -0.0028870204597161346 0 -0.056108231934282236 -0.0030430901426830282 0 -0.055114700229635112 -0.0019894112649586002 0 -0.056156261179412491 -0.0019886976826859362 0 -0.056108231934282236 -0.0030430901426830282 0 -0.058417398520648714 -0.0010972966336767487 0 -0.056670330194820165 -0.0016417110124238433 0 -0.056970491505753701 -0.0010304809967775989 0 -0.055680799285264579 -0.0028870204597161346 0 -0.055114700229635112 -0.0019894112649586002 0 -0.055532056155463305 -0.0025948100002820308 0 -0.055550166508614961 -0.0028329586126867859 0 -0.055680799285264579 -0.0028870204597161346 0 -0.055532056155463305 -0.0025948100002820308 0 -0.055550166508614961 -0.0028329586126867859 0 -0.055532056155463305 -0.0025948100002820308 0 -0.055708175793614777 -0.0024968939157195545 0 -0.055114700229635112 -0.0019894112649586002 0 -0.055532056155463305 -0.0025948100002820308 0 -0.055708175793614777 -0.0024968939157195545 0 -0.05576832488162544 -0.0027866553830519108 0 -0.055550166508614961 -0.0028329586126867859 0 -0.055708175793614777 -0.0024968939157195545 0 -0.05576832488162544 -0.0027866553830519108 0 -0.055708175793614777 -0.0024968939157195545 0 -0.056121212374346204 -0.0025287438525239936 0 -0.055743494515694318 -0.0019393086930828457 0 -0.055708175793614777 -0.0024968939157195545 0 -0.056121212374346204 -0.0025287438525239936 0 -0.057428628234702003 -0.0020098810346811254 0 -0.055627744447512319 -0.001699330476959481 0 -0.057152033628439729 -0.00088146606172781472 0 -0.053708313133004663 -1.2986511959170345e-05 0 -0.051578658525627145 -0.0018266639333275926 0 -0.055627744447512319 -0.001699330476959481 0 -0.053197647072352992 -0.00022746189178236118 0 -0.053922394100430975 -0.00053697800355750468 0 -0.053708313133004663 -1.2986511959170345e-05 0 -0.055947325593627202 -0.0015547409350269753 0 -0.055627744447512319 -0.001699330476959481 0 -0.057152033628439729 -0.00088146606172781472 0 -0.056366078363433589 -0.00085040021190879776 0 -0.057483646272864328 0.00019902537214246018 0 -0.055627744447512319 -0.001699330476959481 0 -0.057152033628439729 -0.00088146606172781472 0 -0.056366078363433589 -0.00085040021190879776 0 -0.055743494515694318 -0.0019393086930828457 0 -0.056121212374346204 -0.0025287438525239936 0 -0.056028334307291643 -0.00063380710970252713 0 -0.055947325593627202 -0.0015547409350269753 0 -0.056366078363433589 -0.00085040021190879776 0 -0.056028334307291643 -0.00063380710970252713 0 -0.055947325593627202 -0.0015547409350269753 0 -0.055627744447512319 -0.001699330476959481 0 -0.056366078363433589 -0.00085040021190879776 0 -0.055360938452817289 -0.0014585545566937798 0 -0.055502913845196768 -0.0012995399712329213 0 -0.056366078363433589 -0.00085040021190879776 0 -0.056966366046663809 0.00026442915240996334 0 -0.056028334307291643 -0.00063380710970252713 0 -0.056966366046663809 0.00026442915240996334 0 -0.055906122343551731 0.00016766500345398566 0 -0.056028334307291643 -0.00063380710970252713 0 -0.056366078363433589 -0.00085040021190879776 0 -0.056966366046663809 0.00026442915240996334 0 -0.057483646272864328 0.00019902537214246018 0 -0.056966366046663809 0.00026442915240996334 0 -0.058270649955318991 0.0015374483972996295 0 -0.057823907864653662 0.0013888381184661589 0 -0.056966366046663809 0.00026442915240996334 0 -0.057483646272864328 0.00019902537214246018 0 -0.057823907864653662 0.0013888381184661589 0 -0.056966366046663809 0.00026442915240996334 0 -0.055906122343551731 0.00016766500345398566 0 -0.058270649955318991 0.0015374483972996295 0 -0.059415497381030295 0.0011175916143271554 0 -0.059066579791315431 0.0015535715230642789 0 -0.058270649955318991 0.0015374483972996295 0 -0.057463637858148633 -1.7164170922779209e-05 0 -0.057694011441842295 0.00042990832158696469 0 -0.059106588363291725 0.0013211316149817182 0 -0.059415497381030295 0.0011175916143271554 0 -0.059066579791315431 0.0015535715230642789 0 -0.058976417744818876 0.0014325193195776325 0 -0.059106588363291725 0.0013211316149817182 0 -0.059066579791315431 0.0015535715230642789 0 -0.058976417744818876 0.0014325193195776325 0 -0.059125794665350527 0.0016713731839341336 0 -0.059066579791315431 0.0015535715230642789 0 -0.059106588363291725 0.0013211316149817182 0 -0.059415497381030295 0.0011175916143271554 0 -0.058794775795877802 0.00096887566904006305 0 -0.058976417744818876 0.0014325193195776325 0 -0.059106588363291725 0.0013211316149817182 0 -0.058794775795877802 0.00096887566904006305 0 -0.056970491505753701 -0.0010304809967775989 0 -0.057463637858148633 -1.7164170922779209e-05 0 -0.059415497381030295 0.0011175916143271554 0 -0.058794775795877802 0.00096887566904006305 0 -0.058198321287634767 0.0001424184135849862 0 -0.058417398520648714 -0.0010972966336767487 0 -0.059415497381030295 0.0011175916143271554 0 -0.058198321287634767 0.0001424184135849862 0 -0.055114700229635112 -0.0019894112649586002 0 -0.055906122343551731 0.00016766500345398566 0 -0.056028334307291643 -0.00063380710970252713 0 -0.056947380528053523 -6.5214329627783012e-05 0 -0.058198321287634767 0.0001424184135849862 0 -0.058053971931535012 0.00067972154745330187 0 -0.056947380528053523 -6.5214329627783012e-05 0 -0.057078401301575994 -0.00083471854560634388 0 -0.058198321287634767 0.0001424184135849862 0 -0.058794775795877802 0.00096887566904006305 0 -0.058198321287634767 0.0001424184135849862 0 -0.058053971931535012 0.00067972154745330187 0 -0.058794775795877802 0.00096887566904006305 0 -0.058053971931535012 0.00067972154745330187 0 -0.058546097613428216 0.0011567656574535694 0 -0.057280654439163435 0.00066281159479084745 0 -0.058053971931535012 0.00067972154745330187 0 -0.058035821822303442 0.0011860076857219759 0 -0.058053971931535012 0.00067972154745330187 0 -0.058035821822303442 0.0011860076857219759 0 -0.058546097613428216 0.0011567656574535694 0 -0.058035821822303442 0.0011860076857219759 0 -0.058546097613428216 0.0011567656574535694 0 -0.058643155128996108 0.0014676956261519352 0 -0.058976417744818876 0.0014325193195776325 0 -0.058794775795877802 0.00096887566904006305 0 -0.058546097613428216 0.0011567656574535694 0 -0.058976417744818876 0.0014325193195776325 0 -0.058643155128996108 0.0014676956261519352 0 -0.059125794665350527 0.0016713731839341336 0 -0.058976417744818876 0.0014325193195776325 0 -0.058546097613428216 0.0011567656574535694 0 -0.058643155128996108 0.0014676956261519352 0 -0.058202461407363307 0.0015544877899649101 0 -0.058035821822303442 0.0011860076857219759 0 -0.058643155128996108 0.0014676956261519352 0 -0.058202461407363307 0.0015544877899649101 0 -0.058643155128996108 0.0014676956261519352 0 -0.058727321669453575 0.0017732255725301201 0 -0.058727321669453575 0.0017732255725301201 0 -0.058837749248062059 0.0020356955752522466 0 -0.058161669599948923 0.0018943539207813358 0 -0.058727321669453575 0.0017732255725301201 0 -0.059167995127689901 0.0018980021040109268 0 -0.058837749248062059 0.0020356955752522466 0 -0.058727321669453575 0.0017732255725301201 0 -0.059125794665350527 0.0016713731839341336 0 -0.059167995127689901 0.0018980021040109268 0 -0.058643155128996108 0.0014676956261519352 0 -0.058727321669453575 0.0017732255725301201 0 -0.059125794665350527 0.0016713731839341336 0 -0.059167995127689901 0.0018980021040109268 0 -0.059486562503652862 0.0021365383106824527 0 -0.059541817344009672 0.0017425195610915854 0 -0.059125794665350527 0.0016713731839341336 0 -0.059167995127689901 0.0018980021040109268 0 -0.059541817344009672 0.0017425195610915854 0 -0.059167995127689901 0.0018980021040109268 0 -0.058837749248062059 0.0020356955752522466 0 -0.059486562503652862 0.0021365383106824527 0 -0.059486562503652862 0.0021365383106824527 0 -0.060549351626566023 0.0014969006797153866 0 -0.060059399198980047 0.002211936030475827 0 -0.059486562503652862 0.0021365383106824527 0 -0.059541817344009672 0.0017425195610915854 0 -0.060549351626566023 0.0014969006797153866 0 -0.059541817344009672 0.0017425195610915854 0 -0.059384382510373632 0.0013493047823371406 0 -0.060549351626566023 0.0014969006797153866 0 -0.059384382510373632 0.0013493047823371406 0 -0.05991582766430506 0.00069759471324434884 0 -0.060549351626566023 0.0014969006797153866 0 -0.059541817344009672 0.0017425195610915854 0 -0.059066579791315431 0.0015535715230642789 0 -0.059384382510373632 0.0013493047823371406 0 -0.059125794665350527 0.0016713731839341336 0 -0.059541817344009672 0.0017425195610915854 0 -0.059066579791315431 0.0015535715230642789 0 -0.059066579791315431 0.0015535715230642789 0 -0.058270649955318991 0.0015374483972996295 0 -0.059384382510373632 0.0013493047823371406 0 -0.058270649955318991 0.0015374483972996295 0 -0.057823907864653662 0.0013888381184661589 0 -0.058432128862638197 0.00094253797482701405 0 -0.058270649955318991 0.0015374483972996295 0 -0.058432128862638197 0.00094253797482701405 0 -0.059384382510373632 0.0013493047823371406 0 -0.058432128862638197 0.00094253797482701405 0 -0.059384382510373632 0.0013493047823371406 0 -0.05991582766430506 0.00069759471324434884 0 -0.05991582766430506 0.00069759471324434884 0 -0.059797737396715879 -0.00042746385296203097 0 -0.061223371814658027 1.4597211837704985e-05 0 -0.058432128862638197 0.00094253797482701405 0 -0.05991582766430506 0.00069759471324434884 0 -0.059797737396715879 -0.00042746385296203097 0 -0.058432128862638197 0.00094253797482701405 0 -0.059797737396715879 -0.00042746385296203097 0 -0.05863943065376425 -0.0017957139174449663 0 -0.059797737396715879 -0.00042746385296203097 0 -0.05863943065376425 -0.0017957139174449663 0 -0.061353337361454971 -0.0021916643432183303 0 -0.059797737396715879 -0.00042746385296203097 0 -0.061223371814658027 1.4597211837704985e-05 0 -0.061353337361454971 -0.0021916643432183303 0 -0.061223371814658027 1.4597211837704985e-05 0 -0.062869550994536269 -0.0019701764799738299 0 -0.061353337361454971 -0.0021916643432183303 0 -0.061223371814658027 1.4597211837704985e-05 0 -0.062890869130638377 -0.00060188657149997922 0 -0.062869550994536269 -0.0019701764799738299 0 -0.061223371814658027 1.4597211837704985e-05 0 -0.062890869130638377 -0.00060188657149997922 0 -0.061353554253053465 0.0020151728600258699 0 -0.060549351626566023 0.0014969006797153866 0 -0.061353554253053465 0.0020151728600258699 0 -0.060059399198980047 0.002211936030475827 0 -0.061223371814658027 1.4597211837704985e-05 0 -0.060549351626566023 0.0014969006797153866 0 -0.061353554253053465 0.0020151728600258699 0 -0.05991582766430506 0.00069759471324434884 0 -0.061223371814658027 1.4597211837704985e-05 0 -0.060549351626566023 0.0014969006797153866 0 -0.049001636963479006 -0.00085027496397807145 0 -0.050277598425817034 -0.00052300338638460071 0 -0.051243882067240551 -0.00056471236879758664 0 -0.049001636963479006 -0.00085027496397807145 0 -0.048311003549910712 -0.00078859847576071788 0 -0.050277598425817034 -0.00052300338638460071 0 -0.048791718625030622 -0.00027970826446326876 0 -0.048311003549910712 -0.00078859847576071788 0 -0.050277598425817034 -0.00052300338638460071 0 -0.050277598425817034 -0.00052300338638460071 0 -0.051845832451336213 -0.00028964666021145876 0 -0.051243882067240551 -0.00056471236879758664 0 -0.054013717643665415 -0.00065031489829653528 0 -0.054242791338048914 -0.0011527498071849159 0 -0.05031178145203561 -0.00027367754609127501 0 -0.050277598425817034 -0.00052300338638460071 0 -0.051845832451336213 -0.00028964666021145876 0 -0.053498731690645736 -0.00014110574333904837 0 -0.054013717643665415 -0.00065031489829653528 0 -0.058069265090909677 0.0011066275535145493 0 -0.057823907864653662 0.0013888381184661589 0 -0.056901523078234428 0.0013084353124123158 0 -0.058432128862638197 0.00094253797482701405 0 -0.056901523078234428 0.0013084353124123158 0 -0.0552988308333794 -0.00056147891999152406 0 -0.057823907864653662 0.0013888381184661589 0 -0.058432128862638197 0.00094253797482701405 0 -0.056901523078234428 0.0013084353124123158 0 -0.058432128862638197 0.00094253797482701405 0 -0.05863943065376425 -0.0017957139174449663 0 -0.0552988308333794 -0.00056147891999152406 0 -0.05863943065376425 -0.0017957139174449663 0 -0.0552988308333794 -0.00056147891999152406 0 -0.056242128657414285 -0.0022228410976570033 0 -0.0552988308333794 -0.00056147891999152406 0 -0.052166198076825425 -0.0014808286125584341 0 -0.056242128657414285 -0.0022228410976570033 0 -0.051845832451336213 -0.00028964666021145876 0 -0.0552988308333794 -0.00056147891999152406 0 -0.051243882067240551 -0.00056471236879758664 0 -0.0552988308333794 -0.00056147891999152406 0 -0.051243882067240551 -0.00056471236879758664 0 -0.052166198076825425 -0.0014808286125584341 0 -0.052166198076825425 -0.0014808286125584341 0 -0.054106297634777714 -0.0027864059971303766 0 -0.056242128657414285 -0.0022228410976570033 0 -0.052166198076825425 -0.0014808286125584341 0 -0.050508657380368291 -0.0019264720247531269 0 -0.052325963878970656 -0.0027715365119134324 0 -0.052166198076825425 -0.0014808286125584341 0 -0.050508657380368291 -0.0019264720247531269 0 -0.049928638196561181 -0.0010394338895906596 0 -0.051243882067240551 -0.00056471236879758664 0 -0.052166198076825425 -0.0014808286125584341 0 -0.049928638196561181 -0.0010394338895906596 0 -0.049001636963479006 -0.00085027496397807145 0 -0.051243882067240551 -0.00056471236879758664 0 -0.049928638196561181 -0.0010394338895906596 0 -0.051011363486172023 -0.0054638322501915975 0 -0.051275793446612379 -0.0038320454870891122 0 -0.052567774315753921 -0.007332032817375711 0 -0.057370202547956224 -0.0035877508908473432 0 -0.059861004702631983 -0.0042861310037437842 0 -0.051011363486172023 -0.0054638322501915975 0 -0.051275793446612379 -0.0038320454870891122 0 -0.049476184846589423 -0.0036050448955118565 0 -0.050508657380368291 -0.0019264720247531269 0 -0.051275793446612379 -0.0038320454870891122 0 -0.049476184846589423 -0.0036050448955118565 0 -0.050508657380368291 -0.0019264720247531269 0 -0.052325963878970656 -0.0027715365119134324 0 -0.051275793446612379 -0.0038320454870891122 0 -0.052166198076825425 -0.0014808286125584341 0 -0.052325963878970656 -0.0027715365119134324 0 -0.054106297634777714 -0.0027864059971303766 0 -0.052325963878970656 -0.0027715365119134324 0 -0.051275793446612379 -0.0038320454870891122 0 -0.054362310136200485 -0.0044752258522180333 0 -0.052325963878970656 -0.0027715365119134324 0 -0.054106297634777714 -0.0027864059971303766 0 -0.054362310136200485 -0.0044752258522180333 0 -0.051275793446612379 -0.0038320454870891122 0 -0.054362310136200485 -0.0044752258522180333 0 -0.053325274218595523 -0.0074555113207236635 0 -0.054106297634777714 -0.0027864059971303766 0 -0.054362310136200485 -0.0044752258522180333 0 -0.057412726710223676 -0.0041470824050227912 0 -0.054362310136200485 -0.0044752258522180333 0 -0.057412726710223676 -0.0041470824050227912 0 -0.058149719683386683 -0.0066512241426555929 0 -0.054106297634777714 -0.0027864059971303766 0 -0.057412726710223676 -0.0041470824050227912 0 -0.056242128657414285 -0.0022228410976570033 0 -0.05863943065376425 -0.0017957139174449663 0 -0.056242128657414285 -0.0022228410976570033 0 -0.059990814691424796 -0.0036769447293536007 0 -0.057412726710223676 -0.0041470824050227912 0 -0.056242128657414285 -0.0022228410976570033 0 -0.059990814691424796 -0.0036769447293536007 0 -0.057412726710223676 -0.0041470824050227912 0 -0.059990814691424796 -0.0036769447293536007 0 -0.062007086365875319 -0.0057194249789691703 0 -0.057412726710223676 -0.0041470824050227912 0 -0.058149719683386683 -0.0066512241426555929 0 -0.062007086365875319 -0.0057194249789691703 0 -0.064733011449354963 -0.0089891749867981856 0 -0.058149719683386683 -0.0066512241426555929 0 -0.062007086365875319 -0.0057194249789691703 0 -0.06430283461255859 -0.0072617036131891865 0 -0.064456845045734207 -0.0065590091939345188 0 -0.064733011449354963 -0.0089891749867981856 0 -0.058149719683386683 -0.0066512241426555929 0 -0.057302068307129785 -0.0118784400479412 0 -0.054362310136200485 -0.0044752258522180333 0 -0.058149719683386683 -0.0066512241426555929 0 -0.053325274218595523 -0.0074555113207236635 0 -0.059861004702631983 -0.0042861310037437842 0 -0.064456845045734207 -0.0065590091939345188 0 -0.061824833858323554 -0.0041813303342879519 0 -0.063051558597996771 -0.0076617304177813705 0 -0.064339600134988267 -0.0072897577100270953 0 -0.059861004702631983 -0.0042861310037437842 0 -0.066020315872148072 -0.0057473494960935314 0 -0.061171978047209544 -0.0016090522447076117 0 -0.06117768794331914 -0.0016101524478426004 0 -0.061190294491566613 -0.0016202625101973988 0 -0.058149719683386683 -0.0066512241426555929 0 -0.053325274218595523 -0.0074555113207236635 0 -0.057302068307129785 -0.0118784400479412 0 -0.06117768794331914 -0.0016101524478426004 0 -0.06116825261619592 -0.0016044496053467573 0 -0.061183604633274331 -0.0016056605882596566 0 -0.061171978047209544 -0.0016090522447076117 0 -0.06117768794331914 -0.0016101524478426004 0 -0.06116825261619592 -0.0016044496053467573 0 -0.061159478657367067 -0.0016075535577242987 0 -0.061171978047209544 -0.0016090522447076117 0 -0.06116825261619592 -0.0016044496053467573 0 -0.057321434814567362 -0.0029895193557074717 0 -0.059861004702631983 -0.0042861310037437842 0 -0.063936958348192949 -0.0042282661123329924 0 -0.065990440791707086 -0.0054490680925041342 0 -0.065028198401020684 -0.0031232781083811991 0 -0.062890869130638377 -0.00060188657149997922 0 -0.062869550994536269 -0.0019701764799738299 0 -0.065028198401020684 -0.0031232781083811991 0 -0.063936958348192949 -0.0042282661123329924 0 -0.062869550994536269 -0.0019701764799738299 0 -0.065028198401020684 -0.0031232781083811991 0 -0.063936958348192949 -0.0042282661123329924 0 -0.062869550994536269 -0.0019701764799738299 0 -0.061353337361454971 -0.0021916643432183303 0 -0.05863943065376425 -0.0017957139174449663 0 -0.059990814691424796 -0.0036769447293536007 0 -0.061353337361454971 -0.0021916643432183303 0 -0.059990814691424796 -0.0036769447293536007 0 -0.061353337361454971 -0.0021916643432183303 0 -0.06232411108715754 -0.004296892769368882 0 -0.059990814691424796 -0.0036769447293536007 0 -0.06232411108715754 -0.004296892769368882 0 -0.062007086365875319 -0.0057194249789691703 0 -0.063936958348192949 -0.0042282661123329924 0 -0.06232411108715754 -0.004296892769368882 0 -0.064285584146032193 -0.0058558276912820803 0 -0.063936958348192949 -0.0042282661123329924 0 -0.061353337361454971 -0.0021916643432183303 0 -0.06232411108715754 -0.004296892769368882 0 -0.06232411108715754 -0.004296892769368882 0 -0.064285584146032193 -0.0058558276912820803 0 -0.062007086365875319 -0.0057194249789691703 0 -0.064285584146032193 -0.0058558276912820803 0 -0.062007086365875319 -0.0057194249789691703 0 -0.064733882901624087 -0.0072439165584117374 0 -0.064733011449354963 -0.0089891749867981856 0 -0.062007086365875319 -0.0057194249789691703 0 -0.064733882901624087 -0.0072439165584117374 0 -0.064733011449354963 -0.0089891749867981856 0 -0.064733882901624087 -0.0072439165584117374 0 -0.066370295697691706 -0.0078686738238666881 0 -0.064285584146032193 -0.0058558276912820803 0 -0.066278968883850056 -0.0072811703567613384 0 -0.066015779796359128 -0.0064290743944734998 0 -0.064733882901624087 -0.0072439165584117374 0 -0.066278968883850056 -0.0072811703567613384 0 -0.066370295697691706 -0.0078686738238666881 0 -0.064285584146032193 -0.0058558276912820803 0 -0.064733882901624087 -0.0072439165584117374 0 -0.066278968883850056 -0.0072811703567613384 0 -0.066278968883850056 -0.0072811703567613384 0 -0.066931214703029401 -0.0070731197533248323 0 -0.066015779796359128 -0.0064290743944734998 0 -0.066931214703029401 -0.0070731197533248323 0 -0.066015779796359128 -0.0064290743944734998 0 -0.067104023857986209 -0.0069228193555763793 0 -0.063936958348192949 -0.0042282661123329924 0 -0.064285584146032193 -0.0058558276912820803 0 -0.066015779796359128 -0.0064290743944734998 0 -0.063936958348192949 -0.0042282661123329924 0 -0.066015779796359128 -0.0064290743944734998 0 -0.065990440791707086 -0.0054490680925041342 0 -0.064317174509666036 -9.8033471906530822e-05 0 -0.066164437173134194 -0.0014406183383384131 0 -0.066015779796359128 -0.0064290743944734998 0 -0.065990440791707086 -0.0054490680925041342 0 -0.067022028503151421 -0.0069558907847726212 0 -0.066015779796359128 -0.0064290743944734998 0 -0.067104023857986209 -0.0069228193555763793 0 -0.067022028503151421 -0.0069558907847726212 0 -0.062927853545634821 0.0052811221677608634 0 -0.063131277783565892 0.0050611189222530776 0 -0.062790986412571179 0.0047999093046324987 0 -0.063131277783565892 0.0050611189222530776 0 -0.063110260794063872 0.0047950162739016497 0 -0.062790986412571179 0.0047999093046324987 0 -0.063131277783565892 0.0050611189222530776 0 -0.063428335506325012 0.0047852954662704634 0 -0.063110260794063872 0.0047950162739016497 0 -0.063131277783565892 0.0050611189222530776 0 -0.063403383301370422 0.0051778575489933986 0 -0.063428335506325012 0.0047852954662704634 0 -0.063403383301370422 0.0051778575489933986 0 -0.06322303257718942 0.0054282262436956934 0 -0.063516406119763669 0.005432500454005079 0 -0.063131277783565892 0.0050611189222530776 0 -0.063403383301370422 0.0051778575489933986 0 -0.06322303257718942 0.0054282262436956934 0 -0.062927853545634821 0.0052811221677608634 0 -0.063131277783565892 0.0050611189222530776 0 -0.06322303257718942 0.0054282262436956934 0 -0.06322303257718942 0.0054282262436956934 0 -0.06326105132733098 0.0057827933235756659 0 -0.063103698741850567 0.0057282333678753137 0 -0.062927853545634821 0.0052811221677608634 0 -0.06322303257718942 0.0054282262436956934 0 -0.063103698741850567 0.0057282333678753137 0 -0.064317174509666036 -9.8033471906530822e-05 0 -0.062642235439580599 0.0020740720240670775 0 -0.06326105132733098 0.0057827933235756659 0 -0.063132817681793268 0.0059416369281927719 0 -0.063185360031630264 0.0061995884952413495 0 -0.065508460742791222 0.0062216311334024974 0 -0.066188087228123027 0.0058688844865290336 0 -0.06322303257718942 0.0054282262436956934 0 -0.06326105132733098 0.0057827933235756659 0 -0.063516406119763669 0.005432500454005079 0 -0.06326105132733098 0.0057827933235756659 0 -0.063129228535314857 0.0057471831658486095 0 -0.063237582561825184 0.0058120554827217697 0 -0.062642235439580599 0.0020740720240670775 0 -0.060590757980564458 0.0064501772165124135 0 -0.06326105132733098 0.0057827933235756659 0 -0.063103698741850567 0.0057282333678753137 0 -0.063237582561825184 0.0058120554827217697 0 -0.056506240678591203 0.011357785091558135 0 -0.053918309397598736 0.012829482731059719 0 -0.044319548299192602 0.021803891899893554 0 -0.051866937029249542 0.022217286363149662 0 -0.044501303536305319 0.027571159921790437 0 -0.063129228535314857 0.0057471831658486095 0 -0.062945006406191772 0.0060784920256534061 0 -0.063132817681793268 0.0059416369281927719 0 -0.06326105132733098 0.0057827933235756659 0 -0.063129228535314857 0.0057471831658486095 0 -0.063132817681793268 0.0059416369281927719 0 -0.063129228535314857 0.0057471831658486095 0 -0.062945006406191772 0.0060784920256534061 0 -0.062621306735202067 0.0060311154576582499 0 -0.062945006406191772 0.0060784920256534061 0 -0.063132817681793268 0.0059416369281927719 0 -0.063185360031630264 0.0061995884952413495 0 -0.062945006406191772 0.0060784920256534061 0 -0.063185360031630264 0.0061995884952413495 0 -0.062850299498408216 0.0064117909891899067 0 -0.062945006406191772 0.0060784920256534061 0 -0.062621306735202067 0.0060311154576582499 0 -0.062850299498408216 0.0064117909891899067 0 -0.053918309397598736 0.012829482731059719 0 -0.055222399270444374 0.011569364014732221 0 -0.062499906918836542 0.0059028136589015269 0 -0.062644389827325356 0.0064095759208074744 0 -0.06225564990165143 0.0060823620447698823 0 -0.065689664137342035 0.0068820904189819286 0 -0.058461515988426103 0.0090555459771132097 0 -0.062499906918836542 0.0059028136589015269 0 -0.062644389827325356 0.0064095759208074744 0 -0.062850299498408216 0.0064117909891899067 0 -0.084269630846290883 0.00016596557652398666 0 -0.084539741014145839 0.00019439418555895901 0 -0.084551375146831795 0.00039782328128960245 0 -0.062644389827325356 0.0064095759208074744 0 -0.062850299498408216 0.0064117909891899067 0 -0.062994075417518364 0.0066875679788256587 0 -0.084269630846290883 0.00016596557652398666 0 -0.083586140987979313 -0.00040018560677614203 0 -0.084269169211266259 -0.00043633733847504722 0 -0.065689664137342035 0.0068820904189819286 0 -0.068946054033090953 0.0036932342666313074 0 -0.084269630846290883 0.00016596557652398666 0 -0.084513234038924287 -0.00018407970735062753 0 -0.084539741014145839 0.00019439418555895901 0 -0.084269630846290883 0.00016596557652398666 0 -0.084513234038924287 -0.00018407970735062753 0 -0.084269169211266259 -0.00043633733847504722 0 -0.063403383301370422 0.0051778575489933986 0 -0.063516406119763669 0.005432500454005079 0 -0.063717219964957064 0.0050532090299851892 0 -0.063185360031630264 0.0061995884952413495 0 -0.062850299498408216 0.0064117909891899067 0 -0.062994075417518364 0.0066875679788256587 0 -0.066188087228123027 0.0058688844865290336 0 -0.068946054033090953 0.0036932342666313074 0 -0.068946054033090953 0.0036932342666313074 0 -0.069617652588790546 -0.00063394610379880173 0 -0.069845706293484078 -0.00050273560404862712 0 -0.068939992041732193 0.0014313188220129688 0 -0.071868628102591356 0.00132474612956145 0 -0.063403383301370422 0.0051778575489933986 0 -0.063717219964957064 0.0050532090299851892 0 -0.063428335506325012 0.0047852954662704634 0 -0.068946054033090953 0.0036932342666313074 0 -0.075784210023810319 -0.0011971427744675107 0 -0.084552895124940589 -0.00052097914929589127 0 -0.084269169211266259 -0.00043633733847504722 0 -0.084521210414324366 -0.00081834130487950813 0 -0.084513234038924287 -0.00018407970735062753 0 -0.084552895124940589 -0.00052097914929589127 0 -0.084756704708922936 -0.00043828688259113231 0 -0.084513234038924287 -0.00018407970735062753 0 -0.084552895124940589 -0.00052097914929589127 0 -0.084269169211266259 -0.00043633733847504722 0 -0.083586140987979313 -0.00040018560677614203 0 -0.084269169211266259 -0.00043633733847504722 0 -0.084147366481967606 -0.0007749663098430479 0 -0.084147366481967606 -0.0007749663098430479 0 -0.084361660867553007 -0.0010015113025430391 0 -0.083966992289445722 -0.0012203155868329135 0 -0.083586140987979313 -0.00040018560677614203 0 -0.084147366481967606 -0.0007749663098430479 0 -0.083966992289445722 -0.0012203155868329135 0 -0.084361660867553007 -0.0010015113025430391 0 -0.084689882703568961 -0.0010057354968855954 0 -0.084466541643447371 -0.0012459866794930557 0 -0.084269169211266259 -0.00043633733847504722 0 -0.084147366481967606 -0.0007749663098430479 0 -0.084521210414324366 -0.00081834130487950813 0 -0.084147366481967606 -0.0007749663098430479 0 -0.084361660867553007 -0.0010015113025430391 0 -0.084521210414324366 -0.00081834130487950813 0 -0.084552895124940589 -0.00052097914929589127 0 -0.084521210414324366 -0.00081834130487950813 0 -0.084702916340385848 -0.00073459866207912746 0 -0.084521210414324366 -0.00081834130487950813 0 -0.084704635007505066 -0.00089224994051753312 0 -0.084702916340385848 -0.00073459866207912746 0 -0.084521210414324366 -0.00081834130487950813 0 -0.084704635007505066 -0.00089224994051753312 0 -0.084689882703568961 -0.0010057354968855954 0 -0.084361660867553007 -0.0010015113025430391 0 -0.084521210414324366 -0.00081834130487950813 0 -0.084689882703568961 -0.0010057354968855954 0 -0.084910976458827489 -0.0010072311151505258 0 -0.084702916340385848 -0.00073459866207912746 0 -0.084756704708922936 -0.00043828688259113231 0 -0.084910976458827489 -0.0010072311151505258 0 -0.084877895426628658 -0.0011008010156855329 0 -0.084870094772784496 -0.0012289066446627608 0 -0.084910976458827489 -0.0010072311151505258 0 -0.084756704708922936 -0.00043828688259113231 0 -0.084995200430031087 -8.6646618162380913e-05 0 -0.071408080572617882 0.0051946655679358513 0 -0.069781607130592352 0.0063570722622264117 0 -0.084689882703568961 -0.0010057354968855954 0 -0.084910976458827489 -0.0010072311151505258 0 -0.084981959582617159 -0.0011487425372436362 0 -0.084704635007505066 -0.00089224994051753312 0 -0.084689882703568961 -0.0010057354968855954 0 -0.084910976458827489 -0.0010072311151505258 0 -0.084704635007505066 -0.00089224994051753312 0 -0.084910976458827489 -0.0010072311151505258 0 -0.084702916340385848 -0.00073459866207912746 0 -0.084552895124940589 -0.00052097914929589127 0 -0.084702916340385848 -0.00073459866207912746 0 -0.084756704708922936 -0.00043828688259113231 0 -0.084877895426628658 -0.0011008010156855329 0 -0.084757416061074814 -0.0011697152914439428 0 -0.084870094772784496 -0.0012289066446627608 0 -0.084910976458827489 -0.0010072311151505258 0 -0.084877895426628658 -0.0011008010156855329 0 -0.084948727759954962 -0.0010830657555183614 0 -0.084877895426628658 -0.0011008010156855329 0 -0.084856729690770336 -0.0010735174613119361 0 -0.084948727759954962 -0.0010830657555183614 0 -0.084757416061074814 -0.0011697152914439428 0 -0.08453220122010778 -0.0012560823189194999 0 -0.084696237233845117 -0.001081485736697578 0 -0.084757416061074814 -0.0011697152914439428 0 -0.084696237233845117 -0.001081485736697578 0 -0.084856729690770336 -0.0010735174613119361 0 -0.084877895426628658 -0.0011008010156855329 0 -0.084757416061074814 -0.0011697152914439428 0 -0.084856729690770336 -0.0010735174613119361 0 -0.084712825440867903 -0.0012860320831464451 0 -0.08453220122010778 -0.0012560823189194999 0 -0.084687469415369462 -0.0014165609377231969 0 -0.084757416061074814 -0.0011697152914439428 0 -0.084712825440867903 -0.0012860320831464451 0 -0.08453220122010778 -0.0012560823189194999 0 -0.084712825440867903 -0.0012860320831464451 0 -0.084870094772784496 -0.0012289066446627608 0 -0.084760538527322432 -0.00137908112657154 0 -0.084757416061074814 -0.0011697152914439428 0 -0.084712825440867903 -0.0012860320831464451 0 -0.084870094772784496 -0.0012289066446627608 0 -0.069781607130592352 0.0063570722622264117 0 -0.064538339421685714 0.010261396902722823 0 -0.084539741014145839 0.00019439418555895901 0 -0.084995200430031087 -8.6646618162380913e-05 0 -0.085245903659775787 0.00074554420987838464 0 -0.06942677460603891 0.010720513563108422 0 -0.064538339421685714 0.010261396902722823 0 -0.084513234038924287 -0.00018407970735062753 0 -0.084539741014145839 0.00019439418555895901 0 -0.08471021381146944 -0.00011594905804895682 0 -0.084539741014145839 0.00019439418555895901 0 -0.08471021381146944 -0.00011594905804895682 0 -0.084995200430031087 -8.6646618162380913e-05 0 -0.084513234038924287 -0.00018407970735062753 0 -0.084756704708922936 -0.00043828688259113231 0 -0.08471021381146944 -0.00011594905804895682 0 -0.084756704708922936 -0.00043828688259113231 0 -0.08471021381146944 -0.00011594905804895682 0 -0.084995200430031087 -8.6646618162380913e-05 0 -0.063545932405340746 0.010907690854917074 0 -0.063936865382958841 0.010961120528359666 0 -0.063975465465909764 0.010351305492080505 0 -0.08453220122010778 -0.0012560823189194999 0 -0.084503148086180271 -0.00097456195558094411 0 -0.084290578215976825 -0.0010394088624537075 0 -0.063936865382958841 0.010961120528359666 0 -0.063975465465909764 0.010351305492080505 0 -0.064178099547065728 0.010677250866022801 0 -0.070219987360620378 0.0034100557308704596 0 -0.07321499264034835 -0.00035930479288956993 0 -0.08453220122010778 -0.0012560823189194999 0 -0.084503148086180271 -0.00097456195558094411 0 -0.084696237233845117 -0.001081485736697578 0 -0.070219987360620378 0.0034100557308704596 0 -0.061008720395841348 0.010225489080111571 0 -0.063936865382958841 0.010961120528359666 0 -0.063801192891250566 0.011343845780907066 0 -0.064053635677740736 0.011355337020343855 0 -0.063545932405340746 0.010907690854917074 0 -0.063936865382958841 0.010961120528359666 0 -0.063801192891250566 0.011343845780907066 0 -0.063801192891250566 0.011343845780907066 0 -0.063939603064548975 0.011638536332022095 0 -0.064053635677740736 0.011355337020343855 0 -0.063801192891250566 0.011343845780907066 0 -0.063731327194248844 0.011552285424700996 0 -0.063515773002047582 0.011453232525621219 0 -0.063801192891250566 0.011343845780907066 0 -0.063731327194248844 0.011552285424700996 0 -0.063939603064548975 0.011638536332022095 0 -0.063545932405340746 0.010907690854917074 0 -0.063515773002047582 0.011453232525621219 0 -0.063132257389800883 0.011425470781951145 0 -0.063545932405340746 0.010907690854917074 0 -0.063801192891250566 0.011343845780907066 0 -0.063515773002047582 0.011453232525621219 0 -0.063515773002047582 0.011453232525621219 0 -0.063668391781903255 0.011771553614595353 0 -0.063132257389800883 0.011425470781951145 0 -0.029098849592726177 0.021122563476706161 0 -0.036448361120843376 0.022729773208479243 0 -0.03028290170823323 0.01740088301870912 0 -0.054887629966513293 0.01201882584918843 0 -0.045459393960900943 0.010460438486075941 0 -0.050193631510156725 0.012121195066773486 0 -0.061008720395841348 0.010225489080111571 0 -0.063731327194248844 0.011552285424700996 0 -0.063515773002047582 0.011453232525621219 0 -0.063668391781903255 0.011771553614595353 0 -0.063668391781903255 0.011771553614595353 0 -0.063939603064548975 0.011638536332022095 0 -0.064206328635194335 0.011990325981944074 0 -0.063731327194248844 0.011552285424700996 0 -0.063668391781903255 0.011771553614595353 0 -0.063939603064548975 0.011638536332022095 0 -0.058461515988426103 0.0090555459771132097 0 -0.058327092521940002 0.012477314276959825 0 -0.040653279163790156 0.026036272363414832 0 -0.037248663224422641 0.022995080087983347 0 -0.039516630956194607 0.022771091658606205 0 -0.084551375146831795 0.00039782328128960245 0 -0.084608851083254319 0.00041895419352580327 0 -0.084582132159521192 0.00049428115411856031 0 -0.042878992066189572 0.024374266743478746 0 -0.040653279163790156 0.026036272363414832 0 -0.039516630956194607 0.022771091658606205 0 -0.084539741014145839 0.00019439418555895901 0 -0.084551375146831795 0.00039782328128960245 0 -0.084608851083254319 0.00041895419352580327 0 -0.053918309397598736 0.012829482731059719 0 -0.058461515988426103 0.0090555459771132097 0 -0.084712825440867903 -0.0012860320831464451 0 -0.084760538527322432 -0.00137908112657154 0 -0.084687469415369462 -0.0014165609377231969 0 -0.064538339421685714 0.010261396902722823 0 -0.061008720395841348 0.010225489080111571 0 -0.084608851083254319 0.00041895419352580327 0 -0.084594410884794885 0.00048106738937811705 0 -0.084582132159521192 0.00049428115411856031 0 -0.036173819650493322 0.025876236989468081 0 -0.037209068011764074 0.024598419421669598 0 -0.036448361120843376 0.022729773208479243 0 -0.064538339421685714 0.010261396902722823 0 -0.059074710143183232 0.011697015152858521 0 -0.062133327127511961 0.0096448037782620559 0 -0.060528433290654403 0.0085460940945835864 0 -0.061311965470350151 0.0075828661679935468 0 -0.061008720395841348 0.010225489080111571 0 -0.059074710143183232 0.011697015152858521 0 -0.059074710143183232 0.011697015152858521 0 -0.058327092521940002 0.012477314276959825 0 -0.054887629966513293 0.01201882584918843 0 -0.045818471429922743 0.011963337810370568 0 -0.03724040458779803 0.023002587629520614 0 -0.036056118260475577 0.021953660694708381 0 -0.037934538894217183 0.022146269678501661 0 -0.036056118260475577 0.021953660694708381 0 -0.037276991498974441 0.019940289334084583 0 -0.037934538894217183 0.022146269678501661 0 -0.058327092521940002 0.012477314276959825 0 -0.057915911070171099 0.012875529202595836 0 -0.029098849592726177 0.021122563476706161 0 -0.036173819650493322 0.025876236989468081 0 -0.036448361120843376 0.022729773208479243 0 -0.036056118260475577 0.021953660694708381 0 -0.037276991498974441 0.019940289334084583 0 -0.036121587181916527 0.017741466988760383 0 -0.056917819129718675 0.014342610860637458 0 -0.057033507326201154 0.014199605065539807 0 -0.056759729044056448 0.013954920959954485 0 -0.059074710143183232 0.011697015152858521 0 -0.054887629966513293 0.01201882584918843 0 -0.058327092521940002 0.012477314276959825 0 -0.054887629966513293 0.01201882584918843 0 -0.053918309397598736 0.012829482731059719 0 -0.044778697838982313 0.014571461295957995 0 -0.039516630956194607 0.022771091658606205 0 -0.037934538894217183 0.022146269678501661 0 -0.038875153005787963 0.018300667700527466 0 -0.042878992066189572 0.024374266743478746 0 -0.039516630956194607 0.022771091658606205 0 -0.038875153005787963 0.018300667700527466 0 -0.044319548299192602 0.021803891899893554 0 -0.044501303536305319 0.027571159921790437 0 -0.039627437066766101 0.019927141040554864 0 -0.037276991498974441 0.019940289334084583 0 -0.037934538894217183 0.022146269678501661 0 -0.038875153005787963 0.018300667700527466 0 -0.037248663224422641 0.022995080087983347 0 -0.039516630956194607 0.022771091658606205 0 -0.037934538894217183 0.022146269678501661 0 -0.042728336315155747 0.017422134241981357 0 -0.039627437066766101 0.019927141040554864 0 -0.040215461334009522 0.014166372219808866 0 -0.044319548299192602 0.021803891899893554 0 -0.042728336315155747 0.017422134241981357 0 -0.039627437066766101 0.019927141040554864 0 -0.036121587181916527 0.017741466988760383 0 -0.033662452645902667 0.016292833371166517 0 -0.034742221914940224 0.012168823203920784 0 -0.037276991498974441 0.019940289334084583 0 -0.038875153005787963 0.018300667700527466 0 -0.036121587181916527 0.017741466988760383 0 -0.038875153005787963 0.018300667700527466 0 -0.036121587181916527 0.017741466988760383 0 -0.034742221914940224 0.012168823203920784 0 -0.036056118260475577 0.021953660694708381 0 -0.036121587181916527 0.017741466988760383 0 -0.033662452645902667 0.016292833371166517 0 -0.044778697838982313 0.014571461295957995 0 -0.03768240283713855 0.010682490783845897 0 -0.035083616853289701 0.012485403357027592 0 -0.040215461334009522 0.014166372219808866 0 -0.038298716862439783 0.010487909639323776 0 -0.039627437066766101 0.019927141040554864 0 -0.035083616853289701 0.012485403357027592 0 -0.040215461334009522 0.014166372219808866 0 -0.040215461334009522 0.014166372219808866 0 -0.041755195109665612 0.010288639240198266 0 -0.038298716862439783 0.010487909639323776 0 -0.040215461334009522 0.014166372219808866 0 -0.041755195109665612 0.010288639240198266 0 -0.044881499616859825 0.01352524355357222 0 -0.042728336315155747 0.017422134241981357 0 -0.040215461334009522 0.014166372219808866 0 -0.044881499616859825 0.01352524355357222 0 -0.03028290170823323 0.01740088301870912 0 -0.026920878378256224 0.01326550570290572 0 -0.02232674044890352 0.016450660213641041 0 -0.050193631510156725 0.012121195066773486 0 -0.044477022846657277 0.012388968547272053 0 -0.029098849592726177 0.021122563476706161 0 -0.03028290170823323 0.01740088301870912 0 -0.02232674044890352 0.016450660213641041 0 -0.036101667122597381 0.022535226081448822 0 -0.033640804566035236 0.016547636892217471 0 -0.03028290170823323 0.01740088301870912 0 -0.033640804566035236 0.016547636892217471 0 -0.03028290170823323 0.01740088301870912 0 -0.03040726558817131 0.014286681293990454 0 -0.045818471429922743 0.011963337810370568 0 -0.042617881030567614 0.010524061170874887 0 -0.033662452645902667 0.016292833371166517 0 -0.034742221914940224 0.012168823203920784 0 -0.031116472159609731 0.010548965183096004 0 -0.033640804566035236 0.016547636892217471 0 -0.03040726558817131 0.014286681293990454 0 -0.031116472159609731 0.010548965183096004 0 -0.03040726558817131 0.014286681293990454 0 -0.026920878378256224 0.01326550570290572 0 -0.031116472159609731 0.010548965183096004 0 -0.03028290170823323 0.01740088301870912 0 -0.03040726558817131 0.014286681293990454 0 -0.026920878378256224 0.01326550570290572 0 -0.026920878378256224 0.01326550570290572 0 -0.027581171286162262 0.008610488966616113 0 -0.024197713208180517 0.010246409923216675 0 -0.026920878378256224 0.01326550570290572 0 -0.027581171286162262 0.008610488966616113 0 -0.031116472159609731 0.010548965183096004 0 -0.027581171286162262 0.008610488966616113 0 -0.024608412621183819 0.0047800625942473265 0 -0.024197713208180517 0.010246409923216675 0 -0.027581171286162262 0.008610488966616113 0 -0.030395961448927356 0.0058989158198269652 0 -0.024608412621183819 0.0047800625942473265 0 -0.03768240283713855 0.010682490783845897 0 -0.032432813335004085 0.0056295374054635182 0 -0.027581171286162262 0.008610488966616113 0 -0.031116472159609731 0.010548965183096004 0 -0.030395961448927356 0.0058989158198269652 0 -0.034742221914940224 0.012168823203920784 0 -0.031116472159609731 0.010548965183096004 0 -0.030395961448927356 0.0058989158198269652 0 -0.031071299936174614 0.00060361589540674436 0 -0.030759009614023947 0.0058697127154696913 0 -0.03597087624927553 0.0031531793866595983 0 -0.029865681292426817 0.0025726038308093733 0 -0.032432813335004085 0.0056295374054635182 0 -0.026098827779097181 -0.00024748559066845282 0 -0.030395961448927356 0.0058989158198269652 0 -0.024608412621183819 0.0047800625942473265 0 -0.038789502737775566 0.0067038123772168523 0 -0.043040546776971625 0.0064730778743833858 0 -0.041755195109665612 0.010288639240198266 0 -0.038789502737775566 0.0067038123772168523 0 -0.041755195109665612 0.010288639240198266 0 -0.038298716862439783 0.010487909639323776 0 -0.035083616853289701 0.012485403357027592 0 -0.030759009614023947 0.0058697127154696913 0 -0.035765839040569548 0.0077088185795152918 0 -0.035083616853289701 0.012485403357027592 0 -0.038298716862439783 0.010487909639323776 0 -0.035765839040569548 0.0077088185795152918 0 -0.038789502737775566 0.0067038123772168523 0 -0.038298716862439783 0.010487909639323776 0 -0.035765839040569548 0.0077088185795152918 0 -0.038789502737775566 0.0067038123772168523 0 -0.035765839040569548 0.0077088185795152918 0 -0.03597087624927553 0.0031531793866595983 0 -0.030759009614023947 0.0058697127154696913 0 -0.035765839040569548 0.0077088185795152918 0 -0.03597087624927553 0.0031531793866595983 0 -0.040607909945356693 -0.0010430430068214473 0 -0.03597087624927553 0.0031531793866595983 0 -0.040685386431291208 0.0036706391762174723 0 -0.040607909945356693 -0.0010430430068214473 0 -0.040685386431291208 0.0036706391762174723 0 -0.045087185066902034 0.003239600938308591 0 -0.038789502737775566 0.0067038123772168523 0 -0.03597087624927553 0.0031531793866595983 0 -0.040685386431291208 0.0036706391762174723 0 -0.038789502737775566 0.0067038123772168523 0 -0.043040546776971625 0.0064730778743833858 0 -0.040685386431291208 0.0036706391762174723 0 -0.043040546776971625 0.0064730778743833858 0 -0.040685386431291208 0.0036706391762174723 0 -0.045087185066902034 0.003239600938308591 0 -0.04664709182288071 -0.00018435835076753519 0 -0.045087185066902034 0.003239600938308591 0 -0.047982079547297635 0.0038720182760071833 0 -0.045087185066902034 0.003239600938308591 0 -0.047982079547297635 0.0038720182760071833 0 -0.04655956019772875 0.0062646519387979816 0 -0.043040546776971625 0.0064730778743833858 0 -0.045087185066902034 0.003239600938308591 0 -0.04655956019772875 0.0062646519387979816 0 -0.043040546776971625 0.0064730778743833858 0 -0.04655956019772875 0.0062646519387979816 0 -0.045359279614284008 0.0093604009322300324 0 -0.04655956019772875 0.0062646519387979816 0 -0.047775329001818828 0.0082855263246689355 0 -0.049974497969578105 0.0067466749401102867 0 -0.047982079547297635 0.0038720182760071833 0 -0.04655956019772875 0.0062646519387979816 0 -0.049974497969578105 0.0067466749401102867 0 -0.04655956019772875 0.0062646519387979816 0 -0.047775329001818828 0.0082855263246689355 0 -0.045359279614284008 0.0093604009322300324 0 -0.047775329001818828 0.0082855263246689355 0 -0.045359279614284008 0.0093604009322300324 0 -0.049047566706423976 0.010581692594080917 0 -0.043040546776971625 0.0064730778743833858 0 -0.041755195109665612 0.010288639240198266 0 -0.045359279614284008 0.0093604009322300324 0 -0.051824904796967254 0.008311463762011537 0 -0.054518769286981336 0.0073123913336446272 0 -0.053306565610971655 0.01085011482105714 0 -0.051824904796967254 0.008311463762011537 0 -0.049047566706423976 0.010581692594080917 0 -0.053306565610971655 0.01085011482105714 0 -0.047775329001818828 0.0082855263246689355 0 -0.049974497969578105 0.0067466749401102867 0 -0.049047566706423976 0.010581692594080917 0 -0.051824904796967254 0.008311463762011537 0 -0.049974497969578105 0.0067466749401102867 0 -0.049047566706423976 0.010581692594080917 0 -0.049974497969578105 0.0067466749401102867 0 -0.052495204601442046 0.0060309384071520729 0 -0.051728451937941074 0.0043566950310135284 0 -0.051824904796967254 0.008311463762011537 0 -0.049974497969578105 0.0067466749401102867 0 -0.052495204601442046 0.0060309384071520729 0 -0.052495204601442046 0.0060309384071520729 0 -0.054149701646831798 0.0048760548703289273 0 -0.054518769286981336 0.0073123913336446272 0 -0.051824904796967254 0.008311463762011537 0 -0.052495204601442046 0.0060309384071520729 0 -0.054518769286981336 0.0073123913336446272 0 -0.052495204601442046 0.0060309384071520729 0 -0.051728451937941074 0.0043566950310135284 0 -0.054149701646831798 0.0048760548703289273 0 -0.051728451937941074 0.0043566950310135284 0 -0.055485387273573807 0.0031295356224967539 0 -0.054149701646831798 0.0048760548703289273 0 -0.051728451937941074 0.0043566950310135284 0 -0.050060379248070393 0.0019875603868793465 0 -0.055485387273573807 0.0031295356224967539 0 -0.049813495150690765 -0.0028691514575206077 0 -0.050060379248070393 0.0019875603868793465 0 -0.055485387273573807 0.0031295356224967539 0 -0.047982079547297635 0.0038720182760071833 0 -0.051728451937941074 0.0043566950310135284 0 -0.050060379248070393 0.0019875603868793465 0 -0.047982079547297635 0.0038720182760071833 0 -0.049974497969578105 0.0067466749401102867 0 -0.051728451937941074 0.0043566950310135284 0 -0.04664709182288071 -0.00018435835076753519 0 -0.047982079547297635 0.0038720182760071833 0 -0.050060379248070393 0.0019875603868793465 0 -0.055908604112711535 0.0016386779054897735 0 -0.056882104772683725 0.002271084210996672 0 -0.055485387273573807 0.0031295356224967539 0 -0.056882104772683725 0.002271084210996672 0 -0.056864941316913969 0.0031151328040344784 0 -0.055485387273573807 0.0031295356224967539 0 -0.056882104772683725 0.002271084210996672 0 -0.057363616680048968 0.002742673434682701 0 -0.056864941316913969 0.0031151328040344784 0 -0.057363616680048968 0.002742673434682701 0 -0.056864941316913969 0.0031151328040344784 0 -0.057619712752267231 0.0032672505200793357 0 -0.056864941316913969 0.0031151328040344784 0 -0.055485387273573807 0.0031295356224967539 0 -0.056570347097223778 0.0040550464787992785 0 -0.055485387273573807 0.0031295356224967539 0 -0.054149701646831798 0.0048760548703289273 0 -0.056570347097223778 0.0040550464787992785 0 -0.058161669599948923 0.0018943539207813358 0 -0.057711765549020015 0.0022959551014935403 0 -0.058476194701187756 0.0023436317269231424 0 -0.058202461407363307 0.0015544877899649101 0 -0.058727321669453575 0.0017732255725301201 0 -0.058161669599948923 0.0018943539207813358 0 -0.056684942696050448 0.0014597704832745207 0 -0.056882104772683725 0.002271084210996672 0 -0.057488158430039307 0.0018684890767788895 0 -0.058161669599948923 0.0018943539207813358 0 -0.057488158430039307 0.0018684890767788895 0 -0.057711765549020015 0.0022959551014935403 0 -0.056882104772683725 0.002271084210996672 0 -0.057488158430039307 0.0018684890767788895 0 -0.057711765549020015 0.0022959551014935403 0 -0.057978019201435027 0.0027006394676481627 0 -0.058476194701187756 0.0023436317269231424 0 -0.058684476823594525 0.0026588804149712776 0 -0.057363616680048968 0.002742673434682701 0 -0.057711765549020015 0.0022959551014935403 0 -0.057978019201435027 0.0027006394676481627 0 -0.056882104772683725 0.002271084210996672 0 -0.057363616680048968 0.002742673434682701 0 -0.057711765549020015 0.0022959551014935403 0 -0.057363616680048968 0.002742673434682701 0 -0.057978019201435027 0.0027006394676481627 0 -0.057619712752267231 0.0032672505200793357 0 -0.057711765549020015 0.0022959551014935403 0 -0.057978019201435027 0.0027006394676481627 0 -0.058476194701187756 0.0023436317269231424 0 -0.058837749248062059 0.0020356955752522466 0 -0.059486562503652862 0.0021365383106824527 0 -0.058476194701187756 0.0023436317269231424 0 -0.058837749248062059 0.0020356955752522466 0 -0.058161669599948923 0.0018943539207813358 0 -0.058476194701187756 0.0023436317269231424 0 -0.058684476823594525 0.0026588804149712776 0 -0.060059399198980047 0.002211936030475827 0 -0.058492760401012651 0.002702197872718502 0 -0.059486562503652862 0.0021365383106824527 0 -0.058476194701187756 0.0023436317269231424 0 -0.058684476823594525 0.0026588804149712776 0 -0.059486562503652862 0.0021365383106824527 0 -0.058684476823594525 0.0026588804149712776 0 -0.060059399198980047 0.002211936030475827 0 -0.057978019201435027 0.0027006394676481627 0 -0.058684476823594525 0.0026588804149712776 0 -0.057619712752267231 0.0032672505200793357 0 -0.058684476823594525 0.0026588804149712776 0 -0.057619712752267231 0.0032672505200793357 0 -0.058492760401012651 0.002702197872718502 0 -0.059180055213135851 0.0050174212529459162 0 -0.05968401552354162 0.0058412966496365669 0 -0.056570347097223778 0.0040550464787992785 0 -0.057619712752267231 0.0032672505200793357 0 -0.058492760401012651 0.002702197872718502 0 -0.056570347097223778 0.0040550464787992785 0 -0.054518769286981336 0.0073123913336446272 0 -0.058049729489388517 0.011099721199433721 0 -0.054149701646831798 0.0048760548703289273 0 -0.056570347097223778 0.0040550464787992785 0 -0.054518769286981336 0.0073123913336446272 0 -0.056864941316913969 0.0031151328040344784 0 -0.056570347097223778 0.0040550464787992785 0 -0.057619712752267231 0.0032672505200793357 0 -0.054518769286981336 0.0073123913336446272 0 -0.058049729489388517 0.011099721199433721 0 -0.053306565610971655 0.01085011482105714 0 -0.05968401552354162 0.0058412966496365669 0 -0.060590757980564458 0.0064501772165124135 0 -0.058049729489388517 0.011099721199433721 0 -0.054536660252664799 0.015233097741657755 0 -0.053306565610971655 0.01085011482105714 0 -0.058049729489388517 0.011099721199433721 0 -0.054536660252664799 0.015233097741657755 0 -0.059534250883001592 0.016752519059250869 0 -0.061353554253053465 0.0020151728600258699 0 -0.058492760401012651 0.002702197872718502 0 -0.05931266614277126 0.0041310346357116062 0 -0.061353554253053465 0.0020151728600258699 0 -0.060059399198980047 0.002211936030475827 0 -0.058492760401012651 0.002702197872718502 0 -0.061487885610896229 0.0053420489621886554 0 -0.060590757980564458 0.0064501772165124135 0 -0.062890869130638377 -0.00060188657149997922 0 -0.061353554253053465 0.0020151728600258699 0 -0.065039642182459778 0.00015847728679656371 0 -0.062890869130638377 -0.00060188657149997922 0 -0.065028198401020684 -0.0031232781083811991 0 -0.065039642182459778 0.00015847728679656371 0 -0.051866937029249542 0.022217286363149662 0 -0.054536660252664799 0.015233097741657755 0 -0.059534250883001592 0.016752519059250869 0 -0.056506240678591203 0.011357785091558135 0 -0.060590757980564458 0.0064501772165124135 0 -0.051866937029249542 0.022217286363149662 0 -0.04621282088498093 0.01810618657184497 0 -0.050000871824422505 0.014988547822015997 0 -0.051866937029249542 0.022217286363149662 0 -0.054536660252664799 0.015233097741657755 0 -0.050000871824422505 0.014988547822015997 0 -0.044319548299192602 0.021803891899893554 0 -0.051866937029249542 0.022217286363149662 0 -0.04621282088498093 0.01810618657184497 0 -0.044319548299192602 0.021803891899893554 0 -0.042728336315155747 0.017422134241981357 0 -0.04621282088498093 0.01810618657184497 0 -0.042728336315155747 0.017422134241981357 0 -0.04621282088498093 0.01810618657184497 0 -0.044881499616859825 0.01352524355357222 0 -0.04621282088498093 0.01810618657184497 0 -0.044881499616859825 0.01352524355357222 0 -0.050000871824422505 0.014988547822015997 0 -0.041755195109665612 0.010288639240198266 0 -0.045359279614284008 0.0093604009322300324 0 -0.044881499616859825 0.01352524355357222 0 -0.045359279614284008 0.0093604009322300324 0 -0.044881499616859825 0.01352524355357222 0 -0.049047566706423976 0.010581692594080917 0 -0.044881499616859825 0.01352524355357222 0 -0.049047566706423976 0.010581692594080917 0 -0.050000871824422505 0.014988547822015997 0 -0.049047566706423976 0.010581692594080917 0 -0.053306565610971655 0.01085011482105714 0 -0.050000871824422505 0.014988547822015997 0 -0.054536660252664799 0.015233097741657755 0 -0.053306565610971655 0.01085011482105714 0 -0.050000871824422505 0.014988547822015997 0 -0.021962652657836128 -0.00052217462364175524 0 -0.023060870364476162 -0.00094508969952277247 0 -0.025242477888488095 -0.0013530473881664179 0 -0.021962652657836128 -0.00052217462364175524 0 -0.025242477888488095 -0.0013530473881664179 0 -0.024658329551359177 -0.00018754237425943894 0 -0.021962652657836128 -0.00052217462364175524 0 -0.020484879514203531 -5.2890173621130465e-06 0 -0.014883951340791511 8.5541261487390798e-06 0 -0.021962652657836128 -0.00052217462364175524 0 -0.020484879514203531 -5.2890173621130465e-06 0 -0.023060870364476162 -0.00094508969952277247 0 -0.020484879514203531 -5.2890173621130465e-06 0 -0.023218548226551887 -0.00065079644944085046 0 -0.023060870364476162 -0.00094508969952277247 0 -0.023218548226551887 -0.00065079644944085046 0 -0.023060870364476162 -0.00094508969952277247 0 -0.02484221004620293 -0.0019494933927326928 0 -0.020484879514203531 -5.2890173621130465e-06 0 -0.023218548226551887 -0.00065079644944085046 0 -0.026103096934220003 -4.857376767086978e-07 0 -0.023060870364476162 -0.00094508969952277247 0 -0.025242477888488095 -0.0013530473881664179 0 -0.02484221004620293 -0.0019494933927326928 0 -0.025242477888488095 -0.0013530473881664179 0 -0.026676397416595464 -0.0024677557457860556 0 -0.02484221004620293 -0.0019494933927326928 0 -0.025242477888488095 -0.0013530473881664179 0 -0.028254178759547804 -0.0023682326527888981 0 -0.027392621285322657 -0.00043942549595936832 0 -0.025242477888488095 -0.0013530473881664179 0 -0.028254178759547804 -0.0023682326527888981 0 -0.026676397416595464 -0.0024677557457860556 0 -0.028254178759547804 -0.0023682326527888981 0 -0.027392621285322657 -0.00043942549595936832 0 -0.030839396440998042 -0.0027300998908550396 0 -0.027392621285322657 -0.00043942549595936832 0 -0.024658329551359177 -0.00018754237425943894 0 -0.025555026166514672 0.00099834230102479487 0 -0.025242477888488095 -0.0013530473881664179 0 -0.027392621285322657 -0.00043942549595936832 0 -0.024658329551359177 -0.00018754237425943894 0 -0.025555026166514672 0.00099834230102479487 0 -0.023646037113033209 0.0028605134468370611 0 -0.022376397643784927 0.00088284709800313282 0 -0.024658329551359177 -0.00018754237425943894 0 -0.025555026166514672 0.00099834230102479487 0 -0.022376397643784927 0.00088284709800313282 0 -0.025555026166514672 0.00099834230102479487 0 -0.02782373934802234 0.00097441356546220661 0 -0.026228135056476438 0.002496046358367485 0 -0.027392621285322657 -0.00043942549595936832 0 -0.025555026166514672 0.00099834230102479487 0 -0.02782373934802234 0.00097441356546220661 0 -0.027392621285322657 -0.00043942549595936832 0 -0.02782373934802234 0.00097441356546220661 0 -0.02912197207210963 -3.9394418778550258e-05 0 -0.026228135056476438 0.002496046358367485 0 -0.026930318739421678 0.0039256806114305823 0 -0.028113708414325964 0.0023710000996672938 0 -0.02782373934802234 0.00097441356546220661 0 -0.026228135056476438 0.002496046358367485 0 -0.028113708414325964 0.0023710000996672938 0 -0.026228135056476438 0.002496046358367485 0 -0.023646037113033209 0.0028605134468370611 0 -0.024956191301366764 0.0042396660284268273 0 -0.025555026166514672 0.00099834230102479487 0 -0.026228135056476438 0.002496046358367485 0 -0.023646037113033209 0.0028605134468370611 0 -0.023646037113033209 0.0028605134468370611 0 -0.022376397643784927 0.00088284709800313282 0 -0.020884378061096963 0.0046231765940633269 0 -0.023646037113033209 0.0028605134468370611 0 -0.020884378061096963 0.0046231765940633269 0 -0.024956191301366764 0.0042396660284268273 0 -0.021962652657836128 -0.00052217462364175524 0 -0.024658329551359177 -0.00018754237425943894 0 -0.022376397643784927 0.00088284709800313282 0 -0.021962652657836128 -0.00052217462364175524 0 -0.022376397643784927 0.00088284709800313282 0 -0.014883951340791511 8.5541261487390798e-06 0 -0.014864570849892114 4.0829457041553138e-06 0 -0.0093408239746049521 -1.442027172979359e-06 0 -0.008202696440642707 0.00067845049683723567 0 -0.022376397643784927 0.00088284709800313282 0 -0.014883951340791511 8.5541261487390798e-06 0 -0.020884378061096963 0.0046231765940633269 0 -0.014869310679573871 4.1097575280679209e-07 0 -0.014686527956369618 0.00057293872750664992 0 -0.0093408239746049521 -1.442027172979359e-06 0 -0.008202696440642707 0.00067845049683723567 0 -0.0058694753827842538 -0.0004965370991310672 0 -0.020884378061096963 0.0046231765940633269 0 -0.023990077968455786 0.0060137702012242099 0 -0.024956191301366764 0.0042396660284268273 0 -0.014686527956369618 0.00057293872750664992 0 -0.015104489408999588 0.00086359928284714148 0 -0.008202696440642707 0.00067845049683723567 0 -0.0058694753827842538 -0.0004965370991310672 0 -0.0048235236143787941 -0.000162472607483635 0 -0.0058694753827842538 -0.0004965370991310672 0 -0.0045602504214738958 -0.00063708658418183781 0 -0.0048235236143787941 -0.000162472607483635 0 -0.0093408239746049521 -1.442027172979359e-06 0 -0.0058694753827842538 -0.0004965370991310672 0 -0.0038118022690816476 -8.2372323071067063e-07 0 -0.0058694753827842538 -0.0004965370991310672 0 -0.0038118022690816476 -8.2372323071067063e-07 0 -0.0035531247383510669 -0.0004576556058470713 0 -0.0058694753827842538 -0.0004965370991310672 0 -0.0045602504214738958 -0.00063708658418183781 0 -0.0035531247383510669 -0.0004576556058470713 0 -0.0045602504214738958 -0.00063708658418183781 0 -0.0035531247383510669 -0.0004576556058470713 0 -0.0042899346927713061 -0.00034262654240588888 0 -0.0035531247383510669 -0.0004576556058470713 0 -0.00056523934645692092 -0.00024389445885735777 0 -0.0042899346927713061 -0.00034262654240588888 0 -0.0067059696113930351 0.0011048214652329487 0 -0.0087415455094958794 0.00060055160398035613 0 -0.0023068829728602521 -0.00051172751218624504 0 -0.00056523934645692092 -0.00024389445885735777 0 -0.0041743423825044736 -0.0031488888291221588 0 0.00092655305756752712 8.3773543913443296e-05 0 -0.0023068829728602521 -0.00051172751218624504 0 -0.00056523934645692092 -0.00024389445885735777 0 -0.0038118022690816476 -8.2372323071067063e-07 0 -0.0035531247383510669 -0.0004576556058470713 0 -0.00056523934645692092 -0.00024389445885735777 0 0.001716764206363129 -5.7184553317090231e-07 0 0.00092655305756752712 8.3773543913443296e-05 0 -0.0038118022690816476 -8.2372323071067063e-07 0 0.00092655305756752712 8.3773543913443296e-05 0 -0.0038118022690816476 -8.2372323071067063e-07 0 -0.00056523934645692092 -0.00024389445885735777 0 -0.011004970298468851 0.001083107656166641 0 -0.0053586823436625455 0.001057845723609562 0 -0.0076859194969082171 -0.0019070961181708731 0 -0.011004970298468851 0.001083107656166641 0 -0.0076859194969082171 -0.0019070961181708731 0 -0.010459434884576018 -0.0035524332555382987 0 -0.0053586823436625455 0.001057845723609562 0 -0.0076859194969082171 -0.0019070961181708731 0 -0.0041743423825044736 -0.0031488888291221588 0 -0.0053586823436625455 0.001057845723609562 0 -0.0023068829728602521 -0.00051172751218624504 0 -0.0041743423825044736 -0.0031488888291221588 0 -0.0076859194969082171 -0.0019070961181708731 0 -0.0041743423825044736 -0.0031488888291221588 0 -0.0081020052094453454 -0.00596332535746966 0 -0.0045602504214738958 -0.00063708658418183781 0 -0.0042899346927713061 -0.00034262654240588888 0 -0.0044451753007640031 -0.00059634831546123311 0 -0.0087415455094958794 0.00060055160398035613 0 -0.014871282227899766 -0.00078223088648077244 0 -0.0076859194969082171 -0.0019070961181708731 0 -0.0081020052094453454 -0.00596332535746966 0 -0.010459434884576018 -0.0035524332555382987 0 -0.0082990402657495202 -0.0057106755127322214 0 -0.010459434884576018 -0.0035524332555382987 0 -0.011090982251927242 -0.0078028746392353144 0 -0.014871282227899766 -0.00078223088648077244 0 -0.013592644664339036 -0.0019200038668918974 0 -0.02622491675514842 0.0078215195908058997 0 -0.026309426269974838 0.0055441788319950764 0 -0.027946113625443053 0.0064598053304251481 0 -0.014871282227899766 -0.00078223088648077244 0 -0.018045894654138441 -0.00076744247865521921 0 -0.026309426269974838 0.0055441788319950764 0 -0.027941859980893026 0.0047414280217334872 0 -0.027946113625443053 0.0064598053304251481 0 -0.0045602504214738958 -0.00063708658418183781 0 -0.0044451753007640031 -0.00059634831546123311 0 -0.0048235236143787941 -0.000162472607483635 0 -0.02622491675514842 0.0078215195908058997 0 -0.026309426269974838 0.0055441788319950764 0 -0.023990077968455786 0.0060137702012242099 0 -0.014871282227899766 -0.00078223088648077244 0 -0.015104489408999588 0.00086359928284714148 0 -0.026309426269974838 0.0055441788319950764 0 -0.023990077968455786 0.0060137702012242099 0 -0.024956191301366764 0.0042396660284268273 0 -0.026309426269974838 0.0055441788319950764 0 -0.026930318739421678 0.0039256806114305823 0 -0.027941859980893026 0.0047414280217334872 0 -0.026309426269974838 0.0055441788319950764 0 -0.024956191301366764 0.0042396660284268273 0 -0.026930318739421678 0.0039256806114305823 0 -0.026228135056476438 0.002496046358367485 0 -0.024956191301366764 0.0042396660284268273 0 -0.026930318739421678 0.0039256806114305823 0 -0.026930318739421678 0.0039256806114305823 0 -0.028156710589213214 0.0034814898604256391 0 -0.028113708414325964 0.0023710000996672938 0 -0.026930318739421678 0.0039256806114305823 0 -0.028156710589213214 0.0034814898604256391 0 -0.027941859980893026 0.0047414280217334872 0 -0.028156710589213214 0.0034814898604256391 0 -0.029107075713898204 0.0036544499759322319 0 -0.029413358266146203 0.0024487443717716851 0 -0.029107075713898204 0.0036544499759322319 0 -0.029835257136145325 0.0047942181455024628 0 -0.027941859980893026 0.0047414280217334872 0 -0.020727443154331233 0.00028542178578646167 0 -0.02020618097455781 -0.00025730536198904995 0 -0.028156710589213214 0.0034814898604256391 0 -0.029107075713898204 0.0036544499759322319 0 -0.027941859980893026 0.0047414280217334872 0 -0.030903168509021719 0.0022413029537559424 0 -0.03039336109531967 0.0025703118103924377 0 -0.030592293668282033 0.0020877787069729105 0 -0.03039336109531967 0.0025703118103924377 0 -0.030578950040211553 0.0020373600503238555 0 -0.03036100293640237 0.0016618420368797891 0 -0.029107075713898204 0.0036544499759322319 0 -0.03039336109531967 0.0025703118103924377 0 -0.029413358266146203 0.0024487443717716851 0 -0.02020618097455781 -0.00025730536198904995 0 -0.021548312533739671 -0.00062502590125922152 0 -0.029107075713898204 0.0036544499759322319 0 -0.029495482002290106 0.0039919148196494872 0 -0.03039336109531967 0.0025703118103924377 0 -0.03039336109531967 0.0025703118103924377 0 -0.030592293668282033 0.0020877787069729105 0 -0.030578950040211553 0.0020373600503238555 0 -0.030903168509021719 0.0022413029537559424 0 -0.030931450355183143 0.0016399097072721555 0 -0.030592293668282033 0.0020877787069729105 0 -0.01390625000408143 -0.0099051341682538773 0 -0.013640000960205338 -0.0073129016231307511 0 -0.01652514519048013 -0.0061837343076172682 0 -0.02020618097455781 -0.00025730536198904995 0 -0.021342746564899314 -0.00076878896073928409 0 -0.029835257136145325 0.0047942181455024628 0 -0.027941859980893026 0.0047414280217334872 0 -0.027946113625443053 0.0064598053304251481 0 -0.02020618097455781 -0.00025730536198904995 0 -0.018045894654138441 -0.00076744247865521921 0 -0.01390625000408143 -0.0099051341682538773 0 -0.013640000960205338 -0.0073129016231307511 0 -0.011090982251927242 -0.0078028746392353144 0 -0.013640000960205338 -0.0073129016231307511 0 -0.011090982251927242 -0.0078028746392353144 0 -0.013047170833702012 -0.0053589661051582256 0 -0.010459434884576018 -0.0035524332555382987 0 -0.013047170833702012 -0.0053589661051582256 0 -0.01450925979838481 -0.0025519235628915816 0 -0.010459434884576018 -0.0035524332555382987 0 -0.011090982251927242 -0.0078028746392353144 0 -0.013047170833702012 -0.0053589661051582256 0 -0.01652514519048013 -0.0061837343076172682 0 -0.01450925979838481 -0.0025519235628915816 0 -0.019151761601813495 -0.0024332353824993891 0 -0.013047170833702012 -0.0053589661051582256 0 -0.01652514519048013 -0.0061837343076172682 0 -0.01450925979838481 -0.0025519235628915816 0 -0.013640000960205338 -0.0073129016231307511 0 -0.013047170833702012 -0.0053589661051582256 0 -0.01652514519048013 -0.0061837343076172682 0 -0.016409657626468562 0.0011667309822999334 0 -0.01450925979838481 -0.0025519235628915816 0 -0.019151761601813495 -0.0024332353824993891 0 -0.011004970298468851 0.001083107656166641 0 -0.010459434884576018 -0.0035524332555382987 0 -0.01450925979838481 -0.0025519235628915816 0 -0.011004970298468851 0.001083107656166641 0 -0.016409657626468562 0.0011667309822999334 0 -0.01450925979838481 -0.0025519235628915816 0 -0.030314463910616221 -0.0017815396853744861 0 -0.031095653971307334 0.00060944428005017836 0 -0.028573852661939448 9.2520271801974403e-05 0 -0.031095653971307334 0.00060944428005017836 0 -0.029831572455497078 0.0014412890848472272 0 -0.028573852661939448 9.2520271801974403e-05 0 -0.019421578666796703 -0.0018882486637180156 0 -0.021625065895942264 -0.00058187748437639117 0 -0.021760146364097885 0.0012983928115071627 0 -0.016409657626468562 0.0011667309822999334 0 -0.019151761601813495 -0.0024332353824993891 0 -0.021342746564899314 -0.00076878896073928409 0 -0.021625065895942264 -0.00058187748437639117 0 -0.030931450355183143 0.0016399097072721555 0 -0.031095653971307334 0.00060944428005017836 0 -0.030600398108547658 0.0015935421396351538 0 -0.031095653971307334 0.00060944428005017836 0 -0.030600398108547658 0.0015935421396351538 0 -0.029831572455497078 0.0014412890848472272 0 -0.029831572455497078 0.0014412890848472272 0 -0.030564912005637834 0.0020056233951986162 0 -0.030574610412371674 0.0018711132975765448 0 -0.030600398108547658 0.0015935421396351538 0 -0.029831572455497078 0.0014412890848472272 0 -0.030564912005637834 0.0020056233951986162 0 -0.030931450355183143 0.0016399097072721555 0 -0.030600398108547658 0.0015935421396351538 0 -0.030592293668282033 0.0020877787069729105 0 -0.030600398108547658 0.0015935421396351538 0 -0.030564912005637834 0.0020056233951986162 0 -0.030592293668282033 0.0020877787069729105 0 -0.030564912005637834 0.0020056233951986162 0 -0.030578950040211553 0.0020373600503238555 0 -0.030908534910560542 0.0015242114897909228 0 -0.030564912005637834 0.0020056233951986162 0 -0.030592293668282033 0.0020877787069729105 0 -0.030578950040211553 0.0020373600503238555 0 -0.030564912005637834 0.0020056233951986162 0 -0.030908534910560542 0.0015242114897909228 0 -0.030574610412371674 0.0018711132975765448 0 -0.030908534910560542 0.0015242114897909228 0 -0.031878059256983948 0.0010148155138147851 0 -0.030574610412371674 0.0018711132975765448 0 -0.030908534910560542 0.0015242114897909228 0 -0.032221166184274605 -0.00025598947472418778 0 -0.031878059256983948 0.0010148155138147851 0 -0.032253473102845764 -0.00080074645834555852 0 -0.032592772855094758 -0.0013621997555532668 0 -0.032221166184274605 -0.00025598947472418778 0 -0.030908534910560542 0.0015242114897909228 0 -0.030664434399074372 0.00014186256776700242 0 -0.032221166184274605 -0.00025598947472418778 0 -0.031182376255329488 -0.0002264842113863312 0 -0.031827651447935208 -0.00015144170899700836 0 -0.030908534910560542 0.0015242114897909228 0 -0.030664434399074372 0.00014186256776700242 0 -0.03036100293640237 0.0016618420368797891 0 -0.030578950040211553 0.0020373600503238555 0 -0.030908534910560542 0.0015242114897909228 0 -0.03036100293640237 0.0016618420368797891 0 -0.03039336109531967 0.0025703118103924377 0 -0.03036100293640237 0.0016618420368797891 0 -0.029413358266146203 0.0024487443717716851 0 -0.03036100293640237 0.0016618420368797891 0 -0.029417012881329828 0.0012735367261868154 0 -0.029413358266146203 0.0024487443717716851 0 -0.02782373934802234 0.00097441356546220661 0 -0.029417012881329828 0.0012735367261868154 0 -0.028113708414325964 0.0023710000996672938 0 -0.028156710589213214 0.0034814898604256391 0 -0.028113708414325964 0.0023710000996672938 0 -0.029413358266146203 0.0024487443717716851 0 -0.029417012881329828 0.0012735367261868154 0 -0.028113708414325964 0.0023710000996672938 0 -0.029413358266146203 0.0024487443717716851 0 -0.02782373934802234 0.00097441356546220661 0 -0.029417012881329828 0.0012735367261868154 0 -0.02912197207210963 -3.9394418778550258e-05 0 -0.030664434399074372 0.00014186256776700242 0 -0.03036100293640237 0.0016618420368797891 0 -0.029417012881329828 0.0012735367261868154 0 -0.031182376255329488 -0.0002264842113863312 0 -0.029794763282234741 -0.00037714394491127062 0 -0.030664434399074372 0.00014186256776700242 0 -0.029417012881329828 0.0012735367261868154 0 -0.02912197207210963 -3.9394418778550258e-05 0 -0.032253473102845764 -0.00080074645834555852 0 -0.030898059616871778 -0.00046886853364261143 0 -0.032394728093352261 -0.0021987224703108673 0 -0.027392621285322657 -0.00043942549595936832 0 -0.030898059616871778 -0.00046886853364261143 0 -0.030839396440998042 -0.0027300998908550396 0 -0.02876979613743514 -0.00050386379209105899 0 -0.029794763282234741 -0.00037714394491127062 0 -0.030898059616871778 -0.00046886853364261143 0 -0.030839396440998042 -0.0027300998908550396 0 -0.032394728093352261 -0.0021987224703108673 0 -0.032394728093352261 -0.0021987224703108673 0 -0.033120273249442896 -0.0025434063159432783 0 -0.033290705822706795 -0.0037472692928340245 0 -0.033120273249442896 -0.0025434063159432783 0 -0.032592772855094758 -0.0013621997555532668 0 -0.033448143299965274 -0.0018904967255945482 0 -0.032394728093352261 -0.0021987224703108673 0 -0.033120273249442896 -0.0025434063159432783 0 -0.032592772855094758 -0.0013621997555532668 0 -0.032592772855094758 -0.0013621997555532668 0 -0.033448143299965274 -0.0018904967255945482 0 -0.032221166184274605 -0.00025598947472418778 0 -0.032253473102845764 -0.00080074645834555852 0 -0.032394728093352261 -0.0021987224703108673 0 -0.032592772855094758 -0.0013621997555532668 0 -0.033448143299965274 -0.0018904967255945482 0 -0.035124193851030897 -0.0028514703232363275 0 -0.033872515491375703 -0.00075893126333133429 0 -0.033448143299965274 -0.0018904967255945482 0 -0.033872515491375703 -0.00075893126333133429 0 -0.032221166184274605 -0.00025598947472418778 0 -0.033120273249442896 -0.0025434063159432783 0 -0.033448143299965274 -0.0018904967255945482 0 -0.034144272373792056 -0.0035134709996970221 0 -0.033448143299965274 -0.0018904967255945482 0 -0.035124193851030897 -0.0028514703232363275 0 -0.034144272373792056 -0.0035134709996970221 0 -0.035124193851030897 -0.0028514703232363275 0 -0.037494506202116362 -0.0022266003185534432 0 -0.036714783066720241 -0.0045123446584469052 0 -0.035124193851030897 -0.0028514703232363275 0 -0.035582040396896088 -0.0015038118468958667 0 -0.037494506202116362 -0.0022266003185534432 0 -0.035582040396896088 -0.0015038118468958667 0 -0.035815505584504075 4.4509766484544681e-05 0 -0.037494506202116362 -0.0022266003185534432 0 -0.035124193851030897 -0.0028514703232363275 0 -0.035582040396896088 -0.0015038118468958667 0 -0.033872515491375703 -0.00075893126333133429 0 -0.035815505584504075 4.4509766484544681e-05 0 -0.033648700969129558 0.0005205525041721028 0 -0.033872515491375703 -0.00075893126333133429 0 -0.035582040396896088 -0.0015038118468958667 0 -0.035815505584504075 4.4509766484544681e-05 0 -0.033872515491375703 -0.00075893126333133429 0 -0.035815505584504075 4.4509766484544681e-05 0 -0.034914241340449646 0.0010779027740193329 0 -0.037779269117553027 0.00094401638126032062 0 -0.035815505584504075 4.4509766484544681e-05 0 -0.034914241340449646 0.0010779027740193329 0 -0.033648700969129558 0.0005205525041721028 0 -0.034914241340449646 0.0010779027740193329 0 -0.033648700969129558 0.0005205525041721028 0 -0.032295284809781173 0.0014035776345275668 0 -0.033648700969129558 0.0005205525041721028 0 -0.031878059256983948 0.0010148155138147851 0 -0.032295284809781173 0.0014035776345275668 0 -0.033648700969129558 0.0005205525041721028 0 -0.033872515491375703 -0.00075893126333133429 0 -0.031878059256983948 0.0010148155138147851 0 -0.033872515491375703 -0.00075893126333133429 0 -0.032221166184274605 -0.00025598947472418778 0 -0.031878059256983948 0.0010148155138147851 0 -0.031878059256983948 0.0010148155138147851 0 -0.030791247510920879 0.001808572707476719 0 -0.030574610412371674 0.0018711132975765448 0 -0.031878059256983948 0.0010148155138147851 0 -0.030791247510920879 0.001808572707476719 0 -0.032295284809781173 0.0014035776345275668 0 -0.030791247510920879 0.001808572707476719 0 -0.028889744474427121 0.0013701066036802705 0 -0.030643956284794816 0.0021720325917151499 0 -0.030791247510920879 0.001808572707476719 0 -0.030643956284794816 0.0021720325917151499 0 -0.032295284809781173 0.0014035776345275668 0 -0.030791247510920879 0.001808572707476719 0 -0.030574610412371674 0.0018711132975765448 0 -0.028889744474427121 0.0013701066036802705 0 -0.029831572455497078 0.0014412890848472272 0 -0.028889744474427121 0.0013701066036802705 0 -0.028573852661939448 9.2520271801974403e-05 0 -0.029831572455497078 0.0014412890848472272 0 -0.030574610412371674 0.0018711132975765448 0 -0.028889744474427121 0.0013701066036802705 0 -0.028889744474427121 0.0013701066036802705 0 -0.028836381737260254 0.0016022902098289564 0 -0.030643956284794816 0.0021720325917151499 0 -0.028889744474427121 0.0013701066036802705 0 -0.027712167858706588 0.00023827405598555077 0 -0.028836381737260254 0.0016022902098289564 0 -0.028889744474427121 0.0013701066036802705 0 -0.027712167858706588 0.00023827405598555077 0 -0.026897857661114882 -0.0003923678579856275 0 -0.026135951392534492 -0.0012982729964120918 0 -0.027712167858706588 0.00023827405598555077 0 -0.026897857661114882 -0.0003923678579856275 0 -0.028889744474427121 0.0013701066036802705 0 -0.026897857661114882 -0.0003923678579856275 0 -0.028573852661939448 9.2520271801974403e-05 0 -0.024957461028833325 -0.0023325740730394413 0 -0.026897857661114882 -0.0003923678579856275 0 -0.028573852661939448 9.2520271801974403e-05 0 -0.029538395814304817 0.0035513751261428339 0 -0.032468876835413468 0.0033377316066373341 0 -0.02911002797534044 0.0055288298298456417 0 -0.026968360199872164 0.0051897858397863695 0 -0.030003623565352966 0.0034072591788081356 0 -0.028138957375299277 0.0066850706372956689 0 -0.02911002797534044 0.0055288298298456417 0 -0.026968360199872164 0.0051897858397863695 0 -0.029523860033153881 0.0035133926402947349 0 -0.029538395814304817 0.0035513751261428339 0 -0.026135951392534492 -0.0012982729964120918 0 -0.027712167858706588 0.00023827405598555077 0 -0.02713007053896261 -0.00018374889035478777 0 -0.027712167858706588 0.00023827405598555077 0 -0.02713007053896261 -0.00018374889035478777 0 -0.028836381737260254 0.0016022902098289564 0 -0.02713007053896261 -0.00018374889035478777 0 -0.027101837850341655 0.00037469150873678379 0 -0.028836381737260254 0.0016022902098289564 0 -0.027101837850341655 0.00037469150873678379 0 -0.030721698596609316 0.0029609673078599187 0 -0.028836381737260254 0.0016022902098289564 0 -0.029538395814304817 0.0035513751261428339 0 -0.029604888174639365 0.0029689355813232636 0 -0.030721698596609316 0.0029609673078599187 0 -0.028836381737260254 0.0016022902098289564 0 -0.030643956284794816 0.0021720325917151499 0 -0.030629842335289797 0.0070801965465407922 0 -0.030721698596609316 0.0029609673078599187 0 -0.035798767543203172 0.0050173531398571844 0 -0.030721698596609316 0.0029609673078599187 0 -0.036290812429333574 0.0028340014468382154 0 -0.035798767543203172 0.0050173531398571844 0 -0.030721698596609316 0.0029609673078599187 0 -0.03366215877837947 0.0019209661556221589 0 -0.036290812429333574 0.0028340014468382154 0 -0.030721698596609316 0.0029609673078599187 0 -0.03366215877837947 0.0019209661556221589 0 -0.030643956284794816 0.0021720325917151499 0 -0.03366215877837947 0.0019209661556221589 0 -0.030643956284794816 0.0021720325917151499 0 -0.032295284809781173 0.0014035776345275668 0 -0.034914241340449646 0.0010779027740193329 0 -0.03366215877837947 0.0019209661556221589 0 -0.032295284809781173 0.0014035776345275668 0 -0.034914241340449646 0.0010779027740193329 0 -0.03366215877837947 0.0019209661556221589 0 -0.036912154993817038 0.0017696845909761774 0 -0.036912154993817038 0.0017696845909761774 0 -0.038793624306574043 0.0025311297869422696 0 -0.036290812429333574 0.0028340014468382154 0 -0.036912154993817038 0.0017696845909761774 0 -0.038793624306574043 0.0025311297869422696 0 -0.039920626523730761 0.0016006924696036892 0 -0.038793624306574043 0.0025311297869422696 0 -0.04007260542263353 0.0027076224094458546 0 -0.039920626523730761 0.0016006924696036892 0 -0.038793624306574043 0.0025311297869422696 0 -0.039256859964953109 0.0035268187176066669 0 -0.036290812429333574 0.0028340014468382154 0 -0.038793624306574043 0.0025311297869422696 0 -0.039256859964953109 0.0035268187176066669 0 -0.04007260542263353 0.0027076224094458546 0 -0.03366215877837947 0.0019209661556221589 0 -0.036912154993817038 0.0017696845909761774 0 -0.036290812429333574 0.0028340014468382154 0 -0.039256859964953109 0.0035268187176066669 0 -0.036290812429333574 0.0028340014468382154 0 -0.035798767543203172 0.0050173531398571844 0 -0.03523234031226314 0.0025869058377736951 0 -0.032468876835413468 0.0033377316066373341 0 -0.034163194115079565 0.0018113319056710145 0 -0.030003623565352966 0.0034072591788081356 0 -0.032215026190107375 0.0051736108173030641 0 -0.034163194115079565 0.0018113319056710145 0 -0.032215026190107375 0.0051736108173030641 0 -0.037040931796900288 0.0034378233300805172 0 -0.029296002353823045 0.0074115986254832877 0 -0.02911002797534044 0.0055288298298456417 0 -0.032215026190107375 0.0051736108173030641 0 -0.02911002797534044 0.0055288298298456417 0 -0.030003623565352966 0.0034072591788081356 0 -0.032215026190107375 0.0051736108173030641 0 -0.038442415758696502 0.0050521466539884844 0 -0.035516001470548696 0.0061494652461124791 0 -0.037040931796900288 0.0034378233300805172 0 -0.032215026190107375 0.0051736108173030641 0 -0.035516001470548696 0.0061494652461124791 0 -0.037040931796900288 0.0034378233300805172 0 -0.03963202659599252 0.0028859506449042875 0 -0.038442415758696502 0.0050521466539884844 0 -0.037040931796900288 0.0034378233300805172 0 -0.03963202659599252 0.0028859506449042875 0 -0.037040931796900288 0.0034378233300805172 0 -0.039208700961377373 0.001736443792552989 0 -0.041809469346709059 0.0050454599348856207 0 -0.04189571275537491 0.0021569293550018302 0 -0.039719195217426659 0.0014942342101048011 0 -0.041192988992907985 0.0042528394059477741 0 -0.04038659090047976 0.0027716517544111772 0 -0.03963202659599252 0.0028859506449042875 0 -0.039208700961377373 0.001736443792552989 0 -0.039719195217426659 0.0014942342101048011 0 -0.03523234031226314 0.0025869058377736951 0 -0.036429399013985911 0.0021965431028854775 0 -0.034163194115079565 0.0018113319056710145 0 -0.037040931796900288 0.0034378233300805172 0 -0.039208700961377373 0.001736443792552989 0 -0.039256859964953109 0.0035268187176066669 0 -0.039208700961377373 0.001736443792552989 0 -0.04007260542263353 0.0027076224094458546 0 -0.04007260542263353 0.0027076224094458546 0 -0.042213254594201693 0.0020838179485599523 0 -0.039920626523730761 0.0016006924696036892 0 -0.039208700961377373 0.001736443792552989 0 -0.04007260542263353 0.0027076224094458546 0 -0.039719195217426659 0.0014942342101048011 0 -0.04007260542263353 0.0027076224094458546 0 -0.044851702176306234 0.0036244174736321413 0 -0.042213254594201693 0.0020838179485599523 0 -0.04007260542263353 0.0027076224094458546 0 -0.039719195217426659 0.0014942342101048011 0 -0.040190553313862981 0.00070630541375298257 0 -0.04189571275537491 0.0021569293550018302 0 -0.039719195217426659 0.0014942342101048011 0 -0.040190553313862981 0.00070630541375298257 0 -0.04295844341056939 0.0022448403643960621 0 -0.044038857745278055 0.0020266706948101178 0 -0.046169404401592694 0.0012481109039203099 0 -0.044873813770650181 0.0021112001672876413 0 -0.042912589120274909 0.00087086152638727167 0 -0.044873813770650181 0.0021112001672876413 0 -0.042912589120274909 0.00087086152638727167 0 -0.042213254594201693 0.0020838179485599523 0 -0.044851702176306234 0.0036244174736321413 0 -0.044873813770650181 0.0021112001672876413 0 -0.042213254594201693 0.0020838179485599523 0 -0.046169404401592694 0.0012481109039203099 0 -0.042912589120274909 0.00087086152638727167 0 -0.045361781315753524 -1.2945600177753403e-05 0 -0.042912589120274909 0.00087086152638727167 0 -0.042213254594201693 0.0020838179485599523 0 -0.039920626523730761 0.0016006924696036892 0 -0.042912589120274909 0.00087086152638727167 0 -0.039920626523730761 0.0016006924696036892 0 -0.039098426190328439 -1.2379755457873509e-05 0 -0.039920626523730761 0.0016006924696036892 0 -0.037779269117553027 0.00094401638126032062 0 -0.039098426190328439 -1.2379755457873509e-05 0 -0.036912154993817038 0.0017696845909761774 0 -0.039920626523730761 0.0016006924696036892 0 -0.037779269117553027 0.00094401638126032062 0 -0.034914241340449646 0.0010779027740193329 0 -0.036912154993817038 0.0017696845909761774 0 -0.037779269117553027 0.00094401638126032062 0 -0.035815505584504075 4.4509766484544681e-05 0 -0.039098426190328439 -1.2379755457873509e-05 0 -0.037494506202116362 -0.0022266003185534432 0 -0.035815505584504075 4.4509766484544681e-05 0 -0.037779269117553027 0.00094401638126032062 0 -0.039098426190328439 -1.2379755457873509e-05 0 -0.042912589120274909 0.00087086152638727167 0 -0.039098426190328439 -1.2379755457873509e-05 0 -0.043773269628046188 -0.001480652977530161 0 -0.039098426190328439 -1.2379755457873509e-05 0 -0.037494506202116362 -0.0022266003185534432 0 -0.043773269628046188 -0.001480652977530161 0 -0.037494506202116362 -0.0022266003185534432 0 -0.043773269628046188 -0.001480652977530161 0 -0.039921883763910974 -0.0045626286932588635 0 -0.044295543004882469 -0.001404212703001463 0 -0.044011615634612769 -0.0020666234219698255 0 -0.04663999081489216 -0.0007676458255218854 0 -0.043773269628046188 -0.001480652977530161 0 -0.04702771302612925 -0.0012667220930491566 0 -0.048311003549910712 -0.00078859847576071788 0 -0.04663999081489216 -0.0007676458255218854 0 -0.04702771302612925 -0.0012667220930491566 0 -0.047167130590043321 0.00033773017923694631 0 -0.04663999081489216 -0.0007676458255218854 0 -0.045361781315753524 -1.2945600177753403e-05 0 -0.04663999081489216 -0.0007676458255218854 0 -0.045361781315753524 -1.2945600177753403e-05 0 -0.043773269628046188 -0.001480652977530161 0 -0.042912589120274909 0.00087086152638727167 0 -0.045361781315753524 -1.2945600177753403e-05 0 -0.043773269628046188 -0.001480652977530161 0 -0.04702771302612925 -0.0012667220930491566 0 -0.048163707426289303 -0.0012213916910320309 0 -0.048455850091545211 -0.0010711551083305445 0 -0.049001636963479006 -0.00085027496397807145 0 -0.04702771302612925 -0.0012667220930491566 0 -0.048455850091545211 -0.0010711551083305445 0 -0.049001636963479006 -0.00085027496397807145 0 -0.048311003549910712 -0.00078859847576071788 0 -0.04702771302612925 -0.0012667220930491566 0 -0.043773269628046188 -0.001480652977530161 0 -0.04702771302612925 -0.0012667220930491566 0 -0.047427692542475107 -0.0014290674992979019 0 -0.037494506202116362 -0.0022266003185534432 0 -0.039921883763910974 -0.0045626286932588635 0 -0.036714783066720241 -0.0045123446584469052 0 -0.039921883763910974 -0.0045626286932588635 0 -0.037716847865835026 -0.0055559556698179142 0 -0.036714783066720241 -0.0045123446584469052 0 -0.044011615634612769 -0.0020666234219698255 0 -0.043727261040908377 -0.0026302573524600503 0 -0.047427692542475107 -0.0014290674992979019 0 -0.048163707426289303 -0.0012213916910320309 0 -0.049130924208942016 -0.001448313062436702 0 -0.04702771302612925 -0.0012667220930491566 0 -0.047427692542475107 -0.0014290674992979019 0 -0.048163707426289303 -0.0012213916910320309 0 -0.048163707426289303 -0.0012213916910320309 0 -0.048588063913530537 -0.0010076944475420262 0 -0.049130924208942016 -0.001448313062436702 0 -0.048163707426289303 -0.0012213916910320309 0 -0.048588063913530537 -0.0010076944475420262 0 -0.048579649311892348 -0.0010832462809331417 0 -0.048588063913530537 -0.0010076944475420262 0 -0.049130924208942016 -0.001448313062436702 0 -0.049123027402985117 -0.00069951669275989607 0 -0.049130924208942016 -0.001448313062436702 0 -0.049123027402985117 -0.00069951669275989607 0 -0.050347757369275797 0.0002186240847954228 0 -0.049123027402985117 -0.00069951669275989607 0 -0.049530565126261819 -0.00024152220496170791 0 -0.049148573373876812 -0.00049430352338918385 0 -0.049123027402985117 -0.00069951669275989607 0 -0.049530565126261819 -0.00024152220496170791 0 -0.050347757369275797 0.0002186240847954228 0 -0.048588063913530537 -0.0010076944475420262 0 -0.048794587939374919 -0.00085640161400729153 0 -0.048579649311892348 -0.0010832462809331417 0 -0.048588063913530537 -0.0010076944475420262 0 -0.049123027402985117 -0.00069951669275989607 0 -0.048794587939374919 -0.00085640161400729153 0 -0.049123027402985117 -0.00069951669275989607 0 -0.048794587939374919 -0.00085640161400729153 0 -0.049148573373876812 -0.00049430352338918385 0 -0.048794587939374919 -0.00085640161400729153 0 -0.048843794753815964 -0.0009888439665848498 0 -0.049148573373876812 -0.00049430352338918385 0 -0.048784038429438174 -0.001215108810516276 0 -0.048579649311892348 -0.0010832462809331417 0 -0.048843794753815964 -0.0009888439665848498 0 -0.048794587939374919 -0.00085640161400729153 0 -0.048579649311892348 -0.0010832462809331417 0 -0.048843794753815964 -0.0009888439665848498 0 -0.048784038429438174 -0.001215108810516276 0 -0.048579649311892348 -0.0010832462809331417 0 -0.049070600059560376 -0.0012426663662243832 0 -0.048579649311892348 -0.0010832462809331417 0 -0.048455850091545211 -0.0010711551083305445 0 -0.049070600059560376 -0.0012426663662243832 0 -0.048163707426289303 -0.0012213916910320309 0 -0.048579649311892348 -0.0010832462809331417 0 -0.048455850091545211 -0.0010711551083305445 0 -0.049928638196561181 -0.0010394338895906596 0 -0.048455850091545211 -0.0010711551083305445 0 -0.049070600059560376 -0.0012426663662243832 0 -0.049001636963479006 -0.00085027496397807145 0 -0.049928638196561181 -0.0010394338895906596 0 -0.048455850091545211 -0.0010711551083305445 0 -0.050508657380368291 -0.0019264720247531269 0 -0.049928638196561181 -0.0010394338895906596 0 -0.049070600059560376 -0.0012426663662243832 0 -0.050508657380368291 -0.0019264720247531269 0 -0.049070600059560376 -0.0012426663662243832 0 -0.048792836045069593 -0.0014723518165315256 0 -0.048784038429438174 -0.001215108810516276 0 -0.049070600059560376 -0.0012426663662243832 0 -0.048792836045069593 -0.0014723518165315256 0 -0.050508657380368291 -0.0019264720247531269 0 -0.048792836045069593 -0.0014723518165315256 0 -0.049409547464943408 -0.0023521226706758429 0 -0.05421422138035565 -0.0025575095131372249 0 -0.055383484200982158 -0.0018334874657406507 0 -0.048792836045069593 -0.0014723518165315256 0 -0.0482983794809611 -0.00082252165898056878 0 -0.048853435557341902 -0.00078052182569049542 0 -0.054726628099288542 -0.0013935867743344308 0 -0.055383484200982158 -0.0018334874657406507 0 -0.048792836045069593 -0.0014723518165315256 0 -0.048843794753815964 -0.0009888439665848498 0 -0.048853435557341902 -0.00078052182569049542 0 -0.048784038429438174 -0.001215108810516276 0 -0.048792836045069593 -0.0014723518165315256 0 -0.048843794753815964 -0.0009888439665848498 0 -0.048843794753815964 -0.0009888439665848498 0 -0.048853435557341902 -0.00078052182569049542 0 -0.049103203448639027 -0.0004607264483553001 0 -0.048853435557341902 -0.00078052182569049542 0 -0.048853503548565193 -6.0131090491302471e-05 0 -0.049103203448639027 -0.0004607264483553001 0 -0.048853503548565193 -6.0131090491302471e-05 0 -0.049103203448639027 -0.0004607264483553001 0 -0.049312183159287259 -3.3191313427927913e-05 0 -0.061159478657367067 -0.0016075535577242987 0 -0.061151131618782849 -0.0016095409232619116 0 -0.061160062279424048 -0.0016068284560783925 0 -0.055383484200982158 -0.0018334874657406507 0 -0.055224969456637393 -0.00095535289015729035 0 -0.0482983794809611 -0.00082252165898056878 0 -0.048853435557341902 -0.00078052182569049542 0 -0.048853503548565193 -6.0131090491302471e-05 0 -0.057321434814567362 -0.0029895193557074717 0 -0.055383484200982158 -0.0018334874657406507 0 -0.061159478657367067 -0.0016075535577242987 0 -0.061160062279424048 -0.0016068284560783925 0 -0.06116825261619592 -0.0016044496053467573 0 -0.061160062279424048 -0.0016068284560783925 0 -0.06116825261619592 -0.0016044496053467573 0 -0.061169206319228203 -0.0016000566623645724 0 -0.048853503548565193 -6.0131090491302471e-05 0 -0.049190363257168079 0.00033507133699210858 0 -0.049312183159287259 -3.3191313427927913e-05 0 -0.055224969456637393 -0.00095535289015729035 0 -0.055226455663733541 -2.8547132267546003e-05 0 -0.06116825261619592 -0.0016044496053467573 0 -0.061169206319228203 -0.0016000566623645724 0 -0.061174206482374024 -0.0015963546503977636 0 -0.061169206319228203 -0.0016000566623645724 0 -0.061179496105730501 -0.0015861652866179965 0 -0.061174206482374024 -0.0015963546503977636 0 -0.06116825261619592 -0.0016044496053467573 0 -0.061174206482374024 -0.0015963546503977636 0 -0.061183604633274331 -0.0016056605882596566 0 -0.053478066570003993 0.0019364869653903866 0 -0.055744099175448161 0.0017554687549279668 0 -0.053340536009781891 0.0039939439107722942 0 -0.052585948514414567 0.0040814373317650159 0 -0.052863014976405595 0.0039706330805376455 0 -0.053340536009781891 0.0039939439107722942 0 -0.052585948514414567 0.0040814373317650159 0 -0.053304350626784999 0.0040037477830564636 0 -0.049190363257168079 0.00033507133699210858 0 -0.049557320767061881 0.00022837796938050866 0 -0.049466334889525738 0.00066526614534768904 0 -0.055226455663733541 -2.8547132267546003e-05 0 -0.055744099175448161 0.0017554687549279668 0 -0.061169206319228203 -0.0016000566623645724 0 -0.061179496105730501 -0.0015861652866179965 0 -0.0611803698020493 -0.0015872425866429599 0 -0.049190363257168079 0.00033507133699210858 0 -0.049557320767061881 0.00022837796938050866 0 -0.049312183159287259 -3.3191313427927913e-05 0 -0.053478066570003993 0.0019364869653903866 0 -0.052423147036408276 0.0013910216090584667 0 -0.052585948514414567 0.0040814373317650159 0 -0.051096166253987683 0.0034382993537291407 0 -0.052138188101961844 0.0041461334075478095 0 -0.049613862787166077 -5.8483506907716183e-05 0 -0.049312183159287259 -3.3191313427927913e-05 0 -0.049386526070206237 -0.00021021049056394879 0 -0.049557320767061881 0.00022837796938050866 0 -0.049613862787166077 -5.8483506907716183e-05 0 -0.049312183159287259 -3.3191313427927913e-05 0 -0.049103203448639027 -0.0004607264483553001 0 -0.049312183159287259 -3.3191313427927913e-05 0 -0.049386526070206237 -0.00021021049056394879 0 -0.049103203448639027 -0.0004607264483553001 0 -0.049386526070206237 -0.00021021049056394879 0 -0.049148573373876812 -0.00049430352338918385 0 -0.049386526070206237 -0.00021021049056394879 0 -0.049148573373876812 -0.00049430352338918385 0 -0.049592453835067905 -9.9088492915301048e-05 0 -0.048843794753815964 -0.0009888439665848498 0 -0.049103203448639027 -0.0004607264483553001 0 -0.049148573373876812 -0.00049430352338918385 0 -0.052423147036408276 0.0013910216090584667 0 -0.052159659809209315 0.00090108890596141751 0 -0.049613862787166077 -5.8483506907716183e-05 0 -0.049592453835067905 -9.9088492915301048e-05 0 -0.050347757369275797 0.0002186240847954228 0 -0.049613862787166077 -5.8483506907716183e-05 0 -0.049386526070206237 -0.00021021049056394879 0 -0.049592453835067905 -9.9088492915301048e-05 0 -0.049530565126261819 -0.00024152220496170791 0 -0.049148573373876812 -0.00049430352338918385 0 -0.049592453835067905 -9.9088492915301048e-05 0 -0.049530565126261819 -0.00024152220496170791 0 -0.049592453835067905 -9.9088492915301048e-05 0 -0.050347757369275797 0.0002186240847954228 0 -0.051515799160912874 0.0025729550412286134 0 -0.050347757369275797 0.0002186240847954228 0 -0.05143601043557583 0.00022124424978859793 0 -0.051096166253987683 0.0034382993537291407 0 -0.051515799160912874 0.0025729550412286134 0 -0.050347757369275797 0.0002186240847954228 0 -0.051515799160912874 0.0025729550412286134 0 -0.052863051793046685 0.0044082901081501629 0 -0.05143601043557583 0.00022124424978859793 0 -0.043595520768712932 -0.0018403873462612113 0 -0.043748280965106065 -0.0023487292694872514 0 -0.035889193878445205 -0.0059494438720259614 0 -0.036045166226140457 -0.0062404068555606193 0 -0.03645544016354061 -0.0059913086165176493 0 -0.051096166253987683 0.0034382993537291407 0 -0.051515799160912874 0.0025729550412286134 0 -0.052138188101961844 0.0041461334075478095 0 -0.051515799160912874 0.0025729550412286134 0 -0.052863051793046685 0.0044082901081501629 0 -0.052138188101961844 0.0041461334075478095 0 -0.052138188101961844 0.0041461334075478095 0 -0.052312918229199652 0.0042391276937072241 0 -0.052863014976405595 0.0039706330805376455 0 -0.052585948514414567 0.0040814373317650159 0 -0.052138188101961844 0.0041461334075478095 0 -0.052863014976405595 0.0039706330805376455 0 -0.052863051793046685 0.0044082901081501629 0 -0.052138188101961844 0.0041461334075478095 0 -0.052312918229199652 0.0042391276937072241 0 -0.052863051793046685 0.0044082901081501629 0 -0.051501899464610056 0.0042387031192000733 0 -0.052312918229199652 0.0042391276937072241 0 -0.052863051793046685 0.0044082901081501629 0 -0.051501899464610056 0.0042387031192000733 0 -0.048393017962865437 0.0041669966150391395 0 -0.051501899464610056 0.0042387031192000733 0 -0.052312918229199652 0.0042391276937072241 0 -0.05266656089070542 0.0034809619603211437 0 -0.051501899464610056 0.0042387031192000733 0 -0.05266656089070542 0.0034809619603211437 0 -0.048393017962865437 0.0041669966150391395 0 -0.053340536009781891 0.0039939439107722942 0 -0.052863014976405595 0.0039706330805376455 0 -0.053499594514451868 0.0039884019666058543 0 -0.05266656089070542 0.0034809619603211437 0 -0.052863014976405595 0.0039706330805376455 0 -0.053499594514451868 0.0039884019666058543 0 -0.052312918229199652 0.0042391276937072241 0 -0.05266656089070542 0.0034809619603211437 0 -0.052863014976405595 0.0039706330805376455 0 -0.03708080547873855 -0.0052196126863892287 0 -0.037223274300016998 -0.0049499268836121118 0 -0.038680483938146625 -0.0052775152415601052 0 -0.037050779588321404 -0.0063657340502091576 0 -0.041117962527295132 -0.0051357864010231164 0 -0.040151462091572249 -0.0045135878832722066 0 -0.038680483938146625 -0.0052775152415601052 0 -0.041117962527295132 -0.0051357864010231164 0 -0.040151462091572249 -0.0045135878832722066 0 -0.041117962527295132 -0.0051357864010231164 0 -0.041047553525780191 -0.0041310419435672402 0 -0.038680483938146625 -0.0052775152415601052 0 -0.036743794158955456 -0.0060339762637964412 0 -0.042178671034303658 -0.0032719199543143475 0 -0.05266656089070542 0.0034809619603211437 0 -0.048393017962865437 0.0041669966150391395 0 -0.04458635166003929 -0.0028209386208822959 0 -0.038680483938146625 -0.0052775152415601052 0 -0.036743794158955456 -0.0060339762637964412 0 -0.037050779588321404 -0.0063657340502091576 0 -0.036045166226140457 -0.0062404068555606193 0 -0.036743794158955456 -0.0060339762637964412 0 -0.036213570287473094 -0.006232108731501174 0 -0.036743794158955456 -0.0060339762637964412 0 -0.037050779588321404 -0.0063657340502091576 0 -0.036213570287473094 -0.006232108731501174 0 -0.043595520768712932 -0.0018403873462612113 0 -0.042731182176907349 -0.0024101308712617046 0 -0.037050779588321404 -0.0063657340502091576 0 -0.035653251768000487 -0.0062909560783509849 0 -0.034984515281221512 -0.0073103550112582133 0 -0.037050779588321404 -0.0063657340502091576 0 -0.035653251768000487 -0.0062909560783509849 0 -0.036213570287473094 -0.006232108731501174 0 -0.035653251768000487 -0.0062909560783509849 0 -0.035235271351141989 -0.0059212672197073001 0 -0.034640605259659535 -0.0060522393204266028 0 -0.035653251768000487 -0.0062909560783509849 0 -0.035235271351141989 -0.0059212672197073001 0 -0.036213570287473094 -0.006232108731501174 0 -0.035235271351141989 -0.0059212672197073001 0 -0.036213570287473094 -0.006232108731501174 0 -0.03570866789722682 -0.00599218472761439 0 -0.036045166226140457 -0.0062404068555606193 0 -0.036213570287473094 -0.006232108731501174 0 -0.03570866789722682 -0.00599218472761439 0 -0.035889193878445205 -0.0059494438720259614 0 -0.03570866789722682 -0.00599218472761439 0 -0.035256587669696346 -0.0056270421055720759 0 -0.035889193878445205 -0.0059494438720259614 0 -0.036045166226140457 -0.0062404068555606193 0 -0.03570866789722682 -0.00599218472761439 0 -0.035235271351141989 -0.0059212672197073001 0 -0.03570866789722682 -0.00599218472761439 0 -0.034830980121172771 -0.0056767060267254301 0 -0.035235271351141989 -0.0059212672197073001 0 -0.034830980121172771 -0.0056767060267254301 0 -0.034286059342564214 -0.0056322533213393504 0 -0.03570866789722682 -0.00599218472761439 0 -0.034830980121172771 -0.0056767060267254301 0 -0.035256587669696346 -0.0056270421055720759 0 -0.034830980121172771 -0.0056767060267254301 0 -0.034552585690865514 -0.0053076198132007753 0 -0.035256587669696346 -0.0056270421055720759 0 -0.034552585690865514 -0.0053076198132007753 0 -0.035265565161713086 -0.005286074159370927 0 -0.035256587669696346 -0.0056270421055720759 0 -0.034552585690865514 -0.0053076198132007753 0 -0.035265565161713086 -0.005286074159370927 0 -0.0348578619689138 -0.0046055627307888597 0 -0.034552585690865514 -0.0053076198132007753 0 -0.0348578619689138 -0.0046055627307888597 0 -0.033996225056874364 -0.0045529788431253465 0 -0.035265565161713086 -0.005286074159370927 0 -0.035763827268384833 -0.0050321164344828912 0 -0.0348578619689138 -0.0046055627307888597 0 -0.035265565161713086 -0.005286074159370927 0 -0.035256587669696346 -0.0056270421055720759 0 -0.035900659601816161 -0.0056921888553142881 0 -0.035889193878445205 -0.0059494438720259614 0 -0.035256587669696346 -0.0056270421055720759 0 -0.035900659601816161 -0.0056921888553142881 0 -0.035900659601816161 -0.0056921888553142881 0 -0.03645544016354061 -0.0059913086165176493 0 -0.036493549310678962 -0.0055033257178783469 0 -0.035889193878445205 -0.0059494438720259614 0 -0.035900659601816161 -0.0056921888553142881 0 -0.03645544016354061 -0.0059913086165176493 0 -0.043727261040908377 -0.0026302573524600503 0 -0.043748280965106065 -0.0023487292694872514 0 -0.049130924208942016 -0.001448313062436702 0 -0.050347757369275797 0.0002186240847954228 0 -0.05143601043557583 0.00022124424978859793 0 -0.037716847865835026 -0.0055559556698179142 0 -0.03645544016354061 -0.0059913086165176493 0 -0.036493549310678962 -0.0055033257178783469 0 -0.035900659601816161 -0.0056921888553142881 0 -0.036493549310678962 -0.0055033257178783469 0 -0.035763827268384833 -0.0050321164344828912 0 -0.035265565161713086 -0.005286074159370927 0 -0.035900659601816161 -0.0056921888553142881 0 -0.035763827268384833 -0.0050321164344828912 0 -0.036493549310678962 -0.0055033257178783469 0 -0.035763827268384833 -0.0050321164344828912 0 -0.036714783066720241 -0.0045123446584469052 0 -0.035763827268384833 -0.0050321164344828912 0 -0.036714783066720241 -0.0045123446584469052 0 -0.035317866327237379 -0.0041218654920100548 0 -0.037716847865835026 -0.0055559556698179142 0 -0.036493549310678962 -0.0055033257178783469 0 -0.036714783066720241 -0.0045123446584469052 0 -0.035124193851030897 -0.0028514703232363275 0 -0.036714783066720241 -0.0045123446584469052 0 -0.035317866327237379 -0.0041218654920100548 0 -0.035124193851030897 -0.0028514703232363275 0 -0.035317866327237379 -0.0041218654920100548 0 -0.034144272373792056 -0.0035134709996970221 0 -0.034144272373792056 -0.0035134709996970221 0 -0.0348578619689138 -0.0046055627307888597 0 -0.033996225056874364 -0.0045529788431253465 0 -0.035317866327237379 -0.0041218654920100548 0 -0.034144272373792056 -0.0035134709996970221 0 -0.0348578619689138 -0.0046055627307888597 0 -0.035763827268384833 -0.0050321164344828912 0 -0.035317866327237379 -0.0041218654920100548 0 -0.0348578619689138 -0.0046055627307888597 0 -0.033235260896689836 -0.0048419511919889522 0 -0.033290705822706795 -0.0037472692928340245 0 -0.03264595436834572 -0.0040728260730644754 0 -0.033235260896689836 -0.0048419511919889522 0 -0.033996225056874364 -0.0045529788431253465 0 -0.033290705822706795 -0.0037472692928340245 0 -0.034144272373792056 -0.0035134709996970221 0 -0.033996225056874364 -0.0045529788431253465 0 -0.033290705822706795 -0.0037472692928340245 0 -0.033120273249442896 -0.0025434063159432783 0 -0.034144272373792056 -0.0035134709996970221 0 -0.033290705822706795 -0.0037472692928340245 0 -0.032394728093352261 -0.0021987224703108673 0 -0.033290705822706795 -0.0037472692928340245 0 -0.03264595436834572 -0.0040728260730644754 0 -0.030839396440998042 -0.0027300998908550396 0 -0.03264595436834572 -0.0040728260730644754 0 -0.031812673140875547 -0.004478017530285895 0 -0.030839396440998042 -0.0027300998908550396 0 -0.032394728093352261 -0.0021987224703108673 0 -0.03264595436834572 -0.0040728260730644754 0 -0.030839396440998042 -0.0027300998908550396 0 -0.031812673140875547 -0.004478017530285895 0 -0.030221127501130558 -0.0037096394563443168 0 -0.031812673140875547 -0.004478017530285895 0 -0.032898132133144249 -0.006207669536680894 0 -0.031178937313828845 -0.0052142474834658862 0 -0.031812673140875547 -0.004478017530285895 0 -0.032833203868906327 -0.0052129491174432883 0 -0.032898132133144249 -0.006207669536680894 0 -0.031812673140875547 -0.004478017530285895 0 -0.031178937313828845 -0.0052142474834658862 0 -0.030221127501130558 -0.0037096394563443168 0 -0.03264595436834572 -0.0040728260730644754 0 -0.031812673140875547 -0.004478017530285895 0 -0.032833203868906327 -0.0052129491174432883 0 -0.033235260896689836 -0.0048419511919889522 0 -0.03264595436834572 -0.0040728260730644754 0 -0.032833203868906327 -0.0052129491174432883 0 -0.032833203868906327 -0.0052129491174432883 0 -0.033324707428702166 -0.0057716683929649173 0 -0.032898132133144249 -0.006207669536680894 0 -0.033235260896689836 -0.0048419511919889522 0 -0.032833203868906327 -0.0052129491174432883 0 -0.033324707428702166 -0.0057716683929649173 0 -0.032898132133144249 -0.006207669536680894 0 -0.033742853340012348 -0.0068443862199330015 0 -0.032600073134495436 -0.0067603658321269211 0 -0.032898132133144249 -0.006207669536680894 0 -0.033652573988516551 -0.0061725776824788046 0 -0.033742853340012348 -0.0068443862199330015 0 -0.033324707428702166 -0.0057716683929649173 0 -0.032898132133144249 -0.006207669536680894 0 -0.033652573988516551 -0.0061725776824788046 0 -0.033324707428702166 -0.0057716683929649173 0 -0.033652573988516551 -0.0061725776824788046 0 -0.033630095223810108 -0.0057387411176241104 0 -0.033324707428702166 -0.0057716683929649173 0 -0.033630095223810108 -0.0057387411176241104 0 -0.033741047983323585 -0.0053492213168525272 0 -0.033630095223810108 -0.0057387411176241104 0 -0.033741047983323585 -0.0053492213168525272 0 -0.034063958328625014 -0.005580354257422768 0 -0.033235260896689836 -0.0048419511919889522 0 -0.033324707428702166 -0.0057716683929649173 0 -0.033741047983323585 -0.0053492213168525272 0 -0.033235260896689836 -0.0048419511919889522 0 -0.033996225056874364 -0.0045529788431253465 0 -0.033741047983323585 -0.0053492213168525272 0 -0.034552585690865514 -0.0053076198132007753 0 -0.033996225056874364 -0.0045529788431253465 0 -0.033741047983323585 -0.0053492213168525272 0 -0.034552585690865514 -0.0053076198132007753 0 -0.033741047983323585 -0.0053492213168525272 0 -0.034063958328625014 -0.005580354257422768 0 -0.034830980121172771 -0.0056767060267254301 0 -0.034552585690865514 -0.0053076198132007753 0 -0.034063958328625014 -0.005580354257422768 0 -0.034063958328625014 -0.005580354257422768 0 -0.034286059342564214 -0.0056322533213393504 0 -0.033773216485064095 -0.0056048974199159355 0 -0.034830980121172771 -0.0056767060267254301 0 -0.034063958328625014 -0.005580354257422768 0 -0.034286059342564214 -0.0056322533213393504 0 -0.033773216485064095 -0.0056048974199159355 0 -0.033519477000362251 -0.0053938118144818119 0 -0.03377884440521562 -0.0056027126240198221 0 -0.033630095223810108 -0.0057387411176241104 0 -0.033773216485064095 -0.0056048974199159355 0 -0.03377884440521562 -0.0056027126240198221 0 -0.033630095223810108 -0.0057387411176241104 0 -0.034063958328625014 -0.005580354257422768 0 -0.033773216485064095 -0.0056048974199159355 0 -0.034286059342564214 -0.0056322533213393504 0 -0.033773216485064095 -0.0056048974199159355 0 -0.033519477000362251 -0.0053938118144818119 0 -0.035235271351141989 -0.0059212672197073001 0 -0.034286059342564214 -0.0056322533213393504 0 -0.034640605259659535 -0.0060522393204266028 0 -0.034286059342564214 -0.0056322533213393504 0 -0.033519477000362251 -0.0053938118144818119 0 -0.034640605259659535 -0.0060522393204266028 0 -0.035653251768000487 -0.0062909560783509849 0 -0.034640605259659535 -0.0060522393204266028 0 -0.034984515281221512 -0.0073103550112582133 0 -0.034640605259659535 -0.0060522393204266028 0 -0.033832467777446175 -0.006602893595765812 0 -0.034984515281221512 -0.0073103550112582133 0 -0.033519477000362251 -0.0053938118144818119 0 -0.034640605259659535 -0.0060522393204266028 0 -0.033832467777446175 -0.006602893595765812 0 -0.033519477000362251 -0.0053938118144818119 0 -0.033832467777446175 -0.006602893595765812 0 -0.032673199613792739 -0.0066866608374508679 0 -0.035097827721004303 -0.004960791711650531 0 -0.035705769928977886 -0.0045013409511297569 0 -0.033832467777446175 -0.006602893595765812 0 -0.033422716978460616 -0.0076197185076760888 0 -0.032673199613792739 -0.0066866608374508679 0 -0.037237357496971539 -0.0041394238570716599 0 -0.037223274300016998 -0.0049499268836121118 0 -0.033832467777446175 -0.006602893595765812 0 -0.033422716978460616 -0.0076197185076760888 0 -0.034984515281221512 -0.0073103550112582133 0 -0.040900053978145598 -0.0043455626303528175 0 -0.041117962527295132 -0.0051357864010231164 0 -0.040935795694835617 -0.0042627295274937768 0 -0.041117962527295132 -0.0051357864010231164 0 -0.041047553525780191 -0.0041310419435672402 0 -0.040935795694835617 -0.0042627295274937768 0 -0.038374917248367439 -0.0023029827707468438 0 -0.037978539945132304 -0.0020680160040938275 0 -0.038190697652712151 -0.00062773578158846054 0 -0.037631333976405078 -0.0007700865268179184 0 -0.037854391636703219 -0.0023588069124305688 0 -0.034834742827949378 -0.00070334319493377815 0 -0.035186102666027369 -0.0030735334026472162 0 -0.037854391636703219 -0.0023588069124305688 0 -0.038352041054679119 -0.0022322069086059397 0 -0.038374917248367439 -0.0023029827707468438 0 -0.037237357496971539 -0.0041394238570716599 0 -0.038374917248367439 -0.0023029827707468438 0 -0.034834742827949378 -0.00070334319493377815 0 -0.033667613469512442 -0.0031223791233591543 0 -0.035186102666027369 -0.0030735334026472162 0 -0.038374917248367439 -0.0023029827707468438 0 -0.035705769928977886 -0.0045013409511297569 0 -0.033422716978460616 -0.0076197185076760888 0 -0.031840730737404947 -0.0078448428613050476 0 -0.032673199613792739 -0.0066866608374508679 0 -0.033519477000362251 -0.0053938118144818119 0 -0.033667613469512442 -0.0031223791233591543 0 -0.034340989704153904 -0.0046786027140454413 0 -0.033667613469512442 -0.0031223791233591543 0 -0.035186102666027369 -0.0030735334026472162 0 -0.034340989704153904 -0.0046786027140454413 0 -0.035186102666027369 -0.0030735334026472162 0 -0.035758758336856176 -0.0040168156742100072 0 -0.037854391636703219 -0.0023588069124305688 0 -0.035186102666027369 -0.0030735334026472162 0 -0.035758758336856176 -0.0040168156742100072 0 -0.034340989704153904 -0.0046786027140454413 0 -0.035758758336856176 -0.0040168156742100072 0 -0.034698613048030888 -0.0055057311095523236 0 -0.03670642537083782 -0.0043512678001300861 0 -0.035758758336856176 -0.0040168156742100072 0 -0.034340989704153904 -0.0046786027140454413 0 -0.034698613048030888 -0.0055057311095523236 0 -0.034340989704153904 -0.0046786027140454413 0 -0.03377884440521562 -0.0056027126240198221 0 -0.034698613048030888 -0.0055057311095523236 0 -0.033519477000362251 -0.0053938118144818119 0 -0.034340989704153904 -0.0046786027140454413 0 -0.03377884440521562 -0.0056027126240198221 0 -0.033652573988516551 -0.0061725776824788046 0 -0.03377884440521562 -0.0056027126240198221 0 -0.034698613048030888 -0.0055057311095523236 0 -0.033652573988516551 -0.0061725776824788046 0 -0.033630095223810108 -0.0057387411176241104 0 -0.03377884440521562 -0.0056027126240198221 0 -0.033652573988516551 -0.0061725776824788046 0 -0.034698613048030888 -0.0055057311095523236 0 -0.033742853340012348 -0.0068443862199330015 0 -0.034698613048030888 -0.0055057311095523236 0 -0.036396001174220802 -0.005768197391228704 0 -0.03670642537083782 -0.0043512678001300861 0 -0.034698613048030888 -0.0055057311095523236 0 -0.036396001174220802 -0.005768197391228704 0 -0.033742853340012348 -0.0068443862199330015 0 -0.036396001174220802 -0.005768197391228704 0 -0.039062997720539235 -0.0037238367886762084 0 -0.040613966311560196 -0.0060010242516562971 0 -0.036396001174220802 -0.005768197391228704 0 -0.040613966311560196 -0.0060010242516562971 0 -0.036986399641523074 -0.0070351580302784808 0 -0.039062997720539235 -0.0037238367886762084 0 -0.03670642537083782 -0.0043512678001300861 0 -0.037854391636703219 -0.0023588069124305688 0 -0.036396001174220802 -0.005768197391228704 0 -0.039062997720539235 -0.0037238367886762084 0 -0.03670642537083782 -0.0043512678001300861 0 -0.035758758336856176 -0.0040168156742100072 0 -0.03670642537083782 -0.0043512678001300861 0 -0.037854391636703219 -0.0023588069124305688 0 -0.037854391636703219 -0.0023588069124305688 0 -0.040623881830576421 -0.0021797146767458227 0 -0.040414147197542563 -0.0011386519908563014 0 -0.039062997720539235 -0.0037238367886762084 0 -0.040623881830576421 -0.0021797146767458227 0 -0.041944621297430443 -0.0025348185944975401 0 -0.039062997720539235 -0.0037238367886762084 0 -0.037854391636703219 -0.0023588069124305688 0 -0.040623881830576421 -0.0021797146767458227 0 -0.040414147197542563 -0.0011386519908563014 0 -0.042926100321212343 -0.0012987759765609444 0 -0.042879314376639339 -0.0003740182510753885 0 -0.040623881830576421 -0.0021797146767458227 0 -0.040414147197542563 -0.0011386519908563014 0 -0.042926100321212343 -0.0012987759765609444 0 -0.040414147197542563 -0.0011386519908563014 0 -0.042879314376639339 -0.0003740182510753885 0 -0.041370024034546135 7.1154837440473172e-05 0 -0.040414147197542563 -0.0011386519908563014 0 -0.040091522491668377 -0.00015893541666466406 0 -0.041370024034546135 7.1154837440473172e-05 0 -0.037854391636703219 -0.0023588069124305688 0 -0.040414147197542563 -0.0011386519908563014 0 -0.039129230499602208 -0.00084470845257924513 0 -0.038190697652712151 -0.00062773578158846054 0 -0.037854391636703219 -0.0023588069124305688 0 -0.039129230499602208 -0.00084470845257924513 0 -0.040414147197542563 -0.0011386519908563014 0 -0.039129230499602208 -0.00084470845257924513 0 -0.040091522491668377 -0.00015893541666466406 0 -0.045288949787800729 -0.00054631908942132839 0 -0.042926100321212343 -0.0012987759765609444 0 -0.04437689428669174 -4.8038278815231185e-06 0 -0.045288949787800729 -0.00054631908942132839 0 -0.04437689428669174 -4.8038278815231185e-06 0 -0.047842827390480069 -1.3827407215741515e-06 0 -0.045288949787800729 -0.00054631908942132839 0 -0.042926100321212343 -0.0012987759765609444 0 -0.042879314376639339 -0.0003740182510753885 0 -0.042926100321212343 -0.0012987759765609444 0 -0.041944621297430443 -0.0025348185944975401 0 -0.04437689428669174 -4.8038278815231185e-06 0 -0.040623881830576421 -0.0021797146767458227 0 -0.042926100321212343 -0.0012987759765609444 0 -0.041944621297430443 -0.0025348185944975401 0 -0.044368092320771393 1.104503506616957e-06 0 -0.039815909474972974 -0.00023553789419561276 0 -0.041234160108991766 -1.0210513626396259e-06 0 -0.044364640134925595 -1.6536587780861285e-06 0 -0.041247962293893978 -0.0015097123538827945 0 -0.041944621297430443 -0.0025348185944975401 0 -0.04437689428669174 -4.8038278815231185e-06 0 -0.043191045163243777 -0.0034580283377344738 0 -0.039815909474972974 -0.00023553789419561276 0 -0.041234160108991766 -1.0210513626396259e-06 0 -0.038105635083682907 8.853089490274574e-07 0 -0.039062997720539235 -0.0037238367886762084 0 -0.041944621297430443 -0.0025348185944975401 0 -0.040613966311560196 -0.0060010242516562971 0 -0.041944621297430443 -0.0025348185944975401 0 -0.043191045163243777 -0.0034580283377344738 0 -0.040613966311560196 -0.0060010242516562971 0 -0.041247962293893978 -0.0015097123538827945 0 -0.038389738305518423 -0.0019949636178416162 0 -0.039815909474972974 -0.00023553789419561276 0 -0.038105635083682907 8.853089490274574e-07 0 -0.039104873498777871 0.00070467728090327808 0 -0.039815909474972974 -0.00023553789419561276 0 -0.039823819186858143 0.00077197432486636973 0 -0.039104873498777871 0.00070467728090327808 0 -0.038091534683444145 -9.3982412125719421e-06 0 -0.035451523280518329 -0.00031333917332097453 0 -0.038105635083682907 8.853089490274574e-07 0 -0.039104873498777871 0.00070467728090327808 0 -0.038462417337896182 0.0013666677355088051 0 -0.039823819186858143 0.00077197432486636973 0 -0.039104873498777871 0.00070467728090327808 0 -0.039341423144250584 0.001510238698959431 0 -0.038462417337896182 0.0013666677355088051 0 -0.039341423144250584 0.001510238698959431 0 -0.038564087076527906 0.0024131712977296577 0 -0.035451523280518329 -0.00031333917332097453 0 -0.032523658361099411 -0.00029938504416945606 0 -0.034943780536769657 -1.246792064926908e-07 0 -0.03172066113149502 1.2219700342916296e-07 0 -0.031875667998627844 3.3387097139507651e-06 0 -0.039104873498777871 0.00070467728090327808 0 -0.038462417337896182 0.0013666677355088051 0 -0.039341423144250584 0.001510238698959431 0 -0.039341423144250584 0.001510238698959431 0 -0.038564087076527906 0.0024131712977296577 0 -0.039567092929421149 0.0022591824847158792 0 -0.022482923384478163 -0.0077568350739115957 0 -0.024378639252560848 -0.0061456948884645885 0 -0.022760327181864239 -0.0042825805281554363 0 -0.032523658361099411 -0.00029938504416945606 0 -0.02964303446188226 -0.0025558954514226773 0 -0.031716775801666125 7.6165236381740441e-07 0 -0.031571285523749271 2.3704390999738133e-05 0 -0.027588389797046524 7.6508810036401826e-05 0 -0.031726007371309491 -4.2811030375299642e-06 0 -0.032523658361099411 -0.00029938504416945606 0 -0.032523658361099411 -0.00029938504416945606 0 -0.033079430497898188 -0.0017903090623915361 0 -0.022482923384478163 -0.0077568350739115957 0 -0.024378639252560848 -0.0061456948884645885 0 -0.025060456799301762 -0.008164349334724855 0 -0.026695104572174808 -0.0070967305151035318 0 -0.027973409571218268 -0.0060422554743994345 0 -0.026190985183203296 -0.0053555031816162699 0 -0.024378639252560848 -0.0061456948884645885 0 -0.026695104572174808 -0.0070967305151035318 0 -0.026190985183203296 -0.0053555031816162699 0 -0.024378639252560848 -0.0061456948884645885 0 -0.026695104572174808 -0.0070967305151035318 0 -0.025060456799301762 -0.008164349334724855 0 -0.033079430497898188 -0.0017903090623915361 0 -0.034137231551663469 -0.0031042329688677176 0 -0.026695104572174808 -0.0070967305151035318 0 -0.025060456799301762 -0.008164349334724855 0 -0.028169083891644651 -0.0086070894503120499 0 -0.039341423144250584 0.001510238698959431 0 -0.039567092929421149 0.0022591824847158792 0 -0.040535042448492313 0.0021145830194894545 0 -0.039823819186858143 0.00077197432486636973 0 -0.039341423144250584 0.001510238698959431 0 -0.040535042448492313 0.0021145830194894545 0 -0.038389738305518423 -0.0019949636178416162 0 -0.034137231551663469 -0.0031042329688677176 0 -0.036396001174220802 -0.005768197391228704 0 -0.036986399641523074 -0.0070351580302784808 0 -0.033401740290893739 -0.0080873531451734169 0 -0.040613966311560196 -0.0060010242516562971 0 -0.036986399641523074 -0.0070351580302784808 0 -0.037926622024598455 -0.009392562128191671 0 -0.036986399641523074 -0.0070351580302784808 0 -0.033401740290893739 -0.0080873531451734169 0 -0.037926622024598455 -0.009392562128191671 0 -0.033946017989779691 -0.0035450113956275479 0 -0.034137231551663469 -0.0031042329688677176 0 -0.036396001174220802 -0.005768197391228704 0 -0.033742853340012348 -0.0068443862199330015 0 -0.033401740290893739 -0.0080873531451734169 0 -0.033742853340012348 -0.0068443862199330015 0 -0.033401740290893739 -0.0080873531451734169 0 -0.032600073134495436 -0.0067603658321269211 0 -0.033401740290893739 -0.0080873531451734169 0 -0.032600073134495436 -0.0067603658321269211 0 -0.031208629913516268 -0.0061486223855956026 0 -0.032600073134495436 -0.0067603658321269211 0 -0.031208629913516268 -0.0061486223855956026 0 -0.031178937313828845 -0.0052142474834658862 0 -0.032898132133144249 -0.006207669536680894 0 -0.032600073134495436 -0.0067603658321269211 0 -0.031178937313828845 -0.0052142474834658862 0 -0.026695104572174808 -0.0070967305151035318 0 -0.029025515623886156 -0.0070962992352040849 0 -0.028169083891644651 -0.0086070894503120499 0 -0.033860497759562645 -0.0035129344160205462 0 -0.034137231551663469 -0.0031042329688677176 0 -0.033401740290893739 -0.0080873531451734169 0 -0.029025515623886156 -0.0070962992352040849 0 -0.028127794397874956 -0.0088125216970949567 0 -0.033401740290893739 -0.0080873531451734169 0 -0.031208629913516268 -0.0061486223855956026 0 -0.029025515623886156 -0.0070962992352040849 0 -0.031208629913516268 -0.0061486223855956026 0 -0.029025515623886156 -0.0070962992352040849 0 -0.029379594534312763 -0.0060473031124191586 0 -0.026695104572174808 -0.0070967305151035318 0 -0.029025515623886156 -0.0070962992352040849 0 -0.027973409571218268 -0.0060422554743994345 0 -0.029025515623886156 -0.0070962992352040849 0 -0.029379594534312763 -0.0060473031124191586 0 -0.027973409571218268 -0.0060422554743994345 0 -0.028459296349853183 -0.0049069912117948493 0 -0.031178937313828845 -0.0052142474834658862 0 -0.028581704418739248 -0.0035821863401414872 0 -0.029379594534312763 -0.0060473031124191586 0 -0.027973409571218268 -0.0060422554743994345 0 -0.028459296349853183 -0.0049069912117948493 0 -0.027973409571218268 -0.0060422554743994345 0 -0.028459296349853183 -0.0049069912117948493 0 -0.026190985183203296 -0.0053555031816162699 0 -0.031208629913516268 -0.0061486223855956026 0 -0.029379594534312763 -0.0060473031124191586 0 -0.028459296349853183 -0.0049069912117948493 0 -0.028459296349853183 -0.0049069912117948493 0 -0.028581704418739248 -0.0035821863401414872 0 -0.026497654672622415 -0.0032933346090080256 0 -0.031208629913516268 -0.0061486223855956026 0 -0.028459296349853183 -0.0049069912117948493 0 -0.031178937313828845 -0.0052142474834658862 0 -0.031178937313828845 -0.0052142474834658862 0 -0.030221127501130558 -0.0037096394563443168 0 -0.028581704418739248 -0.0035821863401414872 0 -0.028254178759547804 -0.0023682326527888981 0 -0.030839396440998042 -0.0027300998908550396 0 -0.030221127501130558 -0.0037096394563443168 0 -0.028254178759547804 -0.0023682326527888981 0 -0.030221127501130558 -0.0037096394563443168 0 -0.028581704418739248 -0.0035821863401414872 0 -0.028581704418739248 -0.0035821863401414872 0 -0.026676397416595464 -0.0024677557457860556 0 -0.026497654672622415 -0.0032933346090080256 0 -0.028254178759547804 -0.0023682326527888981 0 -0.028581704418739248 -0.0035821863401414872 0 -0.026676397416595464 -0.0024677557457860556 0 -0.026676397416595464 -0.0024677557457860556 0 -0.02484221004620293 -0.0019494933927326928 0 -0.026497654672622415 -0.0032933346090080256 0 -0.02484221004620293 -0.0019494933927326928 0 -0.026497654672622415 -0.0032933346090080256 0 -0.024495477669564801 -0.0028013714915877054 0 -0.026497654672622415 -0.0032933346090080256 0 -0.024495477669564801 -0.0028013714915877054 0 -0.02584904330565781 -0.0039894823304326794 0 -0.023218548226551887 -0.00065079644944085046 0 -0.024495477669564801 -0.0028013714915877054 0 -0.022760327181864239 -0.0042825805281554363 0 -0.028683106692400165 -0.0026575694500550048 0 -0.02964303446188226 -0.0025558954514226773 0 -0.023218548226551887 -0.00065079644944085046 0 -0.02484221004620293 -0.0019494933927326928 0 -0.024495477669564801 -0.0028013714915877054 0 -0.023218548226551887 -0.00065079644944085046 0 -0.026103096934220003 -4.857376767086978e-07 0 -0.027588389797046524 7.6508810036401826e-05 0 -0.024495477669564801 -0.0028013714915877054 0 -0.022760327181864239 -0.0042825805281554363 0 -0.024697234939291799 -0.00446355633575288 0 -0.031716775801666125 7.6165236381740441e-07 0 -0.026103096934220003 -4.857376767086978e-07 0 -0.027588389797046524 7.6508810036401826e-05 0 -0.024378639252560848 -0.0061456948884645885 0 -0.022760327181864239 -0.0042825805281554363 0 -0.024697234939291799 -0.00446355633575288 0 -0.024378639252560848 -0.0061456948884645885 0 -0.026190985183203296 -0.0053555031816162699 0 -0.024697234939291799 -0.00446355633575288 0 -0.028459296349853183 -0.0049069912117948493 0 -0.026190985183203296 -0.0053555031816162699 0 -0.02584904330565781 -0.0039894823304326794 0 -0.028459296349853183 -0.0049069912117948493 0 -0.026497654672622415 -0.0032933346090080256 0 -0.02584904330565781 -0.0039894823304326794 0 -0.024495477669564801 -0.0028013714915877054 0 -0.02584904330565781 -0.0039894823304326794 0 -0.024697234939291799 -0.00446355633575288 0 -0.026190985183203296 -0.0053555031816162699 0 -0.02584904330565781 -0.0039894823304326794 0 -0.024697234939291799 -0.00446355633575288 0 -0.068747824713062011 -0.00040572789658401578 0 -0.067869358506387673 -0.00028353474123406794 0 -0.065356775913381931 -0.00027933302129879697 0 -0.068747824713062011 -0.00040572789658401578 0 -0.068116351016434568 -8.731922387670117e-07 0 -0.065356775913381931 -0.00027933302129879697 0 -0.068116351016434568 -8.731922387670117e-07 0 -0.071512207539768252 -0.00069438392278611241 0 -0.073713557115565653 -1.3390688059172351e-06 0 -0.068747824713062011 -0.00040572789658401578 0 -0.068116351016434568 -8.731922387670117e-07 0 -0.071512207539768252 -0.00069438392278611241 0 -0.068747824713062011 -0.00040572789658401578 0 -0.071237446731944348 -0.00086283635797247151 0 -0.071512207539768252 -0.00069438392278611241 0 -0.071237446731944348 -0.00086283635797247151 0 -0.071108070960269637 -0.0012704897653842422 0 -0.071208099066668057 -0.00089376917428399976 0 -0.068747824713062011 -0.00040572789658401578 0 -0.071237446731944348 -0.00086283635797247151 0 -0.067869358506387673 -0.00028353474123406794 0 -0.071237446731944348 -0.00086283635797247151 0 -0.071108070960269637 -0.0012704897653842422 0 -0.071359523154465074 -0.0012578292824273294 0 -0.067734957670286394 -0.002123773556412216 0 -0.066873453667526353 -0.0020095422012337389 0 -0.071359523154465074 -0.0012578292824273294 0 -0.071210195469948334 -0.0014806696048825544 0 -0.071394393329142408 -0.0016158150521519944 0 -0.071108070960269637 -0.0012704897653842422 0 -0.071359523154465074 -0.0012578292824273294 0 -0.071210195469948334 -0.0014806696048825544 0 -0.066873453667526353 -0.0020095422012337389 0 -0.064378926756504765 -0.0014517485340218828 0 -0.071108070960269637 -0.0012704897653842422 0 -0.071210195469948334 -0.0014806696048825544 0 -0.070986469905574917 -0.0016084876365736888 0 -0.071108070960269637 -0.0012704897653842422 0 -0.070986469905574917 -0.0016084876365736888 0 -0.070861331050816032 -0.0014856275650171756 0 -0.057096204889517388 -0.00014793289602805653 0 -0.053998220703298155 -0.0019108892910583326 0 -0.071210195469948334 -0.0014806696048825544 0 -0.070986469905574917 -0.0016084876365736888 0 -0.071123861555024426 -0.0017871829709749292 0 -0.070986469905574917 -0.0016084876365736888 0 -0.071123861555024426 -0.0017871829709749292 0 -0.070697251342907108 -0.00165654679757426 0 -0.071210195469948334 -0.0014806696048825544 0 -0.071394393329142408 -0.0016158150521519944 0 -0.071123861555024426 -0.0017871829709749292 0 -0.064222245795678132 -0.00016905211156605589 0 -0.065356775913381931 -0.00027933302129879697 0 -0.061068269823950354 -7.7848127947147673e-05 0 -0.067869358506387673 -0.00028353474123406794 0 -0.064222245795678132 -0.00016905211156605589 0 -0.065356775913381931 -0.00027933302129879697 0 -0.068116351016434568 -8.731922387670117e-07 0 -0.065356775913381931 -0.00027933302129879697 0 -0.06251960613108562 -1.4669218304947065e-06 0 -0.06251960613108562 -1.4669218304947065e-06 0 -0.061068269823950354 -7.7848127947147673e-05 0 -0.056917840152409666 3.5413485371425888e-06 0 -0.065356775913381931 -0.00027933302129879697 0 -0.06251960613108562 -1.4669218304947065e-06 0 -0.061068269823950354 -7.7848127947147673e-05 0 -0.061068269823950354 -7.7848127947147673e-05 0 -0.058897002178401082 0.0003626564490739307 0 -0.056917840152409666 3.5413485371425888e-06 0 -0.061068269823950354 -7.7848127947147673e-05 0 -0.058897002178401082 0.0003626564490739307 0 -0.061443151363375262 0.0011202188892249685 0 -0.058897002178401082 0.0003626564490739307 0 -0.056917840152409666 3.5413485371425888e-06 0 -0.055005108501732944 0.0005049954187072021 0 -0.064378926756504765 -0.0014517485340218828 0 -0.059557246393919565 0.0010889718807765511 0 -0.064222245795678132 -0.00016905211156605589 0 -0.061068269823950354 -7.7848127947147673e-05 0 -0.061443151363375262 0.0011202188892249685 0 -0.050424898827275924 0.0031411610281182772 0 -0.051163236552048595 -0.00020986376670250885 0 -0.055005108501732944 0.0005049954187072021 0 -0.048666613438710815 0.0043084387127731993 0 -0.047478784987841791 0.0017037751456301855 0 -0.044517246302387341 0.0031702409352037378 0 -0.048666613438710815 0.0043084387127731993 0 -0.047478784987841791 0.0017037751456301855 0 -0.051163236552048595 -0.00020986376670250885 0 -0.059557246393919565 0.0010889718807765511 0 -0.0587329746582166 0.0013239694750993916 0 -0.047478784987841791 0.0017037751456301855 0 -0.051163236552048595 -0.00020986376670250885 0 -0.050675965254163277 -0.00097369436654377991 0 -0.051163236552048595 -0.00020986376670250885 0 -0.055005108501732944 0.0005049954187072021 0 -0.051326881334135183 -2.5418432049183014e-06 0 -0.056917840152409666 3.5413485371425888e-06 0 -0.055005108501732944 0.0005049954187072021 0 -0.051326881334135183 -2.5418432049183014e-06 0 -0.058897002178401082 0.0003626564490739307 0 -0.061443151363375262 0.0011202188892249685 0 -0.055005108501732944 0.0005049954187072021 0 -0.059557246393919565 0.0010889718807765511 0 -0.058175249087362949 0.001426480005339368 0 -0.051163236552048595 -0.00020986376670250885 0 -0.051326881334135183 -2.5418432049183014e-06 0 -0.050675965254163277 -0.00097369436654377991 0 -0.051313413827922025 6.0810313257508828e-06 0 -0.045973686384587265 0.00099286408785837334 0 -0.047621528845473576 -3.7987423269366091e-05 0 -0.051313413827922025 6.0810313257508828e-06 0 -0.044166483586718701 0.0032555091447219872 0 -0.045973686384587265 0.00099286408785837334 0 -0.051316034071420352 1.0144658351911339e-06 0 -0.047966363217867888 0.0010684904698460551 0 -0.044166483586718701 0.0032555091447219872 0 -0.04417195717964946 0.0020272689786144504 0 -0.045973686384587265 0.00099286408785837334 0 -0.044166483586718701 0.0032555091447219872 0 -0.04417195717964946 0.0020272689786144504 0 -0.043113726220995567 0.002273313684220961 0 -0.043759149434416819 0.0013216354282269375 0 -0.04417195717964946 0.0020272689786144504 0 -0.043113726220995567 0.002273313684220961 0 -0.043759149434416819 0.0013216354282269375 0 -0.045973686384587265 0.00099286408785837334 0 -0.044726020906643744 0.00020783858562652566 0 -0.043759149434416819 0.0013216354282269375 0 -0.04417195717964946 0.0020272689786144504 0 -0.045973686384587265 0.00099286408785837334 0 -0.045288949787800729 -0.00054631908942132839 0 -0.044726020906643744 0.00020783858562652566 0 -0.042879314376639339 -0.0003740182510753885 0 -0.043759149434416819 0.0013216354282269375 0 -0.044726020906643744 0.00020783858562652566 0 -0.042573828815583352 0.00068801891946566147 0 -0.044726020906643744 0.00020783858562652566 0 -0.042879314376639339 -0.0003740182510753885 0 -0.042573828815583352 0.00068801891946566147 0 -0.051313413827922025 6.0810313257508828e-06 0 -0.047842827390480069 -1.3827407215741515e-06 0 -0.047621528845473576 -3.7987423269366091e-05 0 -0.045288949787800729 -0.00054631908942132839 0 -0.044726020906643744 0.00020783858562652566 0 -0.047621528845473576 -3.7987423269366091e-05 0 -0.045288949787800729 -0.00054631908942132839 0 -0.047842827390480069 -1.3827407215741515e-06 0 -0.047621528845473576 -3.7987423269366091e-05 0 -0.045973686384587265 0.00099286408785837334 0 -0.044726020906643744 0.00020783858562652566 0 -0.047621528845473576 -3.7987423269366091e-05 0 -0.04104459487691467 0.0010282581933545281 0 -0.039261902438712623 3.3397260102875862e-05 0 -0.038744755377226298 0.0008958618005769014 0 -0.038190697652712151 -0.00062773578158846054 0 -0.039129230499602208 -0.00084470845257924513 0 -0.039261902438712623 3.3397260102875862e-05 0 -0.039129230499602208 -0.00084470845257924513 0 -0.039261902438712623 3.3397260102875862e-05 0 -0.040091522491668377 -0.00015893541666466406 0 -0.04104459487691467 0.0010282581933545281 0 -0.039261902438712623 3.3397260102875862e-05 0 -0.040091522491668377 -0.00015893541666466406 0 -0.04104459487691467 0.0010282581933545281 0 -0.040091522491668377 -0.00015893541666466406 0 -0.041370024034546135 7.1154837440473172e-05 0 -0.042879314376639339 -0.0003740182510753885 0 -0.041370024034546135 7.1154837440473172e-05 0 -0.042573828815583352 0.00068801891946566147 0 -0.04104459487691467 0.0010282581933545281 0 -0.041370024034546135 7.1154837440473172e-05 0 -0.042573828815583352 0.00068801891946566147 0 -0.04104459487691467 0.0010282581933545281 0 -0.042508366949732097 0.0016790863457593888 0 -0.042161160853878978 0.0019511726985236891 0 -0.04104459487691467 0.0010282581933545281 0 -0.042573828815583352 0.00068801891946566147 0 -0.042508366949732097 0.0016790863457593888 0 -0.043759149434416819 0.0013216354282269375 0 -0.042508366949732097 0.0016790863457593888 0 -0.043113726220995567 0.002273313684220961 0 -0.043759149434416819 0.0013216354282269375 0 -0.042573828815583352 0.00068801891946566147 0 -0.042508366949732097 0.0016790863457593888 0 -0.042508366949732097 0.0016790863457593888 0 -0.043113726220995567 0.002273313684220961 0 -0.042161160853878978 0.0019511726985236891 0 -0.043113726220995567 0.002273313684220961 0 -0.042161160853878978 0.0019511726985236891 0 -0.042664142988101734 0.0019119893435687941 0 -0.040275855166953888 0.00075780942753123656 0 -0.039849370025021903 0.0001287025177668764 0 -0.04104459487691467 0.0010282581933545281 0 -0.041392172852040623 0.0021567081152777555 0 -0.038744755377226298 0.0008958618005769014 0 -0.04104459487691467 0.0010282581933545281 0 -0.042161160853878978 0.0019511726985236891 0 -0.041392172852040623 0.0021567081152777555 0 -0.041392172852040623 0.0021567081152777555 0 -0.041670631629199123 0.0024028168490481338 0 -0.041538241441031784 0.0023025597392740678 0 -0.042161160853878978 0.0019511726985236891 0 -0.041392172852040623 0.0021567081152777555 0 -0.042664142988101734 0.0019119893435687941 0 -0.041392172852040623 0.0021567081152777555 0 -0.041670631629199123 0.0024028168490481338 0 -0.042664142988101734 0.0019119893435687941 0 -0.041670631629199123 0.0024028168490481338 0 -0.042664142988101734 0.0019119893435687941 0 -0.042428421455934145 0.0029352359835753575 0 -0.044166483586718701 0.0032555091447219872 0 -0.043113726220995567 0.002273313684220961 0 -0.042664142988101734 0.0019119893435687941 0 -0.047478784987841791 0.0017037751456301855 0 -0.050675965254163277 -0.00097369436654377991 0 -0.042664142988101734 0.0019119893435687941 0 -0.047966363217867888 0.0010684904698460551 0 -0.046189713091346354 0.0016177664852464499 0 -0.042664142988101734 0.0019119893435687941 0 -0.044517246302387341 0.0031702409352037378 0 -0.042428421455934145 0.0029352359835753575 0 -0.047478784987841791 0.0017037751456301855 0 -0.042664142988101734 0.0019119893435687941 0 -0.044517246302387341 0.0031702409352037378 0 -0.048666613438710815 0.0043084387127731993 0 -0.044517246302387341 0.0031702409352037378 0 -0.042207164852396027 0.0041372827455822643 0 -0.059557246393919565 0.0010889718807765511 0 -0.057096204889517388 -0.00014793289602805653 0 -0.071394393329142408 -0.0016158150521519944 0 -0.071421583616290488 -0.0019032569842315479 0 -0.071123861555024426 -0.0017871829709749292 0 -0.044517246302387341 0.0031702409352037378 0 -0.042428421455934145 0.0029352359835753575 0 -0.042207164852396027 0.0041372827455822643 0 -0.041770683207614533 0.0029539039821322348 0 -0.042207164852396027 0.0041372827455822643 0 -0.041585239921994727 0.0028085899876178627 0 -0.041670631629199123 0.0024028168490481338 0 -0.041770683207614533 0.0029539039821322348 0 -0.04152880247356569 0.0025391678838669082 0 -0.041670631629199123 0.0024028168490481338 0 -0.041770683207614533 0.0029539039821322348 0 -0.042428421455934145 0.0029352359835753575 0 -0.041770683207614533 0.0029539039821322348 0 -0.042428421455934145 0.0029352359835753575 0 -0.042207164852396027 0.0041372827455822643 0 -0.041585239921994727 0.0028085899876178627 0 -0.04152880247356569 0.0025391678838669082 0 -0.041553562020618925 0.0022411972492356628 0 -0.04152880247356569 0.0025391678838669082 0 -0.041553562020618925 0.0022411972492356628 0 -0.041609142031067595 0.0023520267876680182 0 -0.041770683207614533 0.0029539039821322348 0 -0.041585239921994727 0.0028085899876178627 0 -0.04152880247356569 0.0025391678838669082 0 -0.041553562020618925 0.0022411972492356628 0 -0.041897767913237752 0.0020874918254249024 0 -0.04222503383726163 0.00090392948236392261 0 -0.041553562020618925 0.0022411972492356628 0 -0.041897767913237752 0.0020874918254249024 0 -0.041609142031067595 0.0023520267876680182 0 -0.041897767913237752 0.0020874918254249024 0 -0.04179615483433239 0.0023098142994521101 0 -0.041609142031067595 0.0023520267876680182 0 -0.04179615483433239 0.0023098142994521101 0 -0.041609142031067595 0.0023520267876680182 0 -0.041680846322582697 0.0023542783125774561 0 -0.041609142031067595 0.0023520267876680182 0 -0.041680846322582697 0.0023542783125774561 0 -0.041538241441031784 0.0023025597392740678 0 -0.04179615483433239 0.0023098142994521101 0 -0.041680846322582697 0.0023542783125774561 0 -0.041824516961919786 0.0023767498328651666 0 -0.04152880247356569 0.0025391678838669082 0 -0.041609142031067595 0.0023520267876680182 0 -0.041538241441031784 0.0023025597392740678 0 -0.041670631629199123 0.0024028168490481338 0 -0.04152880247356569 0.0025391678838669082 0 -0.041538241441031784 0.0023025597392740678 0 -0.041538241441031784 0.0023025597392740678 0 -0.0416646049187143 0.002433328816026239 0 -0.041499580202441787 0.0024679563778417105 0 -0.041392172852040623 0.0021567081152777555 0 -0.041538241441031784 0.0023025597392740678 0 -0.041499580202441787 0.0024679563778417105 0 -0.0416646049187143 0.002433328816026239 0 -0.041828021221807059 0.0024991801641525832 0 -0.041824516961919786 0.0023767498328651666 0 -0.041680846322582697 0.0023542783125774561 0 -0.041538241441031784 0.0023025597392740678 0 -0.0416646049187143 0.002433328816026239 0 -0.041680846322582697 0.0023542783125774561 0 -0.0416646049187143 0.002433328816026239 0 -0.041824516961919786 0.0023767498328651666 0 -0.041613298501932447 0.0026377314280996962 0 -0.041631107897291138 0.0025618831635189966 0 -0.041828021221807059 0.0024991801641525832 0 -0.0416646049187143 0.002433328816026239 0 -0.041631107897291138 0.0025618831635189966 0 -0.041828021221807059 0.0024991801641525832 0 -0.038374917248367439 -0.0023029827707468438 0 -0.041434884553257376 -0.00082382971567173475 0 -0.040900053978145598 -0.0043455626303528175 0 -0.040932630489782733 -0.0043163934890808288 0 -0.040675207251402369 -0.004233342113431425 0 -0.038190697652712151 -0.00062773578158846054 0 -0.036926444480666398 -0.00095223120013012243 0 -0.038744755377226298 0.0008958618005769014 0 -0.041613298501932447 0.0026377314280996962 0 -0.041631107897291138 0.0025618831635189966 0 -0.041499580202441787 0.0024679563778417105 0 -0.038374917248367439 -0.0023029827707468438 0 -0.039849370025021903 0.0001287025177668764 0 -0.0416646049187143 0.002433328816026239 0 -0.041631107897291138 0.0025618831635189966 0 -0.041499580202441787 0.0024679563778417105 0 -0.038190697652712151 -0.00062773578158846054 0 -0.039261902438712623 3.3397260102875862e-05 0 -0.038744755377226298 0.0008958618005769014 0 -0.040794072863807755 -0.0041137329635184787 0 -0.040935795694835617 -0.0042627295274937768 0 -0.040675207251402369 -0.004233342113431425 0 -0.040794072863807755 -0.0041137329635184787 0 -0.041047553525780191 -0.0041310419435672402 0 -0.041189833639943746 -0.0038306372170682909 0 -0.040794072863807755 -0.0041137329635184787 0 -0.041047553525780191 -0.0041310419435672402 0 -0.040935795694835617 -0.0042627295274937768 0 -0.040900053978145598 -0.0043455626303528175 0 -0.040935795694835617 -0.0042627295274937768 0 -0.040675207251402369 -0.004233342113431425 0 -0.041828021221807059 0.0024991801641525832 0 -0.041824516961919786 0.0023767498328651666 0 -0.04202059214387889 0.002373232787210443 0 -0.040794072863807755 -0.0041137329635184787 0 -0.040079625292471603 -0.0056244119039548001 0 -0.042178671034303658 -0.0032719199543143475 0 -0.041434884553257376 -0.00082382971567173475 0 -0.044046048434017923 0.0010211531872003552 0 -0.040794072863807755 -0.0041137329635184787 0 -0.040675207251402369 -0.004233342113431425 0 -0.040079625292471603 -0.0056244119039548001 0 -0.044962044195144407 0.0048513260791390247 0 -0.043095457454624106 0.0030802397584390536 0 -0.044969532271611205 0.002069254320089095 0 -0.044046048434017923 0.0010211531872003552 0 -0.043553273512594151 0.0014197993000145692 0 -0.041824516961919786 0.0023767498328651666 0 -0.04202059214387889 0.002373232787210443 0 -0.041918695904928048 0.0022858005189128096 0 -0.04179615483433239 0.0023098142994521101 0 -0.041824516961919786 0.0023767498328651666 0 -0.041918695904928048 0.0022858005189128096 0 -0.041897767913237752 0.0020874918254249024 0 -0.04179615483433239 0.0023098142994521101 0 -0.041918695904928048 0.0022858005189128096 0 -0.041897767913237752 0.0020874918254249024 0 -0.043279331484231201 0.0014374817390136534 0 -0.04222503383726163 0.00090392948236392261 0 -0.043254680131670713 0.0014146236577355701 0 -0.043553273512594151 0.0014197993000145692 0 -0.041897767913237752 0.0020874918254249024 0 -0.043095457454624106 0.0030802397584390536 0 -0.043279331484231201 0.0014374817390136534 0 -0.043279331484231201 0.0014374817390136534 0 -0.044969532271611205 0.002069254320089095 0 -0.044886617986621295 -0.00049009753276374067 0 -0.043095457454624106 0.0030802397584390536 0 -0.043279331484231201 0.0014374817390136534 0 -0.044969532271611205 0.002069254320089095 0 -0.042282133724518507 -0.0032821924647586944 0 -0.039829301949055665 -0.0067433056087038553 0 -0.036103082909578095 -0.0043231681407424737 0 -0.042282133724518507 -0.0032821924647586944 0 -0.039829301949055665 -0.0067433056087038553 0 -0.046016688157735831 -0.0081565225860516649 0 -0.039829301949055665 -0.0067433056087038553 0 -0.040916026239738071 -0.010515083990867466 0 -0.046016688157735831 -0.0081565225860516649 0 -0.039829301949055665 -0.0067433056087038553 0 -0.040916026239738071 -0.010515083990867466 0 -0.035447789002914606 -0.0076346674007230159 0 -0.056265290174891708 -0.0045081770741896348 0 -0.054244097564204348 -0.0032678839720989088 0 -0.069567220543806568 -0.0014902663814752165 0 -0.070233394090739226 -0.0016707990495256628 0 -0.070318820393475839 -0.0013228830967665409 0 -0.044817980808251681 -0.0021302715291363484 0 -0.044051553733233134 -0.0023961994212942836 0 -0.039829301949055665 -0.0067433056087038553 0 -0.035447789002914606 -0.0076346674007230159 0 -0.036103082909578095 -0.0043231681407424737 0 -0.043279331484231201 0.0014374817390136534 0 -0.044886617986621295 -0.00049009753276374067 0 -0.04222503383726163 0.00090392948236392261 0 -0.044051553733233134 -0.0023961994212942836 0 -0.053998220703298155 -0.0019108892910583326 0 -0.041553562020618925 0.0022411972492356628 0 -0.04222503383726163 0.00090392948236392261 0 -0.0414210455603614 0.0021424180210423359 0 -0.035447789002914606 -0.0076346674007230159 0 -0.036103082909578095 -0.0043231681407424737 0 -0.030347631009408561 -0.005103607698569634 0 -0.054244097564204348 -0.0032678839720989088 0 -0.053998220703298155 -0.0019108892910583326 0 -0.059408767869918971 -0.0013943346800215138 0 -0.053998220703298155 -0.0019108892910583326 0 -0.042207164852396027 0.0041372827455822643 0 -0.041585239921994727 0.0028085899876178627 0 -0.0414210455603614 0.0021424180210423359 0 -0.070986469905574917 -0.0016084876365736888 0 -0.070735536183507461 -0.001736449736300787 0 -0.070861331050816032 -0.0014856275650171756 0 -0.041585239921994727 0.0028085899876178627 0 -0.041553562020618925 0.0022411972492356628 0 -0.0414210455603614 0.0021424180210423359 0 -0.071108070960269637 -0.0012704897653842422 0 -0.070861331050816032 -0.0014856275650171756 0 -0.07079529891139151 -0.0012762717163075188 0 -0.070735536183507461 -0.001736449736300787 0 -0.070861331050816032 -0.0014856275650171756 0 -0.070616888889775367 -0.0015134800877200378 0 -0.070861331050816032 -0.0014856275650171756 0 -0.070616888889775367 -0.0015134800877200378 0 -0.07079529891139151 -0.0012762717163075188 0 -0.070233394090739226 -0.0016707990495256628 0 -0.070735536183507461 -0.001736449736300787 0 -0.070616888889775367 -0.0015134800877200378 0 -0.070233394090739226 -0.0016707990495256628 0 -0.070616888889775367 -0.0015134800877200378 0 -0.070318820393475839 -0.0013228830967665409 0 -0.070616888889775367 -0.0015134800877200378 0 -0.070318820393475839 -0.0013228830967665409 0 -0.07079529891139151 -0.0012762717163075188 0 -0.070318820393475839 -0.0013228830967665409 0 -0.07079529891139151 -0.0012762717163075188 0 -0.07052142119082086 -0.00092306129570132408 0 -0.070318820393475839 -0.0013228830967665409 0 -0.07052142119082086 -0.00092306129570132408 0 -0.070034213144594598 -0.0010626935539363351 0 -0.071108070960269637 -0.0012704897653842422 0 -0.07079529891139151 -0.0012762717163075188 0 -0.071208099066668057 -0.00089376917428399976 0 -0.07079529891139151 -0.0012762717163075188 0 -0.071208099066668057 -0.00089376917428399976 0 -0.07052142119082086 -0.00092306129570132408 0 -0.071208099066668057 -0.00089376917428399976 0 -0.07052142119082086 -0.00092306129570132408 0 -0.070402921964337728 -0.00019243571780238822 0 -0.07052142119082086 -0.00092306129570132408 0 -0.069857896801163388 -0.00054779775202568992 0 -0.070402921964337728 -0.00019243571780238822 0 -0.069857896801163388 -0.00054779775202568992 0 -0.069455530801006637 -0.00096070190887996662 0 -0.070034213144594598 -0.0010626935539363351 0 -0.07052142119082086 -0.00092306129570132408 0 -0.069857896801163388 -0.00054779775202568992 0 -0.070034213144594598 -0.0010626935539363351 0 -0.069857896801163388 -0.00054779775202568992 0 -0.069455530801006637 -0.00096070190887996662 0 -0.069038201678485622 -0.00050897703521156476 0 -0.069567220543806568 -0.0014902663814752165 0 -0.069455530801006637 -0.00096070190887996662 0 -0.070034213144594598 -0.0010626935539363351 0 -0.069567220543806568 -0.0014902663814752165 0 -0.069455530801006637 -0.00096070190887996662 0 -0.068851592199408368 -0.0012039906846781606 0 -0.069567220543806568 -0.0014902663814752165 0 -0.070318820393475839 -0.0013228830967665409 0 -0.070034213144594598 -0.0010626935539363351 0 -0.059126463671414949 -0.0052290328048043991 0 -0.063008335708833782 -0.0051356991343187962 0 -0.049952686056659701 -0.012971295414826452 0 -0.046673059344305504 -0.013520273413196416 0 -0.052365042892230387 -0.016663714409636439 0 -0.049952686056659701 -0.012971295414826452 0 -0.051894882307904337 -0.013391780735071012 0 -0.052365042892230387 -0.016663714409636439 0 -0.049952686056659701 -0.012971295414826452 0 -0.051894882307904337 -0.013391780735071012 0 -0.051729923368374855 -0.01081596702152438 0 -0.049952686056659701 -0.012971295414826452 0 -0.046673059344305504 -0.013520273413196416 0 -0.046016688157735831 -0.0081565225860516649 0 -0.056265290174891708 -0.0045081770741896348 0 -0.059126463671414949 -0.0052290328048043991 0 -0.069455530801006637 -0.00096070190887996662 0 -0.068851592199408368 -0.0012039906846781606 0 -0.069038201678485622 -0.00050897703521156476 0 -0.068851592199408368 -0.0012039906846781606 0 -0.069038201678485622 -0.00050897703521156476 0 -0.068614994344214197 -0.00086553454770192672 0 -0.069038201678485622 -0.00050897703521156476 0 -0.068570470879739234 -0.00056263220808474147 0 -0.068614994344214197 -0.00086553454770192672 0 -0.068851592199408368 -0.0012039906846781606 0 -0.068614994344214197 -0.00086553454770192672 0 -0.068165205691860783 -0.00087236732273954763 0 -0.068570470879739234 -0.00056263220808474147 0 -0.068614994344214197 -0.00086553454770192672 0 -0.068310555205089954 -0.00068555005787427281 0 -0.068614994344214197 -0.00086553454770192672 0 -0.068310555205089954 -0.00068555005787427281 0 -0.068165205691860783 -0.00087236732273954763 0 -0.068310555205089954 -0.00068555005787427281 0 -0.068165205691860783 -0.00087236732273954763 0 -0.06818368811944038 -0.00076758989759962099 0 -0.068570470879739234 -0.00056263220808474147 0 -0.068310555205089954 -0.00068555005787427281 0 -0.068319797376595839 -0.00047516062525888929 0 -0.068319797376595839 -0.00047516062525888929 0 -0.06819514620739385 -0.0005489997355653327 0 -0.068155749358990547 -0.00041395784259321309 0 -0.068310555205089954 -0.00068555005787427281 0 -0.068319797376595839 -0.00047516062525888929 0 -0.06819514620739385 -0.0005489997355653327 0 -0.054365798027658258 -0.016397988261242984 0 -0.052365042892230387 -0.016663714409636439 0 -0.056922644219998209 -0.017454400175615833 0 -0.06819514620739385 -0.0005489997355653327 0 -0.068143331592761813 -0.00065969123810671925 0 -0.068047733145138636 -0.00051123600481805609 0 -0.06819514620739385 -0.0005489997355653327 0 -0.068047733145138636 -0.00051123600481805609 0 -0.068155749358990547 -0.00041395784259321309 0 -0.063008335708833782 -0.0051356991343187962 0 -0.066246117850232406 -0.0057564301671579497 0 -0.067982890942569693 -0.00070635802722819011 0 -0.068165205691860783 -0.00087236732273954763 0 -0.06744520134749192 -0.00050682440455404826 0 -0.067982890942569693 -0.00070635802722819011 0 -0.06788209146405888 -0.00063527011234937628 0 -0.06744520134749192 -0.00050682440455404826 0 -0.063008335708833782 -0.0051356991343187962 0 -0.064835926052512344 -0.0044979144794669067 0 -0.052365042892230387 -0.016663714409636439 0 -0.059783614523523196 -0.019503085032766952 0 -0.056922644219998209 -0.017454400175615833 0 -0.068310555205089954 -0.00068555005787427281 0 -0.068143331592761813 -0.00065969123810671925 0 -0.06818368811944038 -0.00076758989759962099 0 -0.068310555205089954 -0.00068555005787427281 0 -0.06819514620739385 -0.0005489997355653327 0 -0.068143331592761813 -0.00065969123810671925 0 -0.068143331592761813 -0.00065969123810671925 0 -0.06818368811944038 -0.00076758989759962099 0 -0.068094591166544552 -0.0007274364068736624 0 -0.068143331592761813 -0.00065969123810671925 0 -0.068016008386223167 -0.00062828073564064394 0 -0.068094591166544552 -0.0007274364068736624 0 -0.068143331592761813 -0.00065969123810671925 0 -0.068016008386223167 -0.00062828073564064394 0 -0.068047733145138636 -0.00051123600481805609 0 -0.067982890942569693 -0.00070635802722819011 0 -0.068016008386223167 -0.00062828073564064394 0 -0.068094591166544552 -0.0007274364068736624 0 -0.068016008386223167 -0.00062828073564064394 0 -0.068047733145138636 -0.00051123600481805609 0 -0.067918598548802236 -0.00055661809328753312 0 -0.067918598548802236 -0.00055661809328753312 0 -0.067762368653419461 -0.00054934048621755032 0 -0.067885096555883956 -0.00045895469992552544 0 -0.068047733145138636 -0.00051123600481805609 0 -0.067918598548802236 -0.00055661809328753312 0 -0.067885096555883956 -0.00045895469992552544 0 -0.067918598548802236 -0.00055661809328753312 0 -0.067762368653419461 -0.00054934048621755032 0 -0.06788209146405888 -0.00063527011234937628 0 -0.067762368653419461 -0.00054934048621755032 0 -0.067722030856885274 -0.0004410307699633623 0 -0.067885096555883956 -0.00045895469992552544 0 -0.068016008386223167 -0.00062828073564064394 0 -0.067918598548802236 -0.00055661809328753312 0 -0.06788209146405888 -0.00063527011234937628 0 -0.067982890942569693 -0.00070635802722819011 0 -0.068016008386223167 -0.00062828073564064394 0 -0.06788209146405888 -0.00063527011234937628 0 -0.055529343463897055 -0.016495544619493215 0 -0.054365798027658258 -0.016397988261242984 0 -0.056922644219998209 -0.017454400175615833 0 -0.056143796338607006 -0.016607939059227701 0 -0.055529343463897055 -0.016495544619493215 0 -0.056922644219998209 -0.017454400175615833 0 -0.056143796338607006 -0.016607939059227701 0 -0.056902783805320704 -0.016188559134385778 0 -0.055750767617253207 -0.015635039674260127 0 -0.055529343463897055 -0.016495544619493215 0 -0.05465310378247442 -0.015749442193150765 0 -0.055750767617253207 -0.015635039674260127 0 -0.056143796338607006 -0.016607939059227701 0 -0.055529343463897055 -0.016495544619493215 0 -0.055750767617253207 -0.015635039674260127 0 -0.055529343463897055 -0.016495544619493215 0 -0.054365798027658258 -0.016397988261242984 0 -0.05465310378247442 -0.015749442193150765 0 -0.054365798027658258 -0.016397988261242984 0 -0.053658777828386815 -0.015980256973350912 0 -0.05465310378247442 -0.015749442193150765 0 -0.054365798027658258 -0.016397988261242984 0 -0.053658777828386815 -0.015980256973350912 0 -0.052365042892230387 -0.016663714409636439 0 -0.053658777828386815 -0.015980256973350912 0 -0.052365042892230387 -0.016663714409636439 0 -0.053363986441693052 -0.015435301827774044 0 -0.068165205691860783 -0.00087236732273954763 0 -0.06818368811944038 -0.00076758989759962099 0 -0.068094591166544552 -0.0007274364068736624 0 -0.067982890942569693 -0.00070635802722819011 0 -0.068165205691860783 -0.00087236732273954763 0 -0.068094591166544552 -0.0007274364068736624 0 -0.067863374622224068 -0.00079039373104343349 0 -0.06744520134749192 -0.00050682440455404826 0 -0.067390096235752747 -0.00058614812925283639 0 -0.059783614523523196 -0.019503085032766952 0 -0.060283136893088236 -0.018254880970366327 0 -0.061543832978084564 -0.018395575613232098 0 -0.067365570151494011 -0.00045730524993043532 0 -0.067390096235752747 -0.00058614812925283639 0 -0.06723378728254574 -0.00039385217200188819 0 -0.067365570151494011 -0.00045730524993043532 0 -0.06744520134749192 -0.00050682440455404826 0 -0.067390096235752747 -0.00058614812925283639 0 -0.059783614523523196 -0.019503085032766952 0 -0.058759260474424972 -0.018298117759795295 0 -0.059463865275113353 -0.018174039895874142 0 -0.059783614523523196 -0.019503085032766952 0 -0.059463865275113353 -0.018174039895874142 0 -0.060283136893088236 -0.018254880970366327 0 -0.067762368653419461 -0.00054934048621755032 0 -0.06788209146405888 -0.00063527011234937628 0 -0.06744520134749192 -0.00050682440455404826 0 -0.067762368653419461 -0.00054934048621755032 0 -0.06744520134749192 -0.00050682440455404826 0 -0.067623151600407952 -0.00046334035287965884 0 -0.067762368653419461 -0.00054934048621755032 0 -0.067722030856885274 -0.0004410307699633623 0 -0.067623151600407952 -0.00046334035287965884 0 -0.059783614523523196 -0.019503085032766952 0 -0.056922644219998209 -0.017454400175615833 0 -0.058759260474424972 -0.018298117759795295 0 -0.056922644219998209 -0.017454400175615833 0 -0.056902783805320704 -0.016188559134385778 0 -0.057899783268736918 -0.016672156252970558 0 -0.056143796338607006 -0.016607939059227701 0 -0.056922644219998209 -0.017454400175615833 0 -0.056902783805320704 -0.016188559134385778 0 -0.057899783268736918 -0.016672156252970558 0 -0.058645787675980526 -0.017377558582131431 0 -0.059092936956703611 -0.016230936675399585 0 -0.056922644219998209 -0.017454400175615833 0 -0.057899783268736918 -0.016672156252970558 0 -0.058645787675980526 -0.017377558582131431 0 -0.056922644219998209 -0.017454400175615833 0 -0.058645787675980526 -0.017377558582131431 0 -0.058759260474424972 -0.018298117759795295 0 -0.058645787675980526 -0.017377558582131431 0 -0.058759260474424972 -0.018298117759795295 0 -0.059463865275113353 -0.018174039895874142 0 -0.059463865275113353 -0.018174039895874142 0 -0.059773633317103572 -0.017430806267663031 0 -0.060283136893088236 -0.018254880970366327 0 -0.058645787675980526 -0.017377558582131431 0 -0.059463865275113353 -0.018174039895874142 0 -0.059773633317103572 -0.017430806267663031 0 -0.058645787675980526 -0.017377558582131431 0 -0.059773633317103572 -0.017430806267663031 0 -0.059092936956703611 -0.016230936675399585 0 -0.059773633317103572 -0.017430806267663031 0 -0.059092936956703611 -0.016230936675399585 0 -0.060848223627358269 -0.016074703301632569 0 -0.059773633317103572 -0.017430806267663031 0 -0.060934372841721922 -0.017452506333920249 0 -0.060848223627358269 -0.016074703301632569 0 -0.060934372841721922 -0.017452506333920249 0 -0.060283136893088236 -0.018254880970366327 0 -0.061543832978084564 -0.018395575613232098 0 -0.059773633317103572 -0.017430806267663031 0 -0.060934372841721922 -0.017452506333920249 0 -0.060283136893088236 -0.018254880970366327 0 -0.060848223627358269 -0.016074703301632569 0 -0.05958959823661672 -0.014900225508656094 0 -0.061241983461656636 -0.013724675096221953 0 -0.05958959823661672 -0.014900225508656094 0 -0.058883201222314267 -0.013269389686029429 0 -0.061241983461656636 -0.013724675096221953 0 -0.059092936956703611 -0.016230936675399585 0 -0.060848223627358269 -0.016074703301632569 0 -0.05958959823661672 -0.014900225508656094 0 -0.059092936956703611 -0.016230936675399585 0 -0.05958959823661672 -0.014900225508656094 0 -0.058095360408772251 -0.015296029825896314 0 -0.05958959823661672 -0.014900225508656094 0 -0.058095360408772251 -0.015296029825896314 0 -0.058883201222314267 -0.013269389686029429 0 -0.058095360408772251 -0.015296029825896314 0 -0.057028480249335746 -0.013393578695840137 0 -0.058883201222314267 -0.013269389686029429 0 -0.056902783805320704 -0.016188559134385778 0 -0.057899783268736918 -0.016672156252970558 0 -0.058095360408772251 -0.015296029825896314 0 -0.057899783268736918 -0.016672156252970558 0 -0.059092936956703611 -0.016230936675399585 0 -0.058095360408772251 -0.015296029825896314 0 -0.056902783805320704 -0.016188559134385778 0 -0.058095360408772251 -0.015296029825896314 0 -0.056716941545026968 -0.015072565164830356 0 -0.056902783805320704 -0.016188559134385778 0 -0.056716941545026968 -0.015072565164830356 0 -0.055750767617253207 -0.015635039674260127 0 -0.056716941545026968 -0.015072565164830356 0 -0.057028480249335746 -0.013393578695840137 0 -0.055595851854503581 -0.014320502314550934 0 -0.058095360408772251 -0.015296029825896314 0 -0.056716941545026968 -0.015072565164830356 0 -0.057028480249335746 -0.013393578695840137 0 -0.057028480249335746 -0.013393578695840137 0 -0.056060007458644943 -0.01171527058230468 0 -0.057599673206010338 -0.011111385082890606 0 -0.057028480249335746 -0.013393578695840137 0 -0.058883201222314267 -0.013269389686029429 0 -0.057599673206010338 -0.011111385082890606 0 -0.058883201222314267 -0.013269389686029429 0 -0.059817522183027605 -0.011818449970504012 0 -0.061241983461656636 -0.013724675096221953 0 -0.058883201222314267 -0.013269389686029429 0 -0.059817522183027605 -0.011818449970504012 0 -0.057599673206010338 -0.011111385082890606 0 -0.051894882307904337 -0.013391780735071012 0 -0.052365042892230387 -0.016663714409636439 0 -0.052954404142910722 -0.014651926469747114 0 -0.054162439756893457 -0.013954496657443574 0 -0.052954404142910722 -0.014651926469747114 0 -0.053928295355146226 -0.015029972292945859 0 -0.053148159030027071 -0.013609205485821473 0 -0.054162439756893457 -0.013954496657443574 0 -0.052954404142910722 -0.014651926469747114 0 -0.051894882307904337 -0.013391780735071012 0 -0.053148159030027071 -0.013609205485821473 0 -0.052954404142910722 -0.014651926469747114 0 -0.052365042892230387 -0.016663714409636439 0 -0.052954404142910722 -0.014651926469747114 0 -0.053363986441693052 -0.015435301827774044 0 -0.052954404142910722 -0.014651926469747114 0 -0.053363986441693052 -0.015435301827774044 0 -0.053928295355146226 -0.015029972292945859 0 -0.053658777828386815 -0.015980256973350912 0 -0.053363986441693052 -0.015435301827774044 0 -0.053928295355146226 -0.015029972292945859 0 -0.053658777828386815 -0.015980256973350912 0 -0.053928295355146226 -0.015029972292945859 0 -0.05465310378247442 -0.015749442193150765 0 -0.05465310378247442 -0.015749442193150765 0 -0.054787366994494636 -0.014991670094022217 0 -0.055750767617253207 -0.015635039674260127 0 -0.053928295355146226 -0.015029972292945859 0 -0.05465310378247442 -0.015749442193150765 0 -0.054787366994494636 -0.014991670094022217 0 -0.056716941545026968 -0.015072565164830356 0 -0.055750767617253207 -0.015635039674260127 0 -0.055595851854503581 -0.014320502314550934 0 -0.054787366994494636 -0.014991670094022217 0 -0.055750767617253207 -0.015635039674260127 0 -0.055595851854503581 -0.014320502314550934 0 -0.054162439756893457 -0.013954496657443574 0 -0.054787366994494636 -0.014991670094022217 0 -0.055595851854503581 -0.014320502314550934 0 -0.054162439756893457 -0.013954496657443574 0 -0.055595851854503581 -0.014320502314550934 0 -0.055146146618442513 -0.012886913139990306 0 -0.054162439756893457 -0.013954496657443574 0 -0.053928295355146226 -0.015029972292945859 0 -0.054787366994494636 -0.014991670094022217 0 -0.054162439756893457 -0.013954496657443574 0 -0.055146146618442513 -0.012886913139990306 0 -0.053385566441981218 -0.012400863479857633 0 -0.057028480249335746 -0.013393578695840137 0 -0.055146146618442513 -0.012886913139990306 0 -0.056060007458644943 -0.01171527058230468 0 -0.057028480249335746 -0.013393578695840137 0 -0.055595851854503581 -0.014320502314550934 0 -0.055146146618442513 -0.012886913139990306 0 -0.055146146618442513 -0.012886913139990306 0 -0.056060007458644943 -0.01171527058230468 0 -0.054626937494609173 -0.011526338839723906 0 -0.055146146618442513 -0.012886913139990306 0 -0.054626937494609173 -0.011526338839723906 0 -0.053385566441981218 -0.012400863479857633 0 -0.054626937494609173 -0.011526338839723906 0 -0.053385566441981218 -0.012400863479857633 0 -0.053594638961407932 -0.010252172371447507 0 -0.051894882307904337 -0.013391780735071012 0 -0.053385566441981218 -0.012400863479857633 0 -0.051729923368374855 -0.01081596702152438 0 -0.053148159030027071 -0.013609205485821473 0 -0.054162439756893457 -0.013954496657443574 0 -0.053385566441981218 -0.012400863479857633 0 -0.051894882307904337 -0.013391780735071012 0 -0.053148159030027071 -0.013609205485821473 0 -0.053385566441981218 -0.012400863479857633 0 -0.053594638961407932 -0.010252172371447507 0 -0.052150359626829193 -0.0080312476181825052 0 -0.051729923368374855 -0.01081596702152438 0 -0.053385566441981218 -0.012400863479857633 0 -0.053594638961407932 -0.010252172371447507 0 -0.051729923368374855 -0.01081596702152438 0 -0.054626937494609173 -0.011526338839723906 0 -0.053594638961407932 -0.010252172371447507 0 -0.05553526870570704 -0.010007475794578245 0 -0.056060007458644943 -0.01171527058230468 0 -0.054626937494609173 -0.011526338839723906 0 -0.05553526870570704 -0.010007475794578245 0 -0.053594638961407932 -0.010252172371447507 0 -0.05553526870570704 -0.010007475794578245 0 -0.054496510161953796 -0.0080076240987433708 0 -0.05553526870570704 -0.010007475794578245 0 -0.054496510161953796 -0.0080076240987433708 0 -0.056767057364106803 -0.0086479807250744931 0 -0.054496510161953796 -0.0080076240987433708 0 -0.056767057364106803 -0.0086479807250744931 0 -0.055701885066537199 -0.0058151217030426861 0 -0.053594638961407932 -0.010252172371447507 0 -0.054496510161953796 -0.0080076240987433708 0 -0.052150359626829193 -0.0080312476181825052 0 -0.054496510161953796 -0.0080076240987433708 0 -0.052150359626829193 -0.0080312476181825052 0 -0.053179559620231832 -0.005992084437331114 0 -0.059817522183027605 -0.011818449970504012 0 -0.059098863522643416 -0.0096615962630378985 0 -0.062329818620026324 -0.011089891224375746 0 -0.059817522183027605 -0.011818449970504012 0 -0.059098863522643416 -0.0096615962630378985 0 -0.057599673206010338 -0.011111385082890606 0 -0.05553526870570704 -0.010007475794578245 0 -0.057599673206010338 -0.011111385082890606 0 -0.056767057364106803 -0.0086479807250744931 0 -0.059098863522643416 -0.0096615962630378985 0 -0.057599673206010338 -0.011111385082890606 0 -0.056767057364106803 -0.0086479807250744931 0 -0.056060007458644943 -0.01171527058230468 0 -0.05553526870570704 -0.010007475794578245 0 -0.057599673206010338 -0.011111385082890606 0 -0.059098863522643416 -0.0096615962630378985 0 -0.056767057364106803 -0.0086479807250744931 0 -0.058267325070238622 -0.0073527952074451987 0 -0.056767057364106803 -0.0086479807250744931 0 -0.058267325070238622 -0.0073527952074451987 0 -0.055701885066537199 -0.0058151217030426861 0 -0.059098863522643416 -0.0096615962630378985 0 -0.058267325070238622 -0.0073527952074451987 0 -0.061191011163329069 -0.0071074808274641608 0 -0.05821423835044582 -0.0050228275328477361 0 -0.060055650576111889 -0.0030718661066674617 0 -0.061191011163329069 -0.0071074808274641608 0 -0.058267325070238622 -0.0073527952074451987 0 -0.05821423835044582 -0.0050228275328477361 0 -0.061191011163329069 -0.0071074808274641608 0 -0.05821423835044582 -0.0050228275328477361 0 -0.055967598108907758 -0.0030090303101612619 0 -0.055701885066537199 -0.0058151217030426861 0 -0.058267325070238622 -0.0073527952074451987 0 -0.05821423835044582 -0.0050228275328477361 0 -0.055701885066537199 -0.0058151217030426861 0 -0.05821423835044582 -0.0050228275328477361 0 -0.055967598108907758 -0.0030090303101612619 0 -0.060055650576111889 -0.0030718661066674617 0 -0.053179559620231832 -0.005992084437331114 0 -0.055701885066537199 -0.0058151217030426861 0 -0.053467371013507806 -0.0035701471862601038 0 -0.053179559620231832 -0.005992084437331114 0 -0.053467371013507806 -0.0035701471862601038 0 -0.050969801741630627 -0.0050948396884065335 0 -0.054496510161953796 -0.0080076240987433708 0 -0.053179559620231832 -0.005992084437331114 0 -0.055701885066537199 -0.0058151217030426861 0 -0.055967598108907758 -0.0030090303101612619 0 -0.053467371013507806 -0.0035701471862601038 0 -0.053009209889832029 -0.00062324344170268332 0 -0.055967598108907758 -0.0030090303101612619 0 -0.055701885066537199 -0.0058151217030426861 0 -0.053467371013507806 -0.0035701471862601038 0 -0.053467371013507806 -0.0035701471862601038 0 -0.05163304909250091 -0.0021273169986283048 0 -0.050969801741630627 -0.0050948396884065335 0 -0.05163304909250091 -0.0021273169986283048 0 -0.049310771228240367 -0.0019527017081105798 0 -0.050969801741630627 -0.0050948396884065335 0 -0.050969801741630627 -0.0050948396884065335 0 -0.049816896547823064 -0.0083584021220746447 0 -0.047710199613099649 -0.0053811603454642244 0 -0.049310771228240367 -0.0019527017081105798 0 -0.050969801741630627 -0.0050948396884065335 0 -0.047710199613099649 -0.0053811603454642244 0 -0.052150359626829193 -0.0080312476181825052 0 -0.053179559620231832 -0.005992084437331114 0 -0.050969801741630627 -0.0050948396884065335 0 -0.049952686056659701 -0.012971295414826452 0 -0.049816896547823064 -0.0083584021220746447 0 -0.046016688157735831 -0.0081565225860516649 0 -0.052150359626829193 -0.0080312476181825052 0 -0.050969801741630627 -0.0050948396884065335 0 -0.049816896547823064 -0.0083584021220746447 0 -0.049952686056659701 -0.012971295414826452 0 -0.049816896547823064 -0.0083584021220746447 0 -0.051729923368374855 -0.01081596702152438 0 -0.052150359626829193 -0.0080312476181825052 0 -0.049816896547823064 -0.0083584021220746447 0 -0.051729923368374855 -0.01081596702152438 0 -0.040916026239738071 -0.010515083990867466 0 -0.046673059344305504 -0.013520273413196416 0 -0.046016688157735831 -0.0081565225860516649 0 -0.049816896547823064 -0.0083584021220746447 0 -0.046016688157735831 -0.0081565225860516649 0 -0.047710199613099649 -0.0053811603454642244 0 -0.042282133724518507 -0.0032821924647586944 0 -0.046016688157735831 -0.0081565225860516649 0 -0.047710199613099649 -0.0053811603454642244 0 -0.042282133724518507 -0.0032821924647586944 0 -0.049310771228240367 -0.0019527017081105798 0 -0.047710199613099649 -0.0053811603454642244 0 -0.044817980808251681 -0.0021302715291363484 0 -0.046628841835435648 -0.0019219227252014919 0 -0.044886617986621295 -0.00049009753276374067 0 -0.049310771228240367 -0.0019527017081105798 0 -0.047257058117915154 0.00048031816175076386 0 -0.044969532271611205 0.002069254320089095 0 -0.044886617986621295 -0.00049009753276374067 0 -0.047257058117915154 0.00048031816175076386 0 -0.047257058117915154 0.00048031816175076386 0 -0.050904531649050254 0.00039939312327533206 0 -0.047337105304642496 0.0031815384877782473 0 -0.044969532271611205 0.002069254320089095 0 -0.047257058117915154 0.00048031816175076386 0 -0.047337105304642496 0.0031815384877782473 0 -0.05163304909250091 -0.0021273169986283048 0 -0.050904531649050254 0.00039939312327533206 0 -0.053009209889832029 -0.00062324344170268332 0 -0.05163304909250091 -0.0021273169986283048 0 -0.049310771228240367 -0.0019527017081105798 0 -0.050904531649050254 0.00039939312327533206 0 -0.049310771228240367 -0.0019527017081105798 0 -0.047257058117915154 0.00048031816175076386 0 -0.050904531649050254 0.00039939312327533206 0 -0.047738270095132894 6.3986351850024221e-05 0 -0.04662702771328054 0.00051252581009772339 0 -0.050904531649050254 0.00039939312327533206 0 -0.052320270229848614 0.001319428623963131 0 -0.051646766164498724 0.0022019208331609478 0 -0.050904531649050254 0.00039939312327533206 0 -0.052320270229848614 0.001319428623963131 0 -0.053009209889832029 -0.00062324344170268332 0 -0.052320270229848614 0.001319428623963131 0 -0.051646766164498724 0.0022019208331609478 0 -0.052919658870855819 0.002357644474426115 0 -0.050904531649050254 0.00039939312327533206 0 -0.051646766164498724 0.0022019208331609478 0 -0.050608527005525185 0.0020366270771599217 0 -0.051646766164498724 0.0022019208331609478 0 -0.050608527005525185 0.0020366270771599217 0 -0.051533969007482985 0.0032011012774431137 0 -0.051646766164498724 0.0022019208331609478 0 -0.051533969007482985 0.0032011012774431137 0 -0.052912682311919049 0.0033439468689674119 0 -0.051646766164498724 0.0022019208331609478 0 -0.052912682311919049 0.0033439468689674119 0 -0.052919658870855819 0.002357644474426115 0 -0.049499869578417496 0.0031007154368438354 0 -0.050608527005525185 0.0020366270771599217 0 -0.051533969007482985 0.0032011012774431137 0 -0.044962044195144407 0.0048513260791390247 0 -0.044969532271611205 0.002069254320089095 0 -0.047337105304642496 0.0031815384877782473 0 -0.044046048434017923 0.0010211531872003552 0 -0.04662702771328054 0.00051252581009772339 0 -0.049499869578417496 0.0031007154368438354 0 -0.051533969007482985 0.0032011012774431137 0 -0.052041789761491514 0.0044632660203832736 0 -0.044046048434017923 0.0010211531872003552 0 -0.047418379488238301 0.0018052190560695234 0 -0.040079625292471603 -0.0056244119039548001 0 -0.04458635166003929 -0.0028209386208822959 0 -0.042178671034303658 -0.0032719199543143475 0 -0.051533969007482985 0.0032011012774431137 0 -0.052561901046289924 0.0039654674679733158 0 -0.052041789761491514 0.0044632660203832736 0 -0.051533969007482985 0.0032011012774431137 0 -0.052561901046289924 0.0039654674679733158 0 -0.052912682311919049 0.0033439468689674119 0 -0.049531204589477899 0.0028959116453460762 0 -0.047418379488238301 0.0018052190560695234 0 -0.052561901046289924 0.0039654674679733158 0 -0.052041789761491514 0.0044632660203832736 0 -0.053088115768701379 0.0041217635195540435 0 -0.048393017962865437 0.0041669966150391395 0 -0.04458635166003929 -0.0028209386208822959 0 -0.042178671034303658 -0.0032719199543143475 0 -0.042731182176907349 -0.0024101308712617046 0 -0.042162505606260066 -0.0032212293936712119 0 -0.040151462091572249 -0.0045135878832722066 0 -0.038680483938146625 -0.0052775152415601052 0 -0.042178671034303658 -0.0032719199543143475 0 -0.040151462091572249 -0.0045135878832722066 0 -0.041189833639943746 -0.0038306372170682909 0 -0.042178671034303658 -0.0032719199543143475 0 -0.040151462091572249 -0.0045135878832722066 0 -0.041047553525780191 -0.0041310419435672402 0 -0.041189833639943746 -0.0038306372170682909 0 -0.040794072863807755 -0.0041137329635184787 0 -0.041189833639943746 -0.0038306372170682909 0 -0.042178671034303658 -0.0032719199543143475 0 -0.053340536009781891 0.0039939439107722942 0 -0.053499594514451868 0.0039884019666058543 0 -0.05454508401674453 0.0039558441727138606 0 -0.053499594514451868 0.0039884019666058543 0 -0.053088115768701379 0.0041217635195540435 0 -0.05427899157975305 0.0041073995508079351 0 -0.053499594514451868 0.0039884019666058543 0 -0.05427899157975305 0.0041073995508079351 0 -0.05454508401674453 0.0039558441727138606 0 -0.05266656089070542 0.0034809619603211437 0 -0.053499594514451868 0.0039884019666058543 0 -0.053088115768701379 0.0041217635195540435 0 -0.05266656089070542 0.0034809619603211437 0 -0.052041789761491514 0.0044632660203832736 0 -0.053088115768701379 0.0041217635195540435 0 -0.053088115768701379 0.0041217635195540435 0 -0.053186429926068396 0.0039692919776868002 0 -0.05416413405291718 0.0041416522033150896 0 -0.053088115768701379 0.0041217635195540435 0 -0.05416413405291718 0.0041416522033150896 0 -0.05427899157975305 0.0041073995508079351 0 -0.052561901046289924 0.0039654674679733158 0 -0.053088115768701379 0.0041217635195540435 0 -0.053186429926068396 0.0039692919776868002 0 -0.052561901046289924 0.0039654674679733158 0 -0.053186429926068396 0.0039692919776868002 0 -0.052912682311919049 0.0033439468689674119 0 -0.053186429926068396 0.0039692919776868002 0 -0.052912682311919049 0.0033439468689674119 0 -0.05416413405291718 0.0041416522033150896 0 -0.052912682311919049 0.0033439468689674119 0 -0.05416413405291718 0.0041416522033150896 0 -0.054188442454925212 0.0031764946141244026 0 -0.05416413405291718 0.0041416522033150896 0 -0.05427899157975305 0.0041073995508079351 0 -0.056235104906897565 0.0048295330942326412 0 -0.05416413405291718 0.0041416522033150896 0 -0.056235104906897565 0.0048295330942326412 0 -0.054188442454925212 0.0031764946141244026 0 -0.05427899157975305 0.0041073995508079351 0 -0.056235104906897565 0.0048295330942326412 0 -0.05454508401674453 0.0039558441727138606 0 -0.056235104906897565 0.0048295330942326412 0 -0.05566494879031246 0.0022376895900668341 0 -0.06036634275574513 0.0013112536892202667 0 -0.056235104906897565 0.0048295330942326412 0 -0.05566494879031246 0.0022376895900668341 0 -0.054188442454925212 0.0031764946141244026 0 -0.052912682311919049 0.0033439468689674119 0 -0.054188442454925212 0.0031764946141244026 0 -0.052919658870855819 0.002357644474426115 0 -0.05566494879031246 0.0022376895900668341 0 -0.054188442454925212 0.0031764946141244026 0 -0.053808478782227734 0.0014818550589235644 0 -0.052320270229848614 0.001319428623963131 0 -0.053808478782227734 0.0014818550589235644 0 -0.052919658870855819 0.002357644474426115 0 -0.054188442454925212 0.0031764946141244026 0 -0.053808478782227734 0.0014818550589235644 0 -0.052919658870855819 0.002357644474426115 0 -0.052320270229848614 0.001319428623963131 0 -0.053808478782227734 0.0014818550589235644 0 -0.053009209889832029 -0.00062324344170268332 0 -0.053808478782227734 0.0014818550589235644 0 -0.053009209889832029 -0.00062324344170268332 0 -0.056103320878119263 -0.00044627665004220394 0 -0.05566494879031246 0.0022376895900668341 0 -0.053808478782227734 0.0014818550589235644 0 -0.056103320878119263 -0.00044627665004220394 0 -0.055967598108907758 -0.0030090303101612619 0 -0.053009209889832029 -0.00062324344170268332 0 -0.056103320878119263 -0.00044627665004220394 0 -0.053467371013507806 -0.0035701471862601038 0 -0.05163304909250091 -0.0021273169986283048 0 -0.053009209889832029 -0.00062324344170268332 0 -0.056103320878119263 -0.00044627665004220394 0 -0.06036634275574513 0.0013112536892202667 0 -0.060055650576111889 -0.0030718661066674617 0 -0.05566494879031246 0.0022376895900668341 0 -0.056103320878119263 -0.00044627665004220394 0 -0.06036634275574513 0.0013112536892202667 0 -0.055967598108907758 -0.0030090303101612619 0 -0.056103320878119263 -0.00044627665004220394 0 -0.060055650576111889 -0.0030718661066674617 0 -0.063530792449156534 -0.0015311665230973155 0 -0.06036634275574513 0.0013112536892202667 0 -0.060055650576111889 -0.0030718661066674617 0 -0.063530792449156534 -0.0015311665230973155 0 -0.068389217339088662 0.0007437065856778528 0 -0.06036634275574513 0.0013112536892202667 0 -0.063530792449156534 -0.0015311665230973155 0 -0.068389217339088662 0.0007437065856778528 0 -0.065589494860720285 -0.0049675586438360265 0 -0.068389217339088662 0.0007437065856778528 0 -0.06036634275574513 0.0013112536892202667 0 -0.065620949970665324 0.0083194817726346612 0 -0.072776225364424268 0.0005415177711882292 0 -0.071927258679964717 0.0055692234805226363 0 -0.075762368040843631 0.0035583921930722614 0 -0.066948666194207862 -0.0010446148377913978 0 -0.062542794961654588 0.0015132434746893749 0 -0.056235104906897565 0.0048295330942326412 0 -0.06036634275574513 0.0013112536892202667 0 -0.065620949970665324 0.0083194817726346612 0 -0.056235104906897565 0.0048295330942326412 0 -0.05454508401674453 0.0039558441727138606 0 -0.052395383199323409 0.0046132837457970016 0 -0.059602483159254392 0.001977504188014166 0 -0.062542794961654588 0.0015132434746893749 0 -0.062542794961654588 0.0015132434746893749 0 -0.055744099175448161 0.0017554687549279668 0 -0.061185890116785012 -0.0015724045760591504 0 -0.061179496105730501 -0.0015861652866179965 0 -0.0611803698020493 -0.0015872425866429599 0 -0.05454508401674453 0.0039558441727138606 0 -0.052395383199323409 0.0046132837457970016 0 -0.053054153222651404 0.0020840747500572316 0 -0.055464366040767848 0.002084254180952652 0 -0.055744099175448161 0.0017554687549279668 0 -0.053340536009781891 0.0039939439107722942 0 -0.05454508401674453 0.0039558441727138606 0 -0.053304350626784999 0.0040037477830564636 0 -0.061174206482374024 -0.0015963546503977636 0 -0.061181518098130785 -0.0015869951465200117 0 -0.061183604633274331 -0.0016056605882596566 0 -0.067930601134991248 6.4409175435922489e-05 0 -0.070207945601057933 -0.0029901754238514031 0 -0.061179496105730501 -0.0015861652866179965 0 -0.061174206482374024 -0.0015963546503977636 0 -0.061181518098130785 -0.0015869951465200117 0 -0.071927258679964717 0.0055692234805226363 0 -0.076395219683996221 0.0066651457171048025 0 -0.075762368040843631 0.0035583921930722614 0 -0.061185890116785012 -0.0015724045760591504 0 -0.061179496105730501 -0.0015861652866179965 0 -0.061181518098130785 -0.0015869951465200117 0 -0.062542794961654588 0.0015132434746893749 0 -0.067930601134991248 6.4409175435922489e-05 0 -0.076395219683996221 0.0066651457171048025 0 -0.07946605308550829 0.0038279158674491085 0 -0.080610715350939041 0.0075551220786272758 0 -0.076395219683996221 0.0066651457171048025 0 -0.07946605308550829 0.0038279158674491085 0 -0.075762368040843631 0.0035583921930722614 0 -0.07946605308550829 0.0038279158674491085 0 -0.075762368040843631 0.0035583921930722614 0 -0.078219096250062084 0.00073585849306630831 0 -0.07946605308550829 0.0038279158674491085 0 -0.078219096250062084 0.00073585849306630831 0 -0.081552015234953187 -0.00048455762047236613 0 -0.072776225364424268 0.0005415177711882292 0 -0.075762368040843631 0.0035583921930722614 0 -0.078219096250062084 0.00073585849306630831 0 -0.072776225364424268 0.0005415177711882292 0 -0.078219096250062084 0.00073585849306630831 0 -0.07981914729319331 -0.0033324066460200313 0 -0.078219096250062084 0.00073585849306630831 0 -0.07981914729319331 -0.0033324066460200313 0 -0.081552015234953187 -0.00048455762047236613 0 -0.07981914729319331 -0.0033324066460200313 0 -0.082185988863238524 -0.0030983364703373617 0 -0.081789339636575156 -0.0026163902344149164 0 -0.07981914729319331 -0.0033324066460200313 0 -0.082403652606704986 -0.0029791515734163437 0 -0.083822060283819208 -0.0028056523074551773 0 -0.079586920014193596 -0.0043772181229271455 0 -0.079034254679462332 -0.0055844833834807778 0 -0.07981914729319331 -0.0033324066460200313 0 -0.082403652606704986 -0.0029791515734163437 0 -0.082185988863238524 -0.0030983364703373617 0 -0.082403652606704986 -0.0029791515734163437 0 -0.083822060283819208 -0.0028056523074551773 0 -0.083427388480285289 -0.0023858293894295866 0 -0.082403652606704986 -0.0029791515734163437 0 -0.082964675602487215 -0.0025956553422588238 0 -0.082185988863238524 -0.0030983364703373617 0 -0.082403652606704986 -0.0029791515734163437 0 -0.082964675602487215 -0.0025956553422588238 0 -0.083427388480285289 -0.0023858293894295866 0 -0.07981914729319331 -0.0033324066460200313 0 -0.075948008821119281 -0.010841418074747811 0 -0.072780664571255524 -0.0064156105002386894 0 -0.075948008821119281 -0.010841418074747811 0 -0.072780664571255524 -0.0064156105002386894 0 -0.070761861303567 -0.011017279917823137 0 -0.066948666194207862 -0.0010446148377913978 0 -0.068802149142135366 -0.0040869791695882967 0 -0.072776225364424268 0.0005415177711882292 0 -0.07981914729319331 -0.0033324066460200313 0 -0.072780664571255524 -0.0064156105002386894 0 -0.072780664571255524 -0.0064156105002386894 0 -0.065589494860720285 -0.0049675586438360265 0 -0.068333689903604833 -0.0084202503944901044 0 -0.068389217339088662 0.0007437065856778528 0 -0.072780664571255524 -0.0064156105002386894 0 -0.065589494860720285 -0.0049675586438360265 0 -0.065589494860720285 -0.0049675586438360265 0 -0.060055650576111889 -0.0030718661066674617 0 -0.061191011163329069 -0.0071074808274641608 0 -0.063530792449156534 -0.0015311665230973155 0 -0.065589494860720285 -0.0049675586438360265 0 -0.060055650576111889 -0.0030718661066674617 0 -0.061191011163329069 -0.0071074808274641608 0 -0.065222974007945286 -0.0090363809243332732 0 -0.062329818620026324 -0.011089891224375746 0 -0.065589494860720285 -0.0049675586438360265 0 -0.061191011163329069 -0.0071074808274641608 0 -0.065222974007945286 -0.0090363809243332732 0 -0.065222974007945286 -0.0090363809243332732 0 -0.064816090372070034 -0.011479336394722458 0 -0.062329818620026324 -0.011089891224375746 0 -0.059098863522643416 -0.0096615962630378985 0 -0.061191011163329069 -0.0071074808274641608 0 -0.062329818620026324 -0.011089891224375746 0 -0.072780664571255524 -0.0064156105002386894 0 -0.068333689903604833 -0.0084202503944901044 0 -0.070761861303567 -0.011017279917823137 0 -0.065589494860720285 -0.0049675586438360265 0 -0.065222974007945286 -0.0090363809243332732 0 -0.068333689903604833 -0.0084202503944901044 0 -0.065222974007945286 -0.0090363809243332732 0 -0.068333689903604833 -0.0084202503944901044 0 -0.067076204061952721 -0.012014339458490991 0 -0.065222974007945286 -0.0090363809243332732 0 -0.064816090372070034 -0.011479336394722458 0 -0.067076204061952721 -0.012014339458490991 0 -0.068333689903604833 -0.0084202503944901044 0 -0.070761861303567 -0.011017279917823137 0 -0.067076204061952721 -0.012014339458490991 0 -0.070761861303567 -0.011017279917823137 0 -0.068935846096099027 -0.013829816852395743 0 -0.067076204061952721 -0.012014339458490991 0 -0.070761861303567 -0.011017279917823137 0 -0.068935846096099027 -0.013829816852395743 0 -0.071435926522601972 -0.014594000832138011 0 -0.067076204061952721 -0.012014339458490991 0 -0.066724073106106299 -0.014766545808315594 0 -0.064250757404251624 -0.013544430159050588 0 -0.068935846096099027 -0.013829816852395743 0 -0.067076204061952721 -0.012014339458490991 0 -0.066724073106106299 -0.014766545808315594 0 -0.068935846096099027 -0.013829816852395743 0 -0.066724073106106299 -0.014766545808315594 0 -0.068596908126121861 -0.01600938924998099 0 -0.066724073106106299 -0.014766545808315594 0 -0.06477725016208899 -0.016133644041235379 0 -0.066682948329647135 -0.017016375907055164 0 -0.066724073106106299 -0.014766545808315594 0 -0.068596908126121861 -0.01600938924998099 0 -0.066682948329647135 -0.017016375907055164 0 -0.068935846096099027 -0.013829816852395743 0 -0.068596908126121861 -0.01600938924998099 0 -0.071435926522601972 -0.014594000832138011 0 -0.068596908126121861 -0.01600938924998099 0 -0.07005930893023718 -0.017291349849426887 0 -0.071435926522601972 -0.014594000832138011 0 -0.059817522183027605 -0.011818449970504012 0 -0.062329818620026324 -0.011089891224375746 0 -0.061241983461656636 -0.013724675096221953 0 -0.062329818620026324 -0.011089891224375746 0 -0.061241983461656636 -0.013724675096221953 0 -0.064250757404251624 -0.013544430159050588 0 -0.064816090372070034 -0.011479336394722458 0 -0.067076204061952721 -0.012014339458490991 0 -0.064250757404251624 -0.013544430159050588 0 -0.064816090372070034 -0.011479336394722458 0 -0.062329818620026324 -0.011089891224375746 0 -0.064250757404251624 -0.013544430159050588 0 -0.064250757404251624 -0.013544430159050588 0 -0.06477725016208899 -0.016133644041235379 0 -0.062824457816415033 -0.015712075793762777 0 -0.066724073106106299 -0.014766545808315594 0 -0.064250757404251624 -0.013544430159050588 0 -0.06477725016208899 -0.016133644041235379 0 -0.061241983461656636 -0.013724675096221953 0 -0.064250757404251624 -0.013544430159050588 0 -0.062824457816415033 -0.015712075793762777 0 -0.060848223627358269 -0.016074703301632569 0 -0.061241983461656636 -0.013724675096221953 0 -0.062824457816415033 -0.015712075793762777 0 -0.066246117850232406 -0.0057564301671579497 0 -0.07471777851056409 -0.0046945626552259328 0 -0.059783614523523196 -0.019503085032766952 0 -0.064886834971337459 -0.020000724836769724 0 -0.063070546503155078 -0.019123093679925859 0 -0.067390096235752747 -0.00058614812925283639 0 -0.066640151412168808 -0.00038340581686614766 0 -0.06723378728254574 -0.00039385217200188819 0 -0.059783614523523196 -0.019503085032766952 0 -0.064886834971337459 -0.020000724836769724 0 -0.067804944677131662 -0.02212689533247017 0 -0.061543832978084564 -0.018395575613232098 0 -0.062117824628447185 -0.017203310152491345 0 -0.062900416575645907 -0.018195985779639521 0 -0.060934372841721922 -0.017452506333920249 0 -0.061543832978084564 -0.018395575613232098 0 -0.062117824628447185 -0.017203310152491345 0 -0.060934372841721922 -0.017452506333920249 0 -0.060848223627358269 -0.016074703301632569 0 -0.062117824628447185 -0.017203310152491345 0 -0.060848223627358269 -0.016074703301632569 0 -0.062824457816415033 -0.015712075793762777 0 -0.062117824628447185 -0.017203310152491345 0 -0.062824457816415033 -0.015712075793762777 0 -0.062117824628447185 -0.017203310152491345 0 -0.063661215925313694 -0.017403311862445078 0 -0.061543832978084564 -0.018395575613232098 0 -0.062900416575645907 -0.018195985779639521 0 -0.063070546503155078 -0.019123093679925859 0 -0.062117824628447185 -0.017203310152491345 0 -0.062900416575645907 -0.018195985779639521 0 -0.063661215925313694 -0.017403311862445078 0 -0.062900416575645907 -0.018195985779639521 0 -0.063829284072827064 -0.018436737350755707 0 -0.063070546503155078 -0.019123093679925859 0 -0.063829284072827064 -0.018436737350755707 0 -0.063661215925313694 -0.017403311862445078 0 -0.065010597203659842 -0.018342076592821225 0 -0.063829284072827064 -0.018436737350755707 0 -0.065010597203659842 -0.018342076592821225 0 -0.064506774806885811 -0.019120413744778204 0 -0.062900416575645907 -0.018195985779639521 0 -0.063829284072827064 -0.018436737350755707 0 -0.063661215925313694 -0.017403311862445078 0 -0.06477725016208899 -0.016133644041235379 0 -0.062824457816415033 -0.015712075793762777 0 -0.063661215925313694 -0.017403311862445078 0 -0.06477725016208899 -0.016133644041235379 0 -0.063661215925313694 -0.017403311862445078 0 -0.065010597203659842 -0.018342076592821225 0 -0.06477725016208899 -0.016133644041235379 0 -0.065010597203659842 -0.018342076592821225 0 -0.066682948329647135 -0.017016375907055164 0 -0.06549426670503565 -0.019303953982891666 0 -0.064886834971337459 -0.020000724836769724 0 -0.066252286448850908 -0.019766961889450246 0 -0.065010597203659842 -0.018342076592821225 0 -0.06549426670503565 -0.019303953982891666 0 -0.066762493734337638 -0.018937334534877351 0 -0.065010597203659842 -0.018342076592821225 0 -0.06549426670503565 -0.019303953982891666 0 -0.064506774806885811 -0.019120413744778204 0 -0.06549426670503565 -0.019303953982891666 0 -0.064886834971337459 -0.020000724836769724 0 -0.064506774806885811 -0.019120413744778204 0 -0.064886834971337459 -0.020000724836769724 0 -0.064506774806885811 -0.019120413744778204 0 -0.063070546503155078 -0.019123093679925859 0 -0.063829284072827064 -0.018436737350755707 0 -0.064506774806885811 -0.019120413744778204 0 -0.063070546503155078 -0.019123093679925859 0 -0.059783614523523196 -0.019503085032766952 0 -0.061543832978084564 -0.018395575613232098 0 -0.063070546503155078 -0.019123093679925859 0 -0.069842049061451847 -0.019242013818122669 0 -0.072279519479962154 -0.017087897046122187 0 -0.069978641867207522 -0.022701161394476924 0 -0.07005930893023718 -0.017291349849426887 0 -0.069842049061451847 -0.019242013818122669 0 -0.072279519479962154 -0.017087897046122187 0 -0.068237846123057166 -0.01802638409895943 0 -0.068091187834854253 -0.019506270738172755 0 -0.069842049061451847 -0.019242013818122669 0 -0.07005930893023718 -0.017291349849426887 0 -0.068237846123057166 -0.01802638409895943 0 -0.069842049061451847 -0.019242013818122669 0 -0.068596908126121861 -0.01600938924998099 0 -0.07005930893023718 -0.017291349849426887 0 -0.068237846123057166 -0.01802638409895943 0 -0.068596908126121861 -0.01600938924998099 0 -0.066682948329647135 -0.017016375907055164 0 -0.068237846123057166 -0.01802638409895943 0 -0.065010597203659842 -0.018342076592821225 0 -0.066682948329647135 -0.017016375907055164 0 -0.066762493734337638 -0.018937334534877351 0 -0.066682948329647135 -0.017016375907055164 0 -0.068237846123057166 -0.01802638409895943 0 -0.066762493734337638 -0.018937334534877351 0 -0.068237846123057166 -0.01802638409895943 0 -0.068091187834854253 -0.019506270738172755 0 -0.066762493734337638 -0.018937334534877351 0 -0.068091187834854253 -0.019506270738172755 0 -0.067178497621136715 -0.019830451667386818 0 -0.066762493734337638 -0.018937334534877351 0 -0.064886834971337459 -0.020000724836769724 0 -0.066983449343956808 -0.020683995053733435 0 -0.067804944677131662 -0.02212689533247017 0 -0.068091187834854253 -0.019506270738172755 0 -0.067178497621136715 -0.019830451667386818 0 -0.067875521399529445 -0.020490127899880729 0 -0.06549426670503565 -0.019303953982891666 0 -0.066762493734337638 -0.018937334534877351 0 -0.066252286448850908 -0.019766961889450246 0 -0.067178497621136715 -0.019830451667386818 0 -0.066762493734337638 -0.018937334534877351 0 -0.066252286448850908 -0.019766961889450246 0 -0.064886834971337459 -0.020000724836769724 0 -0.066252286448850908 -0.019766961889450246 0 -0.066983449343956808 -0.020683995053733435 0 -0.067178497621136715 -0.019830451667386818 0 -0.066252286448850908 -0.019766961889450246 0 -0.066983449343956808 -0.020683995053733435 0 -0.068091187834854253 -0.019506270738172755 0 -0.067875521399529445 -0.020490127899880729 0 -0.068714806315505125 -0.020794408196210215 0 -0.066983449343956808 -0.020683995053733435 0 -0.067875521399529445 -0.020490127899880729 0 -0.067804944677131662 -0.02212689533247017 0 -0.067875521399529445 -0.020490127899880729 0 -0.068714806315505125 -0.020794408196210215 0 -0.067804944677131662 -0.02212689533247017 0 -0.067178497621136715 -0.019830451667386818 0 -0.066983449343956808 -0.020683995053733435 0 -0.067875521399529445 -0.020490127899880729 0 -0.068714806315505125 -0.020794408196210215 0 -0.069842049061451847 -0.019242013818122669 0 -0.069978641867207522 -0.022701161394476924 0 -0.068091187834854253 -0.019506270738172755 0 -0.068714806315505125 -0.020794408196210215 0 -0.069842049061451847 -0.019242013818122669 0 -0.0780241006013635 -0.0066944293981687619 0 -0.076462477811076998 -0.0051271090777057363 0 -0.085343835209152646 -0.001301493054862924 0 -0.085336206915190477 -0.00090763144426409404 0 -0.084319687688529529 -0.0017666103516698784 0 -0.0780241006013635 -0.0066944293981687619 0 -0.081080880427504165 -0.0042313503787747416 0 -0.085343835209152646 -0.001301493054862924 0 -0.085336206915190477 -0.00090763144426409404 0 -0.085741983564263047 -0.00043906175647436343 0 -0.084319687688529529 -0.0017666103516698784 0 -0.08486117656870501 -0.00037268154556611012 0 -0.084369374022391447 -0.00086395172789684963 0 -0.085336206915190477 -0.00090763144426409404 0 -0.084319687688529529 -0.0017666103516698784 0 -0.085971544214033802 -0.00035583121289067772 0 -0.084319687688529529 -0.0017666103516698784 0 -0.084369374022391447 -0.00086395172789684963 0 -0.083946694027140306 -0.0014269167962994518 0 -0.08588905660985359 -0.00093427258472725293 0 -0.086202880896829259 -0.00039142918999392033 0 -0.084319687688529529 -0.0017666103516698784 0 -0.083578797663629523 -0.0020439276774307106 0 -0.083946694027140306 -0.0014269167962994518 0 -0.082964675602487215 -0.0025956553422588238 0 -0.083578797663629523 -0.0020439276774307106 0 -0.083427388480285289 -0.0023858293894295866 0 -0.083822060283819208 -0.0028056523074551773 0 -0.084319687688529529 -0.0017666103516698784 0 -0.083427388480285289 -0.0023858293894295866 0 -0.084319687688529529 -0.0017666103516698784 0 -0.083578797663629523 -0.0020439276774307106 0 -0.083427388480285289 -0.0023858293894295866 0 -0.079034254679462332 -0.0055844833834807778 0 -0.0780241006013635 -0.0066944293981687619 0 -0.083822060283819208 -0.0028056523074551773 0 -0.085343835209152646 -0.001301493054862924 0 -0.084319687688529529 -0.0017666103516698784 0 -0.075948008821119281 -0.010841418074747811 0 -0.072566474671082321 -0.017594358050624762 0 -0.071435926522601972 -0.014594000832138011 0 -0.075948008821119281 -0.010841418074747811 0 -0.070761861303567 -0.011017279917823137 0 -0.071435926522601972 -0.014594000832138011 0 -0.07005930893023718 -0.017291349849426887 0 -0.072279519479962154 -0.017087897046122187 0 -0.071435926522601972 -0.014594000832138011 0 -0.0780241006013635 -0.0066944293981687619 0 -0.07800820557431605 -0.0075608502114438087 0 -0.08105944183610371 -0.003785246760181521 0 -0.080941248191397794 -0.0040456630006950019 0 -0.080792968111146501 -0.0036382283231641706 0 -0.08105944183610371 -0.003785246760181521 0 -0.080970692703527497 -0.0036099826335438752 0 -0.080792968111146501 -0.0036382283231641706 0 -0.08105944183610371 -0.003785246760181521 0 -0.080941248191397794 -0.0040456630006950019 0 -0.081088239724654662 -0.0039435112579817664 0 -0.08105944183610371 -0.003785246760181521 0 -0.081088239724654662 -0.0039435112579817664 0 -0.081199309352972038 -0.0038680739933605042 0 -0.08105944183610371 -0.003785246760181521 0 -0.081221485711916785 -0.0037132720952898438 0 -0.081156921181343253 -0.0036086745438976813 0 -0.08105944183610371 -0.003785246760181521 0 -0.080970692703527497 -0.0036099826335438752 0 -0.081156921181343253 -0.0036086745438976813 0 -0.08105944183610371 -0.003785246760181521 0 -0.081199309352972038 -0.0038680739933605042 0 -0.081221485711916785 -0.0037132720952898438 0 -0.086371510926025921 -0.0002005381804607086 0 -0.085971544214033802 -0.00035583121289067772 0 -0.087671187779476203 0.00038230709267118618 0 -0.081080880427504165 -0.0042313503787747416 0 -0.085394090358775432 -0.0027133915202740911 0 -0.086371510926025921 -0.0002005381804607086 0 -0.087274946007447937 0.00030259542469106325 0 -0.087671187779476203 0.00038230709267118618 0 -0.086371510926025921 -0.0002005381804607086 0 -0.086606611238356349 -0.00029132509613464288 0 -0.087274946007447937 0.00030259542469106325 0 -0.086202880896829259 -0.00039142918999392033 0 -0.087077048064752333 0.00025437076018433835 0 -0.086371510926025921 -0.0002005381804607086 0 -0.085971544214033802 -0.00035583121289067772 0 -0.085741983564263047 -0.00043906175647436343 0 -0.081823860019836478 -0.0041628890123679672 0 -0.081080880427504165 -0.0042313503787747416 0 -0.08486117656870501 -0.00037268154556611012 0 -0.084369374022391447 -0.00086395172789684963 0 -0.08462570802159361 -0.00034932101773339812 0 -0.085336206915190477 -0.00090763144426409404 0 -0.085971544214033802 -0.00035583121289067772 0 -0.085741983564263047 -0.00043906175647436343 0 -0.07913914497319828 -0.0054015287952926668 0 -0.078507620959424179 -0.0037738797268746732 0 -0.079658087197308589 -0.0041108800484520184 0 -0.080941248191397794 -0.0040456630006950019 0 -0.081088239724654662 -0.0039435112579817664 0 -0.081227317290714238 -0.004130095513786838 0 -0.081080880427504165 -0.0042313503787747416 0 -0.076462477811076998 -0.0051271090777057363 0 -0.081088239724654662 -0.0039435112579817664 0 -0.081227317290714238 -0.004130095513786838 0 -0.081199309352972038 -0.0038680739933605042 0 -0.081137129712374703 -0.0042937243927146087 0 -0.08131120901147762 -0.0043423483225175797 0 -0.081391847902853698 -0.0037390521114749032 0 -0.07471777851056409 -0.0046945626552259328 0 -0.078225363539972781 -0.0030962254508116955 0 -0.076462477811076998 -0.0051271090777057363 0 -0.07471777851056409 -0.0046945626552259328 0 -0.068714806315505125 -0.020794408196210215 0 -0.069978641867207522 -0.022701161394476924 0 -0.067804944677131662 -0.02212689533247017 0 -0.066640151412168808 -0.00038340581686614766 0 -0.06723378728254574 -0.00039385217200188819 0 -0.067029583415960783 -0.000119374230356968 0 -0.066640151412168808 -0.00038340581686614766 0 -0.067029583415960783 -0.000119374230356968 0 -0.066952230949711436 0.0003999162072146326 0 -0.06723378728254574 -0.00039385217200188819 0 -0.067029583415960783 -0.000119374230356968 0 -0.067282610975221729 -6.962575702940013e-05 0 -0.067029583415960783 -0.000119374230356968 0 -0.066952230949711436 0.0003999162072146326 0 -0.067282610975221729 -6.962575702940013e-05 0 -0.066952230949711436 0.0003999162072146326 0 -0.067574287705427324 0.0001897017640043869 0 -0.067282610975221729 -6.962575702940013e-05 0 -0.076462477811076998 -0.0051271090777057363 0 -0.077901063134501694 -0.0038267589381727092 0 -0.081227317290714238 -0.004130095513786838 0 -0.081199309352972038 -0.0038680739933605042 0 -0.081391847902853698 -0.0037390521114749032 0 -0.08131120901147762 -0.0043423483225175797 0 -0.081579522299993545 -0.0037358885683235828 0 -0.081391847902853698 -0.0037390521114749032 0 -0.081579522299993545 -0.0037358885683235828 0 -0.081391847902853698 -0.0037390521114749032 0 -0.081388360559879316 -0.0035679850924872606 0 -0.081391847902853698 -0.0037390521114749032 0 -0.081221485711916785 -0.0037132720952898438 0 -0.081388360559879316 -0.0035679850924872606 0 -0.081199309352972038 -0.0038680739933605042 0 -0.081391847902853698 -0.0037390521114749032 0 -0.081221485711916785 -0.0037132720952898438 0 -0.081221485711916785 -0.0037132720952898438 0 -0.081388360559879316 -0.0035679850924872606 0 -0.081156921181343253 -0.0036086745438976813 0 -0.081388360559879316 -0.0035679850924872606 0 -0.081787455878407939 -0.0032405689805317423 0 -0.081234467771962859 -0.0033684054355123299 0 -0.081388360559879316 -0.0035679850924872606 0 -0.081234467771962859 -0.0033684054355123299 0 -0.081156921181343253 -0.0036086745438976813 0 -0.081579522299993545 -0.0037358885683235828 0 -0.081388360559879316 -0.0035679850924872606 0 -0.081787455878407939 -0.0032405689805317423 0 -0.066952230949711436 0.0003999162072146326 0 -0.067295903662600201 0.001184474270343667 0 -0.067597131004112548 0.00075339365265003307 0 -0.078225363539972781 -0.0030962254508116955 0 -0.084662304297905583 -0.0016994086840338297 0 -0.084662304297905583 -0.0016994086840338297 0 -0.087535539018276057 -0.0019589260610826747 0 -0.094943176328532761 -1.2147896096508451e-05 0 -0.094946435809110358 -1.3340012932024476e-05 0 -0.094957374736143602 -8.0731849486787699e-06 0 -0.094946435809110358 -1.3340012932024476e-05 0 -0.094950808140186083 -1.0534202170399936e-05 0 -0.094957374736143602 -8.0731849486787699e-06 0 -0.094946435809110358 -1.3340012932024476e-05 0 -0.094950808140186083 -1.0534202170399936e-05 0 -0.094939385537123069 -1.6951056409093519e-05 0 -0.094950808140186083 -1.0534202170399936e-05 0 -0.094955222100800762 -8.5868941658412424e-06 0 -0.09496013544783441 -7.2058853669405873e-06 0 -0.081234467771962859 -0.0033684054355123299 0 -0.080970692703527497 -0.0036099826335438752 0 -0.080736432478818232 -0.0034842699400094604 0 -0.087535539018276057 -0.0019589260610826747 0 -0.087391165427124884 -0.002932962923881502 0 -0.081234467771962859 -0.0033684054355123299 0 -0.080970692703527497 -0.0036099826335438752 0 -0.081156921181343253 -0.0036086745438976813 0 -0.087274946007447937 0.00030259542469106325 0 -0.087717454184460433 0.00020574463022778269 0 -0.087671187779476203 0.00038230709267118618 0 -0.085394090358775432 -0.0027133915202740911 0 -0.087391165427124884 -0.002932962923881502 0 -0.080970692703527497 -0.0036099826335438752 0 -0.080792968111146501 -0.0036382283231641706 0 -0.080736432478818232 -0.0034842699400094604 0 -0.094946811798183942 -1.0993483294611377e-05 0 -0.094958756709024719 1.6041826425646416e-06 0 -0.094944792845316942 -8.7284974376268902e-06 0 -0.094939385537123069 -1.6951056409093519e-05 0 -0.094946811798183942 -1.0993483294611377e-05 0 -0.094944792845316942 -8.7284974376268902e-06 0 -0.094950808140186083 -1.0534202170399936e-05 0 -0.094939385537123069 -1.6951056409093519e-05 0 -0.094946811798183942 -1.0993483294611377e-05 0 -0.087391165427124884 -0.002932962923881502 0 -0.089181833476228003 -0.0014274908308092003 0 -0.094946811798183942 -1.0993483294611377e-05 0 -0.094955222100800762 -8.5868941658412424e-06 0 -0.094961431647563918 -6.720322573542386e-06 0 -0.094950808140186083 -1.0534202170399936e-05 0 -0.094946811798183942 -1.0993483294611377e-05 0 -0.094955222100800762 -8.5868941658412424e-06 0 -0.094970621912550734 -4.4977629044467206e-06 0 -0.094975134439629516 -1.944727152111268e-06 0 -0.094946811798183942 -1.0993483294611377e-05 0 -0.094961431647563918 -6.720322573542386e-06 0 -0.09496852231704285 -4.9805163424135776e-06 0 -0.094955222100800762 -8.5868941658412424e-06 0 -0.094961431647563918 -6.720322573542386e-06 0 -0.09496013544783441 -7.2058853669405873e-06 0 -0.094961431647563918 -6.720322573542386e-06 0 -0.09496013544783441 -7.2058853669405873e-06 0 -0.094968855730292567 -5.1082940619588483e-06 0 -0.094961431647563918 -6.720322573542386e-06 0 -0.09496852231704285 -4.9805163424135776e-06 0 -0.094968855730292567 -5.1082940619588483e-06 0 -0.09496013544783441 -7.2058853669405873e-06 0 -0.094967578177659301 -5.3005475545996856e-06 0 -0.094957374736143602 -8.0731849486787699e-06 0 -0.094950808140186083 -1.0534202170399936e-05 0 -0.09496013544783441 -7.2058853669405873e-06 0 -0.094957374736143602 -8.0731849486787699e-06 0 -0.09496013544783441 -7.2058853669405873e-06 0 -0.094967578177659301 -5.3005475545996856e-06 0 -0.094968855730292567 -5.1082940619588483e-06 0 -0.094967578177659301 -5.3005475545996856e-06 0 -0.094976566936059353 -3.7796178992816546e-06 0 -0.094971733240028916 -3.9227212828045437e-06 0 -0.094967578177659301 -5.3005475545996856e-06 0 -0.094976566936059353 -3.7796178992816546e-06 0 -0.094968855730292567 -5.1082940619588483e-06 0 -0.09496852231704285 -4.9805163424135776e-06 0 -0.094977754776497864 -3.7335096609106873e-06 0 -0.094986109169649641 -2.644537546892344e-06 0 -0.09496852231704285 -4.9805163424135776e-06 0 -0.094968855730292567 -5.1082940619588483e-06 0 -0.094977754776497864 -3.7335096609106873e-06 0 -0.094976566936059353 -3.7796178992816546e-06 0 -0.094968855730292567 -5.1082940619588483e-06 0 -0.094977754776497864 -3.7335096609106873e-06 0 -0.094976566936059353 -3.7796178992816546e-06 0 -0.094977754776497864 -3.7335096609106873e-06 0 -0.094989125977205879 -2.1535237494914746e-06 0 -0.094977754776497864 -3.7335096609106873e-06 0 -0.094989125977205879 -2.1535237494914746e-06 0 -0.094986109169649641 -2.644537546892344e-06 0 -0.094976566936059353 -3.7796178992816546e-06 0 -0.094989125977205879 -2.1535237494914746e-06 0 -0.094986559803419496 -2.0989932207699493e-06 0 -0.094976566936059353 -3.7796178992816546e-06 0 -0.094986559803419496 -2.0989932207699493e-06 0 -0.094971733240028916 -3.9227212828045437e-06 0 -0.094999978877572402 -2.7292307345323974e-09 0 -0.094999984206004195 4.2866709822045681e-10 0 -0.094986559803419496 -2.0989932207699493e-06 0 -0.094989125977205879 -2.1535237494914746e-06 0 -0.094999978877572402 -2.7292307345323974e-09 0 -0.094986559803419496 -2.0989932207699493e-06 0 -0.094989125977205879 -2.1535237494914746e-06 0 -0.094999978877572402 -2.7292307345323974e-09 0 -0.094999988940863755 -1.5731794246855392e-09 0 -0.094999984206004195 4.2866709822045681e-10 0 -0.094979839291460436 -1.4851831541219413e-06 0 -0.094999958706100063 -1.0079635214431173e-08 0 -0.094999984206004195 4.2866709822045681e-10 0 -0.094986559803419496 -2.0989932207699493e-06 0 -0.094979839291460436 -1.4851831541219413e-06 0 -0.094986559803419496 -2.0989932207699493e-06 0 -0.094979839291460436 -1.4851831541219413e-06 0 -0.094971733240028916 -3.9227212828045437e-06 0 -0.094979839291460436 -1.4851831541219413e-06 0 -0.094962414947378351 -4.3502180203801882e-06 0 -0.094960634071178884 -7.5063397092377926e-07 0 -0.094979839291460436 -1.4851831541219413e-06 0 -0.094971733240028916 -3.9227212828045437e-06 0 -0.094962414947378351 -4.3502180203801882e-06 0 -0.094971733240028916 -3.9227212828045437e-06 0 -0.094957374736143602 -8.0731849486787699e-06 0 -0.094962414947378351 -4.3502180203801882e-06 0 -0.094967578177659301 -5.3005475545996856e-06 0 -0.094971733240028916 -3.9227212828045437e-06 0 -0.094957374736143602 -8.0731849486787699e-06 0 -0.094943176328532761 -1.2147896096508451e-05 0 -0.094957374736143602 -8.0731849486787699e-06 0 -0.094962414947378351 -4.3502180203801882e-06 0 -0.09476043441353961 -0.0001470861226662473 0 -0.094849160734211665 -4.1652447551833505e-05 0 -0.094880868034676866 -0.00010739087554584225 0 -0.094943176328532761 -1.2147896096508451e-05 0 -0.094962414947378351 -4.3502180203801882e-06 0 -0.094960634071178884 -7.5063397092377926e-07 0 -0.084662304297905583 -0.0016994086840338297 0 -0.090551695721340086 0.00087511043181078094 0 -0.094849160734211665 -4.1652447551833505e-05 0 -0.094934021142863034 -2.8726743639467579e-05 0 -0.094880868034676866 -0.00010739087554584225 0 -0.090551695721340086 0.00087511043181078094 0 -0.091886038019552391 0.00098537696997056767 0 -0.094849160734211665 -4.1652447551833505e-05 0 -0.094962403684069149 5.6188552596232597e-07 0 -0.094934021142863034 -2.8726743639467579e-05 0 -0.094979839291460436 -1.4851831541219413e-06 0 -0.094960634071178884 -7.5063397092377926e-07 0 -0.094962403684069149 5.6188552596232597e-07 0 -0.094962403684069149 5.6188552596232597e-07 0 -0.094999958706100063 -1.0079635214431173e-08 0 -0.094999949811557419 3.3371344298040001e-09 0 -0.094979839291460436 -1.4851831541219413e-06 0 -0.094962403684069149 5.6188552596232597e-07 0 -0.094999958706100063 -1.0079635214431173e-08 0 -0.094999949811557419 3.3371344298040001e-09 0 -0.094974329837703889 -3.7437253590588125e-06 0 -0.094999971523185442 -3.1802643040614722e-09 0 -0.094962403684069149 5.6188552596232597e-07 0 -0.094999949811557419 3.3371344298040001e-09 0 -0.094974329837703889 -3.7437253590588125e-06 0 -0.094974329837703889 -3.7437253590588125e-06 0 -0.094965172587419766 -1.4321134995611925e-05 0 -0.094934021142863034 -2.8726743639467579e-05 0 -0.094962403684069149 5.6188552596232597e-07 0 -0.094974329837703889 -3.7437253590588125e-06 0 -0.094934021142863034 -2.8726743639467579e-05 0 -0.094974329837703889 -3.7437253590588125e-06 0 -0.094965172587419766 -1.4321134995611925e-05 0 -0.094999971523185442 -3.1802643040614722e-09 0 -0.094965172587419766 -1.4321134995611925e-05 0 -0.094935867755050557 -5.9909464139380377e-05 0 -0.094960810990135938 -2.3615140545153017e-05 0 -0.094965172587419766 -1.4321134995611925e-05 0 -0.094934021142863034 -2.8726743639467579e-05 0 -0.094935867755050557 -5.9909464139380377e-05 0 -0.094934021142863034 -2.8726743639467579e-05 0 -0.094935867755050557 -5.9909464139380377e-05 0 -0.094880868034676866 -0.00010739087554584225 0 -0.068842566475085826 0.0015900116124581566 0 -0.068671130914192025 0.00089733346191766671 0 -0.069336836917474054 0.0011408388715222965 0 -0.069118417962069259 0.00053481121581932893 0 -0.069577939580451095 0.00022787262229517243 0 -0.068671130914192025 0.00089733346191766671 0 -0.068694297563675052 0.00040213345826743045 0 -0.069567047867640383 0.00036422787628521844 0 -0.068671130914192025 0.00089733346191766671 0 -0.068067340034549687 0.00061696381503865689 0 -0.068694297563675052 0.00040213345826743045 0 -0.068671130914192025 0.00089733346191766671 0 -0.068087689767277831 0.0013643814771565049 0 -0.068067340034549687 0.00061696381503865689 0 -0.068842566475085826 0.0015900116124581566 0 -0.068671130914192025 0.00089733346191766671 0 -0.068087689767277831 0.0013643814771565049 0 -0.081972744713873641 0.00045459599167125539 0 -0.082218520646429219 -0.00043160416082178637 0 -0.084662304297905583 -0.0016994086840338297 0 -0.082218520646429219 -0.00043160416082178637 0 -0.067295903662600201 0.001184474270343667 0 -0.068087689767277831 0.0013643814771565049 0 -0.067597131004112548 0.00075339365265003307 0 -0.068087689767277831 0.0013643814771565049 0 -0.067597131004112548 0.00075339365265003307 0 -0.068067340034549687 0.00061696381503865689 0 -0.068067340034549687 0.00061696381503865689 0 -0.067969036521706105 0.00013403277625310758 0 -0.068352623865478024 8.5905102775782444e-05 0 -0.068067340034549687 0.00061696381503865689 0 -0.067969036521706105 0.00013403277625310758 0 -0.067574287705427324 0.0001897017640043869 0 -0.067969036521706105 0.00013403277625310758 0 -0.067574287705427324 0.0001897017640043869 0 -0.067769852255793142 -0.0001887484639066198 0 -0.067969036521706105 0.00013403277625310758 0 -0.068065425114972766 -0.00010086808032851426 0 -0.068352623865478024 8.5905102775782444e-05 0 -0.067597131004112548 0.00075339365265003307 0 -0.068067340034549687 0.00061696381503865689 0 -0.067574287705427324 0.0001897017640043869 0 -0.066952230949711436 0.0003999162072146326 0 -0.067597131004112548 0.00075339365265003307 0 -0.067574287705427324 0.0001897017640043869 0 -0.067574287705427324 0.0001897017640043869 0 -0.067282610975221729 -6.962575702940013e-05 0 -0.06751364212103049 -0.00015328432951952891 0 -0.067282610975221729 -6.962575702940013e-05 0 -0.06751364212103049 -0.00015328432951952891 0 -0.067393977004929759 -0.0003292148138080801 0 -0.067574287705427324 0.0001897017640043869 0 -0.06751364212103049 -0.00015328432951952891 0 -0.067769852255793142 -0.0001887484639066198 0 -0.06751364212103049 -0.00015328432951952891 0 -0.067562935730391641 -0.00035725383041820157 0 -0.067769852255793142 -0.0001887484639066198 0 -0.067722030856885274 -0.0004410307699633623 0 -0.067562935730391641 -0.00035725383041820157 0 -0.067769852255793142 -0.0001887484639066198 0 -0.067722030856885274 -0.0004410307699633623 0 -0.067623151600407952 -0.00046334035287965884 0 -0.067562935730391641 -0.00035725383041820157 0 -0.06744520134749192 -0.00050682440455404826 0 -0.067623151600407952 -0.00046334035287965884 0 -0.067562935730391641 -0.00035725383041820157 0 -0.06723378728254574 -0.00039385217200188819 0 -0.067282610975221729 -6.962575702940013e-05 0 -0.067393977004929759 -0.0003292148138080801 0 -0.06751364212103049 -0.00015328432951952891 0 -0.067562935730391641 -0.00035725383041820157 0 -0.067393977004929759 -0.0003292148138080801 0 -0.06744520134749192 -0.00050682440455404826 0 -0.067562935730391641 -0.00035725383041820157 0 -0.067393977004929759 -0.0003292148138080801 0 -0.067365570151494011 -0.00045730524993043532 0 -0.06744520134749192 -0.00050682440455404826 0 -0.067393977004929759 -0.0003292148138080801 0 -0.067365570151494011 -0.00045730524993043532 0 -0.06723378728254574 -0.00039385217200188819 0 -0.067393977004929759 -0.0003292148138080801 0 -0.068065425114972766 -0.00010086808032851426 0 -0.067987587275750272 -0.00031944945449192584 0 -0.068248833241905824 -0.00021697784789186331 0 -0.067969036521706105 0.00013403277625310758 0 -0.068065425114972766 -0.00010086808032851426 0 -0.067769852255793142 -0.0001887484639066198 0 -0.068065425114972766 -0.00010086808032851426 0 -0.067769852255793142 -0.0001887484639066198 0 -0.067987587275750272 -0.00031944945449192584 0 -0.067722030856885274 -0.0004410307699633623 0 -0.067769852255793142 -0.0001887484639066198 0 -0.067838539824403382 -0.00034789361857541902 0 -0.067769852255793142 -0.0001887484639066198 0 -0.067838539824403382 -0.00034789361857541902 0 -0.067987587275750272 -0.00031944945449192584 0 -0.067722030856885274 -0.0004410307699633623 0 -0.067838539824403382 -0.00034789361857541902 0 -0.067885096555883956 -0.00045895469992552544 0 -0.067838539824403382 -0.00034789361857541902 0 -0.067885096555883956 -0.00045895469992552544 0 -0.067987587275750272 -0.00031944945449192584 0 -0.068047733145138636 -0.00051123600481805609 0 -0.067987587275750272 -0.00031944945449192584 0 -0.068155749358990547 -0.00041395784259321309 0 -0.067987587275750272 -0.00031944945449192584 0 -0.068155749358990547 -0.00041395784259321309 0 -0.068248833241905824 -0.00021697784789186331 0 -0.068047733145138636 -0.00051123600481805609 0 -0.067885096555883956 -0.00045895469992552544 0 -0.067987587275750272 -0.00031944945449192584 0 -0.068573920320626425 -0.00027840915354404122 0 -0.06890931668375537 2.9252203969482052e-05 0 -0.068352623865478024 8.5905102775782444e-05 0 -0.068319797376595839 -0.00047516062525888929 0 -0.068155749358990547 -0.00041395784259321309 0 -0.068248833241905824 -0.00021697784789186331 0 -0.068319797376595839 -0.00047516062525888929 0 -0.068248833241905824 -0.00021697784789186331 0 -0.068573920320626425 -0.00027840915354404122 0 -0.068248833241905824 -0.00021697784789186331 0 -0.068573920320626425 -0.00027840915354404122 0 -0.068352623865478024 8.5905102775782444e-05 0 -0.068065425114972766 -0.00010086808032851426 0 -0.068248833241905824 -0.00021697784789186331 0 -0.068352623865478024 8.5905102775782444e-05 0 -0.068570470879739234 -0.00056263220808474147 0 -0.068319797376595839 -0.00047516062525888929 0 -0.068573920320626425 -0.00027840915354404122 0 -0.069038201678485622 -0.00050897703521156476 0 -0.068573920320626425 -0.00027840915354404122 0 -0.06890931668375537 2.9252203969482052e-05 0 -0.069038201678485622 -0.00050897703521156476 0 -0.06890931668375537 2.9252203969482052e-05 0 -0.069567047867640383 0.00036422787628521844 0 -0.069038201678485622 -0.00050897703521156476 0 -0.068570470879739234 -0.00056263220808474147 0 -0.068573920320626425 -0.00027840915354404122 0 -0.06890931668375537 2.9252203969482052e-05 0 -0.068694297563675052 0.00040213345826743045 0 -0.069567047867640383 0.00036422787628521844 0 -0.06890931668375537 2.9252203969482052e-05 0 -0.068694297563675052 0.00040213345826743045 0 -0.068352623865478024 8.5905102775782444e-05 0 -0.068067340034549687 0.00061696381503865689 0 -0.068694297563675052 0.00040213345826743045 0 -0.068352623865478024 8.5905102775782444e-05 0 -0.069577939580451095 0.00022787262229517243 0 -0.07034245366783913 -0.00028405103290198968 0 -0.069390169211093852 0.0002598958186289203 0 -0.070485499188931738 -0.00057616666696735713 0 -0.070103735376589343 0.00079749094014811971 0 -0.069857896801163388 -0.00054779775202568992 0 -0.069038201678485622 -0.00050897703521156476 0 -0.069567047867640383 0.00036422787628521844 0 -0.069857896801163388 -0.00054779775202568992 0 -0.069567047867640383 0.00036422787628521844 0 -0.070402921964337728 -0.00019243571780238822 0 -0.070765663754214156 -0.00056336879682756635 0 -0.07034245366783913 -0.00028405103290198968 0 -0.071208099066668057 -0.00089376917428399976 0 -0.070485499188931738 -0.00057616666696735713 0 -0.07121115301965919 -0.00050213317096683573 0 -0.07121115301965919 -0.00050213317096683573 0 -0.070932610358697815 0.0001421809992441556 0 -0.071583178125421545 -0.00019114606162208323 0 -0.070932610358697815 0.0001421809992441556 0 -0.071409060121955248 0.00052424546770279122 0 -0.071583178125421545 -0.00019114606162208323 0 -0.070485499188931738 -0.00057616666696735713 0 -0.07121115301965919 -0.00050213317096683573 0 -0.070932610358697815 0.0001421809992441556 0 -0.070485499188931738 -0.00057616666696735713 0 -0.070932610358697815 0.0001421809992441556 0 -0.070103735376589343 0.00079749094014811971 0 -0.070932610358697815 0.0001421809992441556 0 -0.070918939184002883 0.0011169607562007461 0 -0.070103735376589343 0.00079749094014811971 0 -0.070932610358697815 0.0001421809992441556 0 -0.071409060121955248 0.00052424546770279122 0 -0.070918939184002883 0.0011169607562007461 0 -0.071409060121955248 0.00052424546770279122 0 -0.070918939184002883 0.0011169607562007461 0 -0.07181163236665801 0.0011794127539857002 0 -0.070918939184002883 0.0011169607562007461 0 -0.071613918435676008 0.0021310192005433151 0 -0.07181163236665801 0.0011794127539857002 0 -0.070918939184002883 0.0011169607562007461 0 -0.071613918435676008 0.0021310192005433151 0 -0.070782823190045807 0.0019812538062543789 0 -0.070918939184002883 0.0011169607562007461 0 -0.070332591700222491 0.0014339674932581988 0 -0.070103735376589343 0.00079749094014811971 0 -0.070918939184002883 0.0011169607562007461 0 -0.070332591700222491 0.0014339674932581988 0 -0.070782823190045807 0.0019812538062543789 0 -0.070332591700222491 0.0014339674932581988 0 -0.070782823190045807 0.0019812538062543789 0 -0.070159059464725185 0.0019452203839067134 0 -0.069905547575164914 0.001456615906167522 0 -0.069336836917474054 0.0011408388715222965 0 -0.06969337727937025 0.0019614479661942746 0 -0.069905547575164914 0.001456615906167522 0 -0.070103735376589343 0.00079749094014811971 0 -0.069336836917474054 0.0011408388715222965 0 -0.070332591700222491 0.0014339674932581988 0 -0.069905547575164914 0.001456615906167522 0 -0.070159059464725185 0.0019452203839067134 0 -0.070332591700222491 0.0014339674932581988 0 -0.069905547575164914 0.001456615906167522 0 -0.070103735376589343 0.00079749094014811971 0 -0.068671130914192025 0.00089733346191766671 0 -0.069390169211093852 0.0002598958186289203 0 -0.069336836917474054 0.0011408388715222965 0 -0.069390169211093852 0.0002598958186289203 0 -0.070103735376589343 0.00079749094014811971 0 -0.069336836917474054 0.0011408388715222965 0 -0.068842566475085826 0.0015900116124581566 0 -0.069336836917474054 0.0011408388715222965 0 -0.06969337727937025 0.0019614479661942746 0 -0.081972744713873641 0.00045459599167125539 0 -0.081737950534208612 0.0011187825088917525 0 -0.094935867755050557 -5.9909464139380377e-05 0 -0.094946644639729405 -2.8814639949801697e-05 0 -0.094960810990135938 -2.3615140545153017e-05 0 -0.094946644639729405 -2.8814639949801697e-05 0 -0.094959284331682089 -1.6262494286120824e-05 0 -0.094942949326486212 -1.1429307655219467e-05 0 -0.081737950534208612 0.0011187825088917525 0 -0.079167919389129177 0.0015121238941271529 0 -0.069905547575164914 0.001456615906167522 0 -0.06969337727937025 0.0019614479661942746 0 -0.070159059464725185 0.0019452203839067134 0 -0.094946644639729405 -2.8814639949801697e-05 0 -0.094959284331682089 -1.6262494286120824e-05 0 -0.094960810990135938 -2.3615140545153017e-05 0 -0.094959284331682089 -1.6262494286120824e-05 0 -0.094960810990135938 -2.3615140545153017e-05 0 -0.094978283373674824 -9.8371048544473116e-06 0 -0.094965172587419766 -1.4321134995611925e-05 0 -0.094960810990135938 -2.3615140545153017e-05 0 -0.094978283373674824 -9.8371048544473116e-06 0 -0.094965172587419766 -1.4321134995611925e-05 0 -0.094978283373674824 -9.8371048544473116e-06 0 -0.094999971523185442 -3.1802643040614722e-09 0 -0.094978283373674824 -9.8371048544473116e-06 0 -0.094999982210855913 -4.4758322283192489e-09 0 -0.094971676936720095 -8.3877353102921431e-06 0 -0.094959284331682089 -1.6262494286120824e-05 0 -0.094978283373674824 -9.8371048544473116e-06 0 -0.094971676936720095 -8.3877353102921431e-06 0 -0.094978283373674824 -9.8371048544473116e-06 0 -0.094999982210855913 -4.4758322283192489e-09 0 -0.094999971523185442 -3.1802643040614722e-09 0 -0.09498167493118792 -5.0271514398706716e-06 0 -0.094999932342674662 -1.8483402186820955e-08 0 -0.094964003098763128 -5.9018435625831621e-06 0 -0.094991940255838417 -2.9886031658272814e-06 0 -0.091383728881013773 -0.00030015481487682629 0 -0.094999982210855913 -4.4758322283192489e-09 0 -0.09498167493118792 -5.0271514398706716e-06 0 -0.094971676936720095 -8.3877353102921431e-06 0 -0.094999982210855913 -4.4758322283192489e-09 0 -0.09498167493118792 -5.0271514398706716e-06 0 -0.094999932342674662 -1.8483402186820955e-08 0 -0.09498167493118792 -5.0271514398706716e-06 0 -0.094962968118376845 -3.4739659939332989e-06 0 -0.094964003098763128 -5.9018435625831621e-06 0 -0.094971676936720095 -8.3877353102921431e-06 0 -0.094962968118376845 -3.4739659939332989e-06 0 -0.094947726147884784 -1.7882047752601229e-06 0 -0.09498167493118792 -5.0271514398706716e-06 0 -0.094971676936720095 -8.3877353102921431e-06 0 -0.094962968118376845 -3.4739659939332989e-06 0 -0.082894563962084014 0.0014458067084537453 0 -0.079167919389129177 0.0015121238941271529 0 -0.094971676936720095 -8.3877353102921431e-06 0 -0.094947726147884784 -1.7882047752601229e-06 0 -0.094942949326486212 -1.1429307655219467e-05 0 -0.071715404893208712 0.0040075893179832367 0 -0.0703888781412155 0.0030563062677538117 0 -0.07173019887307544 0.0033393255138755612 0 -0.094959284331682089 -1.6262494286120824e-05 0 -0.094971676936720095 -8.3877353102921431e-06 0 -0.094942949326486212 -1.1429307655219467e-05 0 -0.06969337727937025 0.0019614479661942746 0 -0.070632408544078665 0.0023235106114136879 0 -0.070159059464725185 0.0019452203839067134 0 -0.070782823190045807 0.0019812538062543789 0 -0.070716311376804536 0.0027409029803064757 0 -0.070159059464725185 0.0019452203839067134 0 -0.079167919389129177 0.0015121238941271529 0 -0.077048500585063184 0.00071834024981124584 0 -0.070716311376804536 0.0027409029803064757 0 -0.07173019887307544 0.0033393255138755612 0 -0.071299794872836567 0.0025913097151332659 0 -0.079167919389129177 0.0015121238941271529 0 -0.076656542475129152 0.0013611722394966969 0 -0.07173019887307544 0.0033393255138755612 0 -0.071299794872836567 0.0025913097151332659 0 -0.07184789593594397 0.0028220399253355856 0 -0.070782823190045807 0.0019812538062543789 0 -0.070716311376804536 0.0027409029803064757 0 -0.071299794872836567 0.0025913097151332659 0 -0.071613918435676008 0.0021310192005433151 0 -0.070782823190045807 0.0019812538062543789 0 -0.071299794872836567 0.0025913097151332659 0 -0.071613918435676008 0.0021310192005433151 0 -0.071299794872836567 0.0025913097151332659 0 -0.07184789593594397 0.0028220399253355856 0 -0.071613918435676008 0.0021310192005433151 0 -0.07184789593594397 0.0028220399253355856 0 -0.07240615645095054 0.0027969687336487155 0 -0.071613918435676008 0.0021310192005433151 0 -0.07240615645095054 0.0027969687336487155 0 -0.072539888043727255 0.0019815918110447665 0 -0.07240615645095054 0.0027969687336487155 0 -0.073188285282308599 0.0027301432982306949 0 -0.072539888043727255 0.0019815918110447665 0 -0.07240615645095054 0.0027969687336487155 0 -0.072969348226225195 0.0036279975314071006 0 -0.07228047971916389 0.0034727721507427129 0 -0.07240615645095054 0.0027969687336487155 0 -0.072969348226225195 0.0036279975314071006 0 -0.073188285282308599 0.0027301432982306949 0 -0.07184789593594397 0.0028220399253355856 0 -0.07240615645095054 0.0027969687336487155 0 -0.07228047971916389 0.0034727721507427129 0 -0.07173019887307544 0.0033393255138755612 0 -0.07184789593594397 0.0028220399253355856 0 -0.07228047971916389 0.0034727721507427129 0 -0.072969348226225195 0.0036279975314071006 0 -0.074412273035519186 0.0033696221348669159 0 -0.073188285282308599 0.0027301432982306949 0 -0.074412273035519186 0.0033696221348669159 0 -0.073188285282308599 0.0027301432982306949 0 -0.073772944334677445 0.0018031058401962736 0 -0.086899866551663929 0.00070824740219975046 0 -0.086835060085835664 0.00047434008158160509 0 -0.072969348226225195 0.0036279975314071006 0 -0.074412273035519186 0.0033696221348669159 0 -0.072929851406467752 0.0048550237384568061 0 -0.082396069160246443 -0.0028653947966322596 0 -0.082038918067595543 -0.0031050567065539999 0 -0.080611079830678903 -0.0022720481986795156 0 -0.080901678279283795 -0.00074636916611446993 0 -0.082396069160246443 -0.0028653947966322596 0 -0.080611079830678903 -0.0022720481986795156 0 -0.080815785194114378 0.0019498985438580997 0 -0.085820513207190752 0.00076094648040288542 0 -0.082894563962084014 0.0014458067084537453 0 -0.085820513207190752 0.00076094648040288542 0 -0.071715404893208712 0.0040075893179832367 0 -0.072505887586357509 0.0040585981757179177 0 -0.072929851406467752 0.0048550237384568061 0 -0.094962968118376845 -3.4739659939332989e-06 0 -0.094947726147884784 -1.7882047752601229e-06 0 -0.094938636269632296 1.7510202404497309e-06 0 -0.072969348226225195 0.0036279975314071006 0 -0.072505887586357509 0.0040585981757179177 0 -0.072929851406467752 0.0048550237384568061 0 -0.071715404893208712 0.0040075893179832367 0 -0.07228047971916389 0.0034727721507427129 0 -0.072505887586357509 0.0040585981757179177 0 -0.071715404893208712 0.0040075893179832367 0 -0.07173019887307544 0.0033393255138755612 0 -0.07228047971916389 0.0034727721507427129 0 -0.072969348226225195 0.0036279975314071006 0 -0.07228047971916389 0.0034727721507427129 0 -0.072505887586357509 0.0040585981757179177 0 -0.094962968118376845 -3.4739659939332989e-06 0 -0.094938636269632296 1.7510202404497309e-06 0 -0.094964003098763128 -5.9018435625831621e-06 0 -0.094982568750877863 1.1085069828501522e-05 0 -0.094972571969104233 1.820988327634741e-05 0 -0.094990536007440701 6.8924731364906002e-06 0 -0.085820513207190752 0.00076094648040288542 0 -0.091383728881013773 -0.00030015481487682629 0 -0.094970213086529559 2.3762158499103759e-05 0 -0.094972571969104233 1.820988327634741e-05 0 -0.094990536007440701 6.8924731364906002e-06 0 -0.089249515890050868 3.4855377104941557e-05 0 -0.088343517908285277 -0.00057175156520785362 0 -0.087932721506415706 0.00081435569048206346 0 -0.085820513207190752 0.00076094648040288542 0 -0.086899866551663929 0.00070824740219975046 0 -0.094970213086529559 2.3762158499103759e-05 0 -0.094972571969104233 1.820988327634741e-05 0 -0.094962462958163615 2.1595175001753685e-05 0 -0.094972571969104233 1.820988327634741e-05 0 -0.094971800370621126 1.9372610048439635e-05 0 -0.0949773264535997 1.3970988599364072e-05 0 -0.087012455709878853 0.00065891051115316566 0 -0.086899866551663929 0.00070824740219975046 0 -0.086899866551663929 0.00070824740219975046 0 -0.090173896606786388 0.00081975263347485426 0 -0.094971800370621126 1.9372610048439635e-05 0 -0.094969491585269017 1.3839867867699351e-05 0 -0.0949773264535997 1.3970988599364072e-05 0 -0.094982568750877863 1.1085069828501522e-05 0 -0.0949773264535997 1.3970988599364072e-05 0 -0.094988106110005521 6.2661142220917059e-06 0 -0.094969491585269017 1.3839867867699351e-05 0 -0.0949773264535997 1.3970988599364072e-05 0 -0.094988106110005521 6.2661142220917059e-06 0 -0.094982568750877863 1.1085069828501522e-05 0 -0.094972571969104233 1.820988327634741e-05 0 -0.0949773264535997 1.3970988599364072e-05 0 -0.094969491585269017 1.3839867867699351e-05 0 -0.094988106110005521 6.2661142220917059e-06 0 -0.09499992722022281 8.7091260163967108e-09 0 -0.090173896606786388 0.00081975263347485426 0 -0.094989626467921084 -8.7372206143325669e-07 0 -0.095000018553614493 -1.0900837626858828e-09 0 -0.094988106110005521 6.2661142220917059e-06 0 -0.09499992722022281 8.7091260163967108e-09 0 -0.095000018553614493 -1.0900837626858828e-09 0 -0.094988106110005521 6.2661142220917059e-06 0 -0.094990536007440701 6.8924731364906002e-06 0 -0.094982568750877863 1.1085069828501522e-05 0 -0.094988106110005521 6.2661142220917059e-06 0 -0.094990536007440701 6.8924731364906002e-06 0 -0.095001858678484985 5.060558886784793e-07 0 -0.094993691406493969 -9.3872721848337297e-07 0 -0.094690435554775243 1.8616000967557529e-05 0 -0.094993691406493969 -9.3872721848337297e-07 0 -0.090783320080568566 -0.0003834859237434566 0 -0.084922664105491319 1.376278077891829e-06 0 -0.094993691406493969 -9.3872721848337297e-07 0 -0.094690435554775243 1.8616000967557529e-05 0 -0.090783320080568566 -0.0003834859237434566 0 -0.094690435554775243 1.8616000967557529e-05 0 -0.091495482735453257 4.2070092254815045e-07 0 -0.090783320080568566 -0.0003834859237434566 0 -0.091743716186780122 0.00094302830248228992 0 -0.091344505240923746 0.00092225111415953091 0 -0.094934981520224573 0.00019173728091518303 0 -0.095001858678484985 5.060558886784793e-07 0 -0.094814234498020525 0.0001069054032995353 0 -0.095001858678484985 5.060558886784793e-07 0 -0.094690435554775243 1.8616000967557529e-05 0 -0.094814234498020525 0.0001069054032995353 0 -0.090173896606786388 0.00081975263347485426 0 -0.091344505240923746 0.00092225111415953091 0 -0.090173896606786388 0.00081975263347485426 0 -0.086835060085835664 0.00047434008158160509 0 -0.091495482735453257 4.2070092254815045e-07 0 -0.090935448167992899 -0.0002668580145504853 0 -0.090783320080568566 -0.0003834859237434566 0 -0.090863820480729551 -0.00023561216610051456 0 -0.090935448167992899 -0.0002668580145504853 0 -0.090685485758989867 -5.0513171943268457e-05 0 -0.090863820480729551 -0.00023561216610051456 0 -0.091495482735453257 4.2070092254815045e-07 0 -0.090935448167992899 -0.0002668580145504853 0 -0.090935448167992899 -0.0002668580145504853 0 -0.090783320080568566 -0.0003834859237434566 0 -0.090685485758989867 -5.0513171943268457e-05 0 -0.090783320080568566 -0.0003834859237434566 0 -0.088951860441686043 0.00039229028324735997 0 -0.084922664105491319 1.376278077891829e-06 0 -0.090783320080568566 -0.0003834859237434566 0 -0.088951860441686043 0.00039229028324735997 0 -0.090685485758989867 -5.0513171943268457e-05 0 -0.085654066302453077 0.00042740960682650442 0 -0.086835060085835664 0.00047434008158160509 0 -0.086835060085835664 0.00047434008158160509 0 -0.084753917990626038 0.0010732291157608607 0 -0.080901678279283795 -0.00074636916611446993 0 -0.080611079830678903 -0.0022720481986795156 0 -0.079479393130295117 -0.00024193925306908239 0 -0.081095033172156591 0.0027950035451909916 0 -0.078894305326076997 0.0041337700065506985 0 -0.079479393130295117 -0.00024193925306908239 0 -0.081095033172156591 0.0027950035451909916 0 -0.084902838629973193 4.9961664826769723e-06 0 -0.079479393130295117 -0.00024193925306908239 0 -0.085654066302453077 0.00042740960682650442 0 -0.084913960425254162 1.6197919475101396e-06 0 -0.077751084301938264 0.00031284010686605484 0 -0.079313088096275852 -1.2012288609661805e-06 0 -0.079479393130295117 -0.00024193925306908239 0 -0.084902838629973193 4.9961664826769723e-06 0 -0.079313088096275852 -1.2012288609661805e-06 0 -0.079479393130295117 -0.00024193925306908239 0 -0.077751084301938264 0.00031284010686605484 0 -0.079313088096275852 -1.2012288609661805e-06 0 -0.074980965641841299 -0.00041251299750923967 0 -0.077751084301938264 0.00031284010686605484 0 -0.074925366442403066 -0.00018515881239498106 0 -0.074980965641841299 -0.00041251299750923967 0 -0.077751084301938264 0.00031284010686605484 0 -0.074925366442403066 -0.00018515881239498106 0 -0.074151236002359053 0.00046910122584787033 0 -0.074412273035519186 0.0033696221348669159 0 -0.077751084301938264 0.00031284010686605484 0 -0.073772944334677445 0.0018031058401962736 0 -0.080901678279283795 -0.00074636916611446993 0 -0.077751084301938264 0.00031284010686605484 0 -0.079479393130295117 -0.00024193925306908239 0 -0.080815785194114378 0.0019498985438580997 0 -0.080017586518168801 0.0014215986446026298 0 -0.077751084301938264 0.00031284010686605484 0 -0.073772944334677445 0.0018031058401962736 0 -0.074151236002359053 0.00046910122584787033 0 -0.073188285282308599 0.0027301432982306949 0 -0.073772944334677445 0.0018031058401962736 0 -0.072539888043727255 0.0019815918110447665 0 -0.073772944334677445 0.0018031058401962736 0 -0.072539888043727255 0.0019815918110447665 0 -0.072784518562034523 0.00090020399046437233 0 -0.073772944334677445 0.0018031058401962736 0 -0.074151236002359053 0.00046910122584787033 0 -0.072784518562034523 0.00090020399046437233 0 -0.071613918435676008 0.0021310192005433151 0 -0.072539888043727255 0.0019815918110447665 0 -0.07181163236665801 0.0011794127539857002 0 -0.072539888043727255 0.0019815918110447665 0 -0.07181163236665801 0.0011794127539857002 0 -0.072784518562034523 0.00090020399046437233 0 -0.071409060121955248 0.00052424546770279122 0 -0.07181163236665801 0.0011794127539857002 0 -0.072050560658666787 0.00041196812847435618 0 -0.07181163236665801 0.0011794127539857002 0 -0.072050560658666787 0.00041196812847435618 0 -0.072784518562034523 0.00090020399046437233 0 -0.072050560658666787 0.00041196812847435618 0 -0.072784518562034523 0.00090020399046437233 0 -0.072845682881108348 -0.0001811201498794758 0 -0.071409060121955248 0.00052424546770279122 0 -0.072050560658666787 0.00041196812847435618 0 -0.071583178125421545 -0.00019114606162208323 0 -0.074925366442403066 -0.00018515881239498106 0 -0.074151236002359053 0.00046910122584787033 0 -0.072845682881108348 -0.0001811201498794758 0 -0.074151236002359053 0.00046910122584787033 0 -0.072784518562034523 0.00090020399046437233 0 -0.072845682881108348 -0.0001811201498794758 0 -0.074925366442403066 -0.00018515881239498106 0 -0.072845682881108348 -0.0001811201498794758 0 -0.073009278013127815 -0.00071245861957665811 0 -0.072845682881108348 -0.0001811201498794758 0 -0.071785018191956165 -0.00071473256308500043 0 -0.073009278013127815 -0.00071245861957665811 0 -0.072845682881108348 -0.0001811201498794758 0 -0.071583178125421545 -0.00019114606162208323 0 -0.071785018191956165 -0.00071473256308500043 0 -0.07121115301965919 -0.00050213317096683573 0 -0.071583178125421545 -0.00019114606162208323 0 -0.071785018191956165 -0.00071473256308500043 0 -0.072050560658666787 0.00041196812847435618 0 -0.072845682881108348 -0.0001811201498794758 0 -0.071583178125421545 -0.00019114606162208323 0 -0.071237446731944348 -0.00086283635797247151 0 -0.071208099066668057 -0.00089376917428399976 0 -0.071785018191956165 -0.00071473256308500043 0 -0.071208099066668057 -0.00089376917428399976 0 -0.07121115301965919 -0.00050213317096683573 0 -0.071785018191956165 -0.00071473256308500043 0 -0.071237446731944348 -0.00086283635797247151 0 -0.071785018191956165 -0.00071473256308500043 0 -0.073009278013127815 -0.00071245861957665811 0 -0.071237446731944348 -0.00086283635797247151 0 -0.071512207539768252 -0.00069438392278611241 0 -0.073009278013127815 -0.00071245861957665811 0 -0.071512207539768252 -0.00069438392278611241 0 -0.073713557115565653 -1.3390688059172351e-06 0 -0.074980965641841299 -0.00041251299750923967 0 -0.079313088096275852 -1.2012288609661805e-06 0 -0.073713557115565653 -1.3390688059172351e-06 0 -0.074980965641841299 -0.00041251299750923967 0 -0.074925366442403066 -0.00018515881239498106 0 -0.074980965641841299 -0.00041251299750923967 0 -0.073009278013127815 -0.00071245861957665811 0 -0.071512207539768252 -0.00069438392278611241 0 -0.074980965641841299 -0.00041251299750923967 0 -0.073009278013127815 -0.00071245861957665811 0 -0.088096462386098293 0.0020238144508284116 0 -0.087789266787474021 0.00058623514273983628 0 -0.089676602475930345 0.0026615736562111822 0 -0.082911887072984622 -0.001734653944115021 0 -0.082108424262749946 -0.0014495909314750862 0 -0.088096462386098293 0.0020238144508284116 0 -0.089676602475930345 0.0026615736562111822 0 -0.088464942078836276 0.0034735361484442406 0 -0.088096462386098293 0.0020238144508284116 0 -0.086645038571405292 0.0026751830205441404 0 -0.087559570150144761 0.0032725321194187066 0 -0.088096462386098293 0.0020238144508284116 0 -0.086645038571405292 0.0026751830205441404 0 -0.086791936181293564 0.0014377156575073042 0 -0.088096462386098293 0.0020238144508284116 0 -0.086791936181293564 0.0014377156575073042 0 -0.087652178188054139 0.00087117482370956296 0 -0.086290037047237284 0.00062348390705855954 0 -0.086791936181293564 0.0014377156575073042 0 -0.087652178188054139 0.00087117482370956296 0 -0.073135612658283222 -0.0071602605193169027 0 -0.073196313903543531 -0.0071784982387622445 0 -0.072867940946763257 -0.0063413582263326679 0 -0.073135612658283222 -0.0071602605193169027 0 -0.073196313903543531 -0.0071784982387622445 0 -0.073346921879695159 -0.0071560567909185442 0 -0.083515711669230969 -0.00057610538912720999 0 -0.082911887072984622 -0.001734653944115021 0 -0.073196313903543531 -0.0071784982387622445 0 -0.073322352161016 -0.0071447005015609407 0 -0.072867940946763257 -0.0063413582263326679 0 -0.073196313903543531 -0.0071784982387622445 0 -0.073322352161016 -0.0071447005015609407 0 -0.073291566655448184 -0.0072614143366017125 0 -0.073322352161016 -0.0071447005015609407 0 -0.073450797454930009 -0.0073931462837420409 0 -0.073291566655448184 -0.0072614143366017125 0 -0.073707795952157498 -0.0070375080204640979 0 -0.073450797454930009 -0.0073931462837420409 0 -0.074123989256171141 -0.0073915709879468503 0 -0.073322352161016 -0.0071447005015609407 0 -0.073707795952157498 -0.0070375080204640979 0 -0.073450797454930009 -0.0073931462837420409 0 -0.074042427215887746 -0.0063953670696891311 0 -0.072867940946763257 -0.0063413582263326679 0 -0.074567757251217559 -0.0053769320801188873 0 -0.073707795952157498 -0.0070375080204640979 0 -0.074042427215887746 -0.0063953670696891311 0 -0.072867940946763257 -0.0063413582263326679 0 -0.073707795952157498 -0.0070375080204640979 0 -0.074042427215887746 -0.0063953670696891311 0 -0.074822073402712158 -0.0067225787682830013 0 -0.074042427215887746 -0.0063953670696891311 0 -0.074567757251217559 -0.0053769320801188873 0 -0.074822073402712158 -0.0067225787682830013 0 -0.073322352161016 -0.0071447005015609407 0 -0.073707795952157498 -0.0070375080204640979 0 -0.072867940946763257 -0.0063413582263326679 0 -0.089676602475930345 0.0026615736562111822 0 -0.089583616285758921 0.0041612094100108941 0 -0.091324015915309378 0.0048606131654452996 0 -0.082108424262749946 -0.0014495909314750862 0 -0.083017774508634887 0.00034178949913263188 0 -0.089676602475930345 0.0026615736562111822 0 -0.089583616285758921 0.0041612094100108941 0 -0.088464942078836276 0.0034735361484442406 0 -0.072867940946763257 -0.0063413582263326679 0 -0.074567757251217559 -0.0053769320801188873 0 -0.073976841025163498 -0.0036321468460809164 0 -0.091324015915309378 0.0048606131654452996 0 -0.089527327213402313 0.0053005255138738839 0 -0.091376612813375488 0.0056464599867297521 0 -0.089583616285758921 0.0041612094100108941 0 -0.091324015915309378 0.0048606131654452996 0 -0.089527327213402313 0.0053005255138738839 0 -0.089583616285758921 0.0041612094100108941 0 -0.089527327213402313 0.0053005255138738839 0 -0.088637864918867521 0.0042788002058783093 0 -0.092646870924424501 0.0055673051711011036 0 -0.091944311454619454 0.0054323361716977674 0 -0.092174057957134348 0.0054690507586494432 0 -0.089527327213402313 0.0053005255138738839 0 -0.088637864918867521 0.0042788002058783093 0 -0.087168972703909289 0.0042479914079000917 0 -0.092646870924424501 0.0055673051711011036 0 -0.091874642028907313 0.0049318826465176236 0 -0.091944311454619454 0.0054323361716977674 0 -0.090502924932495996 0.0051694258407582608 0 -0.089200612989750447 0.004628259165636292 0 -0.089583616285758921 0.0041612094100108941 0 -0.088637864918867521 0.0042788002058783093 0 -0.088464942078836276 0.0034735361484442406 0 -0.088637864918867521 0.0042788002058783093 0 -0.088008264896427754 0.0038576955240437528 0 -0.087168972703909289 0.0042479914079000917 0 -0.088096462386098293 0.0020238144508284116 0 -0.088464942078836276 0.0034735361484442406 0 -0.087559570150144761 0.0032725321194187066 0 -0.088637864918867521 0.0042788002058783093 0 -0.088008264896427754 0.0038576955240437528 0 -0.088464942078836276 0.0034735361484442406 0 -0.088008264896427754 0.0038576955240437528 0 -0.088464942078836276 0.0034735361484442406 0 -0.087559570150144761 0.0032725321194187066 0 -0.086645038571405292 0.0026751830205441404 0 -0.087559570150144761 0.0032725321194187066 0 -0.087168972703909289 0.0042479914079000917 0 -0.091163081857320374 0.005607540719924994 0 -0.091874642028907313 0.0049318826465176236 0 -0.085587295398446381 0.0033719393067328583 0 -0.088008264896427754 0.0038576955240437528 0 -0.087559570150144761 0.0032725321194187066 0 -0.087168972703909289 0.0042479914079000917 0 -0.091163081857320374 0.005607540719924994 0 -0.091874642028907313 0.0049318826465176236 0 -0.091944311454619454 0.0054323361716977674 0 -0.091944311454619454 0.0054323361716977674 0 -0.091734034857838459 0.0055362517711453219 0 -0.092174057957134348 0.0054690507586494432 0 -0.091163081857320374 0.005607540719924994 0 -0.091944311454619454 0.0054323361716977674 0 -0.091529394806278808 0.0055400976933528022 0 -0.091944311454619454 0.0054323361716977674 0 -0.091529394806278808 0.0055400976933528022 0 -0.091734034857838459 0.0055362517711453219 0 -0.091163081857320374 0.005607540719924994 0 -0.091529394806278808 0.0055400976933528022 0 -0.091600933327901757 0.0055412238455611416 0 -0.091529394806278808 0.0055400976933528022 0 -0.091600933327901757 0.0055412238455611416 0 -0.091734034857838459 0.0055362517711453219 0 -0.091163081857320374 0.005607540719924994 0 -0.091600933327901757 0.0055412238455611416 0 -0.092067975642722927 0.0056180680581428884 0 -0.091163081857320374 0.005607540719924994 0 -0.084498888055644997 0.0068306009372165943 0 -0.085587295398446381 0.0033719393067328583 0 -0.089715455537791963 0.0055067668183581458 0 -0.088429845478769448 0.0056687473745628218 0 -0.084498888055644997 0.0068306009372165943 0 -0.083466722117889941 0.0042813450858378062 0 -0.082203253265380791 0.0052944976669931278 0 -0.084498888055644997 0.0068306009372165943 0 -0.083466722117889941 0.0042813450858378062 0 -0.085587295398446381 0.0033719393067328583 0 -0.083466722117889941 0.0042813450858378062 0 -0.085587295398446381 0.0033719393067328583 0 -0.082861131739354388 0.0017884557143912814 0 -0.089200612989750447 0.004628259165636292 0 -0.08788496910776683 0.0041261712382517053 0 -0.086645038571405292 0.0026751830205441404 0 -0.087168972703909289 0.0042479914079000917 0 -0.085587295398446381 0.0033719393067328583 0 -0.082203253265380791 0.0052944976669931278 0 -0.080583360815718597 0.0047275652680774643 0 -0.080944327173649272 0.0069811882939687037 0 -0.080583360815718597 0.0047275652680774643 0 -0.080944327173649272 0.0069811882939687037 0 -0.079326626339287262 0.0054365979949012495 0 -0.080583360815718597 0.0047275652680774643 0 -0.079326626339287262 0.0054365979949012495 0 -0.079184433522616254 0.0042149794839250508 0 -0.084498888055644997 0.0068306009372165943 0 -0.082203253265380791 0.0052944976669931278 0 -0.080944327173649272 0.0069811882939687037 0 -0.088429845478769448 0.0056687473745628218 0 -0.086695401499371064 0.0055924766712810142 0 -0.083466722117889941 0.0042813450858378062 0 -0.081863722349713772 0.0037805205415076854 0 -0.082861131739354388 0.0017884557143912814 0 -0.083466722117889941 0.0042813450858378062 0 -0.082203253265380791 0.0052944976669931278 0 -0.081863722349713772 0.0037805205415076854 0 -0.082203253265380791 0.0052944976669931278 0 -0.081863722349713772 0.0037805205415076854 0 -0.080583360815718597 0.0047275652680774643 0 -0.080583360815718597 0.0047275652680774643 0 -0.080038418778102333 0.0023502552178383839 0 -0.079184433522616254 0.0042149794839250508 0 -0.081863722349713772 0.0037805205415076854 0 -0.080583360815718597 0.0047275652680774643 0 -0.080038418778102333 0.0023502552178383839 0 -0.080038418778102333 0.0023502552178383839 0 -0.082861131739354388 0.0017884557143912814 0 -0.080057080442917344 -0.00084453064884038715 0 -0.081863722349713772 0.0037805205415076854 0 -0.080038418778102333 0.0023502552178383839 0 -0.082861131739354388 0.0017884557143912814 0 -0.082861131739354388 0.0017884557143912814 0 -0.085416843417683713 0.0010660589322902211 0 -0.083491161021577165 -0.0012614731114216143 0 -0.086645038571405292 0.0026751830205441404 0 -0.086791936181293564 0.0014377156575073042 0 -0.085416843417683713 0.0010660589322902211 0 -0.086645038571405292 0.0026751830205441404 0 -0.085587295398446381 0.0033719393067328583 0 -0.085416843417683713 0.0010660589322902211 0 -0.085587295398446381 0.0033719393067328583 0 -0.082861131739354388 0.0017884557143912814 0 -0.085416843417683713 0.0010660589322902211 0 -0.086290037047237284 0.00062348390705855954 0 -0.086791936181293564 0.0014377156575073042 0 -0.085416843417683713 0.0010660589322902211 0 -0.086290037047237284 0.00062348390705855954 0 -0.085416843417683713 0.0010660589322902211 0 -0.085804768567078443 -0.00028791115541519597 0 -0.085416843417683713 0.0010660589322902211 0 -0.085804768567078443 -0.00028791115541519597 0 -0.084703521359585143 -0.00012708137401803442 0 -0.083440925954738773 0.0010238141217433106 0 -0.082344482411803713 0.0004246144237085495 0 -0.084703521359585143 -0.00012708137401803442 0 -0.084986367080499475 -0.00063443531707855019 0 -0.084457524594882052 -0.00073141065972812504 0 -0.085804768567078443 -0.00028791115541519597 0 -0.084703521359585143 -0.00012708137401803442 0 -0.084986367080499475 -0.00063443531707855019 0 -0.085804768567078443 -0.00028791115541519597 0 -0.084986367080499475 -0.00063443531707855019 0 -0.085505666195453259 -0.00064136913879801651 0 -0.082861131739354388 0.0017884557143912814 0 -0.083491161021577165 -0.0012614731114216143 0 -0.080057080442917344 -0.00084453064884038715 0 -0.082344482411803713 0.0004246144237085495 0 -0.079482464213926268 -0.00010347080912095863 0 -0.083491161021577165 -0.0012614731114216143 0 -0.080057080442917344 -0.00084453064884038715 0 -0.081722216001305248 -0.0036111925698517236 0 -0.080057080442917344 -0.00084453064884038715 0 -0.081722216001305248 -0.0036111925698517236 0 -0.079356876759738043 -0.0036151425339774014 0 -0.079482464213926268 -0.00010347080912095863 0 -0.07321499264034835 -0.00035930479288956993 0 -0.081722216001305248 -0.0036111925698517236 0 -0.079401244844004779 -0.0055714509011814848 0 -0.079356876759738043 -0.0036151425339774014 0 -0.084457524594882052 -0.00073141065972812504 0 -0.084503148086180271 -0.00097456195558094411 0 -0.084810229667826878 -0.00094175925308065986 0 -0.084503148086180271 -0.00097456195558094411 0 -0.084810229667826878 -0.00094175925308065986 0 -0.084696237233845117 -0.001081485736697578 0 -0.084457524594882052 -0.00073141065972812504 0 -0.084503148086180271 -0.00097456195558094411 0 -0.084290578215976825 -0.0010394088624537075 0 -0.081722216001305248 -0.0036111925698517236 0 -0.079942484847429177 -0.0062371585370777265 0 -0.079401244844004779 -0.0055714509011814848 0 -0.07321499264034835 -0.00035930479288956993 0 -0.073707475731581901 -0.00090838210720380942 0 -0.085505666195453259 -0.00064136913879801651 0 -0.085147583583281311 -0.00088534020719098906 0 -0.085311673089767087 -0.00094561829932751 0 -0.084986367080499475 -0.00063443531707855019 0 -0.085505666195453259 -0.00064136913879801651 0 -0.085147583583281311 -0.00088534020719098906 0 -0.084986367080499475 -0.00063443531707855019 0 -0.084457524594882052 -0.00073141065972812504 0 -0.084810229667826878 -0.00094175925308065986 0 -0.084986367080499475 -0.00063443531707855019 0 -0.085147583583281311 -0.00088534020719098906 0 -0.084810229667826878 -0.00094175925308065986 0 -0.084810229667826878 -0.00094175925308065986 0 -0.084856729690770336 -0.0010735174613119361 0 -0.084994793294825843 -0.0010337476306798452 0 -0.084810229667826878 -0.00094175925308065986 0 -0.084696237233845117 -0.001081485736697578 0 -0.084856729690770336 -0.0010735174613119361 0 -0.084856729690770336 -0.0010735174613119361 0 -0.084948727759954962 -0.0010830657555183614 0 -0.084994793294825843 -0.0010337476306798452 0 -0.085147583583281311 -0.00088534020719098906 0 -0.084810229667826878 -0.00094175925308065986 0 -0.084994793294825843 -0.0010337476306798452 0 -0.085147583583281311 -0.00088534020719098906 0 -0.084994793294825843 -0.0010337476306798452 0 -0.085115217892258732 -0.0010187489977781373 0 -0.085147583583281311 -0.00088534020719098906 0 -0.085115217892258732 -0.0010187489977781373 0 -0.085311673089767087 -0.00094561829932751 0 -0.084994793294825843 -0.0010337476306798452 0 -0.085115217892258732 -0.0010187489977781373 0 -0.084981959582617159 -0.0011487425372436362 0 -0.084948727759954962 -0.0010830657555183614 0 -0.084994793294825843 -0.0010337476306798452 0 -0.084981959582617159 -0.0011487425372436362 0 -0.084910976458827489 -0.0010072311151505258 0 -0.084948727759954962 -0.0010830657555183614 0 -0.084981959582617159 -0.0011487425372436362 0 -0.084689882703568961 -0.0010057354968855954 0 -0.084981959582617159 -0.0011487425372436362 0 -0.084466541643447371 -0.0012459866794930557 0 -0.079186210586349295 -0.0011584223460667934 0 -0.078683589697996131 -0.0011442285221786143 0 -0.085115217892258732 -0.0010187489977781373 0 -0.084981959582617159 -0.0011487425372436362 0 -0.085207094933126365 -0.0011594600937932312 0 -0.078683589697996131 -0.0011442285221786143 0 -0.075784210023810319 -0.0011971427744675107 0 -0.084361660867553007 -0.0010015113025430391 0 -0.084466541643447371 -0.0012459866794930557 0 -0.083966992289445722 -0.0012203155868329135 0 -0.077099025341624258 -0.0036419365914327796 0 -0.079407959510833473 -0.0037273146814237601 0 -0.077779561030451874 -0.00025869182611690245 0 -0.073772550162269176 -0.0061667439800574507 0 -0.07390026726380533 -0.0064384872156056884 0 -0.073579198403083954 -0.0064062734755699893 0 -0.075784210023810319 -0.0011971427744675107 0 -0.078863321740689912 -0.0024215587721419683 0 -0.085115217892258732 -0.0010187489977781373 0 -0.085207094933126365 -0.0011594600937932312 0 -0.085311673089767087 -0.00094561829932751 0 -0.078683589697996131 -0.0011442285221786143 0 -0.078863321740689912 -0.0024215587721419683 0 -0.073772550162269176 -0.0061667439800574507 0 -0.073579198403083954 -0.0064062734755699893 0 -0.073335818953399079 -0.0061275940600726145 0 -0.075784210023810319 -0.0011971427744675107 0 -0.069617652588790546 -0.00063394610379880173 0 -0.073579198403083954 -0.0064062734755699893 0 -0.073465526466408165 -0.0066736483430955111 0 -0.073351733633866517 -0.006401826952954175 0 -0.073579198403083954 -0.0064062734755699893 0 -0.073619663099537574 -0.0067004504336988669 0 -0.073465526466408165 -0.0066736483430955111 0 -0.07390026726380533 -0.0064384872156056884 0 -0.073579198403083954 -0.0064062734755699893 0 -0.073619663099537574 -0.0067004504336988669 0 -0.073619663099537574 -0.0067004504336988669 0 -0.073465526466408165 -0.0066736483430955111 0 -0.073475010218260278 -0.0069484432583652401 0 -0.085505666195453259 -0.00064136913879801651 0 -0.085747925420086704 -0.0012001464859562713 0 -0.085950891499661869 -0.00038168469819412543 0 -0.07390026726380533 -0.0064384872156056884 0 -0.073619663099537574 -0.0067004504336988669 0 -0.073626018139904992 -0.0070486890811265026 0 -0.079997685292408888 -0.0025197320848442512 0 -0.078863321740689912 -0.0024215587721419683 0 -0.078863321740689912 -0.0024215587721419683 0 -0.08045134629226372 -0.0032159339317813949 0 -0.085804768567078443 -0.00028791115541519597 0 -0.085505666195453259 -0.00064136913879801651 0 -0.085950891499661869 -0.00038168469819412543 0 -0.073619663099537574 -0.0067004504336988669 0 -0.073626018139904992 -0.0070486890811265026 0 -0.073475010218260278 -0.0069484432583652401 0 -0.073465526466408165 -0.0066736483430955111 0 -0.073475010218260278 -0.0069484432583652401 0 -0.073339987755858649 -0.0070412534120669066 0 -0.073475010218260278 -0.0069484432583652401 0 -0.073346921879695159 -0.0071560567909185442 0 -0.073339987755858649 -0.0070412534120669066 0 -0.073626018139904992 -0.0070486890811265026 0 -0.073475010218260278 -0.0069484432583652401 0 -0.073346921879695159 -0.0071560567909185442 0 -0.073135612658283222 -0.0071602605193169027 0 -0.073626018139904992 -0.0070486890811265026 0 -0.073346921879695159 -0.0071560567909185442 0 -0.082911887072984622 -0.001734653944115021 0 -0.08045134629226372 -0.0032159339317813949 0 -0.085987074794327795 -7.5370219317108316e-05 0 -0.085804768567078443 -0.00028791115541519597 0 -0.085950891499661869 -0.00038168469819412543 0 -0.082911887072984622 -0.001734653944115021 0 -0.084762988178227319 -0.00013863278554063151 0 -0.086290037047237284 0.00062348390705855954 0 -0.087652178188054139 0.00087117482370956296 0 -0.085804768567078443 -0.00028791115541519597 0 -0.073253252538928698 -0.0072530214370635409 0 -0.073450797454930009 -0.0073931462837420409 0 -0.073026059013791625 -0.0073017334796388325 0 -0.073450797454930009 -0.0073931462837420409 0 -0.073026059013791625 -0.0073017334796388325 0 -0.073190591500184976 -0.0074955732348659975 0 -0.073253252538928698 -0.0072530214370635409 0 -0.073450797454930009 -0.0073931462837420409 0 -0.073291566655448184 -0.0072614143366017125 0 -0.073346921879695159 -0.0071560567909185442 0 -0.073291566655448184 -0.0072614143366017125 0 -0.073339987755858649 -0.0070412534120669066 0 -0.073253252538928698 -0.0072530214370635409 0 -0.073291566655448184 -0.0072614143366017125 0 -0.073339987755858649 -0.0070412534120669066 0 -0.073196313903543531 -0.0071784982387622445 0 -0.073346921879695159 -0.0071560567909185442 0 -0.073291566655448184 -0.0072614143366017125 0 -0.073253252538928698 -0.0072530214370635409 0 -0.073339987755858649 -0.0070412534120669066 0 -0.073140146399942652 -0.0070320906600532503 0 -0.073339987755858649 -0.0070412534120669066 0 -0.073140146399942652 -0.0070320906600532503 0 -0.073213140123763232 -0.0066676294707756151 0 -0.073253252538928698 -0.0072530214370635409 0 -0.073140146399942652 -0.0070320906600532503 0 -0.073026059013791625 -0.0073017334796388325 0 -0.073140146399942652 -0.0070320906600532503 0 -0.073026059013791625 -0.0073017334796388325 0 -0.072822614344009898 -0.0068389140716073873 0 -0.072822614344009898 -0.0068389140716073873 0 -0.072810482286603126 -0.0063875339036506438 0 -0.073213140123763232 -0.0066676294707756151 0 -0.073140146399942652 -0.0070320906600532503 0 -0.072822614344009898 -0.0068389140716073873 0 -0.073213140123763232 -0.0066676294707756151 0 -0.072810482286603126 -0.0063875339036506438 0 -0.073213140123763232 -0.0066676294707756151 0 -0.073113402420643472 -0.0062054277394576526 0 -0.073465526466408165 -0.0066736483430955111 0 -0.073213140123763232 -0.0066676294707756151 0 -0.073351733633866517 -0.006401826952954175 0 -0.073465526466408165 -0.0066736483430955111 0 -0.073339987755858649 -0.0070412534120669066 0 -0.073213140123763232 -0.0066676294707756151 0 -0.073213140123763232 -0.0066676294707756151 0 -0.073351733633866517 -0.006401826952954175 0 -0.073113402420643472 -0.0062054277394576526 0 -0.069617652588790546 -0.00063394610379880173 0 -0.067923650306992767 -0.00096703086217189 0 -0.07374448400709821 -0.0056210721134576629 0 -0.073113402420643472 -0.0062054277394576526 0 -0.072886569009475377 -0.0055855396363065045 0 -0.073579198403083954 -0.0064062734755699893 0 -0.073351733633866517 -0.006401826952954175 0 -0.073335818953399079 -0.0061275940600726145 0 -0.073351733633866517 -0.006401826952954175 0 -0.073335818953399079 -0.0061275940600726145 0 -0.073113402420643472 -0.0062054277394576526 0 -0.069617652588790546 -0.00063394610379880173 0 -0.069811451917688228 -0.0013565022689008231 0 -0.067923650306992767 -0.00096703086217189 0 -0.066164437173134194 -0.0014406183383384131 0 -0.072590583994485466 -0.0059561534175002293 0 -0.072886569009475377 -0.0055855396363065045 0 -0.072156526184721279 -0.0055112929298292892 0 -0.072810482286603126 -0.0063875339036506438 0 -0.072590583994485466 -0.0059561534175002293 0 -0.073113402420643472 -0.0062054277394576526 0 -0.072590583994485466 -0.0059561534175002293 0 -0.073113402420643472 -0.0062054277394576526 0 -0.072886569009475377 -0.0055855396363065045 0 -0.072810482286603126 -0.0063875339036506438 0 -0.072590583994485466 -0.0059561534175002293 0 -0.071882110175453068 -0.0060908961478188476 0 -0.072590583994485466 -0.0059561534175002293 0 -0.072156526184721279 -0.0055112929298292892 0 -0.071882110175453068 -0.0060908961478188476 0 -0.066164437173134194 -0.0014406183383384131 0 -0.066771241032128253 -0.0045173841239590654 0 -0.067385742149966649 -0.0069770565354104145 0 -0.068488972761245936 -0.0071456639297300993 0 -0.067613920586649084 -0.0070989463171366217 0 -0.067104023857986209 -0.0069228193555763793 0 -0.067385742149966649 -0.0069770565354104145 0 -0.067613920586649084 -0.0070989463171366217 0 -0.066249476391417178 -0.0015519263947682861 0 -0.066164437173134194 -0.0014406183383384131 0 -0.066771241032128253 -0.0045173841239590654 0 -0.0670180848604571 -0.0054162263069548883 0 -0.071882110175453068 -0.0060908961478188476 0 -0.072354440714389928 -0.0071436565879155652 0 -0.071076158923820215 -0.0070387018424106825 0 -0.072822614344009898 -0.0068389140716073873 0 -0.072810482286603126 -0.0063875339036506438 0 -0.071882110175453068 -0.0060908961478188476 0 -0.072822614344009898 -0.0068389140716073873 0 -0.071882110175453068 -0.0060908961478188476 0 -0.072354440714389928 -0.0071436565879155652 0 -0.068488972761245936 -0.0071456639297300993 0 -0.069499182065321852 -0.0071018090041591554 0 -0.067925030308425005 -0.007209295590046098 0 -0.068488972761245936 -0.0071456639297300993 0 -0.069499182065321852 -0.0071018090041591554 0 -0.071076158923820215 -0.0070387018424106825 0 -0.068488972761245936 -0.0071456639297300993 0 -0.067925030308425005 -0.007209295590046098 0 -0.067613920586649084 -0.0070989463171366217 0 -0.066931214703029401 -0.0070731197533248323 0 -0.067104023857986209 -0.0069228193555763793 0 -0.067613920586649084 -0.0070989463171366217 0 -0.066278968883850056 -0.0072811703567613384 0 -0.066931214703029401 -0.0070731197533248323 0 -0.067925030308425005 -0.007209295590046098 0 -0.066931214703029401 -0.0070731197533248323 0 -0.067925030308425005 -0.007209295590046098 0 -0.067613920586649084 -0.0070989463171366217 0 -0.066278968883850056 -0.0072811703567613384 0 -0.066370295697691706 -0.0078686738238666881 0 -0.068170725013168856 -0.007380118853132586 0 -0.066278968883850056 -0.0072811703567613384 0 -0.067925030308425005 -0.007209295590046098 0 -0.068170725013168856 -0.007380118853132586 0 -0.064733011449354963 -0.0089891749867981856 0 -0.066370295697691706 -0.0078686738238666881 0 -0.068003897856558984 -0.0074339465162550728 0 -0.066370295697691706 -0.0078686738238666881 0 -0.068003897856558984 -0.0074339465162550728 0 -0.068170725013168856 -0.007380118853132586 0 -0.069332476063514684 -0.0071502538772943852 0 -0.068170725013168856 -0.007380118853132586 0 -0.07013187922791525 -0.0071146657308502744 0 -0.068003897856558984 -0.0074339465162550728 0 -0.069332476063514684 -0.0071502538772943852 0 -0.068170725013168856 -0.007380118853132586 0 -0.069499182065321852 -0.0071018090041591554 0 -0.067925030308425005 -0.007209295590046098 0 -0.068170725013168856 -0.007380118853132586 0 -0.069499182065321852 -0.0071018090041591554 0 -0.068170725013168856 -0.007380118853132586 0 -0.07013187922791525 -0.0071146657308502744 0 -0.069499182065321852 -0.0071018090041591554 0 -0.07013187922791525 -0.0071146657308502744 0 -0.071231474414010593 -0.0072305757231739915 0 -0.07013187922791525 -0.0071146657308502744 0 -0.071242663971644526 -0.0071184815625632333 0 -0.071231474414010593 -0.0072305757231739915 0 -0.071242663971644526 -0.0071184815625632333 0 -0.071231474414010593 -0.0072305757231739915 0 -0.072215109209407963 -0.0073035345615932714 0 -0.07013187922791525 -0.0071146657308502744 0 -0.070583867734974506 -0.0068829710200550703 0 -0.071477911643608144 -0.0069092553973905766 0 -0.069332476063514684 -0.0071502538772943852 0 -0.07013187922791525 -0.0071146657308502744 0 -0.070583867734974506 -0.0068829710200550703 0 -0.07013187922791525 -0.0071146657308502744 0 -0.071242663971644526 -0.0071184815625632333 0 -0.071477911643608144 -0.0069092553973905766 0 -0.070583867734974506 -0.0068829710200550703 0 -0.071477911643608144 -0.0069092553973905766 0 -0.071925977987028447 -0.0066328240195925722 0 -0.071477911643608144 -0.0069092553973905766 0 -0.072677654921035992 -0.0065286774614298944 0 -0.071925977987028447 -0.0066328240195925722 0 -0.071477911643608144 -0.0069092553973905766 0 -0.07254538337143368 -0.0067107093838969416 0 -0.072215109209407963 -0.0073035345615932714 0 -0.071477911643608144 -0.0069092553973905766 0 -0.07254538337143368 -0.0067107093838969416 0 -0.072677654921035992 -0.0065286774614298944 0 -0.072215109209407963 -0.0073035345615932714 0 -0.072652673110158036 -0.0074359076925303944 0 -0.077420422895645422 -0.005408298494262307 0 -0.071231474414010593 -0.0072305757231739915 0 -0.072215109209407963 -0.0073035345615932714 0 -0.072652673110158036 -0.0074359076925303944 0 -0.071242663971644526 -0.0071184815625632333 0 -0.071477911643608144 -0.0069092553973905766 0 -0.072215109209407963 -0.0073035345615932714 0 -0.071231474414010593 -0.0072305757231739915 0 -0.072652673110158036 -0.0074359076925303944 0 -0.072263906606343853 -0.0073901809731074944 0 -0.072652673110158036 -0.0074359076925303944 0 -0.073447956688139304 -0.0075160675911857822 0 -0.072263906606343853 -0.0073901809731074944 0 -0.072652673110158036 -0.0074359076925303944 0 -0.073447956688139304 -0.0075160675911857822 0 -0.074659706989569002 -0.0073843130833172533 0 -0.073447956688139304 -0.0075160675911857822 0 -0.073190591500184976 -0.0074955732348659975 0 -0.074123989256171141 -0.0073915709879468503 0 -0.073450797454930009 -0.0073931462837420409 0 -0.073190591500184976 -0.0074955732348659975 0 -0.074123989256171141 -0.0073915709879468503 0 -0.073447956688139304 -0.0075160675911857822 0 -0.073190591500184976 -0.0074955732348659975 0 -0.072263906606343853 -0.0073901809731074944 0 -0.073026059013791625 -0.0073017334796388325 0 -0.073190591500184976 -0.0074955732348659975 0 -0.072354440714389928 -0.0071436565879155652 0 -0.073190591500184976 -0.0074955732348659975 0 -0.072354440714389928 -0.0071436565879155652 0 -0.072263906606343853 -0.0073901809731074944 0 -0.073026059013791625 -0.0073017334796388325 0 -0.072822614344009898 -0.0068389140716073873 0 -0.072354440714389928 -0.0071436565879155652 0 -0.072354440714389928 -0.0071436565879155652 0 -0.071076158923820215 -0.0070387018424106825 0 -0.072263906606343853 -0.0073901809731074944 0 -0.069499182065321852 -0.0071018090041591554 0 -0.071231474414010593 -0.0072305757231739915 0 -0.071076158923820215 -0.0070387018424106825 0 -0.071231474414010593 -0.0072305757231739915 0 -0.071076158923820215 -0.0070387018424106825 0 -0.072263906606343853 -0.0073901809731074944 0 -0.07946605308550829 0.0038279158674491085 0 -0.080610715350939041 0.0075551220786272758 0 -0.083007805464231102 0.0028146170642000101 0 -0.073542987447161479 -0.0072231472356564458 0 -0.073304931892546013 -0.0071183199269831575 0 -0.073336009443335376 -0.0068281424154096751 0 -0.070207945601057933 -0.0029901754238514031 0 -0.074690300518466965 -0.0032874228731075445 0 -0.06117768794331914 -0.0016101524478426004 0 -0.061183604633274331 -0.0016056605882596566 0 -0.061190294491566613 -0.0016202625101973988 0 -0.073542987447161479 -0.0072231472356564458 0 -0.073131819393993394 -0.0073506293319754862 0 -0.073304931892546013 -0.0071183199269831575 0 -0.070207945601057933 -0.0029901754238514031 0 -0.066020315872148072 -0.0057473494960935314 0 -0.066020315872148072 -0.0057473494960935314 0 -0.064456845045734207 -0.0065590091939345188 0 -0.066020315872148072 -0.0057473494960935314 0 -0.068987744712077886 -0.006969077727414048 0 -0.073131819393993394 -0.0073506293319754862 0 -0.073304931892546013 -0.0071183199269831575 0 -0.072972944126528966 -0.0069443051687135713 0 -0.073304931892546013 -0.0071183199269831575 0 -0.072972944126528966 -0.0069443051687135713 0 -0.073336009443335376 -0.0068281424154096751 0 -0.070799991219403696 -0.0079651752232567687 0 -0.070538613073884732 -0.006687398401882599 0 -0.06940146780307041 -0.0071684003789504076 0 -0.070538613073884732 -0.006687398401882599 0 -0.06940146780307041 -0.0071684003789504076 0 -0.069897098234139934 -0.0069128740183834053 0 -0.064733011449354963 -0.0089891749867981856 0 -0.06940146780307041 -0.0071684003789504076 0 -0.070626283552187072 -0.0090492337312040507 0 -0.070799991219403696 -0.0079651752232567687 0 -0.06940146780307041 -0.0071684003789504076 0 -0.070164563308628955 -0.0081423504240034101 0 -0.065764736214342631 -0.0075280657951766984 0 -0.064456845045734207 -0.0065590091939345188 0 -0.064733011449354963 -0.0089891749867981856 0 -0.068003897856558984 -0.0074339465162550728 0 -0.06940146780307041 -0.0071684003789504076 0 -0.068003897856558984 -0.0074339465162550728 0 -0.06940146780307041 -0.0071684003789504076 0 -0.069897098234139934 -0.0069128740183834053 0 -0.069332476063514684 -0.0071502538772943852 0 -0.070583867734974506 -0.0068829710200550703 0 -0.069897098234139934 -0.0069128740183834053 0 -0.068003897856558984 -0.0074339465162550728 0 -0.069332476063514684 -0.0071502538772943852 0 -0.069897098234139934 -0.0069128740183834053 0 -0.070583867734974506 -0.0068829710200550703 0 -0.069897098234139934 -0.0069128740183834053 0 -0.071142179260806362 -0.0067119967260443258 0 -0.070583867734974506 -0.0068829710200550703 0 -0.071142179260806362 -0.0067119967260443258 0 -0.071925977987028447 -0.0066328240195925722 0 -0.072677654921035992 -0.0065286774614298944 0 -0.071925977987028447 -0.0066328240195925722 0 -0.073177890589780609 -0.0062252063353753443 0 -0.071925977987028447 -0.0066328240195925722 0 -0.073177890589780609 -0.0062252063353753443 0 -0.072712274543814626 -0.0064215139274892558 0 -0.071142179260806362 -0.0067119967260443258 0 -0.071925977987028447 -0.0066328240195925722 0 -0.072712274543814626 -0.0064215139274892558 0 -0.068987744712077886 -0.006969077727414048 0 -0.069740757653828547 -0.0068342990340209183 0 -0.072972944126528966 -0.0069443051687135713 0 -0.072712274543814626 -0.0064215139274892558 0 -0.073127345113494474 -0.0063404522052466225 0 -0.070538613073884732 -0.006687398401882599 0 -0.069897098234139934 -0.0069128740183834053 0 -0.071142179260806362 -0.0067119967260443258 0 -0.070538613073884732 -0.006687398401882599 0 -0.071142179260806362 -0.0067119967260443258 0 -0.072712274543814626 -0.0064215139274892558 0 -0.07668052029831797 -0.0035768731714934505 0 -0.074690300518466965 -0.0032874228731075445 0 -0.072972944126528966 -0.0069443051687135713 0 -0.073127345113494474 -0.0063404522052466225 0 -0.073336009443335376 -0.0068281424154096751 0 -0.083933292198895837 -0.0014348595283103899 0 -0.081552015234953187 -0.00048455762047236613 0 -0.083007805464231102 0.0028146170642000101 0 -0.083933292198895837 -0.0014348595283103899 0 -0.081552015234953187 -0.00048455762047236613 0 -0.082677867653629847 -0.0022923084387109819 0 -0.07946605308550829 0.0038279158674491085 0 -0.081552015234953187 -0.00048455762047236613 0 -0.083007805464231102 0.0028146170642000101 0 -0.082964675602487215 -0.0025956553422588238 0 -0.082943821637256013 -0.0027040374342617276 0 -0.082185988863238524 -0.0030983364703373617 0 -0.082943821637256013 -0.0027040374342617276 0 -0.082662436403667772 -0.0029510598810095464 0 -0.082185988863238524 -0.0030983364703373617 0 -0.082662436403667772 -0.0029510598810095464 0 -0.082185988863238524 -0.0030983364703373617 0 -0.081789339636575156 -0.0026163902344149164 0 -0.07981914729319331 -0.0033324066460200313 0 -0.081552015234953187 -0.00048455762047236613 0 -0.081789339636575156 -0.0026163902344149164 0 -0.081552015234953187 -0.00048455762047236613 0 -0.081789339636575156 -0.0026163902344149164 0 -0.082677867653629847 -0.0022923084387109819 0 -0.082662436403667772 -0.0029510598810095464 0 -0.081789339636575156 -0.0026163902344149164 0 -0.082677867653629847 -0.0022923084387109819 0 -0.082662436403667772 -0.0029510598810095464 0 -0.082677867653629847 -0.0022923084387109819 0 -0.082980606586338199 -0.0028634619725119862 0 -0.083933292198895837 -0.0014348595283103899 0 -0.082677867653629847 -0.0022923084387109819 0 -0.082980606586338199 -0.0028634619725119862 0 -0.082662436403667772 -0.0029510598810095464 0 -0.082980606586338199 -0.0028634619725119862 0 -0.082864706619423814 -0.0029183191621809435 0 -0.082943821637256013 -0.0027040374342617276 0 -0.082662436403667772 -0.0029510598810095464 0 -0.082864706619423814 -0.0029183191621809435 0 -0.082980606586338199 -0.0028634619725119862 0 -0.082864706619423814 -0.0029183191621809435 0 -0.082505631120635997 -0.0035709711843255566 0 -0.082864706619423814 -0.0029183191621809435 0 -0.082505631120635997 -0.0035709711843255566 0 -0.08232034016969822 -0.0024121959599835039 0 -0.082505631120635997 -0.0035709711843255566 0 -0.078905171512458322 -0.0029444708237121313 0 -0.08232034016969822 -0.0024121959599835039 0 -0.083933292198895837 -0.0014348595283103899 0 -0.082980606586338199 -0.0028634619725119862 0 -0.082505631120635997 -0.0035709711843255566 0 -0.073177890589780609 -0.0062252063353753443 0 -0.072712274543814626 -0.0064215139274892558 0 -0.074682923287129763 -0.0056585910603806147 0 -0.072712274543814626 -0.0064215139274892558 0 -0.073127345113494474 -0.0063404522052466225 0 -0.074682923287129763 -0.0056585910603806147 0 -0.07668052029831797 -0.0035768731714934505 0 -0.077249708390986244 -0.0032283068314438454 0 -0.074682923287129763 -0.0056585910603806147 0 -0.073897172492369392 -0.0059932272327331984 0 -0.075524890431754227 -0.0051130909484254101 0 -0.073177890589780609 -0.0062252063353753443 0 -0.074682923287129763 -0.0056585910603806147 0 -0.073897172492369392 -0.0059932272327331984 0 -0.072677654921035992 -0.0065286774614298944 0 -0.073177890589780609 -0.0062252063353753443 0 -0.073897172492369392 -0.0059932272327331984 0 -0.074682923287129763 -0.0056585910603806147 0 -0.075524890431754227 -0.0051130909484254101 0 -0.078905171512458322 -0.0029444708237121313 0 -0.077249708390986244 -0.0032283068314438454 0 -0.077211143491065767 -0.0026471583818738656 0 -0.075524890431754227 -0.0051130909484254101 0 -0.078905171512458322 -0.0029444708237121313 0 -0.077164291212521177 -0.0021455357013983058 0 -0.078905171512458322 -0.0029444708237121313 0 -0.081365941087962579 -0.0016717166807244635 0 -0.08232034016969822 -0.0024121959599835039 0 -0.078905171512458322 -0.0029444708237121313 0 -0.080638231191753396 -0.0012360582123782258 0 -0.081365941087962579 -0.0016717166807244635 0 -0.078905171512458322 -0.0029444708237121313 0 -0.080638231191753396 -0.0012360582123782258 0 -0.077164291212521177 -0.0021455357013983058 0 -0.080638231191753396 -0.0012360582123782258 0 -0.077164291212521177 -0.0021455357013983058 0 -0.082694428461205907 0.00046588991505201049 0 -0.080638231191753396 -0.0012360582123782258 0 -0.082579153581903805 -0.00075794331263507881 0 -0.082694428461205907 0.00046588991505201049 0 -0.080638231191753396 -0.0012360582123782258 0 -0.082579153581903805 -0.00075794331263507881 0 -0.081365941087962579 -0.0016717166807244635 0 -0.082579153581903805 -0.00075794331263507881 0 -0.082937570772750824 -0.0015041722484132698 0 -0.081365941087962579 -0.0016717166807244635 0 -0.082579153581903805 -0.00075794331263507881 0 -0.082937570772750824 -0.0015041722484132698 0 -0.083824803686605706 -0.00068776791728456747 0 -0.082937570772750824 -0.0015041722484132698 0 -0.081365941087962579 -0.0016717166807244635 0 -0.08232034016969822 -0.0024121959599835039 0 -0.082943821637256013 -0.0027040374342617276 0 -0.082864706619423814 -0.0029183191621809435 0 -0.083255321339800098 -0.0019705495676438319 0 -0.082937570772750824 -0.0015041722484132698 0 -0.08232034016969822 -0.0024121959599835039 0 -0.083255321339800098 -0.0019705495676438319 0 -0.082864706619423814 -0.0029183191621809435 0 -0.08232034016969822 -0.0024121959599835039 0 -0.083255321339800098 -0.0019705495676438319 0 -0.082937570772750824 -0.0015041722484132698 0 -0.083255321339800098 -0.0019705495676438319 0 -0.083824803686605706 -0.00068776791728456747 0 -0.083255321339800098 -0.0019705495676438319 0 -0.083824803686605706 -0.00068776791728456747 0 -0.083864637412064791 -0.0012236277869337416 0 -0.083824803686605706 -0.00068776791728456747 0 -0.083864637412064791 -0.0012236277869337416 0 -0.084303973991617542 -0.00061574849714784627 0 -0.083864637412064791 -0.0012236277869337416 0 -0.084369374022391447 -0.00086395172789684963 0 -0.084303973991617542 -0.00061574849714784627 0 -0.083864637412064791 -0.0012236277869337416 0 -0.084369374022391447 -0.00086395172789684963 0 -0.083946694027140306 -0.0014269167962994518 0 -0.083864637412064791 -0.0012236277869337416 0 -0.083946694027140306 -0.0014269167962994518 0 -0.083432028177534895 -0.0020180569894146082 0 -0.083578797663629523 -0.0020439276774307106 0 -0.083946694027140306 -0.0014269167962994518 0 -0.083432028177534895 -0.0020180569894146082 0 -0.083255321339800098 -0.0019705495676438319 0 -0.083864637412064791 -0.0012236277869337416 0 -0.083432028177534895 -0.0020180569894146082 0 -0.082943821637256013 -0.0027040374342617276 0 -0.083255321339800098 -0.0019705495676438319 0 -0.083432028177534895 -0.0020180569894146082 0 -0.082964675602487215 -0.0025956553422588238 0 -0.082943821637256013 -0.0027040374342617276 0 -0.083432028177534895 -0.0020180569894146082 0 -0.082964675602487215 -0.0025956553422588238 0 -0.083578797663629523 -0.0020439276774307106 0 -0.083432028177534895 -0.0020180569894146082 0 -0.075805316803890702 -0.0068533807710510876 0 -0.074659706989569002 -0.0073843130833172533 0 -0.077072378993216423 -0.0070540609279356788 0 -0.075805316803890702 -0.0068533807710510876 0 -0.077072378993216423 -0.0070540609279356788 0 -0.077693867367784233 -0.0055499613786373176 0 -0.075805316803890702 -0.0068533807710510876 0 -0.077693867367784233 -0.0055499613786373176 0 -0.075982845892339029 -0.005736661428826415 0 -0.075805316803890702 -0.0068533807710510876 0 -0.074822073402712158 -0.0067225787682830013 0 -0.075982845892339029 -0.005736661428826415 0 -0.074567757251217559 -0.0053769320801188873 0 -0.074822073402712158 -0.0067225787682830013 0 -0.075982845892339029 -0.005736661428826415 0 -0.075805316803890702 -0.0068533807710510876 0 -0.074822073402712158 -0.0067225787682830013 0 -0.074123989256171141 -0.0073915709879468503 0 -0.073707795952157498 -0.0070375080204640979 0 -0.074822073402712158 -0.0067225787682830013 0 -0.074123989256171141 -0.0073915709879468503 0 -0.073447956688139304 -0.0075160675911857822 0 -0.074123989256171141 -0.0073915709879468503 0 -0.074659706989569002 -0.0073843130833172533 0 -0.072652673110158036 -0.0074359076925303944 0 -0.074659706989569002 -0.0073843130833172533 0 -0.077072378993216423 -0.0070540609279356788 0 -0.075805316803890702 -0.0068533807710510876 0 -0.074123989256171141 -0.0073915709879468503 0 -0.074659706989569002 -0.0073843130833172533 0 -0.076835552202824536 -0.0063583476070053734 0 -0.078070497421916463 -0.0050774797659182205 0 -0.072652673110158036 -0.0074359076925303944 0 -0.077420422895645422 -0.005408298494262307 0 -0.075898744514437344 -0.0047071649124521379 0 -0.075303679720255867 -0.0058176654164750442 0 -0.076291075965004937 -0.0047781708936895277 0 -0.07254538337143368 -0.0067107093838969416 0 -0.072215109209407963 -0.0073035345615932714 0 -0.07301355803514599 -0.0056452793091206644 0 -0.07254538337143368 -0.0067107093838969416 0 -0.073395952033964443 -0.0061716951773169784 0 -0.07301355803514599 -0.0056452793091206644 0 -0.075524890431754227 -0.0051130909484254101 0 -0.073395952033964443 -0.0061716951773169784 0 -0.07301355803514599 -0.0056452793091206644 0 -0.07254538337143368 -0.0067107093838969416 0 -0.072677654921035992 -0.0065286774614298944 0 -0.073395952033964443 -0.0061716951773169784 0 -0.072677654921035992 -0.0065286774614298944 0 -0.073897172492369392 -0.0059932272327331984 0 -0.073395952033964443 -0.0061716951773169784 0 -0.073897172492369392 -0.0059932272327331984 0 -0.075524890431754227 -0.0051130909484254101 0 -0.073395952033964443 -0.0061716951773169784 0 -0.077420422895645422 -0.005408298494262307 0 -0.078414403731670759 -0.0032460670161821828 0 -0.08110560888829009 -0.0017216118233305635 0 -0.075524890431754227 -0.0051130909484254101 0 -0.07301355803514599 -0.0056452793091206644 0 -0.077164291212521177 -0.0021455357013983058 0 -0.076291075965004937 -0.0047781708936895277 0 -0.078205403005592034 -0.0025782023908988033 0 -0.077420422895645422 -0.005408298494262307 0 -0.075898744514437344 -0.0047071649124521379 0 -0.078414403731670759 -0.0032460670161821828 0 -0.075898744514437344 -0.0047071649124521379 0 -0.078414403731670759 -0.0032460670161821828 0 -0.079092064226245318 -0.0010424284896645957 0 -0.078414403731670759 -0.0032460670161821828 0 -0.08110560888829009 -0.0017216118233305635 0 -0.079092064226245318 -0.0010424284896645957 0 -0.078070497421916463 -0.0050774797659182205 0 -0.080670473293100287 -0.002141906648045601 0 -0.08110560888829009 -0.0017216118233305635 0 -0.081373952158124166 -0.00025552358164687982 0 -0.082694428461205907 0.00046588991505201049 0 -0.078205403005592034 -0.0025782023908988033 0 -0.079316781040766615 -0.0012279579890013645 0 -0.08110560888829009 -0.0017216118233305635 0 -0.081373952158124166 -0.00025552358164687982 0 -0.079092064226245318 -0.0010424284896645957 0 -0.081474850649069688 -0.0036576973055011046 0 -0.077483800101922143 -0.0031347808935371221 0 -0.081064813085243687 -0.00093327551822868589 0 -0.081474850649069688 -0.0036576973055011046 0 -0.077693867367784233 -0.0055499613786373176 0 -0.077483800101922143 -0.0031347808935371221 0 -0.077693867367784233 -0.0055499613786373176 0 -0.075982845892339029 -0.005736661428826415 0 -0.077483800101922143 -0.0031347808935371221 0 -0.077072378993216423 -0.0070540609279356788 0 -0.081474850649069688 -0.0036576973055011046 0 -0.077693867367784233 -0.0055499613786373176 0 -0.074567757251217559 -0.0053769320801188873 0 -0.075982845892339029 -0.005736661428826415 0 -0.077483800101922143 -0.0031347808935371221 0 -0.074567757251217559 -0.0053769320801188873 0 -0.073976841025163498 -0.0036321468460809164 0 -0.077483800101922143 -0.0031347808935371221 0 -0.073976841025163498 -0.0036321468460809164 0 -0.077483800101922143 -0.0031347808935371221 0 -0.078290096807308876 0.00083346080658262898 0 -0.083017774508634887 0.00034178949913263188 0 -0.084210575781924479 0.001978245683906987 0 -0.091324015915309378 0.0048606131654452996 0 -0.090797201790868837 0.0059960706921077089 0 -0.091376612813375488 0.0056464599867297521 0 -0.090797201790868837 0.0059960706921077089 0 -0.091397602095549535 0.0050604296511339644 0 -0.091376612813375488 0.0056464599867297521 0 -0.090797201790868837 0.0059960706921077089 0 -0.091397602095549535 0.0050604296511339644 0 -0.090419356112663302 0.0042008834051609672 0 -0.091397602095549535 0.0050604296511339644 0 -0.090419356112663302 0.0042008834051609672 0 -0.091654324419714883 0.0040357888303758343 0 -0.084210575781924479 0.001978245683906987 0 -0.084861853961368375 0.0025847254359230363 0 -0.090797201790868837 0.0059960706921077089 0 -0.090419356112663302 0.0042008834051609672 0 -0.086983914521928773 0.0038458295005730559 0 -0.078290096807308876 0.00083346080658262898 0 -0.086123689814602403 0.0023775217732124017 0 -0.086983914521928773 0.0038458295005730559 0 -0.077483800101922143 -0.0031347808935371221 0 -0.078290096807308876 0.00083346080658262898 0 -0.081064813085243687 -0.00093327551822868589 0 -0.078290096807308876 0.00083346080658262898 0 -0.081064813085243687 -0.00093327551822868589 0 -0.086123689814602403 0.0023775217732124017 0 -0.080670473293100287 -0.002141906648045601 0 -0.083507884633594667 0.0006383979165229995 0 -0.081474850649069688 -0.0036576973055011046 0 -0.081064813085243687 -0.00093327551822868589 0 -0.086123689814602403 0.0023775217732124017 0 -0.081373952158124166 -0.00025552358164687982 0 -0.079092064226245318 -0.0010424284896645957 0 -0.082570107407035118 0.00070254417907527494 0 -0.081373952158124166 -0.00025552358164687982 0 -0.082570107407035118 0.00070254417907527494 0 -0.082694428461205907 0.00046588991505201049 0 -0.084657289552361681 0.00097165392278671353 0 -0.082570107407035118 0.00070254417907527494 0 -0.082694428461205907 0.00046588991505201049 0 -0.086123689814602403 0.0023775217732124017 0 -0.088293206274414157 0.0034878239777241396 0 -0.086983914521928773 0.0038458295005730559 0 -0.084657289552361681 0.00097165392278671353 0 -0.082570107407035118 0.00070254417907527494 0 -0.086031251414828369 0.0012050605309583612 0 -0.088293206274414157 0.0034878239777241396 0 -0.086983914521928773 0.0038458295005730559 0 -0.089148983195065756 0.003200046896856136 0 -0.083507884633594667 0.0006383979165229995 0 -0.085692843472707947 0.0015355862598510207 0 -0.084657289552361681 0.00097165392278671353 0 -0.086031251414828369 0.0012050605309583612 0 -0.087098231001432672 0.0012052642476871043 0 -0.084657289552361681 0.00097165392278671353 0 -0.087098231001432672 0.0012052642476871043 0 -0.086412812954591633 0.0011357503374949639 0 -0.086031251414828369 0.0012050605309583612 0 -0.087098231001432672 0.0012052642476871043 0 -0.090148922541795753 0.00099523368296225976 0 -0.087098231001432672 0.0012052642476871043 0 -0.086412812954591633 0.0011357503374949639 0 -0.088256953778231589 0.0011192807196759875 0 -0.085692843472707947 0.0015355862598510207 0 -0.086638939100339291 0.0013200768980334723 0 -0.088293206274414157 0.0034878239777241396 0 -0.090067894262061965 0.0020600596696922773 0 -0.090375139296587151 0.0024607191598663885 0 -0.088293206274414157 0.0034878239777241396 0 -0.090067894262061965 0.0020600596696922773 0 -0.090148922541795753 0.00099523368296225976 0 -0.090067894262061965 0.0020600596696922773 0 -0.090375139296587151 0.0024607191598663885 0 -0.091518700282685272 0.001566806106066995 0 -0.090375139296587151 0.0024607191598663885 0 -0.092144284043666452 0.0021516212229834562 0 -0.09098706039384255 0.0030564800106084073 0 -0.090375139296587151 0.0024607191598663885 0 -0.092144284043666452 0.0021516212229834562 0 -0.091518700282685272 0.001566806106066995 0 -0.092144284043666452 0.0021516212229834562 0 -0.09098706039384255 0.0030564800106084073 0 -0.092083618107166781 0.0031125999483710442 0 -0.09098706039384255 0.0030564800106084073 0 -0.092083618107166781 0.0031125999483710442 0 -0.091654324419714883 0.0040357888303758343 0 -0.090419356112663302 0.0042008834051609672 0 -0.09098706039384255 0.0030564800106084073 0 -0.091654324419714883 0.0040357888303758343 0 -0.090419356112663302 0.0042008834051609672 0 -0.09098706039384255 0.0030564800106084073 0 -0.089148983195065756 0.003200046896856136 0 -0.088293206274414157 0.0034878239777241396 0 -0.090375139296587151 0.0024607191598663885 0 -0.089148983195065756 0.003200046896856136 0 -0.090419356112663302 0.0042008834051609672 0 -0.086983914521928773 0.0038458295005730559 0 -0.089148983195065756 0.003200046896856136 0 -0.090375139296587151 0.0024607191598663885 0 -0.09098706039384255 0.0030564800106084073 0 -0.089148983195065756 0.003200046896856136 0 -0.084968147137893441 0.00018087938910955886 0 -0.085318635243259375 0.00071503258826706483 0 -0.085572496991716707 0.00082067469612608741 0 -0.08486117656870501 -0.00037268154556611012 0 -0.084968147137893441 0.00018087938910955886 0 -0.085572496991716707 0.00082067469612608741 0 -0.08486117656870501 -0.00037268154556611012 0 -0.084968147137893441 0.00018087938910955886 0 -0.08462570802159361 -0.00034932101773339812 0 -0.084369374022391447 -0.00086395172789684963 0 -0.08462570802159361 -0.00034932101773339812 0 -0.084303973991617542 -0.00061574849714784627 0 -0.083824803686605706 -0.00068776791728456747 0 -0.084303973991617542 -0.00061574849714784627 0 -0.084622446078771951 -0.00012973226506910501 0 -0.08462570802159361 -0.00034932101773339812 0 -0.084303973991617542 -0.00061574849714784627 0 -0.084622446078771951 -0.00012973226506910501 0 -0.084968147137893441 0.00018087938910955886 0 -0.08462570802159361 -0.00034932101773339812 0 -0.084622446078771951 -0.00012973226506910501 0 -0.084968147137893441 0.00018087938910955886 0 -0.084622446078771951 -0.00012973226506910501 0 -0.084576470255388794 0.00014477902348241387 0 -0.083824803686605706 -0.00068776791728456747 0 -0.084622446078771951 -0.00012973226506910501 0 -0.084576470255388794 0.00014477902348241387 0 -0.083824803686605706 -0.00068776791728456747 0 -0.084576470255388794 0.00014477902348241387 0 -0.083769607272016891 6.9603841596496693e-05 0 -0.084576470255388794 0.00014477902348241387 0 -0.084800059585799489 0.00057265592737919854 0 -0.083769607272016891 6.9603841596496693e-05 0 -0.084576470255388794 0.00014477902348241387 0 -0.084800059585799489 0.00057265592737919854 0 -0.085318635243259375 0.00071503258826706483 0 -0.084968147137893441 0.00018087938910955886 0 -0.084576470255388794 0.00014477902348241387 0 -0.085318635243259375 0.00071503258826706483 0 -0.084800059585799489 0.00057265592737919854 0 -0.085318635243259375 0.00071503258826706483 0 -0.08569296074383187 0.00096585254610591365 0 -0.084411155885996028 0.00065494167084229212 0 -0.084940846390389277 0.00093072979271853289 0 -0.08569296074383187 0.00096585254610591365 0 -0.084800059585799489 0.00057265592737919854 0 -0.084411155885996028 0.00065494167084229212 0 -0.08569296074383187 0.00096585254610591365 0 -0.084800059585799489 0.00057265592737919854 0 -0.084411155885996028 0.00065494167084229212 0 -0.083769607272016891 6.9603841596496693e-05 0 -0.082579153581903805 -0.00075794331263507881 0 -0.083824803686605706 -0.00068776791728456747 0 -0.083769607272016891 6.9603841596496693e-05 0 -0.082579153581903805 -0.00075794331263507881 0 -0.083769607272016891 6.9603841596496693e-05 0 -0.082694428461205907 0.00046588991505201049 0 -0.084411155885996028 0.00065494167084229212 0 -0.083769607272016891 6.9603841596496693e-05 0 -0.082694428461205907 0.00046588991505201049 0 -0.084411155885996028 0.00065494167084229212 0 -0.082694428461205907 0.00046588991505201049 0 -0.084940846390389277 0.00093072979271853289 0 -0.084657289552361681 0.00097165392278671353 0 -0.082694428461205907 0.00046588991505201049 0 -0.084940846390389277 0.00093072979271853289 0 -0.084940846390389277 0.00093072979271853289 0 -0.086412812954591633 0.0011357503374949639 0 -0.086786077146366214 0.001144974724232341 0 -0.084657289552361681 0.00097165392278671353 0 -0.084940846390389277 0.00093072979271853289 0 -0.086412812954591633 0.0011357503374949639 0 -0.086412812954591633 0.0011357503374949639 0 -0.086786077146366214 0.001144974724232341 0 -0.088256953778231589 0.0011192807196759875 0 -0.086786077146366214 0.001144974724232341 0 -0.088366019119202083 0.0010031929376987669 0 -0.088256953778231589 0.0011192807196759875 0 -0.086786077146366214 0.001144974724232341 0 -0.087049702931257189 0.0011170541330846268 0 -0.088366019119202083 0.0010031929376987669 0 -0.086786077146366214 0.001144974724232341 0 -0.08569296074383187 0.00096585254610591365 0 -0.087049702931257189 0.0011170541330846268 0 -0.084940846390389277 0.00093072979271853289 0 -0.086786077146366214 0.001144974724232341 0 -0.08569296074383187 0.00096585254610591365 0 -0.08569296074383187 0.00096585254610591365 0 -0.086094793380230253 0.0010047143073475919 0 -0.087049702931257189 0.0011170541330846268 0 -0.085318635243259375 0.00071503258826706483 0 -0.08569296074383187 0.00096585254610591365 0 -0.086094793380230253 0.0010047143073475919 0 -0.087049702931257189 0.0011170541330846268 0 -0.086798443342049891 0.001053295741514589 0 -0.088260408317498568 0.0008871203925607436 0 -0.086094793380230253 0.0010047143073475919 0 -0.087049702931257189 0.0011170541330846268 0 -0.086798443342049891 0.001053295741514589 0 -0.089726176092893642 -8.2394969097325524e-05 0 -0.08871193938060859 -5.1840840505154501e-05 0 -0.087671187779476203 0.00038230709267118618 0 -0.088406064026317802 0.00031478371773454271 0 -0.087077048064752333 0.00025437076018433835 0 -0.086094793380230253 0.0010047143073475919 0 -0.086798443342049891 0.001053295741514589 0 -0.085572496991716707 0.00082067469612608741 0 -0.087717454184460433 0.00020574463022778269 0 -0.08871193938060859 -5.1840840505154501e-05 0 -0.087671187779476203 0.00038230709267118618 0 -0.085318635243259375 0.00071503258826706483 0 -0.086094793380230253 0.0010047143073475919 0 -0.085572496991716707 0.00082067469612608741 0 -0.094958756709024719 1.6041826425646416e-06 0 -0.094961189057765336 2.7198192983228209e-06 0 -0.09497682108260426 1.472796969682784e-06 0 -0.094975134439629516 -1.944727152111268e-06 0 -0.094985985425036834 3.0504715526723879e-07 0 -0.091463485556671609 -0.00040705893159961258 0 -0.093251293010765457 2.0179437673492715e-05 0 -0.094958756709024719 1.6041826425646416e-06 0 -0.094944792845316942 -8.7284974376268902e-06 0 -0.094961189057765336 2.7198192983228209e-06 0 -0.089726176092893642 -8.2394969097325524e-05 0 -0.08871193938060859 -5.1840840505154501e-05 0 -0.090498895853464892 -0.0004679431431014348 0 -0.089181833476228003 -0.0014274908308092003 0 -0.091463485556671609 -0.00040705893159961258 0 -0.088406064026317802 0.00031478371773454271 0 -0.089865246598496484 3.1102029510803416e-05 0 -0.086798443342049891 0.001053295741514589 0 -0.088260408317498568 0.0008871203925607436 0 -0.089227545551218521 0.00035147021472316405 0 -0.089726176092893642 -8.2394969097325524e-05 0 -0.090498895853464892 -0.0004679431431014348 0 -0.091775964697339091 -0.00050876039567303267 0 -0.088260408317498568 0.0008871203925607436 0 -0.089227545551218521 0.00035147021472316405 0 -0.089821682960666921 0.00063239685752066062 0 -0.090498895853464892 -0.0004679431431014348 0 -0.091775964697339091 -0.00050876039567303267 0 -0.092411831000808145 -0.00054709796261657388 0 -0.089227545551218521 0.00035147021472316405 0 -0.089821682960666921 0.00063239685752066062 0 -0.091554977578185884 0.00013188862979517346 0 -0.089821682960666921 0.00063239685752066062 0 -0.091397502616049092 0.00031593932106422127 0 -0.091554977578185884 0.00013188862979517346 0 -0.088260408317498568 0.0008871203925607436 0 -0.089821682960666921 0.00063239685752066062 0 -0.088366019119202083 0.0010031929376987669 0 -0.087049702931257189 0.0011170541330846268 0 -0.088260408317498568 0.0008871203925607436 0 -0.088366019119202083 0.0010031929376987669 0 -0.089821682960666921 0.00063239685752066062 0 -0.088366019119202083 0.0010031929376987669 0 -0.08958880106048174 0.00083588947502252103 0 -0.088366019119202083 0.0010031929376987669 0 -0.088256953778231589 0.0011192807196759875 0 -0.08958880106048174 0.00083588947502252103 0 -0.089821682960666921 0.00063239685752066062 0 -0.08958880106048174 0.00083588947502252103 0 -0.091397502616049092 0.00031593932106422127 0 -0.08958880106048174 0.00083588947502252103 0 -0.091397502616049092 0.00031593932106422127 0 -0.090148922541795753 0.00099523368296225976 0 -0.091397502616049092 0.00031593932106422127 0 -0.093084611841812187 3.5421328109520779e-06 0 -0.092860510469499238 0.00012648599606730071 0 -0.091397502616049092 0.00031593932106422127 0 -0.093084611841812187 3.5421328109520779e-06 0 -0.091554977578185884 0.00013188862979517346 0 -0.093084611841812187 3.5421328109520779e-06 0 -0.094997227898151126 -1.1780601144270573e-07 0 -0.092860510469499238 0.00012648599606730071 0 -0.093084611841812187 3.5421328109520779e-06 0 -0.094997227898151126 -1.1780601144270573e-07 0 -0.093766708085628037 -0.00022977563522736045 0 -0.094997227898151126 -1.1780601144270573e-07 0 -0.093766708085628037 -0.00022977563522736045 0 -0.09499461859123276 -3.952107573147487e-07 0 -0.093084611841812187 3.5421328109520779e-06 0 -0.093766708085628037 -0.00022977563522736045 0 -0.091554977578185884 0.00013188862979517346 0 -0.089227545551218521 0.00035147021472316405 0 -0.093766708085628037 -0.00022977563522736045 0 -0.091554977578185884 0.00013188862979517346 0 -0.089865246598496484 3.1102029510803416e-05 0 -0.090699395228945226 -0.00019168841523362415 0 -0.091775964697339091 -0.00050876039567303267 0 -0.093766708085628037 -0.00022977563522736045 0 -0.092411831000808145 -0.00054709796261657388 0 -0.094983810872140376 1.45330160539611e-06 0 -0.095000006077968741 2.7297190779161625e-09 0 -0.094999967976598682 -4.7980696632088494e-09 0 -0.093766708085628037 -0.00022977563522736045 0 -0.092411831000808145 -0.00054709796261657388 0 -0.09499461859123276 -3.952107573147487e-07 0 -0.093251293010765457 2.0179437673492715e-05 0 -0.094996585012031232 -8.5998697851470329e-08 0 -0.094999971530255731 -1.083577130709329e-09 0 -0.094985985425036834 3.0504715526723879e-07 0 -0.094989125977205879 -2.1535237494914746e-06 0 -0.094999988940863755 -1.5731794246855392e-09 0 -0.094986109169649641 -2.644537546892344e-06 0 -0.094983810872140376 1.45330160539611e-06 0 -0.094999967976598682 -4.7980696632088494e-09 0 -0.09497682108260426 1.472796969682784e-06 0 -0.094961189057765336 2.7198192983228209e-06 0 -0.094983810872140376 1.45330160539611e-06 0 -0.09497682108260426 1.472796969682784e-06 0 -0.092632635658644297 0.00067873516484451139 0 -0.090148922541795753 0.00099523368296225976 0 -0.093319054419026354 0.00013336311194089647 0 -0.092632635658644297 0.00067873516484451139 0 -0.09397378765803599 0.00021629856074941033 0 -0.093034877800081184 0.001138253322360166 0 -0.092632635658644297 0.00067873516484451139 0 -0.091518700282685272 0.001566806106066995 0 -0.093034877800081184 0.001138253322360166 0 -0.092144284043666452 0.0021516212229834562 0 -0.091518700282685272 0.001566806106066995 0 -0.093034877800081184 0.001138253322360166 0 -0.092632635658644297 0.00067873516484451139 0 -0.091518700282685272 0.001566806106066995 0 -0.090148922541795753 0.00099523368296225976 0 -0.090067894262061965 0.0020600596696922773 0 -0.091518700282685272 0.001566806106066995 0 -0.090148922541795753 0.00099523368296225976 0 -0.087098231001432672 0.0012052642476871043 0 -0.088256953778231589 0.0011192807196759875 0 -0.090148922541795753 0.00099523368296225976 0 -0.088256953778231589 0.0011192807196759875 0 -0.08958880106048174 0.00083588947502252103 0 -0.090148922541795753 0.00099523368296225976 0 -0.091397502616049092 0.00031593932106422127 0 -0.090148922541795753 0.00099523368296225976 0 -0.092860510469499238 0.00012648599606730071 0 -0.090148922541795753 0.00099523368296225976 0 -0.092860510469499238 0.00012648599606730071 0 -0.093319054419026354 0.00013336311194089647 0 -0.094997227898151126 -1.1780601144270573e-07 0 -0.092860510469499238 0.00012648599606730071 0 -0.094997461474439854 -3.1131600041118032e-08 0 -0.092860510469499238 0.00012648599606730071 0 -0.094997461474439854 -3.1131600041118032e-08 0 -0.093319054419026354 0.00013336311194089647 0 -0.094997461474439854 -3.1131600041118032e-08 0 -0.093319054419026354 0.00013336311194089647 0 -0.094998344888545222 -1.369987222321565e-07 0 -0.092632635658644297 0.00067873516484451139 0 -0.093319054419026354 0.00013336311194089647 0 -0.09397378765803599 0.00021629856074941033 0 -0.094998344888545222 -1.369987222321565e-07 0 -0.094999150808291688 3.2797920635900067e-08 0 -0.09397378765803599 0.00021629856074941033 0 -0.093319054419026354 0.00013336311194089647 0 -0.094998344888545222 -1.369987222321565e-07 0 -0.09397378765803599 0.00021629856074941033 0 -0.094999150808291688 3.2797920635900067e-08 0 -0.094631170099926123 0.00016969280668217634 0 -0.09397378765803599 0.00021629856074941033 0 -0.094999150808291688 3.2797920635900067e-08 0 -0.094631170099926123 0.00016969280668217634 0 -0.094999680126779396 4.3180515156105461e-08 0 -0.094631170099926123 0.00016969280668217634 0 -0.094638589635145404 0.00048006587538569238 0 -0.094043709418043131 0.00070294666373055443 0 -0.094631170099926123 0.00016969280668217634 0 -0.09397378765803599 0.00021629856074941033 0 -0.094043709418043131 0.00070294666373055443 0 -0.094999680126779396 4.3180515156105461e-08 0 -0.094938124894959591 0.00014678934410357306 0 -0.095000092354304261 8.5954492645732194e-08 0 -0.094631170099926123 0.00016969280668217634 0 -0.094999680126779396 4.3180515156105461e-08 0 -0.094938124894959591 0.00014678934410357306 0 -0.094631170099926123 0.00016969280668217634 0 -0.094938124894959591 0.00014678934410357306 0 -0.094638589635145404 0.00048006587538569238 0 -0.094938124894959591 0.00014678934410357306 0 -0.095048085358010945 0.00049512102013905032 0 -0.094638589635145404 0.00048006587538569238 0 -0.094605308433490617 0.00066632697879907723 0 -0.094547474377592644 0.00079185094354279715 0 -0.095048085358010945 0.00049512102013905032 0 -0.094638589635145404 0.00048006587538569238 0 -0.094536539341504938 0.0011128564233896326 0 -0.094638589635145404 0.00048006587538569238 0 -0.094536539341504938 0.0011128564233896326 0 -0.094043709418043131 0.00070294666373055443 0 -0.094536539341504938 0.0011128564233896326 0 -0.094043709418043131 0.00070294666373055443 0 -0.09443031937996102 0.0011881329392394581 0 -0.094536539341504938 0.0011128564233896326 0 -0.09443031937996102 0.0011881329392394581 0 -0.094382786205246261 0.0011280426524237172 0 -0.094536539341504938 0.0011128564233896326 0 -0.094382786205246261 0.0011280426524237172 0 -0.094211207916931453 0.001255806176032946 0 -0.094119589643732002 0.0011758648875248995 0 -0.094536539341504938 0.0011128564233896326 0 -0.094211207916931453 0.001255806176032946 0 -0.09397378765803599 0.00021629856074941033 0 -0.094043709418043131 0.00070294666373055443 0 -0.093034877800081184 0.001138253322360166 0 -0.093589744766167882 0.0014391229524486552 0 -0.09365979351899803 0.0020186230349153412 0 -0.094043709418043131 0.00070294666373055443 0 -0.093236089872330077 0.0018507129554402551 0 -0.093631192164931001 0.0021756064918894819 0 -0.094043709418043131 0.00070294666373055443 0 -0.093631192164931001 0.0021756064918894819 0 -0.094162073044815095 0.0020097076201872695 0 -0.092144284043666452 0.0021516212229834562 0 -0.093034877800081184 0.001138253322360166 0 -0.093236089872330077 0.0018507129554402551 0 -0.094043709418043131 0.00070294666373055443 0 -0.093034877800081184 0.001138253322360166 0 -0.093236089872330077 0.0018507129554402551 0 -0.092144284043666452 0.0021516212229834562 0 -0.093236089872330077 0.0018507129554402551 0 -0.092883890509958295 0.0026734819860041253 0 -0.092144284043666452 0.0021516212229834562 0 -0.092883890509958295 0.0026734819860041253 0 -0.092083618107166781 0.0031125999483710442 0 -0.092883890509958295 0.0026734819860041253 0 -0.092083618107166781 0.0031125999483710442 0 -0.092621849311977159 0.0036470446174164538 0 -0.092083618107166781 0.0031125999483710442 0 -0.092621849311977159 0.0036470446174164538 0 -0.091654324419714883 0.0040357888303758343 0 -0.092621849311977159 0.0036470446174164538 0 -0.093423707145026583 0.0031733459861280613 0 -0.093048650877666075 0.0043335657604892091 0 -0.093423707145026583 0.0031733459861280613 0 -0.093998478528075399 0.003612918591673397 0 -0.093048650877666075 0.0043335657604892091 0 -0.092883890509958295 0.0026734819860041253 0 -0.092621849311977159 0.0036470446174164538 0 -0.093423707145026583 0.0031733459861280613 0 -0.093423707145026583 0.0031733459861280613 0 -0.093631192164931001 0.0021756064918894819 0 -0.094064869752793642 0.0029009339127943987 0 -0.092883890509958295 0.0026734819860041253 0 -0.093423707145026583 0.0031733459861280613 0 -0.093631192164931001 0.0021756064918894819 0 -0.093236089872330077 0.0018507129554402551 0 -0.092883890509958295 0.0026734819860041253 0 -0.093631192164931001 0.0021756064918894819 0 -0.094162073044815095 0.0020097076201872695 0 -0.094064869752793642 0.0029009339127943987 0 -0.095165814903790086 0.003535768191565545 0 -0.09365979351899803 0.0020186230349153412 0 -0.093404593347117287 0.0032832814743659917 0 -0.093631192164931001 0.0021756064918894819 0 -0.094162073044815095 0.0020097076201872695 0 -0.094064869752793642 0.0029009339127943987 0 -0.094382786205246261 0.0011280426524237172 0 -0.094374775479822967 0.00098697018509181817 0 -0.094195285158709494 0.0011085679927783985 0 -0.09443031937996102 0.0011881329392394581 0 -0.094382786205246261 0.0011280426524237172 0 -0.094374775479822967 0.00098697018509181817 0 -0.094064869752793642 0.0029009339127943987 0 -0.095165814903790086 0.003535768191565545 0 -0.093998478528075399 0.003612918591673397 0 -0.095165814903790086 0.003535768191565545 0 -0.093998478528075399 0.003612918591673397 0 -0.094269802176526904 0.0044419188666199264 0 -0.093423707145026583 0.0031733459861280613 0 -0.094064869752793642 0.0029009339127943987 0 -0.093998478528075399 0.003612918591673397 0 -0.093998478528075399 0.003612918591673397 0 -0.094269802176526904 0.0044419188666199264 0 -0.093048650877666075 0.0043335657604892091 0 -0.094269802176526904 0.0044419188666199264 0 -0.092771148268605011 0.0053569419275789117 0 -0.093048650877666075 0.0043335657604892091 0 -0.093065065154621207 0.0040159171224245348 0 -0.092939624091728762 0.0042614141642428969 0 -0.091991200772947965 0.0054345959781605382 0 -0.091988021773445366 0.0053450575897317351 0 -0.0920474135761917 0.0050852061639882814 0 -0.093404593347117287 0.0032832814743659917 0 -0.093304928640214474 0.0036388924538508843 0 -0.093404593347117287 0.0032832814743659917 0 -0.093065065154621207 0.0040159171224245348 0 -0.091991200772947965 0.0054345959781605382 0 -0.092139537800592031 0.0055113218721922841 0 -0.091988021773445366 0.0053450575897317351 0 -0.092139537800592031 0.0055113218721922841 0 -0.091988021773445366 0.0053450575897317351 0 -0.091981738837454252 0.0054687623851287131 0 -0.091988021773445366 0.0053450575897317351 0 -0.091811860910615939 0.0055117496879923764 0 -0.0920474135761917 0.0050852061639882814 0 -0.091988021773445366 0.0053450575897317351 0 -0.091981738837454252 0.0054687623851287131 0 -0.091811860910615939 0.0055117496879923764 0 -0.091981738837454252 0.0054687623851287131 0 -0.091734034857838459 0.0055362517711453219 0 -0.092174057957134348 0.0054690507586494432 0 -0.091600933327901757 0.0055412238455611416 0 -0.091734034857838459 0.0055362517711453219 0 -0.091811860910615939 0.0055117496879923764 0 -0.091981738837454252 0.0054687623851287131 0 -0.091734034857838459 0.0055362517711453219 0 -0.091811860910615939 0.0055117496879923764 0 -0.092139537800592031 0.0055113218721922841 0 -0.092373624576377197 0.0054141648476174935 0 -0.092771148268605011 0.0053569419275789117 0 -0.092139537800592031 0.0055113218721922841 0 -0.091981738837454252 0.0054687623851287131 0 -0.092373624576377197 0.0054141648476174935 0 -0.092646870924424501 0.0055673051711011036 0 -0.092373624576377197 0.0054141648476174935 0 -0.092771148268605011 0.0053569419275789117 0 -0.091981738837454252 0.0054687623851287131 0 -0.092373624576377197 0.0054141648476174935 0 -0.092174057957134348 0.0054690507586494432 0 -0.092646870924424501 0.0055673051711011036 0 -0.092373624576377197 0.0054141648476174935 0 -0.092174057957134348 0.0054690507586494432 0 -0.090502924932495996 0.0051694258407582608 0 -0.090889676130205585 0.0053445627818144523 0 -0.092646870924424501 0.0055673051711011036 0 -0.092771148268605011 0.0053569419275789117 0 -0.092258130926703236 0.0051908610485956498 0 -0.092646870924424501 0.0055673051711011036 0 -0.092258130926703236 0.0051908610485956498 0 -0.091376612813375488 0.0056464599867297521 0 -0.091397602095549535 0.0050604296511339644 0 -0.092258130926703236 0.0051908610485956498 0 -0.091376612813375488 0.0056464599867297521 0 -0.091397602095549535 0.0050604296511339644 0 -0.092258130926703236 0.0051908610485956498 0 -0.092204795197592573 0.0045392607188825488 0 -0.091397602095549535 0.0050604296511339644 0 -0.091654324419714883 0.0040357888303758343 0 -0.092204795197592573 0.0045392607188825488 0 -0.092621849311977159 0.0036470446174164538 0 -0.091654324419714883 0.0040357888303758343 0 -0.092204795197592573 0.0045392607188825488 0 -0.092621849311977159 0.0036470446174164538 0 -0.092204795197592573 0.0045392607188825488 0 -0.093048650877666075 0.0043335657604892091 0 -0.092771148268605011 0.0053569419275789117 0 -0.092258130926703236 0.0051908610485956498 0 -0.093048650877666075 0.0043335657604892091 0 -0.092258130926703236 0.0051908610485956498 0 -0.092204795197592573 0.0045392607188825488 0 -0.093048650877666075 0.0043335657604892091 0 -0.094318631497709568 0.0050457595508597904 0 -0.094462703050848751 0.0042576764613106556 0 -0.095085654258396879 0.0047162593721016997 0 -0.094318631497709568 0.0050457595508597904 0 -0.094462703050848751 0.0042576764613106556 0 -0.093886995432602746 0.0046412744442966098 0 -0.094462703050848751 0.0042576764613106556 0 -0.093886995432602746 0.0046412744442966098 0 -0.093749905759519553 0.0040855317659320781 0 -0.094462703050848751 0.0042576764613106556 0 -0.095085654258396879 0.0047162593721016997 0 -0.095114978893844904 0.003970660037676519 0 -0.095641681061890235 0.004360781558367899 0 -0.095085654258396879 0.0047162593721016997 0 -0.095114978893844904 0.003970660037676519 0 -0.095641681061890235 0.004360781558367899 0 -0.095675669637839536 0.0037437315456092554 0 -0.09615240256934339 0.0041090751169892813 0 -0.095641681061890235 0.004360781558367899 0 -0.095675669637839536 0.0037437315456092554 0 -0.095114978893844904 0.003970660037676519 0 -0.095641681061890235 0.004360781558367899 0 -0.095669968280475678 0.0049809543482246671 0 -0.096107348495225967 0.0046479646169172023 0 -0.095641681061890235 0.004360781558367899 0 -0.095085654258396879 0.0047162593721016997 0 -0.095669968280475678 0.0049809543482246671 0 -0.086695401499371064 0.0055924766712810142 0 -0.086788512903069812 0.005215596392168436 0 -0.09515154969045285 0.0057672897517751284 0 -0.095669968280475678 0.0049809543482246671 0 -0.096304915253559484 0.0052959019407996496 0 -0.095085654258396879 0.0047162593721016997 0 -0.09515154969045285 0.0057672897517751284 0 -0.095669968280475678 0.0049809543482246671 0 -0.094318631497709568 0.0050457595508597904 0 -0.09515154969045285 0.0057672897517751284 0 -0.093578922801145922 0.0058402058204285925 0 -0.086695401499371064 0.0055924766712810142 0 -0.091267374415591962 0.0058026918483991717 0 -0.092067975642722927 0.0056180680581428884 0 -0.092195320140850495 0.0055379229318801987 0 -0.092090476453937267 0.0055429175004542168 0 -0.094318631497709568 0.0050457595508597904 0 -0.095085654258396879 0.0047162593721016997 0 -0.09515154969045285 0.0057672897517751284 0 -0.092067975642722927 0.0056180680581428884 0 -0.092090476453937267 0.0055429175004542168 0 -0.091811860910615939 0.0055117496879923764 0 -0.094318631497709568 0.0050457595508597904 0 -0.093578922801145922 0.0058402058204285925 0 -0.093629401908477447 0.005131141424986844 0 -0.093578922801145922 0.0058402058204285925 0 -0.092991407428783729 0.005351999594433398 0 -0.093629401908477447 0.005131141424986844 0 -0.092991407428783729 0.005351999594433398 0 -0.091811860910615939 0.0055117496879923764 0 -0.09251560314892962 0.005218033846189578 0 -0.091600933327901757 0.0055412238455611416 0 -0.092067975642722927 0.0056180680581428884 0 -0.091811860910615939 0.0055117496879923764 0 -0.093578922801145922 0.0058402058204285925 0 -0.092991407428783729 0.005351999594433398 0 -0.091811860910615939 0.0055117496879923764 0 -0.091267374415591962 0.0058026918483991717 0 -0.091787934208946556 0.0057876241727347752 0 -0.091811860910615939 0.0055117496879923764 0 -0.0920474135761917 0.0050852061639882814 0 -0.09251560314892962 0.005218033846189578 0 -0.091181434350313492 0.0037723820387041049 0 -0.0920474135761917 0.0050852061639882814 0 -0.092725703889553271 0.0039743212703308118 0 -0.0920474135761917 0.0050852061639882814 0 -0.09251560314892962 0.005218033846189578 0 -0.093123322374348394 0.004808531612543983 0 -0.0920474135761917 0.0050852061639882814 0 -0.093123322374348394 0.004808531612543983 0 -0.092725703889553271 0.0039743212703308118 0 -0.093629401908477447 0.005131141424986844 0 -0.093886995432602746 0.0046412744442966098 0 -0.093123322374348394 0.004808531612543983 0 -0.094318631497709568 0.0050457595508597904 0 -0.093629401908477447 0.005131141424986844 0 -0.093886995432602746 0.0046412744442966098 0 -0.092991407428783729 0.005351999594433398 0 -0.093629401908477447 0.005131141424986844 0 -0.093123322374348394 0.004808531612543983 0 -0.092991407428783729 0.005351999594433398 0 -0.09251560314892962 0.005218033846189578 0 -0.093123322374348394 0.004808531612543983 0 -0.093123322374348394 0.004808531612543983 0 -0.093749905759519553 0.0040855317659320781 0 -0.092725703889553271 0.0039743212703308118 0 -0.093886995432602746 0.0046412744442966098 0 -0.093123322374348394 0.004808531612543983 0 -0.093749905759519553 0.0040855317659320781 0 -0.093749905759519553 0.0040855317659320781 0 -0.093476790014048405 0.0033808849883941632 0 -0.094556550473331544 0.0034382147869008129 0 -0.093476790014048405 0.0033808849883941632 0 -0.094153202940714401 0.0026240289483696181 0 -0.094556550473331544 0.0034382147869008129 0 -0.093749905759519553 0.0040855317659320781 0 -0.093476790014048405 0.0033808849883941632 0 -0.092725703889553271 0.0039743212703308118 0 -0.091181434350313492 0.0037723820387041049 0 -0.092725703889553271 0.0039743212703308118 0 -0.09249043625884476 0.0026065570787832983 0 -0.093476790014048405 0.0033808849883941632 0 -0.092725703889553271 0.0039743212703308118 0 -0.09249043625884476 0.0026065570787832983 0 -0.093404593347117287 0.0032832814743659917 0 -0.093669239044675279 0.0025224018777756912 0 -0.094382786205246261 0.0011280426524237172 0 -0.094195285158709494 0.0011085679927783985 0 -0.094211207916931453 0.001255806176032946 0 -0.093476790014048405 0.0033808849883941632 0 -0.09249043625884476 0.0026065570787832983 0 -0.094153202940714401 0.0026240289483696181 0 -0.09249043625884476 0.0026065570787832983 0 -0.094153202940714401 0.0026240289483696181 0 -0.094025366280370865 0.0015111928827131172 0 -0.093669239044675279 0.0025224018777756912 0 -0.093849199698490829 0.0022181669592937752 0 -0.094153202940714401 0.0026240289483696181 0 -0.094657355478857591 0.0021398142871994381 0 -0.094025366280370865 0.0015111928827131172 0 -0.094153202940714401 0.0026240289483696181 0 -0.094556550473331544 0.0034382147869008129 0 -0.095110788615068331 0.0027466903044366495 0 -0.094657355478857591 0.0021398142871994381 0 -0.095110788615068331 0.0027466903044366495 0 -0.09503281858579124 0.0017085870705118443 0 -0.094153202940714401 0.0026240289483696181 0 -0.094657355478857591 0.0021398142871994381 0 -0.095110788615068331 0.0027466903044366495 0 -0.094556550473331544 0.0034382147869008129 0 -0.095255569603172302 0.0033847816752224182 0 -0.095110788615068331 0.0027466903044366495 0 -0.094556550473331544 0.0034382147869008129 0 -0.095114978893844904 0.003970660037676519 0 -0.095255569603172302 0.0033847816752224182 0 -0.094462703050848751 0.0042576764613106556 0 -0.094556550473331544 0.0034382147869008129 0 -0.095114978893844904 0.003970660037676519 0 -0.094462703050848751 0.0042576764613106556 0 -0.093749905759519553 0.0040855317659320781 0 -0.094556550473331544 0.0034382147869008129 0 -0.095675669637839536 0.0037437315456092554 0 -0.095114978893844904 0.003970660037676519 0 -0.095255569603172302 0.0033847816752224182 0 -0.095255569603172302 0.0033847816752224182 0 -0.095778628926876191 0.003044161392063299 0 -0.095110788615068331 0.0027466903044366495 0 -0.095675669637839536 0.0037437315456092554 0 -0.095255569603172302 0.0033847816752224182 0 -0.095778628926876191 0.003044161392063299 0 -0.095778628926876191 0.003044161392063299 0 -0.095110788615068331 0.0027466903044366495 0 -0.095897579814566952 0.0021639484934885909 0 -0.095110788615068331 0.0027466903044366495 0 -0.09503281858579124 0.0017085870705118443 0 -0.095897579814566952 0.0021639484934885909 0 -0.095562984404500576 0.0015044181007054227 0 -0.09503281858579124 0.0017085870705118443 0 -0.095897579814566952 0.0021639484934885909 0 -0.095562984404500576 0.0015044181007054227 0 -0.09503281858579124 0.0017085870705118443 0 -0.094943328493694246 0.00117911635345863 0 -0.094657355478857591 0.0021398142871994381 0 -0.094532746293481726 0.0013654084678505762 0 -0.09503281858579124 0.0017085870705118443 0 -0.094657355478857591 0.0021398142871994381 0 -0.094532746293481726 0.0013654084678505762 0 -0.094025366280370865 0.0015111928827131172 0 -0.094532746293481726 0.0013654084678505762 0 -0.09503281858579124 0.0017085870705118443 0 -0.094943328493694246 0.00117911635345863 0 -0.094532746293481726 0.0013654084678505762 0 -0.094943328493694246 0.00117911635345863 0 -0.094694766910043471 0.00095531420206333901 0 -0.094943328493694246 0.00117911635345863 0 -0.094694766910043471 0.00095531420206333901 0 -0.095047871862791913 0.00073877802130863405 0 -0.094943328493694246 0.00117911635345863 0 -0.095381199959653939 0.0010500003361643357 0 -0.095047871862791913 0.00073877802130863405 0 -0.095381199959653939 0.0010500003361643357 0 -0.095357270111369172 0.0006902511119930855 0 -0.09613934644598908 0.0012917137133121946 0 -0.095381199959653939 0.0010500003361643357 0 -0.095357270111369172 0.0006902511119930855 0 -0.095047871862791913 0.00073877802130863405 0 -0.095562984404500576 0.0015044181007054227 0 -0.095381199959653939 0.0010500003361643357 0 -0.09613934644598908 0.0012917137133121946 0 -0.095562984404500576 0.0015044181007054227 0 -0.094943328493694246 0.00117911635345863 0 -0.095381199959653939 0.0010500003361643357 0 -0.094195285158709494 0.0011085679927783985 0 -0.094211207916931453 0.001255806176032946 0 -0.094025366280370865 0.0015111928827131172 0 -0.094211207916931453 0.001255806176032946 0 -0.094025366280370865 0.0015111928827131172 0 -0.09423421828108941 0.0011548867394964293 0 -0.094532746293481726 0.0013654084678505762 0 -0.094025366280370865 0.0015111928827131172 0 -0.09423421828108941 0.0011548867394964293 0 -0.094532746293481726 0.0013654084678505762 0 -0.094694766910043471 0.00095531420206333901 0 -0.09423421828108941 0.0011548867394964293 0 -0.094694766910043471 0.00095531420206333901 0 -0.09423421828108941 0.0011548867394964293 0 -0.094568246531364072 0.00066932969833882652 0 -0.094119589643732002 0.0011758648875248995 0 -0.094211207916931453 0.001255806176032946 0 -0.09423421828108941 0.0011548867394964293 0 -0.094938124894959591 0.00014678934410357306 0 -0.095048085358010945 0.00049512102013905032 0 -0.095094456168769978 0.00012856796215687937 0 -0.094119589643732002 0.0011758648875248995 0 -0.09423421828108941 0.0011548867394964293 0 -0.094234197678498402 0.00058498921746886795 0 -0.094605308433490617 0.00066632697879907723 0 -0.094748013981598572 0.0003836925772438148 0 -0.09423421828108941 0.0011548867394964293 0 -0.094234197678498402 0.00058498921746886795 0 -0.094568246531364072 0.00066932969833882652 0 -0.094748013981598572 0.0003836925772438148 0 -0.094999706900934247 5.0821184232908938e-07 0 -0.095094456168769978 0.00012856796215687937 0 -0.095000139695446656 1.8428029451869708e-08 0 -0.095000092354304261 8.5954492645732194e-08 0 -0.094234197678498402 0.00058498921746886795 0 -0.094568246531364072 0.00066932969833882652 0 -0.09499846365863987 -2.8620175798968592e-09 0 -0.094938124894959591 0.00014678934410357306 0 -0.095094456168769978 0.00012856796215687937 0 -0.095000092354304261 8.5954492645732194e-08 0 -0.095515780422121568 0.00033989157984184337 0 -0.095357270111369172 0.0006902511119930855 0 -0.09613934644598908 0.0012917137133121946 0 -0.095106380635207058 0.00042810077475686901 0 -0.095339113505202883 0.00038938232205159147 0 -0.095357270111369172 0.0006902511119930855 0 -0.095339113505202883 0.00038938232205159147 0 -0.095430169810925627 0.00036273650881469915 0 -0.095059477692967728 0.00019443520998047096 0 -0.095106380635207058 0.00042810077475686901 0 -0.095339113505202883 0.00038938232205159147 0 -0.095059477692967728 0.00019443520998047096 0 -0.095339113505202883 0.00038938232205159147 0 -0.095515780422121568 0.00033989157984184337 0 -0.095357270111369172 0.0006902511119930855 0 -0.09517268198880359 0.00022596287097931167 0 -0.095167028374296719 0.00022568218467403244 0 -0.095106380635207058 0.00042810077475686901 0 -0.095357270111369172 0.0006902511119930855 0 -0.095047871862791913 0.00073877802130863405 0 -0.094694766910043471 0.00095531420206333901 0 -0.095047871862791913 0.00073877802130863405 0 -0.094907040687328942 0.00045315681134744699 0 -0.094694766910043471 0.00095531420206333901 0 -0.094568246531364072 0.00066932969833882652 0 -0.094907040687328942 0.00045315681134744699 0 -0.095106380635207058 0.00042810077475686901 0 -0.095047871862791913 0.00073877802130863405 0 -0.094907040687328942 0.00045315681134744699 0 -0.095106380635207058 0.00042810077475686901 0 -0.094907040687328942 0.00045315681134744699 0 -0.095059477692967728 0.00019443520998047096 0 -0.09499846365863987 -2.8620175798968592e-09 0 -0.095001326656686189 2.0447379648095736e-07 0 -0.095059477692967728 0.00019443520998047096 0 -0.094568246531364072 0.00066932969833882652 0 -0.09499846365863987 -2.8620175798968592e-09 0 -0.094907040687328942 0.00045315681134744699 0 -0.09499846365863987 -2.8620175798968592e-09 0 -0.094907040687328942 0.00045315681134744699 0 -0.095059477692967728 0.00019443520998047096 0 -0.095430169810925627 0.00036273650881469915 0 -0.095001326656686189 2.0447379648095736e-07 0 -0.095059477692967728 0.00019443520998047096 0 -0.095167028374296719 0.00022568218467403244 0 -0.095000328943184692 3.0729827668320883e-07 0 -0.095000307393605668 3.6556455941449512e-07 0 -0.094999999983589586 2.0416964671007197e-10 0 -0.095000001358146305 2.0913013680214714e-10 0 -0.095000307393605668 3.6556455941449512e-07 0 -0.095000001358146305 2.0913013680214714e-10 0 -0.095000150118008012 1.217504397049497e-07 0 -0.095167028374296719 0.00022568218467403244 0 -0.095070753425367624 0.00010952639119070394 0 -0.095078748910632616 -3.4461415152431237e-07 0 -0.095075864712841199 -2.7152829319398518e-06 0 -0.095076040950122384 1.7119476361271331e-07 0 -0.095078748910632616 -3.4461415152431237e-07 0 -0.095075864712841199 -2.7152829319398518e-06 0 -0.095077614981838351 9.8401221276950557e-07 0 -0.095075864712841199 -2.7152829319398518e-06 0 -0.095077614981838351 9.8401221276950557e-07 0 -0.09507111594081763 -7.6453179590580683e-06 0 -0.095000001358146305 2.0913013680214714e-10 0 -0.095000150118008012 1.217504397049497e-07 0 -0.094999996855037475 -5.42089533002015e-12 0 -0.095077614981838351 9.8401221276950557e-07 0 -0.095052291313813736 8.8814541491802529e-06 0 -0.095056310072873573 -4.7994066737760424e-06 0 -0.095070753425367624 0.00010952639119070394 0 -0.095039854422437398 5.916081428066189e-05 0 -0.095000150118008012 1.217504397049497e-07 0 -0.094999996855037475 -5.42089533002015e-12 0 -0.094999668189738262 -4.4628357698460297e-08 0 -0.094999996855037475 -5.42089533002015e-12 0 -0.094999668189738262 -4.4628357698460297e-08 0 -0.095000008595824192 6.5441858061713369e-10 0 -0.095052291313813736 8.8814541491802529e-06 0 -0.095034370871501531 -4.9249782577421691e-06 0 -0.095056310072873573 -4.7994066737760424e-06 0 -0.095056310072873573 -4.7994066737760424e-06 0 -0.095039994388705931 -2.3174392020565659e-05 0 -0.09507111594081763 -7.6453179590580683e-06 0 -0.095931801858799098 0.00030570061374535261 0 -0.095514429563886269 0.0002187718881903478 0 -0.095034370871501531 -4.9249782577421691e-06 0 -0.095056310072873573 -4.7994066737760424e-06 0 -0.095039994388705931 -2.3174392020565659e-05 0 -0.095077614981838351 9.8401221276950557e-07 0 -0.095056310072873573 -4.7994066737760424e-06 0 -0.09507111594081763 -7.6453179590580683e-06 0 -0.095075864712841199 -2.7152829319398518e-06 0 -0.09507111594081763 -7.6453179590580683e-06 0 -0.095075830577908541 6.2641807351369866e-07 0 -0.095082811633328546 -5.8307440966109714e-06 0 -0.09507111594081763 -7.6453179590580683e-06 0 -0.095075830577908541 6.2641807351369866e-07 0 -0.095931801858799098 0.00030570061374535261 0 -0.096129224174705749 0.00088732026680695124 0 -0.098697941590323301 0.0012001114004319335 0 -0.098490446139115118 0.0024967141985638612 0 -0.097806262011854564 0.0020641700225056099 0 -0.098490446139115118 0.0024967141985638612 0 -0.097806262011854564 0.0020641700225056099 0 -0.097954711117799464 0.0031628805072486197 0 -0.095075864712841199 -2.7152829319398518e-06 0 -0.095075830577908541 6.2641807351369866e-07 0 -0.095076040950122384 1.7119476361271331e-07 0 -0.096129224174705749 0.00088732026680695124 0 -0.095704155673516852 0.0017207907127010796 0 -0.095075830577908541 6.2641807351369866e-07 0 -0.095076040950122384 1.7119476361271331e-07 0 -0.09507694200517193 6.4328820820832437e-06 0 -0.095461176834422623 0.00084210667821760709 0 -0.095704155673516852 0.0017207907127010796 0 -0.095562984404500576 0.0015044181007054227 0 -0.095897579814566952 0.0021639484934885909 0 -0.09613934644598908 0.0012917137133121946 0 -0.095897579814566952 0.0021639484934885909 0 -0.09613934644598908 0.0012917137133121946 0 -0.096834231632298359 0.0026875982634695858 0 -0.095167028374296719 0.00022568218467403244 0 -0.095461176834422623 0.00084210667821760709 0 -0.094933794645672087 1.3413362154219989e-05 0 -0.094905957376669556 2.4991982186116288e-05 0 -0.09495530734249262 5.2608193357226792e-06 0 -0.094905957376669556 2.4991982186116288e-05 0 -0.09495530734249262 5.2608193357226792e-06 0 -0.094952889998406578 1.85290540669505e-05 0 -0.09495530734249262 5.2608193357226792e-06 0 -0.094976648192494253 5.9685038633190289e-06 0 -0.094952889998406578 1.85290540669505e-05 0 -0.094999959121854355 1.1007346053389307e-08 0 -0.094976648192494253 5.9685038633190289e-06 0 -0.094999974464643755 -1.4360222867399508e-08 0 -0.09495530734249262 5.2608193357226792e-06 0 -0.094976648192494253 5.9685038633190289e-06 0 -0.094999974464643755 -1.4360222867399508e-08 0 -0.094999959121854355 1.1007346053389307e-08 0 -0.094976648192494253 5.9685038633190289e-06 0 -0.094984094078828477 1.1215630514110547e-05 0 -0.094976648192494253 5.9685038633190289e-06 0 -0.094984094078828477 1.1215630514110547e-05 0 -0.094952889998406578 1.85290540669505e-05 0 -0.094999959121854355 1.1007346053389307e-08 0 -0.094984094078828477 1.1215630514110547e-05 0 -0.094999940329613522 2.4360332433604326e-08 0 -0.094981587864881256 1.2580667692690133e-05 0 -0.094989816666213728 -3.4936643683236712e-06 0 -0.094952283466502196 -4.3241693149084499e-06 0 -0.094984094078828477 1.1215630514110547e-05 0 -0.094952889998406578 1.85290540669505e-05 0 -0.094981587864881256 1.2580667692690133e-05 0 -0.094905957376669556 2.4991982186116288e-05 0 -0.094952889998406578 1.85290540669505e-05 0 -0.094952283466502196 -4.3241693149084499e-06 0 -0.094952889998406578 1.85290540669505e-05 0 -0.094981587864881256 1.2580667692690133e-05 0 -0.094952283466502196 -4.3241693149084499e-06 0 -0.094984094078828477 1.1215630514110547e-05 0 -0.094981587864881256 1.2580667692690133e-05 0 -0.094985947135784662 1.2641184352934992e-05 0 -0.094981587864881256 1.2580667692690133e-05 0 -0.094985947135784662 1.2641184352934992e-05 0 -0.094983700356950196 1.0710351701256228e-05 0 -0.095292247895711613 0.00075531972451717071 0 -0.095270172805020051 0.00086290963105874446 0 -0.095000003493400376 1.1603654856941368e-08 0 -0.095001415906318623 1.161210499134373e-06 0 -0.095000008595824192 6.5441858061713369e-10 0 -0.094984094078828477 1.1215630514110547e-05 0 -0.094999940329613522 2.4360332433604326e-08 0 -0.094985947135784662 1.2641184352934992e-05 0 -0.095000635439480521 5.0650858131802396e-07 0 -0.0953378565895035 0.00018075774299620124 0 -0.095000003493400376 1.1603654856941368e-08 0 -0.095001415906318623 1.161210499134373e-06 0 -0.095010053463339239 -6.3761550383936617e-06 0 -0.095039854422437398 5.916081428066189e-05 0 -0.09502742396390787 4.5587013469667672e-05 0 -0.095034370871501531 -4.9249782577421691e-06 0 -0.095001415906318623 1.161210499134373e-06 0 -0.095010053463339239 -6.3761550383936617e-06 0 -0.095052291313813736 8.8814541491802529e-06 0 -0.095034370871501531 -4.9249782577421691e-06 0 -0.095001415906318623 1.161210499134373e-06 0 -0.094999668189738262 -4.4628357698460297e-08 0 -0.095001415906318623 1.161210499134373e-06 0 -0.095000008595824192 6.5441858061713369e-10 0 -0.095931801858799098 0.00030570061374535261 0 -0.0953378565895035 0.00018075774299620124 0 -0.09499091018835526 1.1067632530839243e-05 0 -0.094985947135784662 1.2641184352934992e-05 0 -0.094983700356950196 1.0710351701256228e-05 0 -0.095034370871501531 -4.9249782577421691e-06 0 -0.095039994388705931 -2.3174392020565659e-05 0 -0.095010053463339239 -6.3761550383936617e-06 0 -0.095931801858799098 0.00030570061374535261 0 -0.095270172805020051 0.00086290963105874446 0 -0.098697941590323301 0.0012001114004319335 0 -0.099270979917833679 0.0023729848336720067 0 -0.099782386623749553 0.001349963967308296 0 -0.098697941590323301 0.0012001114004319335 0 -0.098490446139115118 0.0024967141985638612 0 -0.099270979917833679 0.0023729848336720067 0 -0.092966801683896705 0.00079661969554697259 0 -0.093378448949468951 -5.6271443803915632e-05 0 -0.093640583956713291 0.0005887180324156534 0 -0.092966801683896705 0.00079661969554697259 0 -0.093640583956713291 0.0005887180324156534 0 -0.093805369913868675 0.0012559811912304119 0 -0.094620308434199704 0.0010893417119022973 0 -0.095270172805020051 0.00086290963105874446 0 -0.093378448949468951 -5.6271443803915632e-05 0 -0.093997010680718862 -6.4195803878270392e-06 0 -0.093640583956713291 0.0005887180324156534 0 -0.095270172805020051 0.00086290963105874446 0 -0.094819319109111219 0.00060756162548973168 0 -0.093997010680718862 -6.4195803878270392e-06 0 -0.093640583956713291 0.0005887180324156534 0 -0.094214979787569653 0.00082562196992495222 0 -0.093640583956713291 0.0005887180324156534 0 -0.094214979787569653 0.00082562196992495222 0 -0.093805369913868675 0.0012559811912304119 0 -0.094214979787569653 0.00082562196992495222 0 -0.094503632073030669 0.00054809331584084798 0 -0.094496517610991509 0.00071613200721112641 0 -0.094214979787569653 0.00082562196992495222 0 -0.094387593368159106 0.001209542792924711 0 -0.094493826683337626 0.00088299918761784442 0 -0.094214979787569653 0.00082562196992495222 0 -0.094496517610991509 0.00071613200721112641 0 -0.094493826683337626 0.00088299918761784442 0 -0.094214979787569653 0.00082562196992495222 0 -0.094799677447604633 6.2749158740891449e-05 0 -0.094976121121373519 5.3107156586106438e-05 0 -0.094819319109111219 0.00060756162548973168 0 -0.094772117719331833 0.00054188463599660474 0 -0.093997010680718862 -6.4195803878270392e-06 0 -0.094214979787569653 0.00082562196992495222 0 -0.094799677447604633 6.2749158740891449e-05 0 -0.094541070283102116 0.00052427139550240349 0 -0.094690527616703213 0.00035064676776985245 0 -0.094905957376669556 2.4991982186116288e-05 0 -0.094952283466502196 -4.3241693149084499e-06 0 -0.094799677447604633 6.2749158740891449e-05 0 -0.094933794645672087 1.3413362154219989e-05 0 -0.094799677447604633 6.2749158740891449e-05 0 -0.094976121121373519 5.3107156586106438e-05 0 -0.094933794645672087 1.3413362154219989e-05 0 -0.094905957376669556 2.4991982186116288e-05 0 -0.094799677447604633 6.2749158740891449e-05 0 -0.094214979787569653 0.00082562196992495222 0 -0.094387593368159106 0.001209542792924711 0 -0.093805369913868675 0.0012559811912304119 0 -0.094339895153599349 0.001676552613784466 0 -0.094387593368159106 0.001209542792924711 0 -0.093805369913868675 0.0012559811912304119 0 -0.084621709537210418 0.0021554434427406002 0 -0.083640008810266217 0.0031323960266647645 0 -0.094339895153599349 0.001676552613784466 0 -0.093805369913868675 0.0012559811912304119 0 -0.093667642189868491 0.0019448556168226829 0 -0.093805369913868675 0.0012559811912304119 0 -0.09318148663482391 0.0015522870454143987 0 -0.093667642189868491 0.0019448556168226829 0 -0.09318148663482391 0.0015522870454143987 0 -0.092896730639139044 0.002191050812995296 0 -0.093667642189868491 0.0019448556168226829 0 -0.092966801683896705 0.00079661969554697259 0 -0.093805369913868675 0.0012559811912304119 0 -0.09318148663482391 0.0015522870454143987 0 -0.094620308434199704 0.0010893417119022973 0 -0.092592108875508436 0.001713975901254608 0 -0.098490446139115118 0.0024967141985638612 0 -0.099270979917833679 0.0023729848336720067 0 -0.098772141865999238 0.0034319668671508965 0 -0.092966801683896705 0.00079661969554697259 0 -0.09318148663482391 0.0015522870454143987 0 -0.092541113684332557 0.0015757626847878801 0 -0.09318148663482391 0.0015522870454143987 0 -0.092896730639139044 0.002191050812995296 0 -0.092541113684332557 0.0015757626847878801 0 -0.072705916521400446 0.0057889040341357369 0 -0.073854313154956511 0.0055724760071571948 0 -0.073152348037692161 0.0047790514613683258 0 -0.072705916521400446 0.0057889040341357369 0 -0.071906343926565933 0.0048603629700482084 0 -0.073152348037692161 0.0047790514613683258 0 -0.072705916521400446 0.0057889040341357369 0 -0.071906343926565933 0.0048603629700482084 0 -0.071312197317430465 0.004956641883240717 0 -0.084132517698153234 0.0037871984515985193 0 -0.083640008810266217 0.0031323960266647645 0 -0.071312197317430465 0.004956641883240717 0 -0.071411641441822521 0.0048933962125903025 0 -0.071711962525691286 0.0042091443243219362 0 -0.071906343926565933 0.0048603629700482084 0 -0.071312197317430465 0.004956641883240717 0 -0.071411641441822521 0.0048933962125903025 0 -0.071906343926565933 0.0048603629700482084 0 -0.071411641441822521 0.0048933962125903025 0 -0.071479108425006807 0.0048561835180562654 0 -0.071411641441822521 0.0048933962125903025 0 -0.071479108425006807 0.0048561835180562654 0 -0.071446871464382528 0.005245035288457176 0 -0.071411641441822521 0.0048933962125903025 0 -0.071446871464382528 0.005245035288457176 0 -0.072296144811725332 0.0055233947943964228 0 -0.071411641441822521 0.0048933962125903025 0 -0.071711962525691286 0.0042091443243219362 0 -0.072296144811725332 0.0055233947943964228 0 -0.071875937620858851 0.0022192051103286084 0 -0.071711962525691286 0.0042091443243219362 0 -0.074638763538452946 0.0028439342824019328 0 -0.071875937620858851 0.0022192051103286084 0 -0.071312197317430465 0.004956641883240717 0 -0.071711962525691286 0.0042091443243219362 0 -0.097035112985182595 0.0032964012874821965 0 -0.097333923841992243 0.0036136124844518762 0 -0.096850757026063675 0.0036317613472078417 0 -0.097035112985182595 0.0032964012874821965 0 -0.096850757026063675 0.0036317613472078417 0 -0.096697671835831653 0.0033014024543075527 0 -0.097035112985182595 0.0032964012874821965 0 -0.096697671835831653 0.0033014024543075527 0 -0.096633397097009577 0.0029238801947397588 0 -0.097035112985182595 0.0032964012874821965 0 -0.097333923841992243 0.0036136124844518762 0 -0.097402628075837924 0.0030096302368030617 0 -0.097333923841992243 0.0036136124844518762 0 -0.096919724024907797 0.0040654189159570475 0 -0.097357202542753832 0.004298428416323441 0 -0.097333923841992243 0.0036136124844518762 0 -0.096850757026063675 0.0036317613472078417 0 -0.096919724024907797 0.0040654189159570475 0 -0.096850757026063675 0.0036317613472078417 0 -0.096545374803370082 0.003915482472915263 0 -0.096919724024907797 0.0040654189159570475 0 -0.096545374803370082 0.003915482472915263 0 -0.096166626768338745 0.0035972565165390069 0 -0.096511017870531277 0.0035301007062227244 0 -0.096850757026063675 0.0036317613472078417 0 -0.096545374803370082 0.003915482472915263 0 -0.096511017870531277 0.0035301007062227244 0 -0.095675669637839536 0.0037437315456092554 0 -0.096166626768338745 0.0035972565165390069 0 -0.09615240256934339 0.0041090751169892813 0 -0.096545374803370082 0.003915482472915263 0 -0.096166626768338745 0.0035972565165390069 0 -0.09615240256934339 0.0041090751169892813 0 -0.095675669637839536 0.0037437315456092554 0 -0.095778628926876191 0.003044161392063299 0 -0.096166626768338745 0.0035972565165390069 0 -0.095778628926876191 0.003044161392063299 0 -0.096166626768338745 0.0035972565165390069 0 -0.096305031035659086 0.0031567349401136332 0 -0.096850757026063675 0.0036317613472078417 0 -0.096511017870531277 0.0035301007062227244 0 -0.096697671835831653 0.0033014024543075527 0 -0.096166626768338745 0.0035972565165390069 0 -0.096511017870531277 0.0035301007062227244 0 -0.096305031035659086 0.0031567349401136332 0 -0.096511017870531277 0.0035301007062227244 0 -0.096305031035659086 0.0031567349401136332 0 -0.096697671835831653 0.0033014024543075527 0 -0.096633397097009577 0.0029238801947397588 0 -0.096257497656048338 0.0027430804482544402 0 -0.096834231632298359 0.0026875982634695858 0 -0.095897579814566952 0.0021639484934885909 0 -0.096257497656048338 0.0027430804482544402 0 -0.096834231632298359 0.0026875982634695858 0 -0.096305031035659086 0.0031567349401136332 0 -0.096697671835831653 0.0033014024543075527 0 -0.096633397097009577 0.0029238801947397588 0 -0.095778628926876191 0.003044161392063299 0 -0.095897579814566952 0.0021639484934885909 0 -0.096257497656048338 0.0027430804482544402 0 -0.096305031035659086 0.0031567349401136332 0 -0.096633397097009577 0.0029238801947397588 0 -0.096257497656048338 0.0027430804482544402 0 -0.095778628926876191 0.003044161392063299 0 -0.096305031035659086 0.0031567349401136332 0 -0.096257497656048338 0.0027430804482544402 0 -0.097806262011854564 0.0020641700225056099 0 -0.096894123797267376 0.0029342126765061552 0 -0.097402628075837924 0.0030096302368030617 0 -0.097035112985182595 0.0032964012874821965 0 -0.096894123797267376 0.0029342126765061552 0 -0.097402628075837924 0.0030096302368030617 0 -0.097035112985182595 0.0032964012874821965 0 -0.096633397097009577 0.0029238801947397588 0 -0.096855912803410771 0.0027071115938803892 0 -0.095813169941251899 0.0019323559678924265 0 -0.095704155673516852 0.0017207907127010796 0 -0.095712348104961917 0.0017356530216038823 0 -0.095704155673516852 0.0017207907127010796 0 -0.097806262011854564 0.0020641700225056099 0 -0.097402628075837924 0.0030096302368030617 0 -0.097954711117799464 0.0031628805072486197 0 -0.097333923841992243 0.0036136124844518762 0 -0.097402628075837924 0.0030096302368030617 0 -0.097954711117799464 0.0031628805072486197 0 -0.098490446139115118 0.0024967141985638612 0 -0.097954711117799464 0.0031628805072486197 0 -0.098772141865999238 0.0034319668671508965 0 -0.098772141865999238 0.0034319668671508965 0 -0.098178938433198873 0.0037678396986255019 0 -0.098249133163378702 0.0045773381091635248 0 -0.097954711117799464 0.0031628805072486197 0 -0.098772141865999238 0.0034319668671508965 0 -0.098178938433198873 0.0037678396986255019 0 -0.097333923841992243 0.0036136124844518762 0 -0.097954711117799464 0.0031628805072486197 0 -0.0977414922093265 0.0039060936245606257 0 -0.097954711117799464 0.0031628805072486197 0 -0.098178938433198873 0.0037678396986255019 0 -0.0977414922093265 0.0039060936245606257 0 -0.097333923841992243 0.0036136124844518762 0 -0.0977414922093265 0.0039060936245606257 0 -0.097357202542753832 0.004298428416323441 0 -0.098178938433198873 0.0037678396986255019 0 -0.0977414922093265 0.0039060936245606257 0 -0.098249133163378702 0.0045773381091635248 0 -0.0977414922093265 0.0039060936245606257 0 -0.098249133163378702 0.0045773381091635248 0 -0.097357202542753832 0.004298428416323441 0 -0.087476674107318769 0.0038136795187745766 0 -0.086840046147987113 0.0047210530213357901 0 -0.098249133163378702 0.0045773381091635248 0 -0.097319299692457617 0.0048916244565579596 0 -0.097357202542753832 0.004298428416323441 0 -0.072705916521400446 0.0057889040341357369 0 -0.074464684281777924 0.0061378190420396158 0 -0.073854313154956511 0.0055724760071571948 0 -0.092592108875508436 0.001713975901254608 0 -0.087476674107318769 0.0038136795187745766 0 -0.084132517698153234 0.0037871984515985193 0 -0.087476674107318769 0.0038136795187745766 0 -0.092896730639139044 0.002191050812995296 0 -0.092541113684332557 0.0015757626847878801 0 -0.092092133386842606 0.0024056569302685618 0 -0.087476674107318769 0.0038136795187745766 0 -0.087203982542988029 0.0040739055024809736 0 -0.073854313154956511 0.0055724760071571948 0 -0.074410144924054095 0.0052669831976118603 0 -0.073152348037692161 0.0047790514613683258 0 -0.073854313154956511 0.0055724760071571948 0 -0.074410144924054095 0.0052669831976118603 0 -0.074692666634507701 0.0059120216860496216 0 -0.074464684281777924 0.0061378190420396158 0 -0.073854313154956511 0.0055724760071571948 0 -0.074692666634507701 0.0059120216860496216 0 -0.074517131030388109 0.0062359478471455372 0 -0.074692666634507701 0.0059120216860496216 0 -0.075997102790795509 0.0060565600993611286 0 -0.075361853072460322 0.0056828971925212439 0 -0.074692666634507701 0.0059120216860496216 0 -0.075997102790795509 0.0060565600993611286 0 -0.074410144924054095 0.0052669831976118603 0 -0.075361853072460322 0.0056828971925212439 0 -0.074692666634507701 0.0059120216860496216 0 -0.074410144924054095 0.0052669831976118603 0 -0.075361853072460322 0.0056828971925212439 0 -0.075185187378401158 0.0051769372691777742 0 -0.086840046147987113 0.0047210530213357901 0 -0.086788512903069812 0.005215596392168436 0 -0.075361853072460322 0.0056828971925212439 0 -0.076998734423812262 0.00517344323917891 0 -0.075185187378401158 0.0051769372691777742 0 -0.075361853072460322 0.0056828971925212439 0 -0.075997102790795509 0.0060565600993611286 0 -0.076998734423812262 0.00517344323917891 0 -0.075997102790795509 0.0060565600993611286 0 -0.076998734423812262 0.00517344323917891 0 -0.077503017636893143 0.0057613666654059165 0 -0.097319299692457617 0.0048916244565579596 0 -0.096643832051072909 0.0045426780443460907 0 -0.096304915253559484 0.0052959019407996496 0 -0.097319299692457617 0.0048916244565579596 0 -0.097357202542753832 0.004298428416323441 0 -0.096643832051072909 0.0045426780443460907 0 -0.096919724024907797 0.0040654189159570475 0 -0.097357202542753832 0.004298428416323441 0 -0.096643832051072909 0.0045426780443460907 0 -0.096545374803370082 0.003915482472915263 0 -0.096919724024907797 0.0040654189159570475 0 -0.096643832051072909 0.0045426780443460907 0 -0.095641681061890235 0.004360781558367899 0 -0.09615240256934339 0.0041090751169892813 0 -0.096107348495225967 0.0046479646169172023 0 -0.096545374803370082 0.003915482472915263 0 -0.09615240256934339 0.0041090751169892813 0 -0.096643832051072909 0.0045426780443460907 0 -0.09615240256934339 0.0041090751169892813 0 -0.096643832051072909 0.0045426780443460907 0 -0.096107348495225967 0.0046479646169172023 0 -0.096643832051072909 0.0045426780443460907 0 -0.096107348495225967 0.0046479646169172023 0 -0.096304915253559484 0.0052959019407996496 0 -0.095669968280475678 0.0049809543482246671 0 -0.096107348495225967 0.0046479646169172023 0 -0.096304915253559484 0.0052959019407996496 0 -0.086695401499371064 0.0055924766712810142 0 -0.079221634925299406 0.0053269299714892521 0 -0.079202969407217619 0.0053426054259855475 0 -0.076998734423812262 0.00517344323917891 0 -0.077503017636893143 0.0057613666654059165 0 -0.077971721018830542 0.0062667984614773603 0 -0.079326626339287262 0.0054365979949012495 0 -0.078014595394150149 0.0044232112765012575 0 -0.080944327173649272 0.0069811882939687037 0 -0.077971721018830542 0.0062667984614773603 0 -0.079326626339287262 0.0054365979949012495 0 -0.079326626339287262 0.0054365979949012495 0 -0.079184433522616254 0.0042149794839250508 0 -0.078014595394150149 0.0044232112765012575 0 -0.079221634925299406 0.0053269299714892521 0 -0.077256812081414369 0.0052270565947003713 0 -0.077971721018830542 0.0062667984614773603 0 -0.076651216767433181 0.0047622604241020538 0 -0.078014595394150149 0.0044232112765012575 0 -0.077971721018830542 0.0062667984614773603 0 -0.076651216767433181 0.0047622604241020538 0 -0.075185187378401158 0.0051769372691777742 0 -0.07666792355609782 0.0032942614237030628 0 -0.078014595394150149 0.0044232112765012575 0 -0.078316308742472251 0.0030131695390599555 0 -0.076651216767433181 0.0047622604241020538 0 -0.07666792355609782 0.0032942614237030628 0 -0.078014595394150149 0.0044232112765012575 0 -0.076651216767433181 0.0047622604241020538 0 -0.07666792355609782 0.0032942614237030628 0 -0.075453952925980144 0.0042628601206998245 0 -0.080038418778102333 0.0023502552178383839 0 -0.079184433522616254 0.0042149794839250508 0 -0.078316308742472251 0.0030131695390599555 0 -0.079184433522616254 0.0042149794839250508 0 -0.078014595394150149 0.0044232112765012575 0 -0.078316308742472251 0.0030131695390599555 0 -0.080038418778102333 0.0023502552178383839 0 -0.078316308742472251 0.0030131695390599555 0 -0.077510790504673382 0.0012573771669962504 0 -0.080038418778102333 0.0023502552178383839 0 -0.080057080442917344 -0.00084453064884038715 0 -0.077510790504673382 0.0012573771669962504 0 -0.07666792355609782 0.0032942614237030628 0 -0.078316308742472251 0.0030131695390599555 0 -0.077510790504673382 0.0012573771669962504 0 -0.07666792355609782 0.0032942614237030628 0 -0.077510790504673382 0.0012573771669962504 0 -0.075206526218255618 0.002168218051639022 0 -0.074038204612568076 0.002457112128696795 0 -0.070396903900925289 0.0053474223238644241 0 -0.071151378436179427 0.0021232575634771759 0 -0.074298021231231082 0.0015618624346809555 0 -0.072454172728321983 0.0030815887341906567 0 -0.075281917739367793 0.00029508467711532034 0 -0.075206526218255618 0.002168218051639022 0 -0.073556856044147842 0.0017805675468515797 0 -0.077510790504673382 0.0012573771669962504 0 -0.075281917739367793 0.00029508467711532034 0 -0.075206526218255618 0.002168218051639022 0 -0.075206526218255618 0.002168218051639022 0 -0.073751090724519436 0.0028968312348953973 0 -0.074726089620392525 0.0034536452974034296 0 -0.075206526218255618 0.002168218051639022 0 -0.073751090724519436 0.0028968312348953973 0 -0.073556856044147842 0.0017805675468515797 0 -0.074726089620392525 0.0034536452974034296 0 -0.074257699876462316 0.0044824507763411492 0 -0.073348901329777061 0.0038412778507523442 0 -0.073751090724519436 0.0028968312348953973 0 -0.074726089620392525 0.0034536452974034296 0 -0.073348901329777061 0.0038412778507523442 0 -0.074726089620392525 0.0034536452974034296 0 -0.075453952925980144 0.0042628601206998245 0 -0.074257699876462316 0.0044824507763411492 0 -0.07666792355609782 0.0032942614237030628 0 -0.075206526218255618 0.002168218051639022 0 -0.074726089620392525 0.0034536452974034296 0 -0.07666792355609782 0.0032942614237030628 0 -0.074726089620392525 0.0034536452974034296 0 -0.075453952925980144 0.0042628601206998245 0 -0.076651216767433181 0.0047622604241020538 0 -0.075453952925980144 0.0042628601206998245 0 -0.075185187378401158 0.0051769372691777742 0 -0.075453952925980144 0.0042628601206998245 0 -0.075185187378401158 0.0051769372691777742 0 -0.074257699876462316 0.0044824507763411492 0 -0.074410144924054095 0.0052669831976118603 0 -0.074257699876462316 0.0044824507763411492 0 -0.073152348037692161 0.0047790514613683258 0 -0.074410144924054095 0.0052669831976118603 0 -0.075185187378401158 0.0051769372691777742 0 -0.074257699876462316 0.0044824507763411492 0 -0.074257699876462316 0.0044824507763411492 0 -0.073152348037692161 0.0047790514613683258 0 -0.073348901329777061 0.0038412778507523442 0 -0.073152348037692161 0.0047790514613683258 0 -0.072332517385141792 0.0042180650056362814 0 -0.073348901329777061 0.0038412778507523442 0 -0.071906343926565933 0.0048603629700482084 0 -0.073152348037692161 0.0047790514613683258 0 -0.072332517385141792 0.0042180650056362814 0 -0.071906343926565933 0.0048603629700482084 0 -0.072332517385141792 0.0042180650056362814 0 -0.071429435316345297 0.0043322586943914561 0 -0.071177226910746058 0.0041317346567495677 0 -0.070738208518437914 0.0046361729672913278 0 -0.072332517385141792 0.0042180650056362814 0 -0.072222254772449812 0.0031811379414417372 0 -0.071429435316345297 0.0043322586943914561 0 -0.073751090724519436 0.0028968312348953973 0 -0.072222254772449812 0.0031811379414417372 0 -0.073348901329777061 0.0038412778507523442 0 -0.072332517385141792 0.0042180650056362814 0 -0.072222254772449812 0.0031811379414417372 0 -0.073348901329777061 0.0038412778507523442 0 -0.071446871464382528 0.005245035288457176 0 -0.070612358836078443 0.0050834603154611187 0 -0.069517443234266618 0.004978931297061384 0 -0.071479108425006807 0.0048561835180562654 0 -0.071446871464382528 0.005245035288457176 0 -0.071429435316345297 0.0043322586943914561 0 -0.07075393624789697 0.0047832823178375339 0 -0.070738208518437914 0.0046361729672913278 0 -0.071906343926565933 0.0048603629700482084 0 -0.071479108425006807 0.0048561835180562654 0 -0.071429435316345297 0.0043322586943914561 0 -0.06859127744277134 0.0056233399819352386 0 -0.069517443234266618 0.004978931297061384 0 -0.069052225054964375 0.0055413064572809407 0 -0.069517443234266618 0.004978931297061384 0 -0.069730065549232903 0.0053355666225580866 0 -0.069052225054964375 0.0055413064572809407 0 -0.070465761200923516 0.0081834418147274518 0 -0.069974990011912999 0.0084762998606852154 0 -0.070612358836078443 0.0050834603154611187 0 -0.069730065549232903 0.0053355666225580866 0 -0.069756415173257855 0.0056202488602198081 0 -0.070612358836078443 0.0050834603154611187 0 -0.069517443234266618 0.004978931297061384 0 -0.069730065549232903 0.0053355666225580866 0 -0.069730065549232903 0.0053355666225580866 0 -0.069756415173257855 0.0056202488602198081 0 -0.069052225054964375 0.0055413064572809407 0 -0.069756415173257855 0.0056202488602198081 0 -0.069052225054964375 0.0055413064572809407 0 -0.06885922009261064 0.0058449873443482681 0 -0.069052225054964375 0.0055413064572809407 0 -0.06885922009261064 0.0058449873443482681 0 -0.068324162968300087 0.0051197875175270522 0 -0.069756415173257855 0.0056202488602198081 0 -0.06885922009261064 0.0058449873443482681 0 -0.06943695120479948 0.0063095714718209217 0 -0.069974990011912999 0.0084762998606852154 0 -0.069597640059664997 0.0082843297497882575 0 -0.06859127744277134 0.0056233399819352386 0 -0.070396903900925289 0.0053474223238644241 0 -0.068324162968300087 0.0051197875175270522 0 -0.071177226910746058 0.0041317346567495677 0 -0.072454172728321983 0.0030815887341906567 0 -0.073751090724519436 0.0028968312348953973 0 -0.072222254772449812 0.0031811379414417372 0 -0.073556856044147842 0.0017805675468515797 0 -0.06859127744277134 0.0056233399819352386 0 -0.069052225054964375 0.0055413064572809407 0 -0.068324162968300087 0.0051197875175270522 0 -0.06885922009261064 0.0058449873443482681 0 -0.068324162968300087 0.0051197875175270522 0 -0.068271159377036927 0.0060686294402675046 0 -0.06802073498211117 0.0043163312226008445 0 -0.068030256690470858 0.0039762312153250705 0 -0.068324162968300087 0.0051197875175270522 0 -0.067392235164779365 0.0065985800614672676 0 -0.068271159377036927 0.0060686294402675046 0 -0.070396903900925289 0.0053474223238644241 0 -0.068324162968300087 0.0051197875175270522 0 -0.071151378436179427 0.0021232575634771759 0 -0.068324162968300087 0.0051197875175270522 0 -0.068704144561243408 0.00076859200638384117 0 -0.071151378436179427 0.0021232575634771759 0 -0.068704144561243408 0.00076859200638384117 0 -0.071151378436179427 0.0021232575634771759 0 -0.071231414270267884 -0.0010203379317498778 0 -0.068271159377036927 0.0060686294402675046 0 -0.067972355659093917 0.0069829315591865568 0 -0.068566579968814156 0.0065813487273326358 0 -0.067392235164779365 0.0065985800614672676 0 -0.068271159377036927 0.0060686294402675046 0 -0.067972355659093917 0.0069829315591865568 0 -0.067972355659093917 0.0069829315591865568 0 -0.067413903217893034 0.0072062829472810674 0 -0.067777233290912314 0.0075660184698874032 0 -0.067392235164779365 0.0065985800614672676 0 -0.067972355659093917 0.0069829315591865568 0 -0.067413903217893034 0.0072062829472810674 0 -0.068704144561243408 0.00076859200638384117 0 -0.069664048499962217 -0.0031469338943376259 0 -0.071231414270267884 -0.0010203379317498778 0 -0.068030256690470858 0.0039762312153250705 0 -0.067862671895000143 0.0043282549182177086 0 -0.067392235164779365 0.0065985800614672676 0 -0.067413903217893034 0.0072062829472810674 0 -0.067057077458159392 0.0075053135055422431 0 -0.067413903217893034 0.0072062829472810674 0 -0.066832158690598359 0.0074723782242340792 0 -0.067276435732206027 0.0075475797747602356 0 -0.067583760220087011 0.0047032561739135566 0 -0.067862671895000143 0.0043282549182177086 0 -0.069664048499962217 -0.0031469338943376259 0 -0.072127543751252965 -0.0032155139637935221 0 -0.071231414270267884 -0.0010203379317498778 0 -0.06885922009261064 0.0058449873443482681 0 -0.06943695120479948 0.0063095714718209217 0 -0.068566579968814156 0.0065813487273326358 0 -0.06943695120479948 0.0063095714718209217 0 -0.068566579968814156 0.0065813487273326358 0 -0.068417644826870377 0.007396568785520731 0 -0.06885922009261064 0.0058449873443482681 0 -0.068271159377036927 0.0060686294402675046 0 -0.068566579968814156 0.0065813487273326358 0 -0.068417644826870377 0.007396568785520731 0 -0.068751885264028909 0.0080079455279613888 0 -0.068324383777874392 0.0077491990023680971 0 -0.067972355659093917 0.0069829315591865568 0 -0.068417644826870377 0.007396568785520731 0 -0.067777233290912314 0.0075660184698874032 0 -0.067972355659093917 0.0069829315591865568 0 -0.068566579968814156 0.0065813487273326358 0 -0.068417644826870377 0.007396568785520731 0 -0.069597640059664997 0.0082843297497882575 0 -0.069439989554901799 0.0081494422026305146 0 -0.06943695120479948 0.0063095714718209217 0 -0.068417644826870377 0.007396568785520731 0 -0.068751885264028909 0.0080079455279613888 0 -0.069027397922572328 0.0099575671631844734 0 -0.068751885264028909 0.0080079455279613888 0 -0.06769789324832802 0.0087823677763992532 0 -0.068751885264028909 0.0080079455279613888 0 -0.068584282524606202 0.0074814588855295185 0 -0.06769789324832802 0.0087823677763992532 0 -0.068751885264028909 0.0080079455279613888 0 -0.068584282524606202 0.0074814588855295185 0 -0.068324383777874392 0.0077491990023680971 0 -0.068584282524606202 0.0074814588855295185 0 -0.068324383777874392 0.0077491990023680971 0 -0.068321541895723203 0.0079292462726164598 0 -0.068417644826870377 0.007396568785520731 0 -0.068324383777874392 0.0077491990023680971 0 -0.067777233290912314 0.0075660184698874032 0 -0.068324383777874392 0.0077491990023680971 0 -0.067777233290912314 0.0075660184698874032 0 -0.067621301947649287 0.0079835985333536127 0 -0.067856935860106563 0.0080990489152628388 0 -0.068321541895723203 0.0079292462726164598 0 -0.068630041291804472 0.0087256500900843061 0 -0.068324383777874392 0.0077491990023680971 0 -0.067856935860106563 0.0080990489152628388 0 -0.067621301947649287 0.0079835985333536127 0 -0.067856935860106563 0.0080990489152628388 0 -0.0673601579480613 0.0083147201457441054 0 -0.067598724110739916 0.0088190072754612669 0 -0.067856935860106563 0.0080990489152628388 0 -0.067621301947649287 0.0079835985333536127 0 -0.0673601579480613 0.0083147201457441054 0 -0.068324383777874392 0.0077491990023680971 0 -0.067856935860106563 0.0080990489152628388 0 -0.068321541895723203 0.0079292462726164598 0 -0.068584282524606202 0.0074814588855295185 0 -0.067038763009204735 0.0063519748626798527 0 -0.069410687216013303 0.0040483450093739427 0 -0.065892882091817456 0.0075713902420341773 0 -0.064868692275291032 0.0088366095500535119 0 -0.068584282524606202 0.0074814588855295185 0 -0.068321541895723203 0.0079292462726164598 0 -0.068630041291804472 0.0087256500900843061 0 -0.065794336981931781 0.0065145244538271311 0 -0.065466864946438497 0.0079647584004049112 0 -0.064616102902947919 0.0076169745483994919 0 -0.067862671895000143 0.0043282549182177086 0 -0.066587145128331318 0.0075911088939119575 0 -0.067045502844197344 0.0079697909313122244 0 -0.066832158690598359 0.0074723782242340792 0 -0.066301499177831097 0.0084691387082749797 0 -0.067045502844197344 0.0079697909313122244 0 -0.066832158690598359 0.0074723782242340792 0 -0.067276435732206027 0.0075475797747602356 0 -0.067045502844197344 0.0079697909313122244 0 -0.067276435732206027 0.0075475797747602356 0 -0.067777233290912314 0.0075660184698874032 0 -0.067045502844197344 0.0079697909313122244 0 -0.067777233290912314 0.0075660184698874032 0 -0.066957456003159666 0.0087945295779694732 0 -0.067413903217893034 0.0072062829472810674 0 -0.067276435732206027 0.0075475797747602356 0 -0.067777233290912314 0.0075660184698874032 0 -0.067777233290912314 0.0075660184698874032 0 -0.067621301947649287 0.0079835985333536127 0 -0.066618117046968045 0.008283290956452272 0 -0.066924093711027005 0.0081570950943239406 0 -0.066518056017232111 0.008754505325291111 0 -0.067621301947649287 0.0079835985333536127 0 -0.0673601579480613 0.0083147201457441054 0 -0.066618117046968045 0.008283290956452272 0 -0.0673601579480613 0.0083147201457441054 0 -0.066618117046968045 0.008283290956452272 0 -0.067042640907832074 0.0086414310470622792 0 -0.067045502844197344 0.0079697909313122244 0 -0.066957456003159666 0.0087945295779694732 0 -0.066301499177831097 0.0084691387082749797 0 -0.065466864946438497 0.0079647584004049112 0 -0.064616102902947919 0.0076169745483994919 0 -0.064583160619951438 0.0085905455519730001 0 -0.064616102902947919 0.0076169745483994919 0 -0.064583160619951438 0.0085905455519730001 0 -0.063512337596919863 0.0086985384852247046 0 -0.069664048499962217 -0.0031469338943376259 0 -0.072622390456685448 -0.005471329332604081 0 -0.072127543751252965 -0.0032155139637935221 0 -0.067862671895000143 0.0043282549182177086 0 -0.069219849656550383 0.0026221733546908854 0 -0.072622390456685448 -0.005471329332604081 0 -0.072127543751252965 -0.0032155139637935221 0 -0.07398497158500103 -0.0040158706866303823 0 -0.072127543751252965 -0.0032155139637935221 0 -0.07398497158500103 -0.0040158706866303823 0 -0.073019195418924182 -0.0022344375342633416 0 -0.072622390456685448 -0.005471329332604081 0 -0.07398497158500103 -0.0040158706866303823 0 -0.07501230272954372 -0.0053794854487703332 0 -0.07398497158500103 -0.0040158706866303823 0 -0.076258357661053974 -0.0041730771805666015 0 -0.075420950532793851 -0.0024561174743580913 0 -0.07398497158500103 -0.0040158706866303823 0 -0.07501230272954372 -0.0053794854487703332 0 -0.076258357661053974 -0.0041730771805666015 0 -0.07398497158500103 -0.0040158706866303823 0 -0.073019195418924182 -0.0022344375342633416 0 -0.075420950532793851 -0.0024561174743580913 0 -0.07501230272954372 -0.0053794854487703332 0 -0.076936814380446306 -0.0057896296967258204 0 -0.075124831228920774 -0.0073932139762452123 0 -0.069219849656550383 0.0026221733546908854 0 -0.07015181073299824 0.0023204698310877602 0 -0.072622390456685448 -0.005471329332604081 0 -0.07501230272954372 -0.0053794854487703332 0 -0.075124831228920774 -0.0073932139762452123 0 -0.076936814380446306 -0.0057896296967258204 0 -0.075124831228920774 -0.0073932139762452123 0 -0.076989219357987415 -0.0072060237675474603 0 -0.076936814380446306 -0.0057896296967258204 0 -0.078487882449505414 -0.0062644518277193816 0 -0.076989219357987415 -0.0072060237675474603 0 -0.07501230272954372 -0.0053794854487703332 0 -0.076936814380446306 -0.0057896296967258204 0 -0.076258357661053974 -0.0041730771805666015 0 -0.079186439180121526 -0.0063185092215940243 0 -0.078487882449505414 -0.0062644518277193816 0 -0.078879408223191325 -0.0075758797543998358 0 -0.079186439180121526 -0.0063185092215940243 0 -0.078487882449505414 -0.0062644518277193816 0 -0.079401244844004779 -0.0055714509011814848 0 -0.079881278050348184 -0.006281431257549811 0 -0.079186439180121526 -0.0063185092215940243 0 -0.079401244844004779 -0.0055714509011814848 0 -0.076936814380446306 -0.0057896296967258204 0 -0.078487882449505414 -0.0062644518277193816 0 -0.078460973502647219 -0.0050814035257188486 0 -0.076936814380446306 -0.0057896296967258204 0 -0.078460973502647219 -0.0050814035257188486 0 -0.077988635521706498 -0.0042410922577358024 0 -0.078487882449505414 -0.0062644518277193816 0 -0.078460973502647219 -0.0050814035257188486 0 -0.079401244844004779 -0.0055714509011814848 0 -0.078460973502647219 -0.0050814035257188486 0 -0.079401244844004779 -0.0055714509011814848 0 -0.079356876759738043 -0.0036151425339774014 0 -0.078460973502647219 -0.0050814035257188486 0 -0.077988635521706498 -0.0042410922577358024 0 -0.079356876759738043 -0.0036151425339774014 0 -0.077988635521706498 -0.0042410922577358024 0 -0.079356876759738043 -0.0036151425339774014 0 -0.07793336687000807 -0.0026369083084117621 0 -0.076258357661053974 -0.0041730771805666015 0 -0.07793336687000807 -0.0026369083084117621 0 -0.075420950532793851 -0.0024561174743580913 0 -0.076936814380446306 -0.0057896296967258204 0 -0.077988635521706498 -0.0042410922577358024 0 -0.076258357661053974 -0.0041730771805666015 0 -0.077988635521706498 -0.0042410922577358024 0 -0.076258357661053974 -0.0041730771805666015 0 -0.07793336687000807 -0.0026369083084117621 0 -0.07793336687000807 -0.0026369083084117621 0 -0.077037987196115473 -0.0010348062228859695 0 -0.075420950532793851 -0.0024561174743580913 0 -0.080057080442917344 -0.00084453064884038715 0 -0.07793336687000807 -0.0026369083084117621 0 -0.077037987196115473 -0.0010348062228859695 0 -0.080057080442917344 -0.00084453064884038715 0 -0.079356876759738043 -0.0036151425339774014 0 -0.07793336687000807 -0.0026369083084117621 0 -0.080057080442917344 -0.00084453064884038715 0 -0.077510790504673382 0.0012573771669962504 0 -0.077037987196115473 -0.0010348062228859695 0 -0.077510790504673382 0.0012573771669962504 0 -0.075281917739367793 0.00029508467711532034 0 -0.077037987196115473 -0.0010348062228859695 0 -0.074038204612568076 0.002457112128696795 0 -0.077037987196115473 -0.0010348062228859695 0 -0.073683031395531423 -0.00044607103208895235 0 -0.074298021231231082 0.0015618624346809555 0 -0.075429956697968856 0.00060008375326656648 0 -0.074038204612568076 0.002457112128696795 0 -0.073683031395531423 -0.00044607103208895235 0 -0.071151378436179427 0.0021232575634771759 0 -0.073683031395531423 -0.00044607103208895235 0 -0.071151378436179427 0.0021232575634771759 0 -0.071231414270267884 -0.0010203379317498778 0 -0.073683031395531423 -0.00044607103208895235 0 -0.071231414270267884 -0.0010203379317498778 0 -0.073019195418924182 -0.0022344375342633416 0 -0.072127543751252965 -0.0032155139637935221 0 -0.071231414270267884 -0.0010203379317498778 0 -0.073019195418924182 -0.0022344375342633416 0 -0.073683031395531423 -0.00044607103208895235 0 -0.073019195418924182 -0.0022344375342633416 0 -0.075420950532793851 -0.0024561174743580913 0 -0.077037987196115473 -0.0010348062228859695 0 -0.073683031395531423 -0.00044607103208895235 0 -0.075420950532793851 -0.0024561174743580913 0 -0.058619975037290592 0.010025624464691863 0 -0.057876239654991619 0.010250452921082856 0 -0.057976002002375029 0.0095270647431233389 0 -0.058619975037290592 0.010025624464691863 0 -0.057976002002375029 0.0095270647431233389 0 -0.058574075768748811 0.0094845712560609335 0 -0.058619975037290592 0.010025624464691863 0 -0.058574075768748811 0.0094845712560609335 0 -0.058963885761439391 0.009673433048658692 0 -0.066200091875817171 0.0094269745008498367 0 -0.065875286368982822 0.010021648201019306 0 -0.066798636979794795 0.0099341975366220945 0 -0.062528227099366535 0.0097391012009330671 0 -0.061754092815095363 0.0099357096596313591 0 -0.065875286368982822 0.010021648201019306 0 -0.065075367941297577 0.0098696318969348287 0 -0.065437330674904759 0.010446548239680893 0 -0.066200091875817171 0.0094269745008498367 0 -0.065875286368982822 0.010021648201019306 0 -0.065075367941297577 0.0098696318969348287 0 -0.057073565952756394 0.011253509505271849 0 -0.056672049239726074 0.011521209604672235 0 -0.05661968886858898 0.011290004471072684 0 -0.057876239654991619 0.010250452921082856 0 -0.057602386902775457 0.010027946327100332 0 -0.057245931246030515 0.01045525091879697 0 -0.061754092815095363 0.0099357096596313591 0 -0.062425760475170448 0.0095923110727776165 0 -0.059157390090827273 0.010848478618709341 0 -0.062425760475170448 0.0095923110727776165 0 -0.057073565952756394 0.011253509505271849 0 -0.05661968886858898 0.011290004471072684 0 -0.056509626096614828 0.010995461075540293 0 -0.057073565952756394 0.011253509505271849 0 -0.057022806267127579 0.010739265932082753 0 -0.056509626096614828 0.010995461075540293 0 -0.057876239654991619 0.010250452921082856 0 -0.057602386902775457 0.010027946327100332 0 -0.057976002002375029 0.0095270647431233389 0 -0.057073565952756394 0.011253509505271849 0 -0.057022806267127579 0.010739265932082753 0 -0.057681407353207759 0.010689189034723309 0 -0.059157390090827273 0.010848478618709341 0 -0.058514389385140024 0.010379354078454391 0 -0.057142604438655216 0.010313151422381286 0 -0.057022806267127579 0.010739265932082753 0 -0.057681407353207759 0.010689189034723309 0 -0.057142604438655216 0.010313151422381286 0 -0.057561402136504174 0.0099660700276120659 0 -0.057681407353207759 0.010689189034723309 0 -0.057022806267127579 0.010739265932082753 0 -0.056509626096614828 0.010995461075540293 0 -0.056543817014806964 0.010363621671017256 0 -0.057142604438655216 0.010313151422381286 0 -0.057022806267127579 0.010739265932082753 0 -0.056543817014806964 0.010363621671017256 0 -0.057142604438655216 0.010313151422381286 0 -0.056904741678918402 0.0098074455818124781 0 -0.056543817014806964 0.010363621671017256 0 -0.056904741678918402 0.0098074455818124781 0 -0.057561402136504174 0.0099660700276120659 0 -0.057406137120250292 0.0095856031799235776 0 -0.057142604438655216 0.010313151422381286 0 -0.056904741678918402 0.0098074455818124781 0 -0.057561402136504174 0.0099660700276120659 0 -0.057561402136504174 0.0099660700276120659 0 -0.057681407353207759 0.010689189034723309 0 -0.058222524227179225 0.0099503345709078227 0 -0.057561402136504174 0.0099660700276120659 0 -0.058222524227179225 0.0099503345709078227 0 -0.057909840420809024 0.0093625879044776442 0 -0.058514389385140024 0.010379354078454391 0 -0.058586922120029063 0.0096951461476840126 0 -0.057976002002375029 0.0095270647431233389 0 -0.058574075768748811 0.0094845712560609335 0 -0.058502711205216322 0.0088304287347219842 0 -0.058574075768748811 0.0094845712560609335 0 -0.058502711205216322 0.0088304287347219842 0 -0.05915606258782901 0.0089394681640443032 0 -0.058502711205216322 0.0088304287347219842 0 -0.05915606258782901 0.0089394681640443032 0 -0.059142643717526283 0.0083672471075444607 0 -0.05915606258782901 0.0089394681640443032 0 -0.059808724707092045 0.008510624633877549 0 -0.059142643717526283 0.0083672471075444607 0 -0.05915606258782901 0.0089394681640443032 0 -0.059808724707092045 0.008510624633877549 0 -0.06002546070531127 0.0088322575963733427 0 -0.059808724707092045 0.008510624633877549 0 -0.06002546070531127 0.0088322575963733427 0 -0.060784733403612554 0.0085927511449726338 0 -0.06002546070531127 0.0088322575963733427 0 -0.058963885761439391 0.009673433048658692 0 -0.059310406520098544 0.010239715991538558 0 -0.06002546070531127 0.0088322575963733427 0 -0.062695766425963292 0.0090872589066072242 0 -0.059310406520098544 0.010239715991538558 0 -0.05915606258782901 0.0089394681640443032 0 -0.06002546070531127 0.0088322575963733427 0 -0.058963885761439391 0.009673433048658692 0 -0.058574075768748811 0.0094845712560609335 0 -0.05915606258782901 0.0089394681640443032 0 -0.058963885761439391 0.009673433048658692 0 -0.059907296336061983 0.0084537898860875104 0 -0.059253116555348567 0.0087322706387498693 0 -0.059881300306322535 0.008649185192006751 0 -0.063884463505997025 0.0087126079987773948 0 -0.064868692275291032 0.0088366095500535119 0 -0.059808724707092045 0.008510624633877549 0 -0.060784733403612554 0.0085927511449726338 0 -0.059881300306322535 0.008649185192006751 0 -0.059907296336061983 0.0084537898860875104 0 -0.060784733403612554 0.0085927511449726338 0 -0.059881300306322535 0.008649185192006751 0 -0.06002546070531127 0.0088322575963733427 0 -0.060784733403612554 0.0085927511449726338 0 -0.062695766425963292 0.0090872589066072242 0 -0.065133853995255994 0.0089295451360689865 0 -0.063800643996639927 0.0093740474812161745 0 -0.067038763009204735 0.0063519748626798527 0 -0.062695766425963292 0.0090872589066072242 0 -0.066369045276113994 0.0085631395885062394 0 -0.062695766425963292 0.0090872589066072242 0 -0.066369045276113994 0.0085631395885062394 0 -0.059310406520098544 0.010239715991538558 0 -0.059907296336061983 0.0084537898860875104 0 -0.060784733403612554 0.0085927511449726338 0 -0.062695766425963292 0.0090872589066072242 0 -0.063884463505997025 0.0087126079987773948 0 -0.063164169534085754 0.0091974302182545823 0 -0.068584282524606202 0.0074814588855295185 0 -0.066369045276113994 0.0085631395885062394 0 -0.06769789324832802 0.0087823677763992532 0 -0.068584282524606202 0.0074814588855295185 0 -0.067038763009204735 0.0063519748626798527 0 -0.066369045276113994 0.0085631395885062394 0 -0.066369045276113994 0.0085631395885062394 0 -0.06769789324832802 0.0087823677763992532 0 -0.067049312868736125 0.0089757045611689439 0 -0.06769789324832802 0.0087823677763992532 0 -0.067049312868736125 0.0089757045611689439 0 -0.067735390173957313 0.0094050479242726217 0 -0.067049312868736125 0.0089757045611689439 0 -0.067735390173957313 0.0094050479242726217 0 -0.067213299572362689 0.0093513655478970215 0 -0.066369045276113994 0.0085631395885062394 0 -0.067049312868736125 0.0089757045611689439 0 -0.06714142132780547 0.0091498237855078979 0 -0.067755391545156252 0.0098476196156854264 0 -0.067735390173957313 0.0094050479242726217 0 -0.067213299572362689 0.0093513655478970215 0 -0.067755391545156252 0.0098476196156854264 0 -0.067213299572362689 0.0093513655478970215 0 -0.067359038293374307 0.010036157153529294 0 -0.067755391545156252 0.0098476196156854264 0 -0.067735390173957313 0.0094050479242726217 0 -0.068721520764323751 0.010366435842492912 0 -0.069027397922572328 0.0099575671631844734 0 -0.06769789324832802 0.0087823677763992532 0 -0.067735390173957313 0.0094050479242726217 0 -0.069027397922572328 0.0099575671631844734 0 -0.067735390173957313 0.0094050479242726217 0 -0.068721520764323751 0.010366435842492912 0 -0.058619975037290592 0.010025624464691863 0 -0.058963885761439391 0.009673433048658692 0 -0.059310406520098544 0.010239715991538558 0 -0.062528227099366535 0.0097391012009330671 0 -0.063800643996639927 0.0093740474812161745 0 -0.066200091875817171 0.0094269745008498367 0 -0.06714142132780547 0.0091498237855078979 0 -0.0669244422552846 0.0094770535000396304 0 -0.067049312868736125 0.0089757045611689439 0 -0.06714142132780547 0.0091498237855078979 0 -0.067213299572362689 0.0093513655478970215 0 -0.06714142132780547 0.0091498237855078979 0 -0.067213299572362689 0.0093513655478970215 0 -0.0669244422552846 0.0094770535000396304 0 -0.067213299572362689 0.0093513655478970215 0 -0.066767681657993544 0.0099520092944746646 0 -0.067359038293374307 0.010036157153529294 0 -0.067213299572362689 0.0093513655478970215 0 -0.066798636979794795 0.0099341975366220945 0 -0.0669244422552846 0.0094770535000396304 0 -0.066895267455844107 0.0098568802804532892 0 -0.066616191234168287 0.010086877462604111 0 -0.066200091875817171 0.0094269745008498367 0 -0.066798636979794795 0.0099341975366220945 0 -0.0669244422552846 0.0094770535000396304 0 -0.066767681657993544 0.0099520092944746646 0 -0.067318280158382579 0.0108839907253367 0 -0.066297031238157625 0.011371436727966752 0 -0.066616191234168287 0.010086877462604111 0 -0.066024338816855196 0.010553532503393361 0 -0.067359038293374307 0.010036157153529294 0 -0.067318280158382579 0.0108839907253367 0 -0.067936023563267514 0.010486340776726564 0 -0.066767681657993544 0.0099520092944746646 0 -0.067359038293374307 0.010036157153529294 0 -0.067318280158382579 0.0108839907253367 0 -0.067318280158382579 0.0108839907253367 0 -0.06856447283221731 0.011533658145311576 0 -0.06702134940286246 0.012009110789478026 0 -0.067318280158382579 0.0108839907253367 0 -0.06702134940286246 0.012009110789478026 0 -0.066297031238157625 0.011371436727966752 0 -0.069936919529953082 0.011206539354196039 0 -0.069027397922572328 0.0099575671631844734 0 -0.068721520764323751 0.010366435842492912 0 -0.067755391545156252 0.0098476196156854264 0 -0.068721520764323751 0.010366435842492912 0 -0.067936023563267514 0.010486340776726564 0 -0.067755391545156252 0.0098476196156854264 0 -0.067359038293374307 0.010036157153529294 0 -0.067936023563267514 0.010486340776726564 0 -0.067318280158382579 0.0108839907253367 0 -0.067936023563267514 0.010486340776726564 0 -0.06856447283221731 0.011533658145311576 0 -0.068721520764323751 0.010366435842492912 0 -0.067936023563267514 0.010486340776726564 0 -0.06856447283221731 0.011533658145311576 0 -0.069936919529953082 0.011206539354196039 0 -0.068721520764323751 0.010366435842492912 0 -0.06856447283221731 0.011533658145311576 0 -0.070535995899362436 0.013442830147985587 0 -0.069936919529953082 0.011206539354196039 0 -0.070025265427591382 0.012471744281653213 0 -0.069936919529953082 0.011206539354196039 0 -0.06856447283221731 0.011533658145311576 0 -0.070025265427591382 0.012471744281653213 0 -0.06856447283221731 0.011533658145311576 0 -0.070025265427591382 0.012471744281653213 0 -0.068125074793640827 0.013239547594476325 0 -0.070025265427591382 0.012471744281653213 0 -0.071490322588038863 0.012737348940016737 0 -0.068125074793640827 0.013239547594476325 0 -0.073603884147378562 0.012223701691171781 0 -0.075263345465977807 0.011922757419375506 0 -0.071490322588038863 0.012737348940016737 0 -0.082523352924795415 0.012588244389999203 0 -0.076953140132246897 0.0090589672829408698 0 -0.071490322588038863 0.012737348940016737 0 -0.072803985027921486 0.0090525283026702472 0 -0.076953140132246897 0.0090589672829408698 0 -0.070535995899362436 0.013442830147985587 0 -0.071490322588038863 0.012737348940016737 0 -0.072803985027921486 0.0090525283026702472 0 -0.070535995899362436 0.013442830147985587 0 -0.070025265427591382 0.012471744281653213 0 -0.071490322588038863 0.012737348940016737 0 -0.06702134940286246 0.012009110789478026 0 -0.066494149499891367 0.012926316933760743 0 -0.065917008404392241 0.012123745256506866 0 -0.06702134940286246 0.012009110789478026 0 -0.065917008404392241 0.012123745256506866 0 -0.066297031238157625 0.011371436727966752 0 -0.06856447283221731 0.011533658145311576 0 -0.06702134940286246 0.012009110789478026 0 -0.068125074793640827 0.013239547594476325 0 -0.075263345465977807 0.011922757419375506 0 -0.077652041739178335 0.011034270507511785 0 -0.06702134940286246 0.012009110789478026 0 -0.068125074793640827 0.013239547594476325 0 -0.066494149499891367 0.012926316933760743 0 -0.082523352924795415 0.012588244389999203 0 -0.09036743865619952 0.010594525920420839 0 -0.089141510063178178 0.0079148198594016055 0 -0.09036743865619952 0.010594525920420839 0 -0.094328419073683015 0.0086406434980405792 0 -0.09323094977473409 0.0078201747240420824 0 -0.077652041739178335 0.011034270507511785 0 -0.079239522914244589 0.0096646156709066199 0 -0.066494149499891367 0.012926316933760743 0 -0.065351283027277496 0.012718453320743591 0 -0.065917008404392241 0.012123745256506866 0 -0.065351283027277496 0.012718453320743591 0 -0.065200856795592205 0.012050210163379666 0 -0.065917008404392241 0.012123745256506866 0 -0.065200856795592205 0.012050210163379666 0 -0.065917008404392241 0.012123745256506866 0 -0.06522107984712236 0.011242883932677757 0 -0.065917008404392241 0.012123745256506866 0 -0.066297031238157625 0.011371436727966752 0 -0.06522107984712236 0.011242883932677757 0 -0.066297031238157625 0.011371436727966752 0 -0.06522107984712236 0.011242883932677757 0 -0.065972809196389037 0.010621727400496441 0 -0.065408021989438112 0.011023108956414117 0 -0.066024338816855196 0.010553532503393361 0 -0.065383346913471072 0.011117133804353278 0 -0.065437330674904759 0.010446548239680893 0 -0.066118392057597078 0.010528040765939172 0 -0.065875286368982822 0.010021648201019306 0 -0.065437330674904759 0.010446548239680893 0 -0.066118392057597078 0.010528040765939172 0 -0.066767681657993544 0.0099520092944746646 0 -0.066297031238157625 0.011371436727966752 0 -0.065972809196389037 0.010621727400496441 0 -0.065875286368982822 0.010021648201019306 0 -0.066798636979794795 0.0099341975366220945 0 -0.066118392057597078 0.010528040765939172 0 -0.064716530593390734 0.010700388086691269 0 -0.064090735865003981 0.011126701676918005 0 -0.063946210128057165 0.01033918781399632 0 -0.065075367941297577 0.0098696318969348287 0 -0.064716530593390734 0.010700388086691269 0 -0.063946210128057165 0.01033918781399632 0 -0.065075367941297577 0.0098696318969348287 0 -0.065437330674904759 0.010446548239680893 0 -0.064716530593390734 0.010700388086691269 0 -0.065383346913471072 0.011117133804353278 0 -0.065437330674904759 0.010446548239680893 0 -0.064716530593390734 0.010700388086691269 0 -0.065383346913471072 0.011117133804353278 0 -0.064716530593390734 0.010700388086691269 0 -0.064598336118145458 0.01170077993549027 0 -0.065408021989438112 0.011023108956414117 0 -0.065081210806108847 0.011264220092674259 0 -0.064716530593390734 0.010700388086691269 0 -0.064090735865003981 0.011126701676918005 0 -0.064598336118145458 0.01170077993549027 0 -0.064090735865003981 0.011126701676918005 0 -0.064598336118145458 0.01170077993549027 0 -0.063854558474244816 0.011787147390931873 0 -0.064598336118145458 0.01170077993549027 0 -0.064293185868638414 0.012150720128115463 0 -0.063854558474244816 0.011787147390931873 0 -0.064598336118145458 0.01170077993549027 0 -0.064778178397718003 0.012272462101171477 0 -0.064293185868638414 0.012150720128115463 0 -0.065200856795592205 0.012050210163379666 0 -0.064598336118145458 0.01170077993549027 0 -0.064778178397718003 0.012272462101171477 0 -0.065200856795592205 0.012050210163379666 0 -0.06522107984712236 0.011242883932677757 0 -0.064598336118145458 0.01170077993549027 0 -0.065351283027277496 0.012718453320743591 0 -0.065200856795592205 0.012050210163379666 0 -0.064778178397718003 0.012272462101171477 0 -0.094328419073683015 0.0086406434980405792 0 -0.095912986623887558 0.008084383103486031 0 -0.09492623590748292 0.0082587922588535003 0 -0.079239522914244589 0.0096646156709066199 0 -0.080153974985240656 0.0075257080073578729 0 -0.065351283027277496 0.012718453320743591 0 -0.064778178397718003 0.012272462101171477 0 -0.064368157024953646 0.012657456566231476 0 -0.064293185868638414 0.012150720128115463 0 -0.064368157024953646 0.012657456566231476 0 -0.063863106086874469 0.012304769874049753 0 -0.064778178397718003 0.012272462101171477 0 -0.064293185868638414 0.012150720128115463 0 -0.064368157024953646 0.012657456566231476 0 -0.095912986623887558 0.008084383103486031 0 -0.095658013977010528 0.0072791681669418535 0 -0.096273117669878561 0.0075396627121787881 0 -0.096207051240465205 0.0059058485468423067 0 -0.096798096652769339 0.0039910885083960243 0 -0.095837784920628707 0.0044211142735620206 0 -0.094809953836198946 0.0058242463433817553 0 -0.09481094681741023 0.0044643832378561087 0 -0.095658013977010528 0.0072791681669418535 0 -0.096273117669878561 0.0075396627121787881 0 -0.096244502628931583 0.0071778730236772203 0 -0.095658013977010528 0.0072791681669418535 0 -0.096157899491812249 0.006634151184029006 0 -0.096244502628931583 0.0071778730236772203 0 -0.094995547610172287 0.0046590583567904294 0 -0.094987658019401774 0.0059272408326085249 0 -0.094207322983797831 0.0047639939225779249 0 -0.094995547610172287 0.0046590583567904294 0 -0.094987658019401774 0.0059272408326085249 0 -0.095837784920628707 0.0044211142735620206 0 -0.096207051240465205 0.0059058485468423067 0 -0.094987658019401774 0.0059272408326085249 0 -0.095837784920628707 0.0044211142735620206 0 -0.095912986623887558 0.008084383103486031 0 -0.095658013977010528 0.0072791681669418535 0 -0.09492623590748292 0.0082587922588535003 0 -0.094987658019401774 0.0059272408326085249 0 -0.09492623590748292 0.0082587922588535003 0 -0.094331404279317438 0.0074371919582497557 0 -0.094809953836198946 0.0058242463433817553 0 -0.094601791249941225 0.0065294042769983799 0 -0.096207051240465205 0.0059058485468423067 0 -0.094987658019401774 0.0059272408326085249 0 -0.09492623590748292 0.0082587922588535003 0 -0.094328419073683015 0.0086406434980405792 0 -0.09492623590748292 0.0082587922588535003 0 -0.094331404279317438 0.0074371919582497557 0 -0.094328419073683015 0.0086406434980405792 0 -0.09323094977473409 0.0078201747240420824 0 -0.094331404279317438 0.0074371919582497557 0 -0.09323094977473409 0.0078201747240420824 0 -0.092226650125905724 0.0064429176195898007 0 -0.094043205239588007 0.0063807962295060082 0 -0.09323094977473409 0.0078201747240420824 0 -0.094331404279317438 0.0074371919582497557 0 -0.094043205239588007 0.0063807962295060082 0 -0.094987658019401774 0.0059272408326085249 0 -0.094331404279317438 0.0074371919582497557 0 -0.094043205239588007 0.0063807962295060082 0 -0.09036743865619952 0.010594525920420839 0 -0.09323094977473409 0.0078201747240420824 0 -0.092226650125905724 0.0064429176195898007 0 -0.092226650125905724 0.0064429176195898007 0 -0.091620110315441552 0.0044959938288529075 0 -0.090267757421846645 0.0057537923159716184 0 -0.092226650125905724 0.0064429176195898007 0 -0.092836266795228217 0.0046808452410401734 0 -0.093352660815934005 0.0055454032930222774 0 -0.092226650125905724 0.0064429176195898007 0 -0.092836266795228217 0.0046808452410401734 0 -0.091620110315441552 0.0044959938288529075 0 -0.092226650125905724 0.0064429176195898007 0 -0.094043205239588007 0.0063807962295060082 0 -0.093352660815934005 0.0055454032930222774 0 -0.094043205239588007 0.0063807962295060082 0 -0.093352660815934005 0.0055454032930222774 0 -0.094207322983797831 0.0047639939225779249 0 -0.094987658019401774 0.0059272408326085249 0 -0.094043205239588007 0.0063807962295060082 0 -0.094207322983797831 0.0047639939225779249 0 -0.092836266795228217 0.0046808452410401734 0 -0.093352660815934005 0.0055454032930222774 0 -0.094207322983797831 0.0047639939225779249 0 -0.094207322983797831 0.0047639939225779249 0 -0.093707279738285021 0.0034039099683540893 0 -0.094942087029218622 0.0036081566515602666 0 -0.092836266795228217 0.0046808452410401734 0 -0.094207322983797831 0.0047639939225779249 0 -0.093707279738285021 0.0034039099683540893 0 -0.093707279738285021 0.0034039099683540893 0 -0.094422769317661609 0.0029582860072211075 0 -0.094942087029218622 0.0036081566515602666 0 -0.091620110315441552 0.0044959938288529075 0 -0.0926842764821669 0.0034989316708696843 0 -0.091471273727480346 0.0033564422171311345 0 -0.092836266795228217 0.0046808452410401734 0 -0.093707279738285021 0.0034039099683540893 0 -0.0926842764821669 0.0034989316708696843 0 -0.092836266795228217 0.0046808452410401734 0 -0.091620110315441552 0.0044959938288529075 0 -0.0926842764821669 0.0034989316708696843 0 -0.093707279738285021 0.0034039099683540893 0 -0.0926842764821669 0.0034989316708696843 0 -0.092873227266302177 0.0024431460257119809 0 -0.0926842764821669 0.0034989316708696843 0 -0.092241496433882381 0.0029063427041704348 0 -0.092873227266302177 0.0024431460257119809 0 -0.092241496433882381 0.0029063427041704348 0 -0.091471273727480346 0.0033564422171311345 0 -0.091941153586047444 0.0024155339660995681 0 -0.0926842764821669 0.0034989316708696843 0 -0.092241496433882381 0.0029063427041704348 0 -0.091471273727480346 0.0033564422171311345 0 -0.092873227266302177 0.0024431460257119809 0 -0.092488500904083282 0.0016426887755958018 0 -0.093798619826229543 0.001486708429938977 0 -0.092241496433882381 0.0029063427041704348 0 -0.092873227266302177 0.0024431460257119809 0 -0.091941153586047444 0.0024155339660995681 0 -0.092873227266302177 0.0024431460257119809 0 -0.091941153586047444 0.0024155339660995681 0 -0.092488500904083282 0.0016426887755958018 0 -0.092873227266302177 0.0024431460257119809 0 -0.094051104636966795 0.0023864467402588724 0 -0.093798619826229543 0.001486708429938977 0 -0.093707279738285021 0.0034039099683540893 0 -0.094422769317661609 0.0029582860072211075 0 -0.094051104636966795 0.0023864467402588724 0 -0.094422769317661609 0.0029582860072211075 0 -0.094051104636966795 0.0023864467402588724 0 -0.09496560614517334 0.00249641715722392 0 -0.093707279738285021 0.0034039099683540893 0 -0.092873227266302177 0.0024431460257119809 0 -0.094051104636966795 0.0023864467402588724 0 -0.094051104636966795 0.0023864467402588724 0 -0.09496560614517334 0.00249641715722392 0 -0.09451066743917115 0.0017875230441388944 0 -0.094422769317661609 0.0029582860072211075 0 -0.09496560614517334 0.00249641715722392 0 -0.094942087029218622 0.0036081566515602666 0 -0.09496560614517334 0.00249641715722392 0 -0.095847617707940161 0.0022504777939129075 0 -0.095797864145152206 0.0031792465575172673 0 -0.09496560614517334 0.00249641715722392 0 -0.095797864145152206 0.0031792465575172673 0 -0.094942087029218622 0.0036081566515602666 0 -0.09496560614517334 0.00249641715722392 0 -0.095847617707940161 0.0022504777939129075 0 -0.095210806391556532 0.0016144665781532212 0 -0.095847617707940161 0.0022504777939129075 0 -0.096461647792940752 0.0028234985366255077 0 -0.096485210817923023 0.0021212735420967758 0 -0.095847617707940161 0.0022504777939129075 0 -0.096461647792940752 0.0028234985366255077 0 -0.095797864145152206 0.0031792465575172673 0 -0.096461647792940752 0.0028234985366255077 0 -0.095797864145152206 0.0031792465575172673 0 -0.096798096652769339 0.0039910885083960243 0 -0.095797864145152206 0.0031792465575172673 0 -0.096798096652769339 0.0039910885083960243 0 -0.095837784920628707 0.0044211142735620206 0 -0.094995547610172287 0.0046590583567904294 0 -0.095837784920628707 0.0044211142735620206 0 -0.094942087029218622 0.0036081566515602666 0 -0.094995547610172287 0.0046590583567904294 0 -0.094207322983797831 0.0047639939225779249 0 -0.094942087029218622 0.0036081566515602666 0 -0.095797864145152206 0.0031792465575172673 0 -0.095837784920628707 0.0044211142735620206 0 -0.094942087029218622 0.0036081566515602666 0 -0.071711962525691286 0.0042091443243219362 0 -0.074638763538452946 0.0028439342824019328 0 -0.072296144811725332 0.0055233947943964228 0 -0.074638763538452946 0.0028439342824019328 0 -0.072296144811725332 0.0055233947943964228 0 -0.076105282994251899 0.0056748379392578992 0 -0.072296144811725332 0.0055233947943964228 0 -0.072803985027921486 0.0090525283026702472 0 -0.076105282994251899 0.0056748379392578992 0 -0.071446871464382528 0.005245035288457176 0 -0.070612358836078443 0.0050834603154611187 0 -0.072296144811725332 0.0055233947943964228 0 -0.070535995899362436 0.013442830147985587 0 -0.072296144811725332 0.0055233947943964228 0 -0.072803985027921486 0.0090525283026702472 0 -0.070465761200923516 0.0081834418147274518 0 -0.07083729654187336 0.0071139725821933852 0 -0.072803985027921486 0.0090525283026702472 0 -0.076105282994251899 0.0056748379392578992 0 -0.076953140132246897 0.0090589672829408698 0 -0.082523352924795415 0.012588244389999203 0 -0.076953140132246897 0.0090589672829408698 0 -0.080669267078204987 0.0073822940819183976 0 -0.076105282994251899 0.0056748379392578992 0 -0.076953140132246897 0.0090589672829408698 0 -0.080669267078204987 0.0073822940819183976 0 -0.074638763538452946 0.0028439342824019328 0 -0.079611836996791738 0.0036766233111877136 0 -0.077208035973292705 -0.0015132186902462668 0 -0.074638763538452946 0.0028439342824019328 0 -0.076105282994251899 0.0056748379392578992 0 -0.079611836996791738 0.0036766233111877136 0 -0.076105282994251899 0.0056748379392578992 0 -0.080669267078204987 0.0073822940819183976 0 -0.079611836996791738 0.0036766233111877136 0 -0.079611836996791738 0.0036766233111877136 0 -0.086386647423396135 0.0060293448433040037 0 -0.085314828755394007 0.00101833751703812 0 -0.088484843847324024 0.0036422467282700185 0 -0.08862957051948521 0.0025579172456400723 0 -0.080669267078204987 0.0073822940819183976 0 -0.079611836996791738 0.0036766233111877136 0 -0.086386647423396135 0.0060293448433040037 0 -0.086386647423396135 0.0060293448433040037 0 -0.089857259367677883 0.0043446672651120616 0 -0.088434520001781758 0.0040953292818117779 0 -0.082523352924795415 0.012588244389999203 0 -0.080669267078204987 0.0073822940819183976 0 -0.086386647423396135 0.0060293448433040037 0 -0.082523352924795415 0.012588244389999203 0 -0.086386647423396135 0.0060293448433040037 0 -0.089141510063178178 0.0079148198594016055 0 -0.086386647423396135 0.0060293448433040037 0 -0.089141510063178178 0.0079148198594016055 0 -0.090267757421846645 0.0057537923159716184 0 -0.092226650125905724 0.0064429176195898007 0 -0.089141510063178178 0.0079148198594016055 0 -0.090267757421846645 0.0057537923159716184 0 -0.09036743865619952 0.010594525920420839 0 -0.092226650125905724 0.0064429176195898007 0 -0.089141510063178178 0.0079148198594016055 0 -0.086386647423396135 0.0060293448433040037 0 -0.090267757421846645 0.0057537923159716184 0 -0.089857259367677883 0.0043446672651120616 0 -0.091620110315441552 0.0044959938288529075 0 -0.090267757421846645 0.0057537923159716184 0 -0.089857259367677883 0.0043446672651120616 0 -0.091620110315441552 0.0044959938288529075 0 -0.089857259367677883 0.0043446672651120616 0 -0.091471273727480346 0.0033564422171311345 0 -0.089857259367677883 0.0043446672651120616 0 -0.09022987322849893 0.0032824422163341043 0 -0.091471273727480346 0.0033564422171311345 0 -0.089857259367677883 0.0043446672651120616 0 -0.09022987322849893 0.0032824422163341043 0 -0.088434520001781758 0.0040953292818117779 0 -0.09022987322849893 0.0032824422163341043 0 -0.091001278672279654 0.0021825161855557546 0 -0.089406369530917754 0.0023410532496506418 0 -0.09022987322849893 0.0032824422163341043 0 -0.091170861876983436 0.0026786479549436985 0 -0.091001278672279654 0.0021825161855557546 0 -0.09022987322849893 0.0032824422163341043 0 -0.091170861876983436 0.0026786479549436985 0 -0.091471273727480346 0.0033564422171311345 0 -0.091170861876983436 0.0026786479549436985 0 -0.091471273727480346 0.0033564422171311345 0 -0.091941153586047444 0.0024155339660995681 0 -0.091757368535013692 0.0019294534484028088 0 -0.091001278672279654 0.0021825161855557546 0 -0.092163859244000557 0.0012322151103658211 0 -0.091170861876983436 0.0026786479549436985 0 -0.091941153586047444 0.0024155339660995681 0 -0.091757368535013692 0.0019294534484028088 0 -0.091941153586047444 0.0024155339660995681 0 -0.091757368535013692 0.0019294534484028088 0 -0.092488500904083282 0.0016426887755958018 0 -0.091170861876983436 0.0026786479549436985 0 -0.091757368535013692 0.0019294534484028088 0 -0.091001278672279654 0.0021825161855557546 0 -0.091001278672279654 0.0021825161855557546 0 -0.090931965546692792 0.0021869454296970336 0 -0.092163859244000557 0.0012322151103658211 0 -0.095256898324570613 0.0012996717180092231 0 -0.094979284528061286 0.0011068155243408274 0 -0.095210511262391911 0.0008039470944425786 0 -0.089112987897156951 0.00077975991482470512 0 -0.091936378389668019 0.0011938447103672181 0 -0.089235753898617917 0.00080136803046509464 0 -0.089112987897156951 0.00077975991482470512 0 -0.084903413105130332 -0.0038913046308923969 0 -0.085314828755394007 0.00101833751703812 0 -0.077208035973292705 -0.0015132186902462668 0 -0.09022987322849893 0.0032824422163341043 0 -0.089406369530917754 0.0023410532496506418 0 -0.088434520001781758 0.0040953292818117779 0 -0.089112987897156951 0.00077975991482470512 0 -0.08862957051948521 0.0025579172456400723 0 -0.089112987897156951 0.00077975991482470512 0 -0.086813649768834641 0.0011668535121026064 0 -0.079611836996791738 0.0036766233111877136 0 -0.085314828755394007 0.00101833751703812 0 -0.077208035973292705 -0.0015132186902462668 0 -0.094829013564494871 0.0014453310744607887 0 -0.094979284528061286 0.0011068155243408274 0 -0.094691302110018014 0.001017434845319202 0 -0.095256898324570613 0.0012996717180092231 0 -0.094829013564494871 0.0014453310744607887 0 -0.094979284528061286 0.0011068155243408274 0 -0.094387593368159106 0.001209542792924711 0 -0.094829013564494871 0.0014453310744607887 0 -0.094691302110018014 0.001017434845319202 0 -0.094387593368159106 0.001209542792924711 0 -0.094493826683337626 0.00088299918761784442 0 -0.094691302110018014 0.001017434845319202 0 -0.094339895153599349 0.001676552613784466 0 -0.094387593368159106 0.001209542792924711 0 -0.094829013564494871 0.0014453310744607887 0 -0.071875937620858851 0.0022192051103286084 0 -0.074638763538452946 0.0028439342824019328 0 -0.077208035973292705 -0.0015132186902462668 0 -0.084621709537210418 0.0021554434427406002 0 -0.086813649768834641 0.0011668535121026064 0 -0.094503632073030669 0.00054809331584084798 0 -0.094698930106119517 0.0005284696565299741 0 -0.094598148078259531 0.00061652025305220317 0 -0.094698930106119517 0.0005284696565299741 0 -0.094598148078259531 0.00061652025305220317 0 -0.094664388147108355 0.00071981569031412688 0 -0.094698930106119517 0.0005284696565299741 0 -0.094664388147108355 0.00071981569031412688 0 -0.094878180223914949 0.00056726643195013579 0 -0.094503632073030669 0.00054809331584084798 0 -0.094598148078259531 0.00061652025305220317 0 -0.094496517610991509 0.00071613200721112641 0 -0.094598148078259531 0.00061652025305220317 0 -0.094496517610991509 0.00071613200721112641 0 -0.094664388147108355 0.00071981569031412688 0 -0.094496517610991509 0.00071613200721112641 0 -0.094493826683337626 0.00088299918761784442 0 -0.094664388147108355 0.00071981569031412688 0 -0.094493826683337626 0.00088299918761784442 0 -0.094691302110018014 0.001017434845319202 0 -0.094664388147108355 0.00071981569031412688 0 -0.094691302110018014 0.001017434845319202 0 -0.094664388147108355 0.00071981569031412688 0 -0.094884916852996576 0.00084117994255348595 0 -0.094979284528061286 0.0011068155243408274 0 -0.094884916852996576 0.00084117994255348595 0 -0.095210511262391911 0.0008039470944425786 0 -0.094884916852996576 0.00084117994255348595 0 -0.094878180223914949 0.00056726643195013579 0 -0.095210511262391911 0.0008039470944425786 0 -0.094979284528061286 0.0011068155243408274 0 -0.094691302110018014 0.001017434845319202 0 -0.094884916852996576 0.00084117994255348595 0 -0.094664388147108355 0.00071981569031412688 0 -0.094884916852996576 0.00084117994255348595 0 -0.094878180223914949 0.00056726643195013579 0 -0.094878180223914949 0.00056726643195013579 0 -0.095210511262391911 0.0008039470944425786 0 -0.095126673721564206 0.00033607529265544959 0 -0.092163859244000557 0.0012322151103658211 0 -0.093622867624391898 0.00050416244434506297 0 -0.093586766668453752 0.00033075902502742937 0 -0.091936378389668019 0.0011938447103672181 0 -0.093676697478412604 0.00072430092450897566 0 -0.091757368535013692 0.0019294534484028088 0 -0.092163859244000557 0.0012322151103658211 0 -0.092488500904083282 0.0016426887755958018 0 -0.092163859244000557 0.0012322151103658211 0 -0.092488500904083282 0.0016426887755958018 0 -0.093443728172602283 0.00094161209040790868 0 -0.092163859244000557 0.0012322151103658211 0 -0.093622867624391898 0.00050416244434506297 0 -0.093443728172602283 0.00094161209040790868 0 -0.093622867624391898 0.00050416244434506297 0 -0.094299826493181443 0.0001502196544815992 0 -0.093586766668453752 0.00033075902502742937 0 -0.093622867624391898 0.00050416244434506297 0 -0.094299826493181443 0.0001502196544815992 0 -0.094417935614313692 0.00022246806300416636 0 -0.094299826493181443 0.0001502196544815992 0 -0.094998258993388748 2.7847153886422266e-08 0 -0.09499902285846179 7.49441434603179e-08 0 -0.095000589081059142 1.4027690329248169e-07 0 -0.095126673721564206 0.00033607529265544959 0 -0.094999436526199479 -1.233960142221278e-07 0 -0.094299826493181443 0.0001502196544815992 0 -0.094998258993388748 2.7847153886422266e-08 0 -0.093586766668453752 0.00033075902502742937 0 -0.094997523464109945 1.0502368300374396e-06 0 -0.093676697478412604 0.00072430092450897566 0 -0.094878180223914949 0.00056726643195013579 0 -0.095126673721564206 0.00033607529265544959 0 -0.094776377254802549 0.00024269427891663036 0 -0.094698930106119517 0.0005284696565299741 0 -0.094878180223914949 0.00056726643195013579 0 -0.094776377254802549 0.00024269427891663036 0 -0.094999848500926992 1.4740514199364397e-07 0 -0.094861751376764655 0.00015434515925542735 0 -0.095000009791066084 7.5182499696420978e-09 0 -0.094999974464643755 -1.4360222867399508e-08 0 -0.094992757028542624 1.5904807719552749e-06 0 -0.095126673721564206 0.00033607529265544959 0 -0.094999436526199479 -1.233960142221278e-07 0 -0.094776377254802549 0.00024269427891663036 0 -0.09495530734249262 5.2608193357226792e-06 0 -0.094999974464643755 -1.4360222867399508e-08 0 -0.094992757028542624 1.5904807719552749e-06 0 -0.094690527616703213 0.00035064676776985245 0 -0.094861751376764655 0.00015434515925542735 0 -0.094503632073030669 0.00054809331584084798 0 -0.094698930106119517 0.0005284696565299741 0 -0.094776377254802549 0.00024269427891663036 0 -0.094933794645672087 1.3413362154219989e-05 0 -0.09495530734249262 5.2608193357226792e-06 0 -0.094992757028542624 1.5904807719552749e-06 0 -0.094933794645672087 1.3413362154219989e-05 0 -0.094976121121373519 5.3107156586106438e-05 0 -0.094992757028542624 1.5904807719552749e-06 0 -0.095211910665522995 0.00085209739436972417 0 -0.094683290426223157 0.0012198783488979355 0 -0.094415150109176352 0.0007355001997088503 0 -0.095211910665522995 0.00085209739436972417 0 -0.094415150109176352 0.0007355001997088503 0 -0.094989109929689383 0.00023127888462180063 0 -0.095211910665522995 0.00085209739436972417 0 -0.095893236973004364 0.0014274231190899553 0 -0.095845465642568725 0.00038078141792939943 0 -0.095211910665522995 0.00085209739436972417 0 -0.095893236973004364 0.0014274231190899553 0 -0.095210806391556532 0.0016144665781532212 0 -0.095847617707940161 0.0022504777939129075 0 -0.095893236973004364 0.0014274231190899553 0 -0.096485210817923023 0.0021212735420967758 0 -0.095847617707940161 0.0022504777939129075 0 -0.095893236973004364 0.0014274231190899553 0 -0.095210806391556532 0.0016144665781532212 0 -0.095211910665522995 0.00085209739436972417 0 -0.095210806391556532 0.0016144665781532212 0 -0.094683290426223157 0.0012198783488979355 0 -0.095210806391556532 0.0016144665781532212 0 -0.094683290426223157 0.0012198783488979355 0 -0.09451066743917115 0.0017875230441388944 0 -0.09496560614517334 0.00249641715722392 0 -0.095210806391556532 0.0016144665781532212 0 -0.09451066743917115 0.0017875230441388944 0 -0.094683290426223157 0.0012198783488979355 0 -0.093798619826229543 0.001486708429938977 0 -0.094415150109176352 0.0007355001997088503 0 -0.094051104636966795 0.0023864467402588724 0 -0.09451066743917115 0.0017875230441388944 0 -0.093798619826229543 0.001486708429938977 0 -0.094683290426223157 0.0012198783488979355 0 -0.09451066743917115 0.0017875230441388944 0 -0.093798619826229543 0.001486708429938977 0 -0.092488500904083282 0.0016426887755958018 0 -0.093798619826229543 0.001486708429938977 0 -0.093443728172602283 0.00094161209040790868 0 -0.093622867624391898 0.00050416244434506297 0 -0.093443728172602283 0.00094161209040790868 0 -0.094417935614313692 0.00022246806300416636 0 -0.093798619826229543 0.001486708429938977 0 -0.093443728172602283 0.00094161209040790868 0 -0.094415150109176352 0.0007355001997088503 0 -0.093443728172602283 0.00094161209040790868 0 -0.094415150109176352 0.0007355001997088503 0 -0.094417935614313692 0.00022246806300416636 0 -0.094415150109176352 0.0007355001997088503 0 -0.094417935614313692 0.00022246806300416636 0 -0.094989109929689383 0.00023127888462180063 0 -0.094299826493181443 0.0001502196544815992 0 -0.094417935614313692 0.00022246806300416636 0 -0.09499902285846179 7.49441434603179e-08 0 -0.094417935614313692 0.00022246806300416636 0 -0.09499902285846179 7.49441434603179e-08 0 -0.094999572353889297 6.8356003966202785e-08 0 -0.094417935614313692 0.00022246806300416636 0 -0.094999572353889297 6.8356003966202785e-08 0 -0.094989109929689383 0.00023127888462180063 0 -0.094999572353889297 6.8356003966202785e-08 0 -0.094989109929689383 0.00023127888462180063 0 -0.095001502279313255 -2.2979300439206422e-07 0 -0.095211910665522995 0.00085209739436972417 0 -0.094989109929689383 0.00023127888462180063 0 -0.095845465642568725 0.00038078141792939943 0 -0.094989109929689383 0.00023127888462180063 0 -0.095001502279313255 -2.2979300439206422e-07 0 -0.095845465642568725 0.00038078141792939943 0 -0.094999961984886361 -1.3871088652153214e-08 0 -0.094996011036846309 1.1983946667747263e-05 0 -0.094999989324437178 2.0009185222996303e-08 0 -0.094999961984886361 -1.3871088652153214e-08 0 -0.094996011036846309 1.1983946667747263e-05 0 -0.094981540768428893 5.0409493722063807e-05 0 -0.09499978608587617 6.9085910903496735e-07 0 -0.094878796053221512 0.00061010059337012422 0 -0.094996011036846309 1.1983946667747263e-05 0 -0.094984347161490235 1.1461811254238468e-05 0 -0.094982426139278903 1.457316375555807e-05 0 -0.094996011036846309 1.1983946667747263e-05 0 -0.094999989324437178 2.0009185222996303e-08 0 -0.094984347161490235 1.1461811254238468e-05 0 -0.094999989324437178 2.0009185222996303e-08 0 -0.094984347161490235 1.1461811254238468e-05 0 -0.094990915211905461 5.3427472243342899e-06 0 -0.094984347161490235 1.1461811254238468e-05 0 -0.094977510876164364 1.3516054928766982e-05 0 -0.094990915211905461 5.3427472243342899e-06 0 -0.094984347161490235 1.1461811254238468e-05 0 -0.09497699766239201 1.6440320210432797e-05 0 -0.094982426139278903 1.457316375555807e-05 0 -0.094984347161490235 1.1461811254238468e-05 0 -0.09497699766239201 1.6440320210432797e-05 0 -0.094972797529165931 1.7863903391487629e-05 0 -0.09497699766239201 1.6440320210432797e-05 0 -0.094972797529165931 1.7863903391487629e-05 0 -0.094968030105900395 2.185687681162129e-05 0 -0.094984347161490235 1.1461811254238468e-05 0 -0.094972797529165931 1.7863903391487629e-05 0 -0.094977510876164364 1.3516054928766982e-05 0 -0.094632692411104807 0.00024802868156557337 0 -0.094574541180154764 0.00044834763114365707 0 -0.094996011036846309 1.1983946667747263e-05 0 -0.094981540768428893 5.0409493722063807e-05 0 -0.094988474816928126 6.3621268952105005e-05 0 -0.094996011036846309 1.1983946667747263e-05 0 -0.094982426139278903 1.457316375555807e-05 0 -0.094972583112038586 1.8781780502275473e-05 0 -0.09497699766239201 1.6440320210432797e-05 0 -0.094982426139278903 1.457316375555807e-05 0 -0.094972583112038586 1.8781780502275473e-05 0 -0.09497699766239201 1.6440320210432797e-05 0 -0.094972583112038586 1.8781780502275473e-05 0 -0.094968030105900395 2.185687681162129e-05 0 -0.094972583112038586 1.8781780502275473e-05 0 -0.094968030105900395 2.185687681162129e-05 0 -0.094964027043204835 2.5046210611741287e-05 0 -0.095893236973004364 0.0014274231190899553 0 -0.095845465642568725 0.00038078141792939943 0 -0.096788027463734133 0.0015087528649112534 0 -0.094878796053221512 0.00061010059337012422 0 -0.094410814284825867 0.0014175216557903243 0 -0.094574541180154764 0.00044834763114365707 0 -0.094410814284825867 0.0014175216557903243 0 -0.094981540768428893 5.0409493722063807e-05 0 -0.094988474816928126 6.3621268952105005e-05 0 -0.094979621210766446 0.00014120128946808807 0 -0.094972797529165931 1.7863903391487629e-05 0 -0.094951194633922029 2.5473682482510269e-05 0 -0.094977510876164364 1.3516054928766982e-05 0 -0.094972797529165931 1.7863903391487629e-05 0 -0.094968030105900395 2.185687681162129e-05 0 -0.094951194633922029 2.5473682482510269e-05 0 -0.094968030105900395 2.185687681162129e-05 0 -0.094964027043204835 2.5046210611741287e-05 0 -0.094951194633922029 2.5473682482510269e-05 0 -0.094846716108022616 0.00087148584204349826 0 -0.093934299408523408 0.0023504285957036061 0 -0.094951194633922029 2.5473682482510269e-05 0 -0.094879298573154441 6.5283534613542324e-05 0 -0.094924066707571114 5.465822374531331e-05 0 -0.094964027043204835 2.5046210611741287e-05 0 -0.094951194633922029 2.5473682482510269e-05 0 -0.094960452673066478 2.2927395968954473e-05 0 -0.094410814284825867 0.0014175216557903243 0 -0.094032012027722683 0.0028454296547071106 0 -0.095893236973004364 0.0014274231190899553 0 -0.096788027463734133 0.0015087528649112534 0 -0.096485210817923023 0.0021212735420967758 0 -0.096788027463734133 0.0015087528649112534 0 -0.097253576654766666 0.0026591756093090253 0 -0.096485210817923023 0.0021212735420967758 0 -0.094410814284825867 0.0014175216557903243 0 -0.093934299408523408 0.0023504285957036061 0 -0.09495980051936094 3.6228117288257651e-05 0 -0.094963168677294998 4.4198333995396952e-05 0 -0.094949291530624022 5.9443298919783525e-05 0 -0.09495980051936094 3.6228117288257651e-05 0 -0.094942631009290235 4.8509462675729929e-05 0 -0.094949291530624022 5.9443298919783525e-05 0 -0.094942631009290235 4.8509462675729929e-05 0 -0.094951194633922029 2.5473682482510269e-05 0 -0.094924066707571114 5.465822374531331e-05 0 -0.09495980051936094 3.6228117288257651e-05 0 -0.094942631009290235 4.8509462675729929e-05 0 -0.094951194633922029 2.5473682482510269e-05 0 -0.094951194633922029 2.5473682482510269e-05 0 -0.094975089007386729 1.722557763174136e-05 0 -0.094977510876164364 1.3516054928766982e-05 0 -0.09495980051936094 3.6228117288257651e-05 0 -0.094951194633922029 2.5473682482510269e-05 0 -0.094975089007386729 1.722557763174136e-05 0 -0.094961282424702698 4.2239777538321487e-06 0 -0.094950970440544472 -1.1735792907046026e-06 0 -0.09495980051936094 3.6228117288257651e-05 0 -0.094975089007386729 1.722557763174136e-05 0 -0.094969143247460655 3.0729415732447277e-05 0 -0.094975089007386729 1.722557763174136e-05 0 -0.094991890894743067 4.7638073429987744e-06 0 -0.094993243167948785 6.9854057002635695e-06 0 -0.094975089007386729 1.722557763174136e-05 0 -0.094991890894743067 4.7638073429987744e-06 0 -0.094977510876164364 1.3516054928766982e-05 0 -0.094991890894743067 4.7638073429987744e-06 0 -0.094977510876164364 1.3516054928766982e-05 0 -0.094990915211905461 5.3427472243342899e-06 0 -0.094991890894743067 4.7638073429987744e-06 0 -0.094999983542586888 -2.8906196864461018e-09 0 -0.094990915211905461 5.3427472243342899e-06 0 -0.094999989324437178 2.0009185222996303e-08 0 -0.094999983542586888 -2.8906196864461018e-09 0 -0.094990915211905461 5.3427472243342899e-06 0 -0.094991890894743067 4.7638073429987744e-06 0 -0.094999983542586888 -2.8906196864461018e-09 0 -0.094999985885891577 1.3942667288026133e-08 0 -0.094991890894743067 4.7638073429987744e-06 0 -0.094999985885891577 1.3942667288026133e-08 0 -0.094995038718713426 4.2566278527120835e-06 0 -0.094999989906116647 2.4444858592570167e-09 0 -0.094993378759852656 1.8087563709194846e-07 0 -0.094999985885891577 1.3942667288026133e-08 0 -0.094995038718713426 4.2566278527120835e-06 0 -0.094990559131456265 8.2263965267345063e-06 0 -0.094999997973179484 1.2700268781769783e-09 0 -0.095000005499367574 -3.1296370090216059e-09 0 -0.095000245226834215 -7.0029840622167681e-07 0 -0.094995038718713426 4.2566278527120835e-06 0 -0.094990559131456265 8.2263965267345063e-06 0 -0.094991164861114655 4.6260795395809944e-06 0 -0.094995038718713426 4.2566278527120835e-06 0 -0.094991164861114655 4.6260795395809944e-06 0 -0.094993494350946672 4.6640324678575818e-06 0 -0.094991164861114655 4.6260795395809944e-06 0 -0.094988919713220321 1.1476985895093856e-06 0 -0.094993494350946672 4.6640324678575818e-06 0 -0.094991890894743067 4.7638073429987744e-06 0 -0.094995038718713426 4.2566278527120835e-06 0 -0.094993494350946672 4.6640324678575818e-06 0 -0.094991890894743067 4.7638073429987744e-06 0 -0.094993494350946672 4.6640324678575818e-06 0 -0.094993243167948785 6.9854057002635695e-06 0 -0.094999982982536937 5.652732203829886e-09 0 -0.094985059001598579 -2.4003654437026558e-06 0 -0.094998810826750907 -3.844903437050428e-06 0 -0.095000005499367574 -3.1296370090216059e-09 0 -0.095000245226834215 -7.0029840622167681e-07 0 -0.094998810826750907 -3.844903437050428e-06 0 -0.094990559131456265 8.2263965267345063e-06 0 -0.094991164861114655 4.6260795395809944e-06 0 -0.094976882829370668 6.2715521909972092e-06 0 -0.095000005499367574 -3.1296370090216059e-09 0 -0.094999982982536937 5.652732203829886e-09 0 -0.094998810826750907 -3.844903437050428e-06 0 -0.094993378759852656 1.8087563709194846e-07 0 -0.094987027302569277 -4.4135230026276698e-07 0 -0.094991164861114655 4.6260795395809944e-06 0 -0.094988919713220321 1.1476985895093856e-06 0 -0.094976882829370668 6.2715521909972092e-06 0 -0.094988919713220321 1.1476985895093856e-06 0 -0.094976882829370668 6.2715521909972092e-06 0 -0.094977499974273419 -5.2184399139107147e-06 0 -0.094987027302569277 -4.4135230026276698e-07 0 -0.094981004029872224 -1.951903265904913e-06 0 -0.094976882829370668 6.2715521909972092e-06 0 -0.094966636600819138 -4.1602925977400738e-06 0 -0.094962111805171584 -3.8297895220156854e-06 0 -0.094985059001598579 -2.4003654437026558e-06 0 -0.094998810826750907 -3.844903437050428e-06 0 -0.094962111805171584 -3.8297895220156854e-06 0 -0.094976882829370668 6.2715521909972092e-06 0 -0.094966636600819138 -4.1602925977400738e-06 0 -0.094977499974273419 -5.2184399139107147e-06 0 -0.094967838349677106 -1.0876029502610033e-05 0 -0.094977499974273419 -5.2184399139107147e-06 0 -0.094974760092153901 -1.5545883612067112e-05 0 -0.094967838349677106 -1.0876029502610033e-05 0 -0.094966636600819138 -4.1602925977400738e-06 0 -0.094977499974273419 -5.2184399139107147e-06 0 -0.094988919713220321 1.1476985895093856e-06 0 -0.094977499974273419 -5.2184399139107147e-06 0 -0.09498737409306697 -6.7840536035262314e-06 0 -0.09498932958197305 4.9605541190106865e-05 0 -0.095002215413110574 4.4863642899178745e-05 0 -0.094983318652735529 3.8207710781977108e-05 0 -0.094606206129890708 -0.00014169990961668963 0 -0.094885029028315512 -3.041077275654724e-05 0 -0.094977499974273419 -5.2184399139107147e-06 0 -0.094974760092153901 -1.5545883612067112e-05 0 -0.09498737409306697 -6.7840536035262314e-06 0 -0.094693991473306593 9.9398251594533347e-05 0 -0.094735493645562066 0.0001491853266790504 0 -0.094837357204050274 0.00012016924690122126 0 -0.0948483940066919 3.5249480058868865e-05 0 -0.094783169122246033 9.4301869170183679e-05 0 -0.094875420569939098 7.5802335735719299e-05 0 -0.094606206129890708 -0.00014169990961668963 0 -0.094693622588802387 -9.059865653571276e-05 0 -0.094783169122246033 9.4301869170183679e-05 0 -0.094837357204050274 0.00012016924690122126 0 -0.094875420569939098 7.5802335735719299e-05 0 -0.094697943923040678 -0.00011825963052256289 0 -0.094606206129890708 -0.00014169990961668963 0 -0.094988919713220321 1.1476985895093856e-06 0 -0.094993243167948785 6.9854057002635695e-06 0 -0.09498737409306697 -6.7840536035262314e-06 0 -0.094950970440544472 -1.1735792907046026e-06 0 -0.094885029028315512 -3.041077275654724e-05 0 -0.094988919713220321 1.1476985895093856e-06 0 -0.094993494350946672 4.6640324678575818e-06 0 -0.094993243167948785 6.9854057002635695e-06 0 -0.09498932958197305 4.9605541190106865e-05 0 -0.094983318652735529 3.8207710781977108e-05 0 -0.094978072272244016 5.3443780375235809e-05 0 -0.094983318652735529 3.8207710781977108e-05 0 -0.094971411238388953 4.3281870524470246e-05 0 -0.094978072272244016 5.3443780375235809e-05 0 -0.094969143247460655 3.0729415732447277e-05 0 -0.094983318652735529 3.8207710781977108e-05 0 -0.094971411238388953 4.3281870524470246e-05 0 -0.094969143247460655 3.0729415732447277e-05 0 -0.094971411238388953 4.3281870524470246e-05 0 -0.094963168677294998 4.4198333995396952e-05 0 -0.094971411238388953 4.3281870524470246e-05 0 -0.094963168677294998 4.4198333995396952e-05 0 -0.094963627830382757 5.9847846921708035e-05 0 -0.09495980051936094 3.6228117288257651e-05 0 -0.094969143247460655 3.0729415732447277e-05 0 -0.094963168677294998 4.4198333995396952e-05 0 -0.094963168677294998 4.4198333995396952e-05 0 -0.094963627830382757 5.9847846921708035e-05 0 -0.094949291530624022 5.9443298919783525e-05 0 -0.094963627830382757 5.9847846921708035e-05 0 -0.094951376820780434 7.6509900772515736e-05 0 -0.094959976910731672 7.8434703774980907e-05 0 -0.094963627830382757 5.9847846921708035e-05 0 -0.094951376820780434 7.6509900772515736e-05 0 -0.094949291530624022 5.9443298919783525e-05 0 -0.094963627830382757 5.9847846921708035e-05 0 -0.094969548202578025 7.2997754788975956e-05 0 -0.094959976910731672 7.8434703774980907e-05 0 -0.094971411238388953 4.3281870524470246e-05 0 -0.094963627830382757 5.9847846921708035e-05 0 -0.094978072272244016 5.3443780375235809e-05 0 -0.094978072272244016 5.3443780375235809e-05 0 -0.094969548202578025 7.2997754788975956e-05 0 -0.094987679586497648 6.5066315482367149e-05 0 -0.09498932958197305 4.9605541190106865e-05 0 -0.094978072272244016 5.3443780375235809e-05 0 -0.094987679586497648 6.5066315482367149e-05 0 -0.094963627830382757 5.9847846921708035e-05 0 -0.094978072272244016 5.3443780375235809e-05 0 -0.094969548202578025 7.2997754788975956e-05 0 -0.094852341693307113 7.445235601300686e-05 0 -0.094685323533814744 0.00019639396046907464 0 -0.09472412811979386 0.00010828630113785551 0 -0.094969548202578025 7.2997754788975956e-05 0 -0.094966202975581893 9.358984960344077e-05 0 -0.094987679586497648 6.5066315482367149e-05 0 -0.091975775741496499 -0.00038405249191455918 0 -0.093812246143095579 -0.00040248075495854759 0 -0.094969548202578025 7.2997754788975956e-05 0 -0.094966202975581893 9.358984960344077e-05 0 -0.094960209851573787 9.2226226747843477e-05 0 -0.091975775741496499 -0.00038405249191455918 0 -0.092079940302096583 -0.00035063148966684723 0 -0.094966462877507346 9.5082799174614257e-05 0 -0.094960209851573787 9.2226226747843477e-05 0 -0.094951622624333376 9.7668937602207951e-05 0 -0.094960209851573787 9.2226226747843477e-05 0 -0.094953209780593809 8.743754181240314e-05 0 -0.094959976910731672 7.8434703774980907e-05 0 -0.094960209851573787 9.2226226747843477e-05 0 -0.094953209780593809 8.743754181240314e-05 0 -0.094951622624333376 9.7668937602207951e-05 0 -0.094953209780593809 8.743754181240314e-05 0 -0.094951376820780434 7.6509900772515736e-05 0 -0.094942900849953035 9.320842443389411e-05 0 -0.094953209780593809 8.743754181240314e-05 0 -0.094951622624333376 9.7668937602207951e-05 0 -0.094942900849953035 9.320842443389411e-05 0 -0.094953209780593809 8.743754181240314e-05 0 -0.094951376820780434 7.6509900772515736e-05 0 -0.094959976910731672 7.8434703774980907e-05 0 -0.094969548202578025 7.2997754788975956e-05 0 -0.094960209851573787 9.2226226747843477e-05 0 -0.094959976910731672 7.8434703774980907e-05 0 -0.094693991473306593 9.9398251594533347e-05 0 -0.094735493645562066 0.0001491853266790504 0 -0.094687939578332631 0.00017502159328492597 0 -0.094745037885336059 0.00019623956227274707 0 -0.094735493645562066 0.0001491853266790504 0 -0.094837357204050274 0.00012016924690122126 0 -0.094745037885336059 0.00019623956227274707 0 -0.094735493645562066 0.0001491853266790504 0 -0.094687939578332631 0.00017502159328492597 0 -0.094606206129890708 -0.00014169990961668963 0 -0.093812246143095579 -0.00040248075495854759 0 -0.09498932958197305 4.9605541190106865e-05 0 -0.095002215413110574 4.4863642899178745e-05 0 -0.094987679586497648 6.5066315482367149e-05 0 -0.094693991473306593 9.9398251594533347e-05 0 -0.094687939578332631 0.00017502159328492597 0 -0.094685323533814744 0.00019639396046907464 0 -0.094687939578332631 0.00017502159328492597 0 -0.094685323533814744 0.00019639396046907464 0 -0.094611364249928567 0.0001533407477810205 0 -0.094685323533814744 0.00019639396046907464 0 -0.09472412811979386 0.00010828630113785551 0 -0.094611364249928567 0.0001533407477810205 0 -0.09472412811979386 0.00010828630113785551 0 -0.094611364249928567 0.0001533407477810205 0 -0.094732449858316373 -1.8869291558746867e-05 0 -0.094745037885336059 0.00019623956227274707 0 -0.094687939578332631 0.00017502159328492597 0 -0.094611364249928567 0.0001533407477810205 0 -0.094219000381586926 0.00055827752324613168 0 -0.094611364249928567 0.0001533407477810205 0 -0.094213614150821703 8.1789822544143934e-05 0 -0.094367123768256414 0.00026474439274146199 0 -0.094445398738905825 0.00021180206971453314 0 -0.094180672711312807 -0.00020461437604137367 0 -0.094469090056963675 -0.00025085664430888981 0 -0.093893060557085781 -0.00048835393049231326 0 -0.094611364249928567 0.0001533407477810205 0 -0.094213614150821703 8.1789822544143934e-05 0 -0.094464012002455286 -0.00021174694661655515 0 -0.094213614150821703 8.1789822544143934e-05 0 -0.094180672711312807 -0.00020461437604137367 0 -0.094464012002455286 -0.00021174694661655515 0 -0.090975185486339594 -0.0012272071853277457 0 -0.090361373773258438 -0.0011973364168779491 0 -0.090631268949620911 -0.00093347886749567399 0 -0.090323420537349181 -0.0010456300988642801 0 -0.090148831804756011 -0.00084360829499340495 0 -0.090361373773258438 -0.0011973364168779491 0 -0.088273974663674648 -0.0010054047622592122 0 -0.090361373773258438 -0.0011973364168779491 0 -0.091625717929838355 -0.00064576135217871969 0 -0.094611364249928567 0.0001533407477810205 0 -0.094464012002455286 -0.00021174694661655515 0 -0.094732449858316373 -1.8869291558746867e-05 0 -0.085377279661396424 -0.0038218142065878846 0 -0.084632687461011796 -0.0038093730137934859 0 -0.085012826544493977 -0.0033385678649025369 0 -0.090361373773258438 -0.0011973364168779491 0 -0.089968255369824127 -0.0017811559267160804 0 -0.085377279661396424 -0.0038218142065878846 0 -0.085925763653645751 -0.0034625032130495221 0 -0.085692725950307941 -0.0031405706289619108 0 -0.085377279661396424 -0.0038218142065878846 0 -0.085692725950307941 -0.0031405706289619108 0 -0.085012826544493977 -0.0033385678649025369 0 -0.094966462877507346 9.5082799174614257e-05 0 -0.094951622624333376 9.7668937602207951e-05 0 -0.094938053797389788 0.00011256719280294407 0 -0.090014481143676772 -0.001161639317381259 0 -0.090148831804756011 -0.00084360829499340495 0 -0.0896611451038722 -0.00075587020920162516 0 -0.091975775741496499 -0.00038405249191455918 0 -0.08844493068176866 -0.00036231724868984733 0 -0.094966462877507346 9.5082799174614257e-05 0 -0.09493096091196622 0.00013579229489729848 0 -0.094938053797389788 0.00011256719280294407 0 -0.094951622624333376 9.7668937602207951e-05 0 -0.094938053797389788 0.00011256719280294407 0 -0.094942900849953035 9.320842443389411e-05 0 -0.090014481143676772 -0.001161639317381259 0 -0.090323420537349181 -0.0010456300988642801 0 -0.090148831804756011 -0.00084360829499340495 0 -0.091975775741496499 -0.00038405249191455918 0 -0.091625717929838355 -0.00064576135217871969 0 -0.094852341693307113 7.445235601300686e-05 0 -0.09472412811979386 0.00010828630113785551 0 -0.094732449858316373 -1.8869291558746867e-05 0 -0.084632687461011796 -0.0038093730137934859 0 -0.084340901691632164 -0.0032499731749781541 0 -0.085012826544493977 -0.0033385678649025369 0 -0.084632687461011796 -0.0038093730137934859 0 -0.083851181231761995 -0.0037191628629383777 0 -0.084340901691632164 -0.0032499731749781541 0 -0.088273974663674648 -0.0010054047622592122 0 -0.08844493068176866 -0.00036231724868984733 0 -0.086215065654389508 9.0731980541413428e-05 0 -0.084909260751030197 0.00031830833995026342 0 -0.085280000864563305 0.0011631110047608548 0 -0.08844493068176866 -0.00036231724868984733 0 -0.088358689326520551 0.0010269935217349104 0 -0.08844493068176866 -0.00036231724868984733 0 -0.084778902327597938 -8.8576657135226348e-05 0 -0.09493096091196622 0.00013579229489729848 0 -0.094906812937045337 0.00012034765206056626 0 -0.094899425237218143 0.00014485185590020893 0 -0.094938053797389788 0.00011256719280294407 0 -0.094926564842127775 0.0001012720441530774 0 -0.094906812937045337 0.00012034765206056626 0 -0.09493096091196622 0.00013579229489729848 0 -0.094938053797389788 0.00011256719280294407 0 -0.094906812937045337 0.00012034765206056626 0 -0.094938053797389788 0.00011256719280294407 0 -0.094926564842127775 0.0001012720441530774 0 -0.094942900849953035 9.320842443389411e-05 0 -0.094906812937045337 0.00012034765206056626 0 -0.094873862689369912 0.00010881783402903213 0 -0.094912301549294517 9.3626709894846033e-05 0 -0.094926564842127775 0.0001012720441530774 0 -0.094906812937045337 0.00012034765206056626 0 -0.094912301549294517 9.3626709894846033e-05 0 -0.088358689326520551 0.0010269935217349104 0 -0.086293568529989706 0.0028948190888446767 0 -0.094906812937045337 0.00012034765206056626 0 -0.094899425237218143 0.00014485185590020893 0 -0.094863243812801146 0.00015293922038452573 0 -0.084909260751030197 0.00031830833995026342 0 -0.084207484889593398 0.00065445566533066607 0 -0.083617782990362322 0.00054975449771856998 0 -0.084692248302421294 0.00085511100930454453 0 -0.084909260751030197 0.00031830833995026342 0 -0.085280000864563305 0.0011631110047608548 0 -0.084692248302421294 0.00085511100930454453 0 -0.084909260751030197 0.00031830833995026342 0 -0.084207484889593398 0.00065445566533066607 0 -0.084207484889593398 0.00065445566533066607 0 -0.083617782990362322 0.00054975449771856998 0 -0.083651349353131912 0.0007007789755392132 0 -0.082005844513371395 0.0052930293141097888 0 -0.08368942724034753 0.0051691032641867926 0 -0.081774730649931335 0.0042517625369994996 0 -0.084207484889593398 0.00065445566533066607 0 -0.083647136329180041 0.00069605573029429509 0 -0.08372268349238815 0.0010389455375942897 0 -0.097076417635790849 0.0077812060786472933 0 -0.09678160603650672 0.0075004864775623939 0 -0.096908874643235138 0.0071878578438173543 0 -0.086293568529989706 0.0028948190888446767 0 -0.090519266228915332 0.0047300279203206412 0 -0.084875668132026016 0.0024998552556817627 0 -0.084947526985405808 0.0025386700336681553 0 -0.084947526985405808 0.0025386700336681553 0 -0.083018056774890409 0.002377470072979955 0 -0.097076417635790849 0.0077812060786472933 0 -0.097088490181218012 0.0078461433257646981 0 -0.096840568749203645 0.0078665485260805083 0 -0.086293568529989706 0.0028948190888446767 0 -0.084947526985405808 0.0025386700336681553 0 -0.097076417635790849 0.0077812060786472933 0 -0.096797809837218876 0.0078164883059102554 0 -0.096719994965901987 0.0076756386337294728 0 -0.097076417635790849 0.0077812060786472933 0 -0.096840568749203645 0.0078665485260805083 0 -0.096797809837218876 0.0078164883059102554 0 -0.084947526985405808 0.0025386700336681553 0 -0.082324681846153769 0.0032882083599316196 0 -0.082324681846153769 0.0032882083599316196 0 -0.082393495936403341 0.0033473954312887464 0 -0.097076417635790849 0.0077812060786472933 0 -0.09678160603650672 0.0075004864775623939 0 -0.096719994965901987 0.0076756386337294728 0 -0.095912986623887558 0.008084383103486031 0 -0.096841791244258055 0.0078617777517832853 0 -0.096530749457810969 0.0077570813973626201 0 -0.080153974985240656 0.0075257080073578729 0 -0.082324681846153769 0.0032882083599316196 0 -0.095912986623887558 0.008084383103486031 0 -0.096530749457810969 0.0077570813973626201 0 -0.096273117669878561 0.0075396627121787881 0 -0.096797809837218876 0.0078164883059102554 0 -0.096530749457810969 0.0077570813973626201 0 -0.096719994965901987 0.0076756386337294728 0 -0.096841791244258055 0.0078617777517832853 0 -0.096797809837218876 0.0078164883059102554 0 -0.096530749457810969 0.0077570813973626201 0 -0.096530749457810969 0.0077570813973626201 0 -0.096622077258774794 0.0075581068210503572 0 -0.096719994965901987 0.0076756386337294728 0 -0.09678160603650672 0.0075004864775623939 0 -0.096622077258774794 0.0075581068210503572 0 -0.096719994965901987 0.0076756386337294728 0 -0.09678160603650672 0.0075004864775623939 0 -0.096657317727675746 0.0074383495587771941 0 -0.096707393182351262 0.0073132302631404179 0 -0.09678160603650672 0.0075004864775623939 0 -0.096622077258774794 0.0075581068210503572 0 -0.096657317727675746 0.0074383495587771941 0 -0.096622077258774794 0.0075581068210503572 0 -0.096657317727675746 0.0074383495587771941 0 -0.09651691481317938 0.0073813695359402545 0 -0.096622077258774794 0.0075581068210503572 0 -0.096273117669878561 0.0075396627121787881 0 -0.09651691481317938 0.0073813695359402545 0 -0.096530749457810969 0.0077570813973626201 0 -0.096622077258774794 0.0075581068210503572 0 -0.096273117669878561 0.0075396627121787881 0 -0.096618556877266476 0.0069281836282630302 0 -0.09676433415553333 0.0071576308124812697 0 -0.096710614712464629 0.0065374267609790331 0 -0.093695736035983454 0.0057720768947681919 0 -0.093291885345231848 0.0050631656542942877 0 -0.096273117669878561 0.0075396627121787881 0 -0.096244502628931583 0.0071778730236772203 0 -0.09651691481317938 0.0073813695359402545 0 -0.096244502628931583 0.0071778730236772203 0 -0.096554258051756103 0.0071591774981352987 0 -0.09651691481317938 0.0073813695359402545 0 -0.096554258051756103 0.0071591774981352987 0 -0.09651691481317938 0.0073813695359402545 0 -0.096707393182351262 0.0073132302631404179 0 -0.096657317727675746 0.0074383495587771941 0 -0.09651691481317938 0.0073813695359402545 0 -0.096707393182351262 0.0073132302631404179 0 -0.096554258051756103 0.0071591774981352987 0 -0.096707393182351262 0.0073132302631404179 0 -0.09676433415553333 0.0071576308124812697 0 -0.096554258051756103 0.0071591774981352987 0 -0.096618556877266476 0.0069281836282630302 0 -0.09676433415553333 0.0071576308124812697 0 -0.096618556877266476 0.0069281836282630302 0 -0.09643925116070394 0.0069485325456337468 0 -0.096510903608140547 0.0066689840686394684 0 -0.096554258051756103 0.0071591774981352987 0 -0.096618556877266476 0.0069281836282630302 0 -0.09643925116070394 0.0069485325456337468 0 -0.096244502628931583 0.0071778730236772203 0 -0.096554258051756103 0.0071591774981352987 0 -0.09643925116070394 0.0069485325456337468 0 -0.096157899491812249 0.006634151184029006 0 -0.096244502628931583 0.0071778730236772203 0 -0.09643925116070394 0.0069485325456337468 0 -0.090760125286491675 0.0034003996385598362 0 -0.090751834011397761 0.0031416645429061412 0 -0.090952122731499066 0.0036459022241926244 0 -0.090523846189748777 0.002640288573889071 0 -0.090760125286491675 0.0034003996385598362 0 -0.090751834011397761 0.0031416645429061412 0 -0.09676433415553333 0.0071576308124812697 0 -0.096908874643235138 0.0071878578438173543 0 -0.096683541766983627 0.0064679807226023633 0 -0.086293568529989706 0.0028948190888446767 0 -0.090720769239576449 0.0023103403701145854 0 -0.090519266228915332 0.0047300279203206412 0 -0.093291885345231848 0.0050631656542942877 0 -0.094906812937045337 0.00012034765206056626 0 -0.094863243812801146 0.00015293922038452573 0 -0.094873862689369912 0.00010881783402903213 0 -0.09678160603650672 0.0075004864775623939 0 -0.096707393182351262 0.0073132302631404179 0 -0.096908874643235138 0.0071878578438173543 0 -0.096707393182351262 0.0073132302631404179 0 -0.09676433415553333 0.0071576308124812697 0 -0.096908874643235138 0.0071878578438173543 0 -0.090760125286491675 0.0034003996385598362 0 -0.090952122731499066 0.0036459022241926244 0 -0.090976256527422139 0.0041589918355242088 0 -0.090720769239576449 0.0023103403701145854 0 -0.093934299408523408 0.0023504285957036061 0 -0.094873862689369912 0.00010881783402903213 0 -0.094904852723514052 7.9014840590978334e-05 0 -0.094912301549294517 9.3626709894846033e-05 0 -0.094873862689369912 0.00010881783402903213 0 -0.094904852723514052 7.9014840590978334e-05 0 -0.094879298573154441 6.5283534613542324e-05 0 -0.096157899491812249 0.006634151184029006 0 -0.09662793734728034 0.0062926670072231509 0 -0.096641841752208898 0.0059662586097863424 0 -0.09481094681741023 0.0044643832378561087 0 -0.094032012027722683 0.0028454296547071106 0 -0.096157899491812249 0.006634151184029006 0 -0.09643925116070394 0.0069485325456337468 0 -0.096510903608140547 0.0066689840686394684 0 -0.096157899491812249 0.006634151184029006 0 -0.096510903608140547 0.0066689840686394684 0 -0.09662793734728034 0.0062926670072231509 0 -0.096618556877266476 0.0069281836282630302 0 -0.096510903608140547 0.0066689840686394684 0 -0.096710614712464629 0.0065374267609790331 0 -0.096703679255691344 0.0065318065827139008 0 -0.09662793734728034 0.0062926670072231509 0 -0.096641841752208898 0.0059662586097863424 0 -0.096510903608140547 0.0066689840686394684 0 -0.096710614712464629 0.0065374267609790331 0 -0.09662793734728034 0.0062926670072231509 0 -0.093291885345231848 0.0050631656542942877 0 -0.094032012027722683 0.0028454296547071106 0 -0.093291885345231848 0.0050631656542942877 0 -0.093387073625448333 0.0051970764403320583 0 -0.096461647792940752 0.0028234985366255077 0 -0.096798096652769339 0.0039910885083960243 0 -0.097253576654766666 0.0026591756093090253 0 -0.094309897851261038 0.0016917466285249936 0 -0.094369520013828936 0.002287266286828992 0 -0.094422939890734664 0.0022164889285284251 0 -0.090952122731499066 0.0036459022241926244 0 -0.091024300407462372 0.0040914771578679241 0 -0.090976256527422139 0.0041589918355242088 0 -0.094032012027722683 0.0028454296547071106 0 -0.093934299408523408 0.0023504285957036061 0 -0.096461647792940752 0.0028234985366255077 0 -0.097253576654766666 0.0026591756093090253 0 -0.096485210817923023 0.0021212735420967758 0 -0.094904852723514052 7.9014840590978334e-05 0 -0.094879298573154441 6.5283534613542324e-05 0 -0.094924066707571114 5.465822374531331e-05 0 -0.094904852723514052 7.9014840590978334e-05 0 -0.094924066707571114 5.465822374531331e-05 0 -0.094929481721208187 7.0340159055079729e-05 0 -0.094942631009290235 4.8509462675729929e-05 0 -0.094924066707571114 5.465822374531331e-05 0 -0.094929481721208187 7.0340159055079729e-05 0 -0.094942631009290235 4.8509462675729929e-05 0 -0.094929481721208187 7.0340159055079729e-05 0 -0.094949291530624022 5.9443298919783525e-05 0 -0.094951376820780434 7.6509900772515736e-05 0 -0.094949291530624022 5.9443298919783525e-05 0 -0.094935709955938613 8.1890563465164207e-05 0 -0.094929481721208187 7.0340159055079729e-05 0 -0.094949291530624022 5.9443298919783525e-05 0 -0.094935709955938613 8.1890563465164207e-05 0 -0.094951376820780434 7.6509900772515736e-05 0 -0.094935709955938613 8.1890563465164207e-05 0 -0.094942900849953035 9.320842443389411e-05 0 -0.094926564842127775 0.0001012720441530774 0 -0.094935709955938613 8.1890563465164207e-05 0 -0.094942900849953035 9.320842443389411e-05 0 -0.094926564842127775 0.0001012720441530774 0 -0.094935709955938613 8.1890563465164207e-05 0 -0.094912301549294517 9.3626709894846033e-05 0 -0.094904852723514052 7.9014840590978334e-05 0 -0.094929481721208187 7.0340159055079729e-05 0 -0.094912301549294517 9.3626709894846033e-05 0 -0.094929481721208187 7.0340159055079729e-05 0 -0.094935709955938613 8.1890563465164207e-05 0 -0.094912301549294517 9.3626709894846033e-05 0 -0.094994685488199379 3.9885443399944599e-06 0 -0.092067854007263319 0.00065231999020662714 0 -0.085229195377870604 9.7495291579071611e-05 0 -0.094994685488199379 3.9885443399944599e-06 0 -0.079339976214636496 -3.665216844475123e-06 0 -0.085229195377870604 9.7495291579071611e-05 0 -0.092067854007263319 0.00065231999020662714 0 -0.089572357141042724 0.00057236331494200791 0 -0.085229195377870604 9.7495291579071611e-05 0 -0.085397792639433034 0.0020256877863201669 0 -0.082997575888224429 0.0013877496373304438 0 -0.094994685488199379 3.9885443399944599e-06 0 -0.092067854007263319 0.00065231999020662714 0 -0.094987616996879784 -2.3812027433032878e-06 0 -0.092067854007263319 0.00065231999020662714 0 -0.091950350056826724 0.00081417580261368124 0 -0.09003068987000136 0.0019524957647121498 0 -0.092067854007263319 0.00065231999020662714 0 -0.094987616996879784 -2.3812027433032878e-06 0 -0.091950350056826724 0.00081417580261368124 0 -0.094996775198272515 1.2709966395995587e-06 0 -0.093079415372353633 0.0011497478406754533 0 -0.094987616996879784 -2.3812027433032878e-06 0 -0.091950350056826724 0.00081417580261368124 0 -0.089501918714715425 0.00086160156777713198 0 -0.091950350056826724 0.00081417580261368124 0 -0.09003068987000136 0.0019524957647121498 0 -0.089501918714715425 0.00086160156777713198 0 -0.09003068987000136 0.0019524957647121498 0 -0.087900297109468867 0.00253716289041566 0 -0.088444475426879457 0.0023395094488342341 0 -0.086291620332188831 0.0021825368640050213 0 -0.085397792639433034 0.0020256877863201669 0 -0.092067854007263319 0.00065231999020662714 0 -0.09003068987000136 0.0019524957647121498 0 -0.089572357141042724 0.00057236331494200791 0 -0.085192703406570147 0.0031410281761372763 0 -0.087900297109468867 0.00253716289041566 0 -0.084523478056420062 0.0016049189004886831 0 -0.09003068987000136 0.0019524957647121498 0 -0.085192703406570147 0.0031410281761372763 0 -0.087900297109468867 0.00253716289041566 0 -0.087900297109468867 0.00253716289041566 0 -0.087294505566425706 0.0028857116374870016 0 -0.088444475426879457 0.0023395094488342341 0 -0.087900297109468867 0.00253716289041566 0 -0.087294505566425706 0.0028857116374870016 0 -0.087456485922328742 0.0014066247215835375 0 -0.087294505566425706 0.0028857116374870016 0 -0.087270699296776444 0.0024648775913273407 0 -0.088444475426879457 0.0023395094488342341 0 -0.092346401133678563 0.0015095611341272579 0 -0.092909489149766752 0.0011391539975241054 0 -0.087294505566425706 0.0028857116374870016 0 -0.087270699296776444 0.0024648775913273407 0 -0.087450274350588941 0.0027665685902889983 0 -0.094994304351058462 6.7606025055123249e-05 0 -0.094980785707319562 4.0947193445941407e-05 0 -0.095005605762250631 1.4290274053982985e-05 0 -0.094994304351058462 6.7606025055123249e-05 0 -0.094980785707319562 4.0947193445941407e-05 0 -0.094910577724890421 9.1313164795420336e-05 0 -0.09003068987000136 0.0019524957647121498 0 -0.088444475426879457 0.0023395094488342341 0 -0.089501918714715425 0.00086160156777713198 0 -0.087270699296776444 0.0024648775913273407 0 -0.088444475426879457 0.0023395094488342341 0 -0.089501918714715425 0.00086160156777713198 0 -0.092346401133678563 0.0015095611341272579 0 -0.093079415372353633 0.0011497478406754533 0 -0.095000008302094596 9.5483311280098524e-10 0 -0.095005605762250631 1.4290274053982985e-05 0 -0.095000003788356227 6.7852913048645808e-09 0 -0.095000003788356227 6.7852913048645808e-09 0 -0.094991344989140067 1.2048832506370175e-05 0 -0.09499995670717977 3.1430613464613252e-09 0 -0.095005605762250631 1.4290274053982985e-05 0 -0.095000003788356227 6.7852913048645808e-09 0 -0.094991344989140067 1.2048832506370175e-05 0 -0.094980785707319562 4.0947193445941407e-05 0 -0.095005605762250631 1.4290274053982985e-05 0 -0.094991344989140067 1.2048832506370175e-05 0 -0.094980785707319562 4.0947193445941407e-05 0 -0.094991344989140067 1.2048832506370175e-05 0 -0.094974941184123501 2.2457580388822325e-05 0 -0.094976618344911626 -9.8275257274127983e-06 0 -0.094973673761638205 -5.3098631506153035e-06 0 -0.094956257750317755 9.0175895120746066e-07 0 -0.094976618344911626 -9.8275257274127983e-06 0 -0.094999953733335613 -9.3572833740120796e-09 0 -0.094985680736084516 -3.7231685040522093e-06 0 -0.094991344989140067 1.2048832506370175e-05 0 -0.094974941184123501 2.2457580388822325e-05 0 -0.09499995670717977 3.1430613464613252e-09 0 -0.094586335057127408 8.6697111674207899e-05 0 -0.094999174118410856 9.4532113710334511e-08 0 -0.094999982982536937 5.652732203829886e-09 0 -0.094999953733335613 -9.3572833740120796e-09 0 -0.094985680736084516 -3.7231685040522093e-06 0 -0.094999982982536937 5.652732203829886e-09 0 -0.094985059001598579 -2.4003654437026558e-06 0 -0.094985680736084516 -3.7231685040522093e-06 0 -0.094985059001598579 -2.4003654437026558e-06 0 -0.094973673761638205 -5.3098631506153035e-06 0 -0.094962111805171584 -3.8297895220156854e-06 0 -0.094985059001598579 -2.4003654437026558e-06 0 -0.094985680736084516 -3.7231685040522093e-06 0 -0.094973673761638205 -5.3098631506153035e-06 0 -0.094976618344911626 -9.8275257274127983e-06 0 -0.094985680736084516 -3.7231685040522093e-06 0 -0.094973673761638205 -5.3098631506153035e-06 0 -0.094973673761638205 -5.3098631506153035e-06 0 -0.094962111805171584 -3.8297895220156854e-06 0 -0.094956257750317755 9.0175895120746066e-07 0 -0.094950762013970416 -4.7781942473414731e-06 0 -0.094962111805171584 -3.8297895220156854e-06 0 -0.094956257750317755 9.0175895120746066e-07 0 -0.094966636600819138 -4.1602925977400738e-06 0 -0.094950762013970416 -4.7781942473414731e-06 0 -0.094962111805171584 -3.8297895220156854e-06 0 -0.094967838349677106 -1.0876029502610033e-05 0 -0.094966636600819138 -4.1602925977400738e-06 0 -0.094950762013970416 -4.7781942473414731e-06 0 -0.094697943923040678 -0.00011825963052256289 0 -0.094728287686309809 -0.00011204429574272745 0 -0.0948483940066919 3.5249480058868865e-05 0 -0.094924959708403214 3.816826601463229e-05 0 -0.094875420569939098 7.5802335735719299e-05 0 -0.0948483940066919 3.5249480058868865e-05 0 -0.094950762013970416 -4.7781942473414731e-06 0 -0.094924959708403214 3.816826601463229e-05 0 -0.094950762013970416 -4.7781942473414731e-06 0 -0.094924959708403214 3.816826601463229e-05 0 -0.094956257750317755 9.0175895120746066e-07 0 -0.094980785707319562 4.0947193445941407e-05 0 -0.094974941184123501 2.2457580388822325e-05 0 -0.094967323735331982 5.3247715934896606e-05 0 -0.094586335057127408 8.6697111674207899e-05 0 -0.093993340628269112 0.00031116012208422055 0 -0.094976618344911626 -9.8275257274127983e-06 0 -0.094956257750317755 9.0175895120746066e-07 0 -0.094980276653771706 4.6451178788498518e-05 0 -0.094230810783289848 0.00014620427164708681 0 -0.093993340628269112 0.00031116012208422055 0 -0.094924959708403214 3.816826601463229e-05 0 -0.094956257750317755 9.0175895120746066e-07 0 -0.094980276653771706 4.6451178788498518e-05 0 -0.094994304351058462 6.7606025055123249e-05 0 -0.094910577724890421 9.1313164795420336e-05 0 -0.094912638385909312 0.00019391861702106842 0 -0.093993340628269112 0.00031116012208422055 0 -0.092909489149766752 0.0011391539975241054 0 -0.093457742862694287 0.0012926409278659035 0 -0.093832629829231476 0.00092888701823212348 0 -0.093433001029569376 0.0008329756768599147 0 -0.093993340628269112 0.00031116012208422055 0 -0.094202746923741004 0.00032729428872978341 0 -0.094924959708403214 3.816826601463229e-05 0 -0.094902995680713156 0.00011904534664587078 0 -0.094875420569939098 7.5802335735719299e-05 0 -0.094924959708403214 3.816826601463229e-05 0 -0.094980276653771706 4.6451178788498518e-05 0 -0.094902995680713156 0.00011904534664587078 0 -0.094902995680713156 0.00011904534664587078 0 -0.094837357204050274 0.00012016924690122126 0 -0.094875420569939098 7.5802335735719299e-05 0 -0.093835414568899975 0.00063481453194490732 0 -0.093433001029569376 0.0008329756768599147 0 -0.093862880707323487 0.00021838764477944472 0 -0.094219000381586926 0.00055827752324613168 0 -0.093832629829231476 0.00092888701823212348 0 -0.093835414568899975 0.00063481453194490732 0 -0.094745037885336059 0.00019623956227274707 0 -0.094902995680713156 0.00011904534664587078 0 -0.094837357204050274 0.00012016924690122126 0 -0.094367123768256414 0.00026474439274146199 0 -0.094202746923741004 0.00032729428872978341 0 -0.093832629829231476 0.00092888701823212348 0 -0.093835414568899975 0.00063481453194490732 0 -0.093433001029569376 0.0008329756768599147 0 -0.092909489149766752 0.0011391539975241054 0 -0.093389955537802716 0.00057773833995767904 0 -0.092909489149766752 0.0011391539975241054 0 -0.091180419692237391 0.0001106371731310458 0 -0.093393550729768612 0.00087949694186402472 0 -0.093354160726994706 7.7908257701304035e-05 0 -0.093862880707323487 0.00021838764477944472 0 -0.094219000381586926 0.00055827752324613168 0 -0.093835414568899975 0.00063481453194490732 0 -0.093862880707323487 0.00021838764477944472 0 -0.094219000381586926 0.00055827752324613168 0 -0.094213614150821703 8.1789822544143934e-05 0 -0.093862880707323487 0.00021838764477944472 0 -0.094213614150821703 8.1789822544143934e-05 0 -0.094180672711312807 -0.00020461437604137367 0 -0.093835868220355431 -0.0001346141996823964 0 -0.093354160726994706 7.7908257701304035e-05 0 -0.093862880707323487 0.00021838764477944472 0 -0.093835868220355431 -0.0001346141996823964 0 -0.094213614150821703 8.1789822544143934e-05 0 -0.093862880707323487 0.00021838764477944472 0 -0.093835868220355431 -0.0001346141996823964 0 -0.094180672711312807 -0.00020461437604137367 0 -0.093835868220355431 -0.0001346141996823964 0 -0.093893060557085781 -0.00048835393049231326 0 -0.093835868220355431 -0.0001346141996823964 0 -0.093893060557085781 -0.00048835393049231326 0 -0.093304729588223764 -0.00071750643802019262 0 -0.089968255369824127 -0.0017811559267160804 0 -0.089988340927229765 -0.0021433005367855282 0 -0.085925763653645751 -0.0034625032130495221 0 -0.086322477578777868 -0.0028841403419602781 0 -0.086188584460805046 -0.0029273712165481412 0 -0.089988340927229765 -0.0021433005367855282 0 -0.08986934617758699 -0.002179735456156399 0 -0.086367662234858478 -0.0026924792916292908 0 -0.086348339454561288 -0.0027602719457536628 0 -0.086436208736593065 -0.0024234470905338461 0 -0.089988340927229765 -0.0021433005367855282 0 -0.089975321193508109 -0.0021528321463921136 0 -0.093354160726994706 7.7908257701304035e-05 0 -0.093835868220355431 -0.0001346141996823964 0 -0.093304729588223764 -0.00071750643802019262 0 -0.091180419692237391 0.0001106371731310458 0 -0.089988340927229765 -0.0021433005367855282 0 -0.087520685620394764 0.0008795399592210981 0 -0.085745128555113279 -0.0012986094234946821 0 -0.08526058452837447 0.00075950004454921661 0 -0.087520685620394764 0.0008795399592210981 0 -0.086983170131262361 -0.0021634883819500409 0 -0.085745128555113279 -0.0012986094234946821 0 -0.085745128555113279 -0.0012986094234946821 0 -0.084814325240703217 -0.0027359751124215888 0 -0.085699529130002797 -0.0025132005634773669 0 -0.085745128555113279 -0.0012986094234946821 0 -0.086436208736593065 -0.0024234470905338461 0 -0.085699529130002797 -0.0025132005634773669 0 -0.086983170131262361 -0.0021634883819500409 0 -0.085745128555113279 -0.0012986094234946821 0 -0.086436208736593065 -0.0024234470905338461 0 -0.085745128555113279 -0.0012986094234946821 0 -0.083916764070311969 -0.0008951578363708614 0 -0.084814325240703217 -0.0027359751124215888 0 -0.085745128555113279 -0.0012986094234946821 0 -0.08526058452837447 0.00075950004454921661 0 -0.083916764070311969 -0.0008951578363708614 0 -0.08526058452837447 0.00075950004454921661 0 -0.08651941051024567 0.0021708268232712826 0 -0.084112777260908392 0.0027699901384334079 0 -0.087450274350588941 0.0027665685902889983 0 -0.087520685620394764 0.0008795399592210981 0 -0.08651941051024567 0.0021708268232712826 0 -0.087520685620394764 0.0008795399592210981 0 -0.08526058452837447 0.00075950004454921661 0 -0.08651941051024567 0.0021708268232712826 0 -0.087294505566425706 0.0028857116374870016 0 -0.087450274350588941 0.0027665685902889983 0 -0.08651941051024567 0.0021708268232712826 0 -0.085397656735254179 0.0024111881223503411 0 -0.084505606378958403 0.0019973006702587834 0 -0.087294505566425706 0.0028857116374870016 0 -0.08651941051024567 0.0021708268232712826 0 -0.084112777260908392 0.0027699901384334079 0 -0.087900297109468867 0.00253716289041566 0 -0.087456485922328742 0.0014066247215835375 0 -0.084523478056420062 0.0016049189004886831 0 -0.087456485922328742 0.0014066247215835375 0 -0.084523478056420062 0.0016049189004886831 0 -0.082571642934041775 -0.00037962291003061969 0 -0.084505606378958403 0.0019973006702587834 0 -0.082306669481439054 0.00099912959104515886 0 -0.084112777260908392 0.0027699901384334079 0 -0.080974209617554568 0.0017978423695919829 0 -0.08317687063240381 0.00080113267511964798 0 -0.08526058452837447 0.00075950004454921661 0 -0.084112777260908392 0.0027699901384334079 0 -0.08317687063240381 0.00080113267511964798 0 -0.08526058452837447 0.00075950004454921661 0 -0.08317687063240381 0.00080113267511964798 0 -0.083916764070311969 -0.0008951578363708614 0 -0.08317687063240381 0.00080113267511964798 0 -0.083916764070311969 -0.0008951578363708614 0 -0.081300569386051069 -0.00070125834554309507 0 -0.083916764070311969 -0.0008951578363708614 0 -0.082571715009068528 -0.0023863242874161681 0 -0.084814325240703217 -0.0027359751124215888 0 -0.083916764070311969 -0.0008951578363708614 0 -0.081300569386051069 -0.00070125834554309507 0 -0.082571715009068528 -0.0023863242874161681 0 -0.081300569386051069 -0.00070125834554309507 0 -0.078973595463443846 -0.0035327009306116994 0 -0.082571715009068528 -0.0023863242874161681 0 -0.080974209617554568 0.0017978423695919829 0 -0.08317687063240381 0.00080113267511964798 0 -0.081300569386051069 -0.00070125834554309507 0 -0.082306669481439054 0.00099912959104515886 0 -0.080784020262581926 0.00031908142199355802 0 -0.080974209617554568 0.0017978423695919829 0 -0.081300569386051069 -0.00070125834554309507 0 -0.077396607417371921 0.00024258410988644606 0 -0.081300569386051069 -0.00070125834554309507 0 -0.077396607417371921 0.00024258410988644606 0 -0.078973595463443846 -0.0035327009306116994 0 -0.071456611883589302 -8.6862979445820119e-06 0 -0.077396607417371921 0.00024258410988644606 0 -0.078973595463443846 -0.0035327009306116994 0 -0.071456611883589302 -8.6862979445820119e-06 0 -0.075388196317909995 1.8578848145066381e-06 0 -0.077396607417371921 0.00024258410988644606 0 -0.075388196317909995 1.8578848145066381e-06 0 -0.077396607417371921 0.00024258410988644606 0 -0.079315428243322258 3.291343169604992e-06 0 -0.082571642934041775 -0.00037962291003061969 0 -0.079315428243322258 3.291343169604992e-06 0 -0.081523414075309386 0.0017026127965600855 0 -0.082571642934041775 -0.00037962291003061969 0 -0.077396607417371921 0.00024258410988644606 0 -0.079315428243322258 3.291343169604992e-06 0 -0.084523478056420062 0.0016049189004886831 0 -0.082571642934041775 -0.00037962291003061969 0 -0.081523414075309386 0.0017026127965600855 0 -0.085192703406570147 0.0031410281761372763 0 -0.084523478056420062 0.0016049189004886831 0 -0.081523414075309386 0.0017026127965600855 0 -0.079329318396547624 9.0893630426096871e-07 0 -0.082997575888224429 0.0013877496373304438 0 -0.061208030726211872 8.7962139209376803e-07 0 -0.060296220593726274 0.0003046675777687493 0 -0.057694367961620072 0.0007410857950647013 0 -0.060296220593726274 0.0003046675777687493 0 -0.057262521727043533 0.000886580804538318 0 -0.057694367961620072 0.0007410857950647013 0 -0.061208030726211872 8.7962139209376803e-07 0 -0.060296220593726274 0.0003046675777687493 0 -0.066328357063238225 2.0526029699510038e-06 0 -0.071436808637022356 -8.5145476779085364e-06 0 -0.066328357063238225 2.0526029699510038e-06 0 -0.062387473596106496 -0.0021846807322712472 0 -0.071445298952980976 -2.105641742514073e-06 0 -0.070518292696340301 -0.0011168147208191679 0 -0.060296220593726274 0.0003046675777687493 0 -0.066328357063238225 2.0526029699510038e-06 0 -0.062387473596106496 -0.0021846807322712472 0 -0.060296220593726274 0.0003046675777687493 0 -0.062387473596106496 -0.0021846807322712472 0 -0.057489725361987223 -0.0015661551054441105 0 -0.070518292696340301 -0.0011168147208191679 0 -0.070318514270433827 -0.0017119685244326847 0 -0.078973595463443846 -0.0035327009306116994 0 -0.082571715009068528 -0.0023863242874161681 0 -0.082869817709626079 -0.004183758814309272 0 -0.082571715009068528 -0.0023863242874161681 0 -0.082869817709626079 -0.004183758814309272 0 -0.084814325240703217 -0.0027359751124215888 0 -0.057489725361987223 -0.0015661551054441105 0 -0.057058637140944647 0.00014606434311164346 0 -0.055327725162553618 -0.00042540646940721798 0 -0.060296220593726274 0.0003046675777687493 0 -0.057489725361987223 -0.0015661551054441105 0 -0.057058637140944647 0.00014606434311164346 0 -0.060296220593726274 0.0003046675777687493 0 -0.057058637140944647 0.00014606434311164346 0 -0.057262521727043533 0.000886580804538318 0 -0.057058637140944647 0.00014606434311164346 0 -0.057262521727043533 0.000886580804538318 0 -0.05571982733592544 0.00076841681350868496 0 -0.057262521727043533 0.000886580804538318 0 -0.05571982733592544 0.00076841681350868496 0 -0.055620702836313457 0.001220981955819929 0 -0.05571982733592544 0.00076841681350868496 0 -0.05491715824576273 0.00073598525509389315 0 -0.054960595959850186 0.001191031123719496 0 -0.05491715824576273 0.00073598525509389315 0 -0.055327725162553618 -0.00042540646940721798 0 -0.05463178039253392 0.0001787471958994333 0 -0.070261165319573271 -0.0016489584192529046 0 -0.070095768735238526 -0.0012142614599596996 0 -0.057058637140944647 0.00014606434311164346 0 -0.05571982733592544 0.00076841681350868496 0 -0.055327725162553618 -0.00042540646940721798 0 -0.05571982733592544 0.00076841681350868496 0 -0.05491715824576273 0.00073598525509389315 0 -0.055327725162553618 -0.00042540646940721798 0 -0.082869817709626079 -0.004183758814309272 0 -0.085392579595685705 -0.0039241011855839798 0 -0.084814325240703217 -0.0027359751124215888 0 -0.070318514270433827 -0.0017119685244326847 0 -0.070261165319573271 -0.0016489584192529046 0 -0.084814325240703217 -0.0027359751124215888 0 -0.085699529130002797 -0.0025132005634773669 0 -0.086009674378520778 -0.0030345840583129065 0 -0.086190112826528928 -0.002766073988740003 0 -0.085699529130002797 -0.0025132005634773669 0 -0.086009674378520778 -0.0030345840583129065 0 -0.086436208736593065 -0.0024234470905338461 0 -0.086190112826528928 -0.002766073988740003 0 -0.085699529130002797 -0.0025132005634773669 0 -0.086348339454561288 -0.0027602719457536628 0 -0.086436208736593065 -0.0024234470905338461 0 -0.086190112826528928 -0.002766073988740003 0 -0.086190112826528928 -0.002766073988740003 0 -0.086009674378520778 -0.0030345840583129065 0 -0.086189014425770316 -0.0028550612719456152 0 -0.085392579595685705 -0.0039241011855839798 0 -0.086009674378520778 -0.0030345840583129065 0 -0.086098705637266321 -0.0030954559176383438 0 -0.085392579595685705 -0.0039241011855839798 0 -0.084814325240703217 -0.0027359751124215888 0 -0.086009674378520778 -0.0030345840583129065 0 -0.085392579595685705 -0.0039241011855839798 0 -0.086098705637266321 -0.0030954559176383438 0 -0.086107952497006784 -0.0029782529434565349 0 -0.086098705637266321 -0.0030954559176383438 0 -0.086004840610622607 -0.0029689439158252311 0 -0.086107952497006784 -0.0029782529434565349 0 -0.086098705637266321 -0.0030954559176383438 0 -0.086188584460805046 -0.0029273712165481412 0 -0.086004840610622607 -0.0029689439158252311 0 -0.086009674378520778 -0.0030345840583129065 0 -0.086188584460805046 -0.0029273712165481412 0 -0.086189014425770316 -0.0028550612719456152 0 -0.086009674378520778 -0.0030345840583129065 0 -0.086098705637266321 -0.0030954559176383438 0 -0.086188584460805046 -0.0029273712165481412 0 -0.086348339454561288 -0.0027602719457536628 0 -0.086188584460805046 -0.0029273712165481412 0 -0.086189014425770316 -0.0028550612719456152 0 -0.086322477578777868 -0.0028841403419602781 0 -0.086348339454561288 -0.0027602719457536628 0 -0.086188584460805046 -0.0029273712165481412 0 -0.086348339454561288 -0.0027602719457536628 0 -0.086190112826528928 -0.002766073988740003 0 -0.086189014425770316 -0.0028550612719456152 0 -0.085925763653645751 -0.0034625032130495221 0 -0.086188584460805046 -0.0029273712165481412 0 -0.085692725950307941 -0.0031405706289619108 0 -0.086188584460805046 -0.0029273712165481412 0 -0.086004840610622607 -0.0029689439158252311 0 -0.085692725950307941 -0.0031405706289619108 0 -0.086004840610622607 -0.0029689439158252311 0 -0.086107952497006784 -0.0029782529434565349 0 -0.085671630427748779 -0.0027430589198568023 0 -0.086004840610622607 -0.0029689439158252311 0 -0.085692725950307941 -0.0031405706289619108 0 -0.085671630427748779 -0.0027430589198568023 0 -0.070095768735238526 -0.0012142614599596996 0 -0.069641757692155928 -0.00055472138315096526 0 -0.086107952497006784 -0.0029782529434565349 0 -0.085671630427748779 -0.0027430589198568023 0 -0.085624611654319741 -0.0022308114875325921 0 -0.05491715824576273 0.00073598525509389315 0 -0.05463178039253392 0.0001787471958994333 0 -0.054636426193431974 0.001143021146781824 0 -0.05463178039253392 0.0001787471958994333 0 -0.054636426193431974 0.001143021146781824 0 -0.05388554271176129 0.00043427799108042845 0 -0.054636426193431974 0.001143021146781824 0 -0.05388554271176129 0.00043427799108042845 0 -0.05384902677329359 0.0012410389207353186 0 -0.054636426193431974 0.001143021146781824 0 -0.054054698673613115 0.0020740376684506858 0 -0.05384902677329359 0.0012410389207353186 0 -0.05491715824576273 0.00073598525509389315 0 -0.054636426193431974 0.001143021146781824 0 -0.054960595959850186 0.001191031123719496 0 -0.054636426193431974 0.001143021146781824 0 -0.054810903012131637 0.0011132203109580135 0 -0.054960595959850186 0.001191031123719496 0 -0.054810903012131637 0.0011132203109580135 0 -0.054891475217587075 0.00091197266264707484 0 -0.054818727448013756 0.0010877824282793059 0 -0.054810903012131637 0.0011132203109580135 0 -0.055096495058366682 0.0010806282032239066 0 -0.05499340211059079 0.00094886919388458761 0 -0.054636426193431974 0.001143021146781824 0 -0.054810903012131637 0.0011132203109580135 0 -0.055096495058366682 0.0010806282032239066 0 -0.047390019367913913 -0.0006531837576388219 0 -0.044590843522903545 0.00078262462393061929 0 -0.055096495058366682 0.0010806282032239066 0 -0.055153964194797685 0.00085710082872393362 0 -0.05499340211059079 0.00094886919388458761 0 -0.055153964194797685 0.00085710082872393362 0 -0.05499340211059079 0.00094886919388458761 0 -0.055041569657754863 0.00077223319481966929 0 -0.055153964194797685 0.00085710082872393362 0 -0.055041569657754863 0.00077223319481966929 0 -0.05519148806649634 0.00065108434218415386 0 -0.055041569657754863 0.00077223319481966929 0 -0.05519148806649634 0.00065108434218415386 0 -0.05506415179872598 0.00048611349377774665 0 -0.05519148806649634 0.00065108434218415386 0 -0.05506415179872598 0.00048611349377774665 0 -0.055285999719220699 0.00034386005998657374 0 -0.054913285218385857 0.00031332601862847696 0 -0.0549130630605702 0.00066718232893332903 0 -0.054690592952715528 0.00047044686892773989 0 -0.05506415179872598 0.00048611349377774665 0 -0.054913285218385857 0.00031332601862847696 0 -0.055013425784340125 0.00013837988438385602 0 -0.05506415179872598 0.00048611349377774665 0 -0.054913285218385857 0.00031332601862847696 0 -0.0549130630605702 0.00066718232893332903 0 -0.055041569657754863 0.00077223319481966929 0 -0.05506415179872598 0.00048611349377774665 0 -0.0549130630605702 0.00066718232893332903 0 -0.0549130630605702 0.00066718232893332903 0 -0.054891475217587075 0.00091197266264707484 0 -0.05478748657890125 0.00087340179934376316 0 -0.055041569657754863 0.00077223319481966929 0 -0.0549130630605702 0.00066718232893332903 0 -0.054891475217587075 0.00091197266264707484 0 -0.054810903012131637 0.0011132203109580135 0 -0.05499340211059079 0.00094886919388458761 0 -0.054891475217587075 0.00091197266264707484 0 -0.05499340211059079 0.00094886919388458761 0 -0.055041569657754863 0.00077223319481966929 0 -0.054891475217587075 0.00091197266264707484 0 -0.054891475217587075 0.00091197266264707484 0 -0.05478748657890125 0.00087340179934376316 0 -0.054818727448013756 0.0010877824282793059 0 -0.05478748657890125 0.00087340179934376316 0 -0.054690592952715528 0.00047044686892773989 0 -0.054587157295123596 0.001075131517542864 0 -0.05478748657890125 0.00087340179934376316 0 -0.054587157295123596 0.001075131517542864 0 -0.054818727448013756 0.0010877824282793059 0 -0.0549130630605702 0.00066718232893332903 0 -0.05478748657890125 0.00087340179934376316 0 -0.054690592952715528 0.00047044686892773989 0 -0.054913285218385857 0.00031332601862847696 0 -0.054690592952715528 0.00047044686892773989 0 -0.054769391914655408 0.00011986313019541333 0 -0.054690592952715528 0.00047044686892773989 0 -0.054079599313062138 0.00049138461739789429 0 -0.054457971327932925 6.5158988500564611e-06 0 -0.054690592952715528 0.00047044686892773989 0 -0.054079599313062138 0.00049138461739789429 0 -0.054587157295123596 0.001075131517542864 0 -0.054079599313062138 0.00049138461739789429 0 -0.054587157295123596 0.001075131517542864 0 -0.053660114812627668 0.0010668501056856083 0 -0.054587157295123596 0.001075131517542864 0 -0.054960595959850186 0.001191031123719496 0 -0.054681147993796773 0.0012511891738154085 0 -0.054960595959850186 0.001191031123719496 0 -0.055620702836313457 0.001220981955819929 0 -0.054681147993796773 0.0012511891738154085 0 -0.054810903012131637 0.0011132203109580135 0 -0.054818727448013756 0.0010877824282793059 0 -0.054960595959850186 0.001191031123719496 0 -0.054587157295123596 0.001075131517542864 0 -0.054818727448013756 0.0010877824282793059 0 -0.054960595959850186 0.001191031123719496 0 -0.05571982733592544 0.00076841681350868496 0 -0.054960595959850186 0.001191031123719496 0 -0.055620702836313457 0.001220981955819929 0 -0.057262521727043533 0.000886580804538318 0 -0.055620702836313457 0.001220981955819929 0 -0.05463869834917446 0.001232123987200574 0 -0.055620702836313457 0.001220981955819929 0 -0.05463869834917446 0.001232123987200574 0 -0.054681147993796773 0.0012511891738154085 0 -0.054587157295123596 0.001075131517542864 0 -0.054681147993796773 0.0012511891738154085 0 -0.053660114812627668 0.0010668501056856083 0 -0.05463869834917446 0.001232123987200574 0 -0.054681147993796773 0.0012511891738154085 0 -0.053660114812627668 0.0010668501056856083 0 -0.054079599313062138 0.00049138461739789429 0 -0.053660114812627668 0.0010668501056856083 0 -0.052555319929479247 -1.3880137027935777e-05 0 -0.053660114812627668 0.0010668501056856083 0 -0.051659004897287614 0.00081200380631107373 0 -0.052555319929479247 -1.3880137027935777e-05 0 -0.05463869834917446 0.001232123987200574 0 -0.053660114812627668 0.0010668501056856083 0 -0.051659004897287614 0.00081200380631107373 0 -0.05463869834917446 0.001232123987200574 0 -0.051659004897287614 0.00081200380631107373 0 -0.052324068291397061 0.00081628024265518952 0 -0.051659004897287614 0.00081200380631107373 0 -0.052324068291397061 0.00081628024265518952 0 -0.048939046597834455 0.00036915587323174481 0 -0.051659004897287614 0.00081200380631107373 0 -0.048939046597834455 0.00036915587323174481 0 -0.048323402953885181 -0.00012292368926795544 0 -0.048939046597834455 0.00036915587323174481 0 -0.050972036858059878 1.3141853287032014e-06 0 -0.045852443446334892 -3.0863421283702288e-07 0 -0.052324068291397061 0.00081628024265518952 0 -0.048939046597834455 0.00036915587323174481 0 -0.050972036858059878 1.3141853287032014e-06 0 -0.052324068291397061 0.00081628024265518952 0 -0.050972036858059878 1.3141853287032014e-06 0 -0.056089733570115763 1.7032510805079481e-06 0 -0.05463869834917446 0.001232123987200574 0 -0.052324068291397061 0.00081628024265518952 0 -0.056089733570115763 1.7032510805079481e-06 0 -0.05463869834917446 0.001232123987200574 0 -0.056089733570115763 1.7032510805079481e-06 0 -0.057694367961620072 0.0007410857950647013 0 -0.057262521727043533 0.000886580804538318 0 -0.05463869834917446 0.001232123987200574 0 -0.057694367961620072 0.0007410857950647013 0 -0.061208030726211872 8.7962139209376803e-07 0 -0.056089733570115763 1.7032510805079481e-06 0 -0.057694367961620072 0.0007410857950647013 0 -0.081547851388862974 -0.002928556866784678 0 -0.082501680571209129 -0.0029736523203942331 0 -0.08132233304391713 -0.0042809702481778258 0 -0.081547851388862974 -0.002928556866784678 0 -0.081410164090348264 -0.0026319482135680654 0 -0.081172548460669541 -0.0037817748013349046 0 -0.070393985078660792 0.0031922646854019203 0 -0.077825997515767492 0.0027493113485280393 0 -0.070393985078660792 0.0031922646854019203 0 -0.072341678548261595 0.0024131668251208089 0 -0.081547851388862974 -0.002928556866784678 0 -0.081410164090348264 -0.0026319482135680654 0 -0.082027540984719913 -0.0028152066582439218 0 -0.081299989862079439 -0.0025701139314590823 0 -0.082027540984719913 -0.0028152066582439218 0 -0.082022070672732442 -0.0021607459069878363 0 -0.083571030412863442 -0.0022714230380940044 0 -0.083544842185293913 -0.0026472907145631761 0 -0.083928248435827107 -0.0025698606122570014 0 -0.082501680571209129 -0.0029736523203942331 0 -0.082027540984719913 -0.0028152066582439218 0 -0.082578437140438735 -0.0022532880859567573 0 -0.081547851388862974 -0.002928556866784678 0 -0.082501680571209129 -0.0029736523203942331 0 -0.082027540984719913 -0.0028152066582439218 0 -0.082022070672732442 -0.0021607459069878363 0 -0.082578437140438735 -0.0022532880859567573 0 -0.082663032861550495 -0.0017564099842303168 0 -0.082578437140438735 -0.0022532880859567573 0 -0.082663032861550495 -0.0017564099842303168 0 -0.083929743121263709 -0.0014733349353329365 0 -0.082501680571209129 -0.0029736523203942331 0 -0.082578437140438735 -0.0022532880859567573 0 -0.083929743121263709 -0.0014733349353329365 0 -0.082027540984719913 -0.0028152066582439218 0 -0.082022070672732442 -0.0021607459069878363 0 -0.082578437140438735 -0.0022532880859567573 0 -0.082663032861550495 -0.0017564099842303168 0 -0.08154239447122423 -0.0013867286093534892 0 -0.082602997775292342 -0.0011310781302257809 0 -0.082022070672732442 -0.0021607459069878363 0 -0.082663032861550495 -0.0017564099842303168 0 -0.08154239447122423 -0.0013867286093534892 0 -0.056243374387894514 0.011584040245479857 0 -0.056304004013594755 0.01145005904502173 0 -0.056181259691967557 0.01139646500935888 0 -0.081299989862079439 -0.0025701139314590823 0 -0.082022070672732442 -0.0021607459069878363 0 -0.08154239447122423 -0.0013867286093534892 0 -0.070393985078660792 0.0031922646854019203 0 -0.065793272958501819 0.0054331343031129471 0 -0.070393985078660792 0.0031922646854019203 0 -0.06472258816082338 0.0073028184961969663 0 -0.056243374387894514 0.011584040245479857 0 -0.056304004013594755 0.01145005904502173 0 -0.056432762442931841 0.01153769097629978 0 -0.056304004013594755 0.01145005904502173 0 -0.056432762442931841 0.01153769097629978 0 -0.056367499176999396 0.011347481869044709 0 -0.056432762442931841 0.01153769097629978 0 -0.056501632662439426 0.011401036025518943 0 -0.056367499176999396 0.011347481869044709 0 -0.06472258816082338 0.0073028184961969663 0 -0.062425760475170448 0.0095923110727776165 0 -0.056432762442931841 0.01153769097629978 0 -0.056672049239726074 0.011521209604672235 0 -0.056501632662439426 0.011401036025518943 0 -0.069414320068977436 0.0082835000605879106 0 -0.065765188050742621 0.0095874453907912032 0 -0.068910481925510914 0.0059823085546486495 0 -0.062425760475170448 0.0095923110727776165 0 -0.068288116225335108 0.007851373122032922 0 -0.064090735865003981 0.011126701676918005 0 -0.06338503761352203 0.01108343601800236 0 -0.063854558474244816 0.011787147390931873 0 -0.064090735865003981 0.011126701676918005 0 -0.063946210128057165 0.01033918781399632 0 -0.06338503761352203 0.01108343601800236 0 -0.073046003618078476 0.0069796153086236733 0 -0.069414320068977436 0.0082835000605879106 0 -0.068910481925510914 0.0059823085546486495 0 -0.068288116225335108 0.007851373122032922 0 -0.077825997515767492 0.0027493113485280393 0 -0.073046003618078476 0.0069796153086236733 0 -0.068910481925510914 0.0059823085546486495 0 -0.072042584497992626 0.0023912642758519616 0 -0.06338503761352203 0.01108343601800236 0 -0.063321289633686259 0.011759220104647724 0 -0.062859115870375196 0.011764969360394331 0 -0.063321289633686259 0.011759220104647724 0 -0.062972490567461709 0.012235562584508072 0 -0.062859115870375196 0.011764969360394331 0 -0.081152112395042622 0.0022637656798323138 0 -0.077825997515767492 0.0027493113485280393 0 -0.06338503761352203 0.01108343601800236 0 -0.063321289633686259 0.011759220104647724 0 -0.063854558474244816 0.011787147390931873 0 -0.063321289633686259 0.011759220104647724 0 -0.063854558474244816 0.011787147390931873 0 -0.063430464351715579 0.012239108215239373 0 -0.064368157024953646 0.012657456566231476 0 -0.063365784700201475 0.012689327535077285 0 -0.063863106086874469 0.012304769874049753 0 -0.064293185868638414 0.012150720128115463 0 -0.063854558474244816 0.011787147390931873 0 -0.063863106086874469 0.012304769874049753 0 -0.063854558474244816 0.011787147390931873 0 -0.063863106086874469 0.012304769874049753 0 -0.063430464351715579 0.012239108215239373 0 -0.063365784700201475 0.012689327535077285 0 -0.063863106086874469 0.012304769874049753 0 -0.063430464351715579 0.012239108215239373 0 -0.07988744148545987 0.0034079458069819872 0 -0.079506818112207556 0.0029608441442838594 0 -0.079045331512733852 -0.00034836105959683392 0 -0.082207428668774785 0.0020348586528101194 0 -0.082152692682848652 0.0019712125136225733 0 -0.082287480233826676 0.0023794170345030779 0 -0.081152112395042622 0.0022637656798323138 0 -0.081139416586435975 0.002017325631076585 0 -0.063321289633686259 0.011759220104647724 0 -0.062972490567461709 0.012235562584508072 0 -0.063430464351715579 0.012239108215239373 0 -0.063365784700201475 0.012689327535077285 0 -0.062972490567461709 0.012235562584508072 0 -0.063430464351715579 0.012239108215239373 0 -0.081152112395042622 0.0022637656798323138 0 -0.083018056774890409 0.002377470072979955 0 -0.08368942724034753 0.0051691032641867926 0 -0.081371412166538162 0.0024329437605002356 0 -0.081774730649931335 0.0042517625369994996 0 -0.082324681846153769 0.0032882083599316196 0 -0.081152112395042622 0.0022637656798323138 0 -0.081139416586435975 0.002017325631076585 0 -0.083018056774890409 0.002377470072979955 0 -0.084207484889593398 0.00065445566533066607 0 -0.08372268349238815 0.0010389455375942897 0 -0.084374380689609646 0.0012848623050312875 0 -0.083094841730957061 -0.0028766019067987644 0 -0.083592932405842091 -0.0028708812791275575 0 -0.083456823381770531 -0.0032945935350682477 0 -0.083945919097188862 0.0017464567679488 0 -0.08372268349238815 0.0010389455375942897 0 -0.084374380689609646 0.0012848623050312875 0 -0.084692248302421294 0.00085511100930454453 0 -0.084207484889593398 0.00065445566533066607 0 -0.084374380689609646 0.0012848623050312875 0 -0.084692248302421294 0.00085511100930454453 0 -0.084374380689609646 0.0012848623050312875 0 -0.085280000864563305 0.0011631110047608548 0 -0.084374380689609646 0.0012848623050312875 0 -0.084349491346201746 0.0022246281228112414 0 -0.085280000864563305 0.0011631110047608548 0 -0.080885006991059522 0.00089289460858277595 0 -0.084778902327597938 -8.8576657135226348e-05 0 -0.083945919097188862 0.0017464567679488 0 -0.084374380689609646 0.0012848623050312875 0 -0.084349491346201746 0.0022246281228112414 0 -0.081139416586435975 0.002017325631076585 0 -0.080885006991059522 0.00089289460858277595 0 -0.081139416586435975 0.002017325631076585 0 -0.079426920521879468 0.0016269428909541166 0 -0.079341126768584305 -0.00025780252681935014 0 -0.079426920521879468 0.0016269428909541166 0 -0.081547851388862974 -0.002928556866784678 0 -0.081245629214367177 -0.0038651348733884467 0 -0.081172548460669541 -0.0037817748013349046 0 -0.079506818112207556 0.0029608441442838594 0 -0.078605247685448659 0.00016020033814041093 0 -0.079045331512733852 -0.00034836105959683392 0 -0.081777738523855836 -0.0010558432677283357 0 -0.080885006991059522 0.00089289460858277595 0 -0.080365528266972769 0.0023900478446923445 0 -0.079379127816280717 -0.00069031305888836826 0 -0.078556464818847191 0.00025921046049465815 0 -0.081547851388862974 -0.002928556866784678 0 -0.081166952951051349 -0.0041005442022801425 0 -0.08132233304391713 -0.0042809702481778258 0 -0.079426920521879468 0.0016269428909541166 0 -0.080885006991059522 0.00089289460858277595 0 -0.079426920521879468 0.0016269428909541166 0 -0.077825997515767492 0.0027493113485280393 0 -0.083592932405842091 -0.0028708812791275575 0 -0.083904735257009061 -0.0030904119790927933 0 -0.083928248435827107 -0.0025698606122570014 0 -0.083094841730957061 -0.0028766019067987644 0 -0.083544842185293913 -0.0026472907145631761 0 -0.083592932405842091 -0.0028708812791275575 0 -0.083571030412863442 -0.0022714230380940044 0 -0.083094841730957061 -0.0028766019067987644 0 -0.083544842185293913 -0.0026472907145631761 0 -0.083544842185293913 -0.0026472907145631761 0 -0.083592932405842091 -0.0028708812791275575 0 -0.083928248435827107 -0.0025698606122570014 0 -0.083851181231761995 -0.0037191628629383777 0 -0.083456823381770531 -0.0032945935350682477 0 -0.083904735257009061 -0.0030904119790927933 0 -0.083592932405842091 -0.0028708812791275575 0 -0.083456823381770531 -0.0032945935350682477 0 -0.083904735257009061 -0.0030904119790927933 0 -0.083851181231761995 -0.0037191628629383777 0 -0.083904735257009061 -0.0030904119790927933 0 -0.084340901691632164 -0.0032499731749781541 0 -0.083904735257009061 -0.0030904119790927933 0 -0.084340901691632164 -0.0032499731749781541 0 -0.084246353554434383 -0.0028615613589079653 0 -0.084340901691632164 -0.0032499731749781541 0 -0.084747061068204496 -0.0028998892301346094 0 -0.084246353554434383 -0.0028615613589079653 0 -0.084340901691632164 -0.0032499731749781541 0 -0.084747061068204496 -0.0028998892301346094 0 -0.085012826544493977 -0.0033385678649025369 0 -0.084747061068204496 -0.0028998892301346094 0 -0.085039864579262839 -0.0024500174836707472 0 -0.084418471350616003 -0.002460297648848806 0 -0.084747061068204496 -0.0028998892301346094 0 -0.084246353554434383 -0.0028615613589079653 0 -0.084418471350616003 -0.002460297648848806 0 -0.083928248435827107 -0.0025698606122570014 0 -0.084246353554434383 -0.0028615613589079653 0 -0.084418471350616003 -0.002460297648848806 0 -0.083904735257009061 -0.0030904119790927933 0 -0.083928248435827107 -0.0025698606122570014 0 -0.084246353554434383 -0.0028615613589079653 0 -0.085692725950307941 -0.0031405706289619108 0 -0.085012826544493977 -0.0033385678649025369 0 -0.085272549773500086 -0.0029426704699157388 0 -0.084747061068204496 -0.0028998892301346094 0 -0.085012826544493977 -0.0033385678649025369 0 -0.085272549773500086 -0.0029426704699157388 0 -0.084747061068204496 -0.0028998892301346094 0 -0.085272549773500086 -0.0029426704699157388 0 -0.085039864579262839 -0.0024500174836707472 0 -0.085272549773500086 -0.0029426704699157388 0 -0.085671630427748779 -0.0027430589198568023 0 -0.085039864579262839 -0.0024500174836707472 0 -0.085692725950307941 -0.0031405706289619108 0 -0.085272549773500086 -0.0029426704699157388 0 -0.085671630427748779 -0.0027430589198568023 0 -0.085671630427748779 -0.0027430589198568023 0 -0.085039864579262839 -0.0024500174836707472 0 -0.085624611654319741 -0.0022308114875325921 0 -0.052751344879336012 0.00093457683962935997 0 -0.05388554271176129 0.00043427799108042845 0 -0.053268486256388893 0.0011138079248730955 0 -0.068896888017650815 0.00043320359166849708 0 -0.069641757692155928 -0.00055472138315096526 0 -0.085039864579262839 -0.0024500174836707472 0 -0.084892270379527429 -0.0016775440398405907 0 -0.085624611654319741 -0.0022308114875325921 0 -0.05388554271176129 0.00043427799108042845 0 -0.05384902677329359 0.0012410389207353186 0 -0.053268486256388893 0.0011138079248730955 0 -0.083928248435827107 -0.0025698606122570014 0 -0.084046961669060713 -0.002149969705099911 0 -0.084418471350616003 -0.002460297648848806 0 -0.083571030412863442 -0.0022714230380940044 0 -0.083928248435827107 -0.0025698606122570014 0 -0.084046961669060713 -0.002149969705099911 0 -0.085039864579262839 -0.0024500174836707472 0 -0.084418471350616003 -0.002460297648848806 0 -0.084473384234882126 -0.0020363189749665654 0 -0.084046961669060713 -0.002149969705099911 0 -0.084418471350616003 -0.002460297648848806 0 -0.084473384234882126 -0.0020363189749665654 0 -0.084892270379527429 -0.0016775440398405907 0 -0.084473384234882126 -0.0020363189749665654 0 -0.083929743121263709 -0.0014733349353329365 0 -0.085039864579262839 -0.0024500174836707472 0 -0.084892270379527429 -0.0016775440398405907 0 -0.084473384234882126 -0.0020363189749665654 0 -0.084046961669060713 -0.002149969705099911 0 -0.084473384234882126 -0.0020363189749665654 0 -0.083929743121263709 -0.0014733349353329365 0 -0.081777738523855836 -0.0010558432677283357 0 -0.082471306259033775 -0.0010346173377388098 0 -0.082663032861550495 -0.0017564099842303168 0 -0.083929743121263709 -0.0014733349353329365 0 -0.083247480041193686 -0.0013390276686813761 0 -0.083571030412863442 -0.0022714230380940044 0 -0.084046961669060713 -0.002149969705099911 0 -0.083929743121263709 -0.0014733349353329365 0 -0.083929743121263709 -0.0014733349353329365 0 -0.083773622623264002 -0.00099370812387040899 0 -0.083247480041193686 -0.0013390276686813761 0 -0.083773622623264002 -0.00099370812387040899 0 -0.083247480041193686 -0.0013390276686813761 0 -0.082602997775292342 -0.0011310781302257809 0 -0.052751344879336012 0.00093457683962935997 0 -0.05265158323170982 0.0012087807119066664 0 -0.052712012531672882 0.0011858032579657686 0 -0.05265158323170982 0.0012087807119066664 0 -0.052656600944075975 0.0011932985937559875 0 -0.052712012531672882 0.0011858032579657686 0 -0.084892270379527429 -0.0016775440398405907 0 -0.083929743121263709 -0.0014733349353329365 0 -0.083773622623264002 -0.00099370812387040899 0 -0.05285533204193326 0.0050818896159826113 0 -0.052601950023119175 0.0042164434553847762 0 -0.068896888017650815 0.00043320359166849708 0 -0.067369337943465557 0.0022855274065097576 0 -0.048558314310498799 0.0018251071444667067 0 -0.05063675542700985 0.0024433059052599332 0 -0.052712012531672882 0.0011858032579657686 0 -0.05063675542700985 0.0024433059052599332 0 -0.051936208596245023 0.0022266067419467418 0 -0.052712012531672882 0.0011858032579657686 0 -0.05063675542700985 0.0024433059052599332 0 -0.051936208596245023 0.0022266067419467418 0 -0.052057866585877396 0.0033853721682042051 0 -0.051936208596245023 0.0022266067419467418 0 -0.052057866585877396 0.0033853721682042051 0 -0.052657878727925322 0.0017563890566270242 0 -0.05063675542700985 0.0024433059052599332 0 -0.052057866585877396 0.0033853721682042051 0 -0.05107442083322019 0.0047984729919604901 0 -0.05063675542700985 0.0024433059052599332 0 -0.04918329557326357 0.0035312972604595511 0 -0.05107442083322019 0.0047984729919604901 0 -0.04918329557326357 0.0035312972604595511 0 -0.047811060346509317 0.0030851315257242368 0 -0.04702192914062335 0.0045793130340250248 0 -0.048558314310498799 0.0018251071444667067 0 -0.047811060346509317 0.0030851315257242368 0 -0.049047108969869926 0.0027208129406865599 0 -0.05063675542700985 0.0024433059052599332 0 -0.04918329557326357 0.0035312972604595511 0 -0.049047108969869926 0.0027208129406865599 0 -0.048558314310498799 0.0018251071444667067 0 -0.05063675542700985 0.0024433059052599332 0 -0.049047108969869926 0.0027208129406865599 0 -0.04918329557326357 0.0035312972604595511 0 -0.047811060346509317 0.0030851315257242368 0 -0.049047108969869926 0.0027208129406865599 0 -0.05384902677329359 0.0012410389207353186 0 -0.053354489434200181 0.0014955821944198739 0 -0.053268486256388893 0.0011138079248730955 0 -0.05384902677329359 0.0012410389207353186 0 -0.053354489434200181 0.0014955821944198739 0 -0.053641831507149108 0.0017512411850762683 0 -0.053064976138053506 0.0014628955124167521 0 -0.053268486256388893 0.0011138079248730955 0 -0.052712012531672882 0.0011858032579657686 0 -0.053064976138053506 0.0014628955124167521 0 -0.052657878727925322 0.0017563890566270242 0 -0.053147772167286771 0.0018648801533320734 0 -0.053354489434200181 0.0014955821944198739 0 -0.053064976138053506 0.0014628955124167521 0 -0.053268486256388893 0.0011138079248730955 0 -0.053354489434200181 0.0014955821944198739 0 -0.053064976138053506 0.0014628955124167521 0 -0.053147772167286771 0.0018648801533320734 0 -0.052751344879336012 0.00093457683962935997 0 -0.053268486256388893 0.0011138079248730955 0 -0.052712012531672882 0.0011858032579657686 0 -0.053064976138053506 0.0014628955124167521 0 -0.052712012531672882 0.0011858032579657686 0 -0.052657878727925322 0.0017563890566270242 0 -0.051936208596245023 0.0022266067419467418 0 -0.052712012531672882 0.0011858032579657686 0 -0.052657878727925322 0.0017563890566270242 0 -0.052657878727925322 0.0017563890566270242 0 -0.053147772167286771 0.0018648801533320734 0 -0.053143975295107858 0.0023713246139608142 0 -0.052057866585877396 0.0033853721682042051 0 -0.052657878727925322 0.0017563890566270242 0 -0.054314164991768804 0.004534122936833548 0 -0.052057866585877396 0.0033853721682042051 0 -0.054314164991768804 0.004534122936833548 0 -0.05107442083322019 0.0047984729919604901 0 -0.037251877189131616 0.0080766626866183387 0 -0.03355441484106636 0.0072653328616128212 0 -0.053147772167286771 0.0018648801533320734 0 -0.053312548582742397 0.0021419204942197392 0 -0.053143975295107858 0.0023713246139608142 0 -0.034435140031331843 0.006488086353555779 0 -0.03355441484106636 0.0072653328616128212 0 -0.054054698673613115 0.0020740376684506858 0 -0.05384902677329359 0.0012410389207353186 0 -0.053641831507149108 0.0017512411850762683 0 -0.054054698673613115 0.0020740376684506858 0 -0.053312548582742397 0.0021419204942197392 0 -0.053397390699235638 0.0029486448009638532 0 -0.053361589700933167 0.001832358858989698 0 -0.053312548582742397 0.0021419204942197392 0 -0.053641831507149108 0.0017512411850762683 0 -0.053354489434200181 0.0014955821944198739 0 -0.053361589700933167 0.001832358858989698 0 -0.053641831507149108 0.0017512411850762683 0 -0.053354489434200181 0.0014955821944198739 0 -0.053147772167286771 0.0018648801533320734 0 -0.053361589700933167 0.001832358858989698 0 -0.053147772167286771 0.0018648801533320734 0 -0.053361589700933167 0.001832358858989698 0 -0.053312548582742397 0.0021419204942197392 0 -0.054054698673613115 0.0020740376684506858 0 -0.053312548582742397 0.0021419204942197392 0 -0.053641831507149108 0.0017512411850762683 0 -0.044590843522903545 0.00078262462393061929 0 -0.032655972302429594 0.0088708350126374125 0 -0.055096495058366682 0.0010806282032239066 0 -0.055153964194797685 0.00085710082872393362 0 -0.055430551583080148 0.00079052426200674412 0 -0.053312548582742397 0.0021419204942197392 0 -0.053397390699235638 0.0029486448009638532 0 -0.053088816042674389 0.0024159396487701654 0 -0.055153964194797685 0.00085710082872393362 0 -0.05519148806649634 0.00065108434218415386 0 -0.055430551583080148 0.00079052426200674412 0 -0.032655972302429594 0.0088708350126374125 0 -0.03355441484106636 0.0072653328616128212 0 -0.03355441484106636 0.0072653328616128212 0 -0.031990524888150733 0.011429352825361618 0 -0.013013281703646405 0.01783327040529745 0 -0.012967612299410396 0.017705414648295337 0 -0.012799667871054798 0.017967986365927838 0 -0.054314164991768804 0.004534122936833548 0 -0.05107442083322019 0.0047984729919604901 0 -0.051848690200675812 0.007828385040387251 0 -0.032655972302429594 0.0088708350126374125 0 -0.019819220631552961 0.018818704121060709 0 -0.013013281703646405 0.01783327040529745 0 -0.012760746519150271 0.017981389523542265 0 -0.012799667871054798 0.017967986365927838 0 -0.0086193510472323698 0.023143023568926578 0 -0.010568120743241823 0.020499699834824664 0 -0.0086994775970464597 0.019692112832934688 0 -0.05519148806649634 0.00065108434218415386 0 -0.055430551583080148 0.00079052426200674412 0 -0.055285999719220699 0.00034386005998657374 0 -0.0086193510472323698 0.023143023568926578 0 -0.0086994775970464597 0.019692112832934688 0 -0.0068095986185218674 0.020282858467463447 0 -0.032655972302429594 0.0088708350126374125 0 -0.031857460844140824 0.0092539433265071882 0 -0.04918329557326357 0.0035312972604595511 0 -0.048549072758375569 0.0069933997399376224 0 -0.05107442083322019 0.0047984729919604901 0 -0.04918329557326357 0.0035312972604595511 0 -0.048549072758375569 0.0069933997399376224 0 -0.04702192914062335 0.0045793130340250248 0 -0.048549072758375569 0.0069933997399376224 0 -0.05107442083322019 0.0047984729919604901 0 -0.051848690200675812 0.007828385040387251 0 -0.031990524888150733 0.011429352825361618 0 -0.031616105713020072 0.012898247462554474 0 -0.048549072758375569 0.0069933997399376224 0 -0.051848690200675812 0.007828385040387251 0 -0.049378418951662957 0.011114313242932531 0 -0.012760746519150271 0.017981389523542265 0 -0.012799667871054798 0.017967986365927838 0 -0.013072251882976005 0.017943885380471668 0 -0.048549072758375569 0.0069933997399376224 0 -0.046085524952474304 0.010495756907426677 0 -0.049378418951662957 0.011114313242932531 0 -0.051012917810986075 0.008571590202524508 0 -0.044079355834954037 0.010544621982402759 0 -0.055084409272361169 0.0099132369835306013 0 -0.054680496947210069 0.01046814314455719 0 -0.05443867394514975 0.0096037935569430483 0 -0.048549072758375569 0.0069933997399376224 0 -0.045262337159651653 0.006597134105387671 0 -0.046085524952474304 0.010495756907426677 0 -0.055084409272361169 0.0099132369835306013 0 -0.055327351897657154 0.010338747076233945 0 -0.054680496947210069 0.01046814314455719 0 -0.055084409272361169 0.0099132369835306013 0 -0.055327351897657154 0.010338747076233945 0 -0.055543946484739246 0.0098285065849942951 0 -0.055327351897657154 0.010338747076233945 0 -0.055242578135433949 0.010819777530103488 0 -0.054680496947210069 0.01046814314455719 0 -0.055242578135433949 0.010819777530103488 0 -0.054680496947210069 0.01046814314455719 0 -0.054899158860307058 0.011367269877655815 0 -0.055327351897657154 0.010338747076233945 0 -0.055242578135433949 0.010819777530103488 0 -0.055664396837766777 0.010637657944504515 0 -0.048549072758375569 0.0069933997399376224 0 -0.045262337159651653 0.006597134105387671 0 -0.04702192914062335 0.0045793130340250248 0 -0.045262337159651653 0.006597134105387671 0 -0.04702192914062335 0.0045793130340250248 0 -0.044419245671989155 0.0026929403050048989 0 -0.051012917810986075 0.008571590202524508 0 -0.05864404459166906 0.0072337394282946475 0 -0.05285533204193326 0.0050818896159826113 0 -0.05864404459166906 0.0072337394282946475 0 -0.047811060346509317 0.0030851315257242368 0 -0.04702192914062335 0.0045793130340250248 0 -0.044419245671989155 0.0026929403050048989 0 -0.048558314310498799 0.0018251071444667067 0 -0.047811060346509317 0.0030851315257242368 0 -0.044419245671989155 0.0026929403050048989 0 -0.052656600944075975 0.0011932985937559875 0 -0.052900344905157 0.0012167246892336944 0 -0.052904674044872493 0.0012384817913216409 0 -0.055242578135433949 0.010819777530103488 0 -0.055351520042293441 0.01128065451224527 0 -0.054899158860307058 0.011367269877655815 0 -0.055242578135433949 0.010819777530103488 0 -0.055351520042293441 0.01128065451224527 0 -0.055666272703627367 0.011217394031198204 0 -0.058280483383797592 0.0081745052277297468 0 -0.060380319671436831 0.0075512914670913377 0 -0.056255398313789215 0.011139001198874853 0 -0.056131160593859974 0.011195549311497724 0 -0.056259974372178813 0.011293403107481642 0 -0.058662836258947346 0.0092686053468713295 0 -0.060837073314070893 0.0088241669085057182 0 -0.060735096305494625 0.0083630129546391711 0 -0.058280483383797592 0.0081745052277297468 0 -0.05864404459166906 0.0072337394282946475 0 -0.05864404459166906 0.0072337394282946475 0 -0.060380319671436831 0.0075512914670913377 0 -0.060380319671436831 0.0075512914670913377 0 -0.065793272958501819 0.0054331343031129471 0 -0.056131160593859974 0.011195549311497724 0 -0.056259974372178813 0.011293403107481642 0 -0.056181259691967557 0.01139646500935888 0 -0.081779286057424724 -9.9059897638999794e-05 0 -0.08154239447122423 -0.0013867286093534892 0 -0.082602997775292342 -0.0011310781302257809 0 -0.056304004013594755 0.01145005904502173 0 -0.056259974372178813 0.011293403107481642 0 -0.056181259691967557 0.01139646500935888 0 -0.083773622623264002 -0.00099370812387040899 0 -0.081779286057424724 -9.9059897638999794e-05 0 -0.082602997775292342 -0.0011310781302257809 0 -0.05265158323170982 0.0012087807119066664 0 -0.052656600944075975 0.0011932985937559875 0 -0.052904674044872493 0.0012384817913216409 0 -0.067369337943465557 0.0022855274065097576 0 -0.060380319671436831 0.0075512914670913377 0 -0.082663032861550495 -0.0017564099842303168 0 -0.083247480041193686 -0.0013390276686813761 0 -0.082602997775292342 -0.0011310781302257809 0 -0.056442085837353516 0.011227566104632344 0 -0.05661968886858898 0.011290004471072684 0 -0.056501632662439426 0.011401036025518943 0 -0.056672049239726074 0.011521209604672235 0 -0.05661968886858898 0.011290004471072684 0 -0.056501632662439426 0.011401036025518943 0 -0.056442085837353516 0.011227566104632344 0 -0.056501632662439426 0.011401036025518943 0 -0.056367499176999396 0.011347481869044709 0 -0.056304004013594755 0.01145005904502173 0 -0.056259974372178813 0.011293403107481642 0 -0.056367499176999396 0.011347481869044709 0 -0.056255398313789215 0.011139001198874853 0 -0.056259974372178813 0.011293403107481642 0 -0.056331833353099478 0.011224384736483456 0 -0.056259974372178813 0.011293403107481642 0 -0.056367499176999396 0.011347481869044709 0 -0.056331833353099478 0.011224384736483456 0 -0.056442085837353516 0.011227566104632344 0 -0.056367499176999396 0.011347481869044709 0 -0.056331833353099478 0.011224384736483456 0 -0.056442085837353516 0.011227566104632344 0 -0.056331833353099478 0.011224384736483456 0 -0.056335462128495016 0.011117526355780321 0 -0.058280483383797592 0.0081745052277297468 0 -0.057437342171499074 0.0086763926495884765 0 -0.056255398313789215 0.011139001198874853 0 -0.056331833353099478 0.011224384736483456 0 -0.056335462128495016 0.011117526355780321 0 -0.057437342171499074 0.0086763926495884765 0 -0.056805705619945843 0.0091272650077224796 0 -0.056442085837353516 0.011227566104632344 0 -0.056335462128495016 0.011117526355780321 0 -0.056509626096614828 0.010995461075540293 0 -0.056442085837353516 0.011227566104632344 0 -0.05661968886858898 0.011290004471072684 0 -0.056509626096614828 0.010995461075540293 0 -0.055666272703627367 0.011217394031198204 0 -0.056509626096614828 0.010995461075540293 0 -0.056161603588061847 0.010572398762390845 0 -0.056509626096614828 0.010995461075540293 0 -0.056161603588061847 0.010572398762390845 0 -0.056543817014806964 0.010363621671017256 0 -0.056161603588061847 0.010572398762390845 0 -0.056543817014806964 0.010363621671017256 0 -0.055950404844202196 0.010254101387028109 0 -0.055327351897657154 0.010338747076233945 0 -0.055664396837766777 0.010637657944504515 0 -0.055950404844202196 0.010254101387028109 0 -0.055666272703627367 0.011217394031198204 0 -0.056161603588061847 0.010572398762390845 0 -0.055664396837766777 0.010637657944504515 0 -0.055242578135433949 0.010819777530103488 0 -0.055666272703627367 0.011217394031198204 0 -0.055664396837766777 0.010637657944504515 0 -0.056161603588061847 0.010572398762390845 0 -0.055664396837766777 0.010637657944504515 0 -0.055950404844202196 0.010254101387028109 0 -0.055327351897657154 0.010338747076233945 0 -0.055950404844202196 0.010254101387028109 0 -0.055543946484739246 0.0098285065849942951 0 -0.055950404844202196 0.010254101387028109 0 -0.055543946484739246 0.0098285065849942951 0 -0.056197344359409561 0.0096882940779759209 0 -0.056904741678918402 0.0098074455818124781 0 -0.056543817014806964 0.010363621671017256 0 -0.056197344359409561 0.0096882940779759209 0 -0.056543817014806964 0.010363621671017256 0 -0.055950404844202196 0.010254101387028109 0 -0.056197344359409561 0.0096882940779759209 0 -0.056904741678918402 0.0098074455818124781 0 -0.056197344359409561 0.0096882940779759209 0 -0.056599745528814679 0.0092385504267594575 0 -0.056197344359409561 0.0096882940779759209 0 -0.056050414386066338 0.0089618024452688631 0 -0.056599745528814679 0.0092385504267594575 0 -0.056197344359409561 0.0096882940779759209 0 -0.055574485024403708 0.0093335176645060469 0 -0.056050414386066338 0.0089618024452688631 0 -0.055543946484739246 0.0098285065849942951 0 -0.056197344359409561 0.0096882940779759209 0 -0.055574485024403708 0.0093335176645060469 0 -0.055543946484739246 0.0098285065849942951 0 -0.055574485024403708 0.0093335176645060469 0 -0.055140846404088881 0.0094643023437560297 0 -0.055451232274670151 0.0088356069622987973 0 -0.055993461431717816 0.0084794680855976995 0 -0.054898752526192682 0.0083916244134129674 0 -0.055574485024403708 0.0093335176645060469 0 -0.055451232274670151 0.0088356069622987973 0 -0.056050414386066338 0.0089618024452688631 0 -0.055451232274670151 0.0088356069622987973 0 -0.056050414386066338 0.0089618024452688631 0 -0.055993461431717816 0.0084794680855976995 0 -0.056050414386066338 0.0089618024452688631 0 -0.056438624412750549 0.0088254376987647529 0 -0.056599745528814679 0.0092385504267594575 0 -0.056050414386066338 0.0089618024452688631 0 -0.056438624412750549 0.0088254376987647529 0 -0.055993461431717816 0.0084794680855976995 0 -0.053166023809800185 0.0069117992340341104 0 -0.050299103889254945 0.0090921240863189364 0 -0.050673793719029012 0.0039239569667010241 0 -0.051431579670789235 0.00904543400524822 0 -0.053515253025963015 0.0089097732261443022 0 -0.056438624412750549 0.0088254376987647529 0 -0.055993461431717816 0.0084794680855976995 0 -0.056750062488527417 0.0085287407271178658 0 -0.053166023809800185 0.0069117992340341104 0 -0.050299103889254945 0.0090921240863189364 0 -0.055557313933754023 0.0082743409011607188 0 -0.050299103889254945 0.0090921240863189364 0 -0.055557313933754023 0.0082743409011607188 0 -0.056750062488527417 0.0085287407271178658 0 -0.053166023809800185 0.0069117992340341104 0 -0.050673793719029012 0.0039239569667010241 0 -0.056877335269695878 0.0067834062193610663 0 -0.045117190797005109 0.01348713613734568 0 -0.051031580757944971 0.012756610009257319 0 -0.051431579670789235 0.00904543400524822 0 -0.04593827725427671 0.0094195638812227568 0 -0.050299103889254945 0.0090921240863189364 0 -0.045381604820787458 0.0070314479846576164 0 -0.043491684962048631 0.0094466264060455284 0 -0.050299103889254945 0.0090921240863189364 0 -0.045381604820787458 0.0070314479846576164 0 -0.046369127607901149 0.0047825137136572318 0 -0.050299103889254945 0.0090921240863189364 0 -0.046369127607901149 0.0047825137136572318 0 -0.050673793719029012 0.0039239569667010241 0 -0.045117190797005109 0.01348713613734568 0 -0.032133812836695051 0.011494100896911523 0 -0.046120543363107537 0.023742665287913047 0 -0.04401314227473125 0.022762340866003792 0 -0.045830599559262164 0.022393922849958885 0 -0.046369127607901149 0.0047825137136572318 0 -0.050673793719029012 0.0039239569667010241 0 -0.04422089614429018 0.00096259716613997259 0 -0.046120543363107537 0.023742665287913047 0 -0.048213449540046506 0.024694976937490263 0 -0.047500374573113791 0.023187794559294175 0 -0.046120543363107537 0.023742665287913047 0 -0.046710385647896098 0.022648721644207788 0 -0.045830599559262164 0.022393922849958885 0 -0.046120543363107537 0.023742665287913047 0 -0.046710385647896098 0.022648721644207788 0 -0.047500374573113791 0.023187794559294175 0 -0.046710385647896098 0.022648721644207788 0 -0.047500374573113791 0.023187794559294175 0 -0.047478872369658365 0.022356527656410257 0 -0.014539349285403499 0.0052978000796070138 0 -0.015921889892905671 0.0059738339780303204 0 -0.015023039173311957 0.0063998134664355437 0 -0.014539349285403499 0.0052978000796070138 0 -0.015023039173311957 0.0063998134664355437 0 -0.01419601668560155 0.0065002692888403652 0 -0.014539349285403499 0.0052978000796070138 0 -0.015921889892905671 0.0059738339780303204 0 -0.015968348550204153 0.0045478542181087269 0 -0.015921889892905671 0.0059738339780303204 0 -0.015968348550204153 0.0045478542181087269 0 -0.016928640491140578 0.0052499549336941743 0 -0.015921889892905671 0.0059738339780303204 0 -0.015692637088156713 0.0070342781535484436 0 -0.0173886916399319 0.0073192194928027457 0 -0.015921889892905671 0.0059738339780303204 0 -0.015692637088156713 0.0070342781535484436 0 -0.015023039173311957 0.0063998134664355437 0 -0.015692637088156713 0.0070342781535484436 0 -0.015023039173311957 0.0063998134664355437 0 -0.014804329616834111 0.0073204818206446714 0 -0.015023039173311957 0.0063998134664355437 0 -0.014265430616269883 0.0068959064448972087 0 -0.01419601668560155 0.0065002692888403652 0 -0.014804329616834111 0.0073204818206446714 0 -0.014265430616269883 0.0068959064448972087 0 -0.014091239759129287 0.0074222063792886168 0 -0.015023039173311957 0.0063998134664355437 0 -0.014804329616834111 0.0073204818206446714 0 -0.014265430616269883 0.0068959064448972087 0 -0.031643390565639806 0.0094465986374391644 0 -0.030517396914042462 0.010556203397686131 0 -0.014539349285403499 0.0052978000796070138 0 -0.01419601668560155 0.0065002692888403652 0 -0.012970160453632935 0.0074074817896404932 0 -0.014265430616269883 0.0068959064448972087 0 -0.01419601668560155 0.0065002692888403652 0 -0.012970160453632935 0.0074074817896404932 0 -0.014265430616269883 0.0068959064448972087 0 -0.012970160453632935 0.0074074817896404932 0 -0.014091239759129287 0.0074222063792886168 0 -0.032133812836695051 0.011494100896911523 0 -0.033805438510187219 0.0095706464394282095 0 -0.04422089614429018 0.00096259716613997259 0 -0.044178678138635456 0.0036350514118421392 0 -0.042059503086186723 0.003826352689434123 0 -0.044126128107890357 0.0010898074178079869 0 -0.042059503086186723 0.003826352689434123 0 -0.04346605253685519 0.00078053883353978776 0 -0.032133812836695051 0.011494100896911523 0 -0.030517396914042462 0.010556203397686131 0 -0.046369127607901149 0.0047825137136572318 0 -0.04422089614429018 0.00096259716613997259 0 -0.044178678138635456 0.0036350514118421392 0 -0.04406391877958446 0.0049658735364386183 0 -0.042059503086186723 0.003826352689434123 0 -0.042662029671501088 0.0062680596737030927 0 -0.044178678138635456 0.0036350514118421392 0 -0.04406391877958446 0.0049658735364386183 0 -0.042059503086186723 0.003826352689434123 0 -0.046369127607901149 0.0047825137136572318 0 -0.044178678138635456 0.0036350514118421392 0 -0.04406391877958446 0.0049658735364386183 0 -0.040160325072528237 0.0051899624603908862 0 -0.042059503086186723 0.003826352689434123 0 -0.04346605253685519 0.00078053883353978776 0 -0.040160325072528237 0.0051899624603908862 0 -0.042059503086186723 0.003826352689434123 0 -0.042662029671501088 0.0062680596737030927 0 -0.040160325072528237 0.0051899624603908862 0 -0.042662029671501088 0.0062680596737030927 0 -0.041382445786384649 0.0071695578600260946 0 -0.042662029671501088 0.0062680596737030927 0 -0.041382445786384649 0.0071695578600260946 0 -0.043491684962048631 0.0094466264060455284 0 -0.040160325072528237 0.0051899624603908862 0 -0.041382445786384649 0.0071695578600260946 0 -0.040106158011195409 0.0081739869219902839 0 -0.045381604820787458 0.0070314479846576164 0 -0.042662029671501088 0.0062680596737030927 0 -0.043491684962048631 0.0094466264060455284 0 -0.045381604820787458 0.0070314479846576164 0 -0.04406391877958446 0.0049658735364386183 0 -0.042662029671501088 0.0062680596737030927 0 -0.045381604820787458 0.0070314479846576164 0 -0.046369127607901149 0.0047825137136572318 0 -0.04406391877958446 0.0049658735364386183 0 -0.041382445786384649 0.0071695578600260946 0 -0.043491684962048631 0.0094466264060455284 0 -0.040106158011195409 0.0081739869219902839 0 -0.04593827725427671 0.0094195638812227568 0 -0.033531494315191049 0.010249468436192267 0 -0.043491684962048631 0.0094466264060455284 0 -0.040106158011195409 0.0081739869219902839 0 -0.036744011145220835 0.0097314178144574971 0 -0.040160325072528237 0.0051899624603908862 0 -0.040106158011195409 0.0081739869219902839 0 -0.036744011145220835 0.0097314178144574971 0 -0.031643390565639806 0.0094465986374391644 0 -0.033531494315191049 0.010249468436192267 0 -0.015968348550204153 0.0045478542181087269 0 -0.016493020558640537 0.0031716807695676055 0 -0.016928640491140578 0.0052499549336941743 0 -0.014539349285403499 0.0052978000796070138 0 -0.015968348550204153 0.0045478542181087269 0 -0.016149287523163598 0.0031855774144951693 0 -0.015968348550204153 0.0045478542181087269 0 -0.016149287523163598 0.0031855774144951693 0 -0.016493020558640537 0.0031716807695676055 0 -0.033531494315191049 0.010249468436192267 0 -0.031476006467655922 0.010200545539445931 0 -0.028283126531182874 0.01797295008211458 0 -0.039695129105005694 0.017468055978896068 0 -0.037125145824042291 0.00632159758084282 0 -0.033395487644468237 0.010823276313076908 0 -0.044079355834954037 0.010544621982402759 0 -0.053490628313663774 0.0084117868856051926 0 -0.05336701237979409 0.0085685354791819202 0 -0.054547827768107279 0.0090502314820495467 0 -0.033395487644468237 0.010823276313076908 0 -0.0462845812408572 0.01293513287219885 0 -0.054176397123385879 0.0087022771818777329 0 -0.054904467291269569 0.0090095994744890159 0 -0.05443867394514975 0.0096037935569430483 0 -0.031476006467655922 0.010200545539445931 0 -0.033395487644468237 0.010823276313076908 0 -0.033531494315191049 0.010249468436192267 0 -0.033395487644468237 0.010823276313076908 0 -0.04938822287550125 0.013224300450623094 0 -0.0462845812408572 0.01293513287219885 0 -0.055451232274670151 0.0088356069622987973 0 -0.054898752526192682 0.0083916244134129674 0 -0.054547827768107279 0.0090502314820495467 0 -0.055574485024403708 0.0093335176645060469 0 -0.055451232274670151 0.0088356069622987973 0 -0.054547827768107279 0.0090502314820495467 0 -0.054898752526192682 0.0083916244134129674 0 -0.053490628313663774 0.0084117868856051926 0 -0.054547827768107279 0.0090502314820495467 0 -0.055574485024403708 0.0093335176645060469 0 -0.054904467291269569 0.0090095994744890159 0 -0.055140846404088881 0.0094643023437560297 0 -0.055084409272361169 0.0099132369835306013 0 -0.055140846404088881 0.0094643023437560297 0 -0.05443867394514975 0.0096037935569430483 0 -0.054904467291269569 0.0090095994744890159 0 -0.055140846404088881 0.0094643023437560297 0 -0.05443867394514975 0.0096037935569430483 0 -0.055084409272361169 0.0099132369835306013 0 -0.055543946484739246 0.0098285065849942951 0 -0.055140846404088881 0.0094643023437560297 0 -0.04690830056102014 0.014388706882251974 0 -0.046085524952474304 0.010495756907426677 0 -0.049378418951662957 0.011114313242932531 0 -0.019819220631552961 0.018818704121060709 0 -0.01748653615311855 0.019818251688993822 0 -0.012760746519150271 0.017981389523542265 0 -0.013072251882976005 0.017943885380471668 0 -0.012631906184500177 0.017596090307250845 0 -0.013072251882976005 0.017943885380471668 0 -0.012631906184500177 0.017596090307250845 0 -0.013447255787974359 0.016818791208102875 0 -0.012631906184500177 0.017596090307250845 0 -0.011447289969739561 0.016497803900816992 0 -0.010789358109419857 0.017354285861255772 0 -0.012631906184500177 0.017596090307250845 0 -0.011447289969739561 0.016497803900816992 0 -0.012362026123107288 0.016337944843544984 0 -0.011447289969739561 0.016497803900816992 0 -0.012362026123107288 0.016337944843544984 0 -0.011175968973581302 0.015543807990080226 0 -0.012362026123107288 0.016337944843544984 0 -0.013447255787974359 0.016818791208102875 0 -0.013484536138910781 0.016149054666439421 0 -0.012631906184500177 0.017596090307250845 0 -0.012362026123107288 0.016337944843544984 0 -0.013447255787974359 0.016818791208102875 0 -0.014686237963325351 0.016423736800383695 0 -0.013072251882976005 0.017943885380471668 0 -0.013447255787974359 0.016818791208102875 0 -0.033395487644468237 0.010823276313076908 0 -0.031616105713020072 0.012898247462554474 0 -0.013447255787974359 0.016818791208102875 0 -0.014265613036445891 0.01619501633727052 0 -0.013484536138910781 0.016149054666439421 0 -0.014686237963325351 0.016423736800383695 0 -0.013447255787974359 0.016818791208102875 0 -0.014265613036445891 0.01619501633727052 0 -0.033395487644468237 0.010823276313076908 0 -0.028701269847293306 0.010464195211147945 0 -0.0074550398099011749 0.018552656889247451 0 -0.0086994775970464597 0.019692112832934688 0 -0.0068095986185218674 0.020282858467463447 0 -0.0074550398099011749 0.018552656889247451 0 -0.0086994775970464597 0.019692112832934688 0 -0.0091112956886752507 0.017778500689195995 0 -0.010568120743241823 0.020499699834824664 0 -0.012631906184500177 0.017596090307250845 0 -0.010344863847646954 0.018586364533203531 0 -0.0086994775970464597 0.019692112832934688 0 -0.010344863847646954 0.018586364533203531 0 -0.0091112956886752507 0.017778500689195995 0 -0.010568120743241823 0.020499699834824664 0 -0.0086994775970464597 0.019692112832934688 0 -0.010344863847646954 0.018586364533203531 0 -0.012631906184500177 0.017596090307250845 0 -0.010344863847646954 0.018586364533203531 0 -0.010789358109419857 0.017354285861255772 0 -0.011447289969739561 0.016497803900816992 0 -0.010088896238758804 0.016350040531299185 0 -0.011175968973581302 0.015543807990080226 0 -0.011447289969739561 0.016497803900816992 0 -0.010789358109419857 0.017354285861255772 0 -0.010088896238758804 0.016350040531299185 0 -0.010088896238758804 0.016350040531299185 0 -0.0085380697246106411 0.016733679888596201 0 -0.008873435161594263 0.015725057801809602 0 -0.010088896238758804 0.016350040531299185 0 -0.0091112956886752507 0.017778500689195995 0 -0.0085380697246106411 0.016733679888596201 0 -0.010789358109419857 0.017354285861255772 0 -0.010088896238758804 0.016350040531299185 0 -0.0091112956886752507 0.017778500689195995 0 -0.010344863847646954 0.018586364533203531 0 -0.010789358109419857 0.017354285861255772 0 -0.0091112956886752507 0.017778500689195995 0 -0.0091112956886752507 0.017778500689195995 0 -0.0085380697246106411 0.016733679888596201 0 -0.0074656273677644498 0.017240740216411178 0 -0.0085380697246106411 0.016733679888596201 0 -0.0074656273677644498 0.017240740216411178 0 -0.0073145508712186063 0.015824850152242772 0 -0.0074656273677644498 0.017240740216411178 0 -0.0073145508712186063 0.015824850152242772 0 -0.0060635811363798373 0.016558468475140767 0 -0.0074550398099011749 0.018552656889247451 0 -0.0074656273677644498 0.017240740216411178 0 -0.0067927420987748434 0.017677008120242147 0 -0.0074550398099011749 0.018552656889247451 0 -0.0091112956886752507 0.017778500689195995 0 -0.0074656273677644498 0.017240740216411178 0 -0.0073145508712186063 0.015824850152242772 0 -0.0081305691457972985 0.0144335674186127 0 -0.0065599029740135983 0.014305761308498432 0 -0.0085380697246106411 0.016733679888596201 0 -0.0073145508712186063 0.015824850152242772 0 -0.008873435161594263 0.015725057801809602 0 -0.008873435161594263 0.015725057801809602 0 -0.0081305691457972985 0.0144335674186127 0 -0.0099788206411713289 0.015000579651691907 0 -0.0073145508712186063 0.015824850152242772 0 -0.008873435161594263 0.015725057801809602 0 -0.0081305691457972985 0.0144335674186127 0 -0.0070603583172561928 0.010511931009512268 0 -0.011483049140544422 0.010730751874355942 0 -0.0099788206411713289 0.015000579651691907 0 -0.0094275363483513081 0.013320756060307113 0 -0.012176429036321693 0.014544164624338114 0 -0.0081305691457972985 0.0144335674186127 0 -0.0099788206411713289 0.015000579651691907 0 -0.0094275363483513081 0.013320756060307113 0 -0.010088896238758804 0.016350040531299185 0 -0.008873435161594263 0.015725057801809602 0 -0.0099788206411713289 0.015000579651691907 0 -0.0099788206411713289 0.015000579651691907 0 -0.011175968973581302 0.015543807990080226 0 -0.012176429036321693 0.014544164624338114 0 -0.010088896238758804 0.016350040531299185 0 -0.0099788206411713289 0.015000579651691907 0 -0.011175968973581302 0.015543807990080226 0 0.0010704009905616225 0.010971329186740552 0 0.00016064321077773451 0.010728792468542199 0 0.0015750501817058556 0.010118910817770188 0 0.0010704009905616225 0.010971329186740552 0 0.00058666018300465583 0.011634073801081439 0 0.0016633291508068168 0.011741538109271352 0 0.0010704009905616225 0.010971329186740552 0 0.00058666018300465583 0.011634073801081439 0 0.00016064321077773451 0.010728792468542199 0 -0.0081305691457972985 0.0144335674186127 0 -0.0065599029740135983 0.014305761308498432 0 -0.0065237126424408367 0.012170211081271504 0 0.00058666018300465583 0.011634073801081439 0 0.00016064321077773451 0.010728792468542199 0 -0.0012892665973499513 0.011058054654855008 0 -0.0070603583172561928 0.010511931009512268 0 -0.005368255921228777 0.010610709029053107 0 -0.0081305691457972985 0.0144335674186127 0 -0.0094275363483513081 0.013320756060307113 0 -0.0065237126424408367 0.012170211081271504 0 -0.028701269847293306 0.010464195211147945 0 -0.011483049140544422 0.010730751874355942 0 -0.019295834788997306 0.0074994647353936539 0 -0.020458604413764209 0.0080327450386094481 0 -0.019233284284200555 0.0082980134088271058 0 -0.014483045431408451 0.01614644533392233 0 -0.013484536138910781 0.016149054666439421 0 -0.012021459813808869 0.014844026036229337 0 -0.031476006467655922 0.010200545539445931 0 -0.02207156015258421 0.0089608902590315211 0 -0.019072727467251027 0.0075101163558378686 0 -0.019295834788997306 0.0074994647353936539 0 -0.019233284284200555 0.0082980134088271058 0 -0.031476006467655922 0.010200545539445931 0 -0.028701269847293306 0.010464195211147945 0 -0.028941597774711923 0.010641726437740364 0 -0.027869652164820378 0.0059858371908754603 0 -0.037259002986002356 0.010272167567015896 0 -0.028701269847293306 0.010464195211147945 0 -0.026937631917429192 0.010698144187724442 0 -0.012362026123107288 0.016337944843544984 0 -0.013484536138910781 0.016149054666439421 0 -0.012021459813808869 0.014844026036229337 0 -0.012362026123107288 0.016337944843544984 0 -0.011175968973581302 0.015543807990080226 0 -0.012021459813808869 0.014844026036229337 0 -0.011254712250263494 0.011118918486778399 0 -0.011483049140544422 0.010730751874355942 0 0.0010704009905616225 0.010971329186740552 0 0.0015750501817058556 0.010118910817770188 0 0.0016633291508068168 0.011741538109271352 0 -0.011483049140544422 0.010730751874355942 0 -0.013843639373878546 0.010033408324804507 0 0.0015750501817058556 0.010118910817770188 0 0.0016633291508068168 0.011741538109271352 0 0.0032548623948351358 0.011822434996707272 0 -0.020458604413764209 0.0080327450386094481 0 -0.019233284284200555 0.0082980134088271058 0 -0.019398621914668488 0.0090873197811995651 0 -0.02207156015258421 0.0089608902590315211 0 -0.013843639373878546 0.010033408324804507 0 -0.015921889892905671 0.0059738339780303204 0 -0.016928640491140578 0.0052499549336941743 0 -0.0173886916399319 0.0073192194928027457 0 0.0032548623948351358 0.011822434996707272 0 0.0021873759050348978 0.012686154175171493 0 0.0025727228240616626 0.013972238034805665 0 0.0024272602184929712 0.014657287359035487 0 0.0023459286215111105 0.014342849187912558 0 0.0025727228240616626 0.013972238034805665 0 -0.013843639373878546 0.010033408324804507 0 -0.011322883703781862 0.010581132663038484 0 0.0016633291508068168 0.011741538109271352 0 0.0032548623948351358 0.011822434996707272 0 0.0021873759050348978 0.012686154175171493 0 0.0014914647578196162 0.013086149231321316 0 0.0021873759050348978 0.012686154175171493 0 0.0025727228240616626 0.013972238034805665 0 0.00058666018300465583 0.011634073801081439 0 0.0016633291508068168 0.011741538109271352 0 0.0014914647578196162 0.013086149231321316 0 0.0016633291508068168 0.011741538109271352 0 0.0014914647578196162 0.013086149231321316 0 0.0021873759050348978 0.012686154175171493 0 0.0014914647578196162 0.013086149231321316 0 0.0015476964868909784 0.014075685151105931 0 0.0024133493430528582 0.014314094087380883 0 0.0014914647578196162 0.013086149231321316 0 0.0025727228240616626 0.013972238034805665 0 0.0024133493430528582 0.014314094087380883 0 0.0025727228240616626 0.013972238034805665 0 0.0024133493430528582 0.014314094087380883 0 0.0023479094815455079 0.014449294149604171 0 0.0023459286215111105 0.014342849187912558 0 0.0025727228240616626 0.013972238034805665 0 0.0023479094815455079 0.014449294149604171 0 0.00058666018300465583 0.011634073801081439 0 0.00017489209430525786 0.012432054520958731 0 -0.0012892665973499513 0.011058054654855008 0 0.00017489209430525786 0.012432054520958731 0 -0.00069239031534173653 0.012786235281406972 0 -0.0012892665973499513 0.011058054654855008 0 -0.00069239031534173653 0.012786235281406972 0 -0.0012892665973499513 0.011058054654855008 0 -0.0017494436596964739 0.012428487177341933 0 0.00058666018300465583 0.011634073801081439 0 0.0014914647578196162 0.013086149231321316 0 0.00017489209430525786 0.012432054520958731 0 0.0014914647578196162 0.013086149231321316 0 0.00017489209430525786 0.012432054520958731 0 0.00052773538045614802 0.013466093760775654 0 0.0014914647578196162 0.013086149231321316 0 0.00052773538045614802 0.013466093760775654 0 0.0015476964868909784 0.014075685151105931 0 0.00017489209430525786 0.012432054520958731 0 0.00052773538045614802 0.013466093760775654 0 -0.00069239031534173653 0.012786235281406972 0 0.00052773538045614802 0.013466093760775654 0 -0.00056743728275706457 0.013783101011088643 0 -0.00069239031534173653 0.012786235281406972 0 -0.00056743728275706457 0.013783101011088643 0 -0.00069239031534173653 0.012786235281406972 0 -0.0014448017591351223 0.013283549224905711 0 -0.00050122593077395162 0.014621724333146079 0 0.00061909914595570934 0.014753736259390214 0 -0.00096003259129269719 0.015452605036214833 0 0.00052773538045614802 0.013466093760775654 0 -0.00056743728275706457 0.013783101011088643 0 0.00061909914595570934 0.014753736259390214 0 -0.00050122593077395162 0.014621724333146079 0 -0.00096003259129269719 0.015452605036214833 0 -0.0017109262685658664 0.014318127470510505 0 -0.00056743728275706457 0.013783101011088643 0 -0.00050122593077395162 0.014621724333146079 0 -0.0017109262685658664 0.014318127470510505 0 -0.00056743728275706457 0.013783101011088643 0 -0.00050122593077395162 0.014621724333146079 0 0.00061909914595570934 0.014753736259390214 0 0.0015476964868909784 0.014075685151105931 0 0.00061909914595570934 0.014753736259390214 0 0.0022750870846817025 0.014703173659356977 0 0.00052773538045614802 0.013466093760775654 0 0.0015476964868909784 0.014075685151105931 0 0.00061909914595570934 0.014753736259390214 0 0.0015660521271763127 0.015193649979180497 0 -2.1642953104582176e-05 0.01600823858824121 0 0.0011685875433396077 0.01624850941923401 0 0.00061909914595570934 0.014753736259390214 0 0.0015660521271763127 0.015193649979180497 0 0.0022750870846817025 0.014703173659356977 0 0.00061909914595570934 0.014753736259390214 0 0.0015660521271763127 0.015193649979180497 0 -2.1642953104582176e-05 0.01600823858824121 0 0.0015660521271763127 0.015193649979180497 0 0.0028376001694446918 0.015147134620845194 0 0.0011685875433396077 0.01624850941923401 0 0.00061909914595570934 0.014753736259390214 0 -2.1642953104582176e-05 0.01600823858824121 0 -0.00096003259129269719 0.015452605036214833 0 -2.1642953104582176e-05 0.01600823858824121 0 -0.00096003259129269719 0.015452605036214833 0 -0.0019654671387966164 0.016262009177966795 0 0.0024005594524780616 0.014624975967000521 0 0.0024133493430528582 0.014314094087380883 0 0.0023479094815455079 0.014449294149604171 0 0.0025648937147107645 0.014625175917574517 0 0.0024005594524780616 0.014624975967000521 0 0.0024458076234963747 0.014673323316653481 0 0.0025648937147107645 0.014625175917574517 0 0.0024005594524780616 0.014624975967000521 0 0.0024133493430528582 0.014314094087380883 0 0.0015476964868909784 0.014075685151105931 0 0.0024133493430528582 0.014314094087380883 0 0.0022750870846817025 0.014703173659356977 0 0.0025648937147107645 0.014625175917574517 0 0.0024133493430528582 0.014314094087380883 0 0.0022750870846817025 0.014703173659356977 0 0.0025648937147107645 0.014625175917574517 0 0.0022750870846817025 0.014703173659356977 0 0.0028929347420516222 0.014773214586695416 0 0.0022750870846817025 0.014703173659356977 0 0.0028376001694446918 0.015147134620845194 0 0.0028929347420516222 0.014773214586695416 0 0.0015660521271763127 0.015193649979180497 0 0.0022750870846817025 0.014703173659356977 0 0.0028376001694446918 0.015147134620845194 0 0.0028376001694446918 0.015147134620845194 0 0.0028929347420516222 0.014773214586695416 0 0.0033954453798367467 0.014457718309077005 0 0.0025648937147107645 0.014625175917574517 0 0.0028929347420516222 0.014773214586695416 0 0.0024458076234963747 0.014673323316653481 0 0.0028929347420516222 0.014773214586695416 0 0.0025122785748550231 0.014379348749295891 0 0.0031779555045329702 0.014081377050315053 0 0.0028929347420516222 0.014773214586695416 0 0.0024458076234963747 0.014673323316653481 0 0.0025122785748550231 0.014379348749295891 0 0.0025122785748550231 0.014379348749295891 0 0.0018525212875210055 0.0145960466894434 0 0.0018645319712956852 0.013997755012798907 0 0.0018525212875210055 0.0145960466894434 0 0.0011973580345640473 0.01430343000286278 0 0.0018645319712956852 0.013997755012798907 0 0.0024458076234963747 0.014673323316653481 0 0.0025122785748550231 0.014379348749295891 0 0.0018525212875210055 0.0145960466894434 0 0.0024458076234963747 0.014673323316653481 0 0.0018525212875210055 0.0145960466894434 0 0.0020881849525130562 0.014733076915618032 0 0.0024005594524780616 0.014624975967000521 0 0.0024458076234963747 0.014673323316653481 0 0.0020881849525130562 0.014733076915618032 0 0.0020881849525130562 0.014733076915618032 0 0.0018997814419894098 0.014749413201861801 0 0.0016125778603798557 0.014814238897107472 0 0.0018525212875210055 0.0145960466894434 0 0.0020881849525130562 0.014733076915618032 0 0.0016125778603798557 0.014814238897107472 0 0.0020881849525130562 0.014733076915618032 0 0.0018997814419894098 0.014749413201861801 0 0.0023479094815455079 0.014449294149604171 0 0.0024005594524780616 0.014624975967000521 0 0.0020881849525130562 0.014733076915618032 0 0.0023479094815455079 0.014449294149604171 0 0.0018997814419894098 0.014749413201861801 0 0.0012647106165592408 0.015058779552679391 0 0.0016125778603798557 0.014814238897107472 0 0.0012647106165592408 0.015058779552679391 0 0.0016125778603798557 0.014814238897107472 0 0.0010127088170061582 0.014790483178331145 0 0.0018525212875210055 0.0145960466894434 0 0.0016125778603798557 0.014814238897107472 0 0.0010127088170061582 0.014790483178331145 0 0.0018525212875210055 0.0145960466894434 0 0.0010127088170061582 0.014790483178331145 0 0.0011973580345640473 0.01430343000286278 0 0.0010127088170061582 0.014790483178331145 0 0.00036943678887376737 0.01441448882714183 0 0.0011973580345640473 0.01430343000286278 0 0.0012647106165592408 0.015058779552679391 0 0.0010127088170061582 0.014790483178331145 0 -5.2979211218438649e-05 0.014842088411499706 0 0.0013852094037772587 0.022167835026696465 0 -0.00039578476761701405 0.018450832362958552 0 -0.0013846940392281432 0.019445327998242334 0 0.0010127088170061582 0.014790483178331145 0 -5.2979211218438649e-05 0.014842088411499706 0 0.00036943678887376737 0.01441448882714183 0 -0.00039578476761701405 0.018450832362958552 0 -0.0013846940392281432 0.019445327998242334 0 -0.0044303708426477262 0.016581732277011686 0 -0.010287304384042616 0.013238047129967668 0 -0.0090989801682694674 0.013471242536164912 0 -0.0086657441127403149 0.014224900107342325 0 -0.006130647568499608 0.015252311611448329 0 -0.0066077270229672009 0.014975311248614901 0 -0.010287304384042616 0.013238047129967668 0 -0.0090989801682694674 0.013471242536164912 0 -0.0096440271789765275 0.012596389312549817 0 -0.0090989801682694674 0.013471242536164912 0 -0.00876297651883284 0.012627790279602294 0 -0.0096440271789765275 0.012596389312549817 0 -0.028127936758096553 0.015024281385230523 0 -0.028881022076029342 0.014772633473810661 0 -0.00876297651883284 0.012627790279602294 0 -0.010057014332744838 0.011711212079757395 0 -0.010552302037180191 0.010133464933556345 0 -0.047413629366346396 0.018352526860043707 0 -0.045721670722909766 0.02056326415313221 0 -0.04731555101012843 0.020018674696159956 0 -0.00876297651883284 0.012627790279602294 0 -0.0096440271789765275 0.012596389312549817 0 -0.010057014332744838 0.011711212079757395 0 -0.010287304384042616 0.013238047129967668 0 -0.0096440271789765275 0.012596389312549817 0 -0.010057014332744838 0.011711212079757395 0 -0.012186333515629855 0.011703700480069077 0 -0.010287304384042616 0.013238047129967668 0 -0.010057014332744838 0.011711212079757395 0 -0.012186333515629855 0.011703700480069077 0 -0.010057014332744838 0.011711212079757395 0 -0.01081873272111066 0.011014759222110811 0 -0.0066265896599085944 0.014250471210534969 0 -0.0037058504967363661 0.016206859847566521 0 -0.0066265896599085944 0.014250471210534969 0 -0.006130647568499608 0.015252311611448329 0 -0.012186333515629855 0.011703700480069077 0 -0.011427157309390361 0.010526055746070198 0 -0.012438244140590226 0.010071242580490332 0 -0.012186333515629855 0.011703700480069077 0 -0.011427157309390361 0.010526055746070198 0 -0.01081873272111066 0.011014759222110811 0 -0.011427157309390361 0.010526055746070198 0 -0.01081873272111066 0.011014759222110811 0 -0.010552302037180191 0.010133464933556345 0 -0.010057014332744838 0.011711212079757395 0 -0.01081873272111066 0.011014759222110811 0 -0.010552302037180191 0.010133464933556345 0 -0.011427157309390361 0.010526055746070198 0 -0.010552302037180191 0.010133464933556345 0 -0.0113430495311371 0.0096785423966300171 0 -0.011427157309390361 0.010526055746070198 0 -0.0113430495311371 0.0096785423966300171 0 -0.012438244140590226 0.010071242580490332 0 -0.0113430495311371 0.0096785423966300171 0 -0.012280491383561324 0.0094742660869453505 0 -0.012438244140590226 0.010071242580490332 0 -0.045721670722909766 0.02056326415313221 0 -0.04731555101012843 0.020018674696159956 0 -0.046566968265518704 0.020974317098442524 0 -0.045721670722909766 0.02056326415313221 0 -0.046566968265518704 0.020974317098442524 0 -0.045785583104726239 0.021589726566179038 0 -0.04731555101012843 0.020018674696159956 0 -0.046566968265518704 0.020974317098442524 0 -0.047358141501974378 0.020972936495731898 0 -0.046733067883936483 0.021644024415374403 0 -0.047868445574297938 0.021602090949999261 0 -0.047478872369658365 0.022356527656410257 0 -0.047358141501974378 0.020972936495731898 0 -0.046733067883936483 0.021644024415374403 0 -0.047868445574297938 0.021602090949999261 0 -0.046566968265518704 0.020974317098442524 0 -0.047358141501974378 0.020972936495731898 0 -0.046733067883936483 0.021644024415374403 0 -0.046566968265518704 0.020974317098442524 0 -0.046733067883936483 0.021644024415374403 0 -0.045785583104726239 0.021589726566179038 0 -0.046733067883936483 0.021644024415374403 0 -0.045785583104726239 0.021589726566179038 0 -0.045830599559262164 0.022393922849958885 0 -0.046733067883936483 0.021644024415374403 0 -0.046710385647896098 0.022648721644207788 0 -0.045830599559262164 0.022393922849958885 0 -0.046733067883936483 0.021644024415374403 0 -0.046710385647896098 0.022648721644207788 0 -0.047478872369658365 0.022356527656410257 0 -0.04401314227473125 0.022762340866003792 0 -0.045785583104726239 0.021589726566179038 0 -0.045830599559262164 0.022393922849958885 0 -0.032133812836695051 0.011494100896911523 0 -0.028881022076029342 0.014772633473810661 0 -0.04401314227473125 0.022762340866003792 0 -0.045721670722909766 0.02056326415313221 0 -0.045785583104726239 0.021589726566179038 0 -0.0113430495311371 0.0096785423966300171 0 -0.012992415430142974 0.0075094743440919029 0 -0.012531930973199285 0.0088816915620272083 0 -0.012972679690258816 0.0071066767952191702 0 -0.010552302037180191 0.010133464933556345 0 -0.0113430495311371 0.0096785423966300171 0 -0.025068367579291026 0.01301249567372125 0 -0.030517396914042462 0.010556203397686131 0 -0.0113430495311371 0.0096785423966300171 0 -0.012280491383561324 0.0094742660869453505 0 -0.012531930973199285 0.0088816915620272083 0 -0.012992415430142974 0.0075094743440919029 0 -0.013169503212186112 0.0083355909602005323 0 -0.012531930973199285 0.0088816915620272083 0 -0.012972679690258816 0.0071066767952191702 0 -0.0113430495311371 0.0096785423966300171 0 -0.013283924704325576 0.0072493989000841355 0 -0.012992415430142974 0.0075094743440919029 0 -0.013169503212186112 0.0083355909602005323 0 -0.013537513800941533 0.0080528613721402593 0 -0.012818560268417776 0.009261947373257931 0 -0.014001193536056269 0.0086233917570903533 0 -0.012438244140590226 0.010071242580490332 0 -0.013169503212186112 0.0083355909602005323 0 -0.012531930973199285 0.0088816915620272083 0 -0.013174024356934081 0.0088173250437893324 0 -0.012531930973199285 0.0088816915620272083 0 -0.013174024356934081 0.0088173250437893324 0 -0.012818560268417776 0.009261947373257931 0 -0.012280491383561324 0.0094742660869453505 0 -0.012531930973199285 0.0088816915620272083 0 -0.012818560268417776 0.009261947373257931 0 -0.013174024356934081 0.0088173250437893324 0 -0.012818560268417776 0.009261947373257931 0 -0.014001193536056269 0.0086233917570903533 0 -0.013174024356934081 0.0088173250437893324 0 -0.013489947757049607 0.0085429761440421713 0 -0.014001193536056269 0.0086233917570903533 0 -0.013169503212186112 0.0083355909602005323 0 -0.013174024356934081 0.0088173250437893324 0 -0.013489947757049607 0.0085429761440421713 0 -0.013489947757049607 0.0085429761440421713 0 -0.014001193536056269 0.0086233917570903533 0 -0.013666862788918701 0.0082901689740926005 0 -0.012970160453632935 0.0074074817896404932 0 -0.014091239759129287 0.0074222063792886168 0 -0.014340934821113958 0.0080636490512675778 0 -0.012992415430142974 0.0075094743440919029 0 -0.013537513800941533 0.0080528613721402593 0 -0.014340934821113958 0.0080636490512675778 0 -0.013666862788918701 0.0082901689740926005 0 -0.013537513800941533 0.0080528613721402593 0 -0.014340934821113958 0.0080636490512675778 0 -0.014001193536056269 0.0086233917570903533 0 -0.013666862788918701 0.0082901689740926005 0 -0.014340934821113958 0.0080636490512675778 0 -0.030517396914042462 0.010556203397686131 0 -0.027810623284692391 0.0095479688426228938 0 -0.013169503212186112 0.0083355909602005323 0 -0.013666862788918701 0.0082901689740926005 0 -0.013537513800941533 0.0080528613721402593 0 -0.013169503212186112 0.0083355909602005323 0 -0.013489947757049607 0.0085429761440421713 0 -0.013666862788918701 0.0082901689740926005 0 -0.0173886916399319 0.0073192194928027457 0 -0.015417849737435587 0.0081538001324050289 0 -0.014756734044424187 0.0099561810648211516 0 -0.014804329616834111 0.0073204818206446714 0 -0.014091239759129287 0.0074222063792886168 0 -0.014340934821113958 0.0080636490512675778 0 -0.015692637088156713 0.0070342781535484436 0 -0.014804329616834111 0.0073204818206446714 0 -0.015417849737435587 0.0081538001324050289 0 0.0024272602184929712 0.014657287359035487 0 0.0023459286215111105 0.014342849187912558 0 0.002083106733375281 0.014564232489830886 0 -0.014804329616834111 0.0073204818206446714 0 -0.015417849737435587 0.0081538001324050289 0 -0.014340934821113958 0.0080636490512675778 0 -0.013843639373878546 0.010033408324804507 0 -0.0086033544256804775 0.012929405821501993 0 -0.014001193536056269 0.0086233917570903533 0 -0.014340934821113958 0.0080636490512675778 0 -0.014627301780998156 0.0086923278798244578 0 -0.015417849737435587 0.0081538001324050289 0 -0.014340934821113958 0.0080636490512675778 0 -0.014627301780998156 0.0086923278798244578 0 -0.015692637088156713 0.0070342781535484436 0 -0.0173886916399319 0.0073192194928027457 0 -0.015417849737435587 0.0081538001324050289 0 -0.015417849737435587 0.0081538001324050289 0 -0.014627301780998156 0.0086923278798244578 0 -0.014756734044424187 0.0099561810648211516 0 -0.014001193536056269 0.0086233917570903533 0 -0.014627301780998156 0.0086923278798244578 0 -0.014756734044424187 0.0099561810648211516 0 0.0023459286215111105 0.014342849187912558 0 0.002083106733375281 0.014564232489830886 0 0.0023479094815455079 0.014449294149604171 0 0.0018997814419894098 0.014749413201861801 0 0.002083106733375281 0.014564232489830886 0 0.0023479094815455079 0.014449294149604171 0 -0.011894032288546184 0.012762001173723347 0 -0.014001193536056269 0.0086233917570903533 0 -0.014756734044424187 0.0099561810648211516 0 -0.0066265896599085944 0.014250471210534969 0 -0.0086033544256804775 0.012929405821501993 0 0.0018997814419894098 0.014749413201861801 0 0.0012647106165592408 0.015058779552679391 0 0.002083106733375281 0.014564232489830886 0 -0.0066265896599085944 0.014250471210534969 0 -0.0099613756326503017 0.01017092436061043 0 -0.012186333515629855 0.011703700480069077 0 -0.014001193536056269 0.0086233917570903533 0 -0.012438244140590226 0.010071242580490332 0 -0.012280491383561324 0.0094742660869453505 0 -0.012818560268417776 0.009261947373257931 0 -0.012438244140590226 0.010071242580490332 0 -0.040734043296151788 -2.8380388534142237e-06 0 -0.039148177766489697 0.00027677707700190927 0 -0.035613734041999266 3.519386582590312e-06 0 -0.037296348198405993 0.00050094263483742123 0 -0.039148177766489697 0.00027677707700190927 0 -0.035613734041999266 3.519386582590312e-06 0 -0.037296348198405993 0.00050094263483742123 0 -0.036977240005572863 0.00035045726843309491 0 -0.035108841437451452 0.0012590674454258032 0 -0.037296348198405993 0.00050094263483742123 0 -0.036977240005572863 0.00035045726843309491 0 -0.039148177766489697 0.00027677707700190927 0 -0.038170390084336751 -0.0010166142035653502 0 -0.039148177766489697 0.00027677707700190927 0 -0.04294684132577653 -0.0016961451258057935 0 -0.036977240005572863 0.00035045726843309491 0 -0.038170390084336751 -0.0010166142035653502 0 -0.039148177766489697 0.00027677707700190927 0 -0.040734043296151788 -2.8380388534142237e-06 0 -0.039148177766489697 0.00027677707700190927 0 -0.04294684132577653 -0.0016961451258057935 0 -0.040734043296151788 -2.8380388534142237e-06 0 -0.045562386795215667 -0.00050947550434856639 0 -0.045852443446334892 -3.0863421283702288e-07 0 -0.040734043296151788 -2.8380388534142237e-06 0 -0.045562386795215667 -0.00050947550434856639 0 -0.04294684132577653 -0.0016961451258057935 0 -0.048939046597834455 0.00036915587323174481 0 -0.045562386795215667 -0.00050947550434856639 0 -0.045852443446334892 -3.0863421283702288e-07 0 -0.048939046597834455 0.00036915587323174481 0 -0.045562386795215667 -0.00050947550434856639 0 -0.048323402953885181 -0.00012292368926795544 0 -0.048323402953885181 -0.00012292368926795544 0 -0.04294684132577653 -0.0016961451258057935 0 -0.051104409372998143 -0.0024963552590789649 0 -0.038170390084336751 -0.0010166142035653502 0 -0.04294684132577653 -0.0016961451258057935 0 -0.034599965728147476 -0.0036212420484294065 0 -0.045562386795215667 -0.00050947550434856639 0 -0.048323402953885181 -0.00012292368926795544 0 -0.04294684132577653 -0.0016961451258057935 0 -0.042599531275262073 -0.00098850958257427164 0 -0.042097667295428437 -0.00074843115706173041 0 -0.038170390084336751 -0.0010166142035653502 0 -0.034599965728147476 -0.0036212420484294065 0 -0.030919896132373951 -0.001550110437406811 0 -0.051659004897287614 0.00081200380631107373 0 -0.048323402953885181 -0.00012292368926795544 0 -0.050866032955838338 -0.0002837450977598097 0 -0.051104409372998143 -0.0024963552590789649 0 -0.050866032955838338 -0.0002837450977598097 0 -0.052555319929479247 -1.3880137027935777e-05 0 -0.051659004897287614 0.00081200380631107373 0 -0.050866032955838338 -0.0002837450977598097 0 -0.052555319929479247 -1.3880137027935777e-05 0 -0.048323402953885181 -0.00012292368926795544 0 -0.051104409372998143 -0.0024963552590789649 0 -0.050866032955838338 -0.0002837450977598097 0 -0.052555319929479247 -1.3880137027935777e-05 0 -0.053758052159242002 -0.0014374324716636675 0 -0.053934051153854932 -0.00027205149731047496 0 -0.054079599313062138 0.00049138461739789429 0 -0.052555319929479247 -1.3880137027935777e-05 0 -0.053934051153854932 -0.00027205149731047496 0 -0.042097667295428437 -0.00074843115706173041 0 -0.040899003601820326 0.00044129097609955643 0 -0.030919896132373951 -0.001550110437406811 0 -0.026512194024698982 0.00023232230812971288 0 -0.027853031681272289 -0.0041041987881180221 0 -0.034599965728147476 -0.0036212420484294065 0 -0.030919896132373951 -0.001550110437406811 0 -0.027853031681272289 -0.0041041987881180221 0 -0.051104409372998143 -0.0024963552590789649 0 -0.052555319929479247 -1.3880137027935777e-05 0 -0.053758052159242002 -0.0014374324716636675 0 -0.030287060388646401 0.0025330365378736282 0 -0.030919896132373951 -0.001550110437406811 0 -0.026512194024698982 0.00023232230812971288 0 -0.035037241387687941 0.0003312792366299554 0 -0.032686243905992625 0.0015270589458042491 0 -0.038170390084336751 -0.0010166142035653502 0 -0.030287060388646401 0.0025330365378736282 0 -0.030919896132373951 -0.001550110437406811 0 -0.036977240005572863 0.00035045726843309491 0 -0.038170390084336751 -0.0010166142035653502 0 -0.033400007967338233 0.00028617656743178241 0 -0.036977240005572863 0.00035045726843309491 0 -0.033400007967338233 0.00028617656743178241 0 -0.035108841437451452 0.0012590674454258032 0 -0.033400007967338233 0.00028617656743178241 0 -0.03312049910359164 0.0011097742663822609 0 -0.033345892184978347 0.0011442475757213741 0 -0.033400007967338233 0.00028617656743178241 0 -0.033775864736511271 0.0012236814551959574 0 -0.033345892184978347 0.0011442475757213741 0 -0.033400007967338233 0.00028617656743178241 0 -0.035108841437451452 0.0012590674454258032 0 -0.033775864736511271 0.0012236814551959574 0 -0.030287060388646401 0.0025330365378736282 0 -0.023073814095574272 0.0060743034482477884 0 -0.02551574552665014 0.0023739765793587288 0 -0.032686243905992625 0.0015270589458042491 0 -0.031939865120183743 0.0022155453197490009 0 -0.033400007967338233 0.00028617656743178241 0 -0.032879356632319418 0.00097343973152520585 0 -0.03312049910359164 0.0011097742663822609 0 -0.023073814095574272 0.0060743034482477884 0 -0.022220370899984056 0.00066767561479849234 0 -0.02551574552665014 0.0023739765793587288 0 -0.02971359659262577 0.0048962375677375778 0 -0.03015090096013744 0.0066991157824911754 0 -0.031939865120183743 0.0022155453197490009 0 -0.036756083643761851 0.001616008809115932 0 -0.054043326163080739 -0.0014203960577155489 0 -0.054222608267181817 -0.0015108879065777489 0 -0.054221903063309804 -0.00075209205912159563 0 -0.054222608267181817 -0.0015108879065777489 0 -0.054221903063309804 -0.00075209205912159563 0 -0.054718970359459412 -0.00080951403682198459 0 -0.031939865120183743 0.0022155453197490009 0 -0.02971359659262577 0.0048962375677375778 0 -0.054221903063309804 -0.00075209205912159563 0 -0.054631270737013654 -0.00042392171504781681 0 -0.054718970359459412 -0.00080951403682198459 0 -0.022220370899984056 0.00066767561479849234 0 -0.02551574552665014 0.0023739765793587288 0 -0.026512194024698982 0.00023232230812971288 0 -0.022220370899984056 0.00066767561479849234 0 -0.026512194024698982 0.00023232230812971288 0 -0.024437454769249904 -0.001737009894835234 0 -0.030287060388646401 0.0025330365378736282 0 -0.02551574552665014 0.0023739765793587288 0 -0.026512194024698982 0.00023232230812971288 0 -0.026512194024698982 0.00023232230812971288 0 -0.024437454769249904 -0.001737009894835234 0 -0.027853031681272289 -0.0041041987881180221 0 -0.053758052159242002 -0.0014374324716636675 0 -0.054341068246248125 -0.00053506790682035185 0 -0.054822609435983827 -0.00056898536667404674 0 -0.040899003601820326 0.00044129097609955643 0 -0.041366605853330705 0.0033965942538857945 0 -0.024437454769249904 -0.001737009894835234 0 -0.027853031681272289 -0.0041041987881180221 0 -0.021392756308853251 -0.0047312914410174252 0 -0.053758052159242002 -0.0014374324716636675 0 -0.053934051153854932 -0.00027205149731047496 0 -0.054341068246248125 -0.00053506790682035185 0 -0.053934051153854932 -0.00027205149731047496 0 -0.054341068246248125 -0.00053506790682035185 0 -0.054457971327932925 6.5158988500564611e-06 0 -0.054079599313062138 0.00049138461739789429 0 -0.053934051153854932 -0.00027205149731047496 0 -0.054457971327932925 6.5158988500564611e-06 0 -0.054690592952715528 0.00047044686892773989 0 -0.054457971327932925 6.5158988500564611e-06 0 -0.054769391914655408 0.00011986313019541333 0 -0.054457971327932925 6.5158988500564611e-06 0 -0.054769391914655408 0.00011986313019541333 0 -0.054790910127936639 -0.00022891184121205885 0 -0.054341068246248125 -0.00053506790682035185 0 -0.054790910127936639 -0.00022891184121205885 0 -0.054822609435983827 -0.00056898536667404674 0 -0.054341068246248125 -0.00053506790682035185 0 -0.054457971327932925 6.5158988500564611e-06 0 -0.054790910127936639 -0.00022891184121205885 0 -0.054769391914655408 0.00011986313019541333 0 -0.054790910127936639 -0.00022891184121205885 0 -0.05485034254289177 4.6987163185686131e-05 0 -0.036756083643761851 0.001616008809115932 0 -0.041366605853330705 0.0033965942538857945 0 -0.054790910127936639 -0.00022891184121205885 0 -0.054797407666794112 -0.00016082955702035844 0 -0.054735853830234847 -0.00014358837805012451 0 -0.054401043323070337 -0.00014549034588019245 0 -0.054631270737013654 -0.00042392171504781681 0 -0.054735853830234847 -0.00014358837805012451 0 -0.041366605853330705 0.0033965942538857945 0 -0.042900298657840771 0.0034052095740615407 0 -0.054221903063309804 -0.00075209205912159563 0 -0.054401043323070337 -0.00014549034588019245 0 -0.054631270737013654 -0.00042392171504781681 0 -0.022220370899984056 0.00066767561479849234 0 -0.024437454769249904 -0.001737009894835234 0 -0.021392756308853251 -0.0047312914410174252 0 -0.041552764552305416 0.0032737583974452368 0 -0.041366605853330705 0.0033965942538857945 0 -0.054631270737013654 -0.00042392171504781681 0 -0.055095532627701678 -0.00017463679454832363 0 -0.054718970359459412 -0.00080951403682198459 0 -0.054631270737013654 -0.00042392171504781681 0 -0.054735853830234847 -0.00014358837805012451 0 -0.055095532627701678 -0.00017463679454832363 0 -0.030905797827072316 0.0082160170051847805 0 -0.03015090096013744 0.0066991157824911754 0 -0.054735853830234847 -0.00014358837805012451 0 -0.055013425784340125 0.00013837988438385602 0 -0.05485034254289177 4.6987163185686131e-05 0 -0.054790910127936639 -0.00022891184121205885 0 -0.054735853830234847 -0.00014358837805012451 0 -0.05485034254289177 4.6987163185686131e-05 0 -0.054735853830234847 -0.00014358837805012451 0 -0.055013425784340125 0.00013837988438385602 0 -0.055095532627701678 -0.00017463679454832363 0 -0.054913285218385857 0.00031332601862847696 0 -0.054769391914655408 0.00011986313019541333 0 -0.05485034254289177 4.6987163185686131e-05 0 -0.054913285218385857 0.00031332601862847696 0 -0.055013425784340125 0.00013837988438385602 0 -0.05485034254289177 4.6987163185686131e-05 0 -0.031857460844140824 0.0092539433265071882 0 -0.030905797827072316 0.0082160170051847805 0 -0.055013425784340125 0.00013837988438385602 0 -0.055285999719220699 0.00034386005998657374 0 -0.055095532627701678 -0.00017463679454832363 0 -0.0068095986185218674 0.020282858467463447 0 -0.0061573439027668032 0.018308034235747471 0 -0.0053420050232466671 0.017601679432964919 0 -0.05506415179872598 0.00048611349377774665 0 -0.055013425784340125 0.00013837988438385602 0 -0.055285999719220699 0.00034386005998657374 0 -0.0074550398099011749 0.018552656889247451 0 -0.0068095986185218674 0.020282858467463447 0 -0.0061573439027668032 0.018308034235747471 0 -0.0061573439027668032 0.018308034235747471 0 -0.0067927420987748434 0.017677008120242147 0 -0.0060635811363798373 0.016558468475140767 0 -0.0061573439027668032 0.018308034235747471 0 -0.0060635811363798373 0.016558468475140767 0 -0.0039551831847401825 0.014877200494985388 0 -0.0061573439027668032 0.018308034235747471 0 -0.0053420050232466671 0.017601679432964919 0 -0.0049909303552896512 0.015087666794349698 0 -0.0074550398099011749 0.018552656889247451 0 -0.0061573439027668032 0.018308034235747471 0 -0.0067927420987748434 0.017677008120242147 0 -0.011294193951239819 0.013431077810304233 0 -0.012759182243147421 0.011044407265310249 0 -0.0074656273677644498 0.017240740216411178 0 -0.0067927420987748434 0.017677008120242147 0 -0.0060635811363798373 0.016558468475140767 0 -0.0073145508712186063 0.015824850152242772 0 -0.0060635811363798373 0.016558468475140767 0 -0.0057696453973783684 0.015081417220477419 0 -0.0073145508712186063 0.015824850152242772 0 -0.0057696453973783684 0.015081417220477419 0 -0.0065599029740135983 0.014305761308498432 0 -0.0057696453973783684 0.015081417220477419 0 -0.0065599029740135983 0.014305761308498432 0 -0.0049526682234301948 0.013849311080672005 0 -0.0057696453973783684 0.015081417220477419 0 -0.0039551831847401825 0.014877200494985388 0 -0.0049526682234301948 0.013849311080672005 0 -0.0060635811363798373 0.016558468475140767 0 -0.0057696453973783684 0.015081417220477419 0 -0.0039551831847401825 0.014877200494985388 0 -0.0053420050232466671 0.017601679432964919 0 -0.0041484887215224647 0.014994691064911178 0 -0.0049909303552896512 0.015087666794349698 0 -0.012759182243147421 0.011044407265310249 0 -0.020322088512515844 0.0065750112456365844 0 -0.0039551831847401825 0.014877200494985388 0 -0.0029856337926928273 0.012533350154495953 0 -0.0049526682234301948 0.013849311080672005 0 -0.0028395853968188321 0.01263426167097173 0 -0.0049909303552896512 0.015087666794349698 0 -0.0037311515095221131 0.012183806169903064 0 -0.0029856337926928273 0.012533350154495953 0 -0.0046075300297030389 0.012617653019986545 0 -0.0049526682234301948 0.013849311080672005 0 -0.0039551831847401825 0.014877200494985388 0 -0.0029856337926928273 0.012533350154495953 0 -0.0021159665583393322 0.011406115994958358 0 -0.0028395853968188321 0.01263426167097173 0 -0.0041484887215224647 0.014994691064911178 0 -0.0049909303552896512 0.015087666794349698 0 -0.0029856337926928273 0.012533350154495953 0 -0.0036914346311024905 0.012204128929973874 0 -0.0046075300297030389 0.012617653019986545 0 -0.0029856337926928273 0.012533350154495953 0 -0.0036914346311024905 0.012204128929973874 0 -0.0029442952586507575 0.011506369548633209 0 -0.0036914346311024905 0.012204128929973874 0 -0.0046075300297030389 0.012617653019986545 0 -0.0033668634612605522 0.011515934964649782 0 -0.0046075300297030389 0.012617653019986545 0 -0.0065237126424408367 0.012170211081271504 0 -0.0033668634612605522 0.011515934964649782 0 -0.0065599029740135983 0.014305761308498432 0 -0.0065237126424408367 0.012170211081271504 0 -0.0049526682234301948 0.013849311080672005 0 -0.0046075300297030389 0.012617653019986545 0 -0.0065237126424408367 0.012170211081271504 0 -0.0049526682234301948 0.013849311080672005 0 -0.0012892665973499513 0.011058054654855008 0 -0.0024767135454013618 0.0119801651355524 0 -0.0017494436596964739 0.012428487177341933 0 -0.005368255921228777 0.010610709029053107 0 -0.0048802806161706361 0.010653915596600486 0 -0.0012892665973499513 0.011058054654855008 0 -0.0024767135454013618 0.0119801651355524 0 -0.0033668634612605522 0.011515934964649782 0 -0.0024767135454013618 0.0119801651355524 0 -0.003288290017702979 0.011746581454837658 0 -0.0025362432657650828 0.013112428785476797 0 -0.0024767135454013618 0.0119801651355524 0 -0.0017494436596964739 0.012428487177341933 0 -0.0025362432657650828 0.013112428785476797 0 -0.0024767135454013618 0.0119801651355524 0 -0.0033668634612605522 0.011515934964649782 0 -0.003288290017702979 0.011746581454837658 0 -0.0038253296018564515 0.011475445896839619 0 -0.003288290017702979 0.011746581454837658 0 -0.0038822028677758659 0.013627577222418178 0 -0.0036914346311024905 0.012204128929973874 0 -0.0033668634612605522 0.011515934964649782 0 -0.0029442952586507575 0.011506369548633209 0 -0.0033668634612605522 0.011515934964649782 0 -0.0029442952586507575 0.011506369548633209 0 -0.003288290017702979 0.011746581454837658 0 -0.017073732124589475 0.006528506809655308 0 -0.016091683865000924 0.0069902497345467156 0 -0.016525557647038273 0.0071881678085533775 0 -0.017073732124589475 0.006528506809655308 0 -0.0029856337926928273 0.012533350154495953 0 -0.0021159665583393322 0.011406115994958358 0 -0.0027651839753254199 0.011075066691262413 0 -0.020322088512515844 0.0065750112456365844 0 -0.017073732124589475 0.006528506809655308 0 -0.003288290017702979 0.011746581454837658 0 -0.0038822028677758659 0.013627577222418178 0 -0.0025362432657650828 0.013112428785476797 0 -0.017073732124589475 0.006528506809655308 0 -0.015477093639674679 0.0071517200640307619 0 -0.0038822028677758659 0.013627577222418178 0 -0.0025362432657650828 0.013112428785476797 0 -0.0029498637543380014 0.01453240416402193 0 -0.0017494436596964739 0.012428487177341933 0 -0.0025362432657650828 0.013112428785476797 0 -0.0014448017591351223 0.013283549224905711 0 -0.00069239031534173653 0.012786235281406972 0 -0.0017494436596964739 0.012428487177341933 0 -0.0014448017591351223 0.013283549224905711 0 -0.00056743728275706457 0.013783101011088643 0 -0.0014448017591351223 0.013283549224905711 0 -0.0017109262685658664 0.014318127470510505 0 -0.0025362432657650828 0.013112428785476797 0 -0.0014448017591351223 0.013283549224905711 0 -0.0017109262685658664 0.014318127470510505 0 -0.0025362432657650828 0.013112428785476797 0 -0.0017109262685658664 0.014318127470510505 0 -0.0029498637543380014 0.01453240416402193 0 -0.0017109262685658664 0.014318127470510505 0 -0.0020515513224188234 0.015295714985507762 0 -0.0029498637543380014 0.01453240416402193 0 -0.00096003259129269719 0.015452605036214833 0 -0.0017109262685658664 0.014318127470510505 0 -0.0020515513224188234 0.015295714985507762 0 -0.00096003259129269719 0.015452605036214833 0 -0.0020515513224188234 0.015295714985507762 0 -0.0019654671387966164 0.016262009177966795 0 -0.0020515513224188234 0.015295714985507762 0 -0.0019654671387966164 0.016262009177966795 0 -0.0030350716228171961 0.015459858650429937 0 -0.0031407505274663344 0.016238197804449048 0 -0.0030350716228171961 0.015459858650429937 0 -0.0040961320358462363 0.015587522714461614 0 -0.0031407505274663344 0.016238197804449048 0 -0.0040961320358462363 0.015587522714461614 0 -0.0042075644301080286 0.016353578995461273 0 -0.0019654671387966164 0.016262009177966795 0 -0.0031407505274663344 0.016238197804449048 0 -0.0030350716228171961 0.015459858650429937 0 -0.0020515513224188234 0.015295714985507762 0 -0.0030350716228171961 0.015459858650429937 0 -0.0029498637543380014 0.01453240416402193 0 -0.0030350716228171961 0.015459858650429937 0 -0.0029498637543380014 0.01453240416402193 0 -0.0040797106981761222 0.015613580703194792 0 -0.010524840720439627 0.0073182497114115197 0 -0.012148773342457035 0.0069809567497534806 0 -0.0038822028677758659 0.013627577222418178 0 -0.0029498637543380014 0.01453240416402193 0 -0.0040797106981761222 0.015613580703194792 0 -0.015477093639674679 0.0071517200640307619 0 -0.012148773342457035 0.0069809567497534806 0 -0.033317286648075706 0.00064211235783333417 0 -0.033206599861136415 0.00058548559066111589 0 -0.033216788166538974 0.00046264856406116612 0 -0.033317286648075706 0.00064211235783333417 0 -0.033216788166538974 0.00046264856406116612 0 -0.033266367832373127 0.00034669302582159087 0 -0.033206599861136415 0.00058548559066111589 0 -0.033158893451287544 0.00052987309329592018 0 -0.033216788166538974 0.00046264856406116612 0 -0.033158893451287544 0.00052987309329592018 0 -0.032999835012296128 0.00073016812303134543 0 -0.03314261925250471 0.0006298629218012186 0 -0.033206599861136415 0.00058548559066111589 0 -0.033158893451287544 0.00052987309329592018 0 -0.03314261925250471 0.0006298629218012186 0 -0.033158893451287544 0.00052987309329592018 0 -0.033216788166538974 0.00046264856406116612 0 -0.033144482603635693 0.00039483634509792005 0 -0.033216788166538974 0.00046264856406116612 0 -0.033266367832373127 0.00034669302582159087 0 -0.033184081514507344 0.00033450743559552151 0 -0.033216788166538974 0.00046264856406116612 0 -0.033184081514507344 0.00033450743559552151 0 -0.033144482603635693 0.00039483634509792005 0 -0.012148773342457035 0.0069809567497534806 0 -0.016381205946950705 0.0038905529365079504 0 -0.0010425912748992189 -0.006586638906766213 0 0.0013529381371799553 -0.0049720900156878097 0 -7.462845963012143e-05 -0.0033919498551581951 0 -0.016381205946950705 0.0038905529365079504 0 -0.0096703808337816159 0.0060058048878543222 0 -0.011317638822957391 0.0049472474981052507 0 -0.009988072989207666 0.0047472033063856167 0 -0.01117885680445518 0.0039677725643208631 0 -0.012148773342457035 0.0069809567497534806 0 -0.0096703808337816159 0.0060058048878543222 0 -0.033184081514507344 0.00033450743559552151 0 -0.033144482603635693 0.00039483634509792005 0 -0.032944842944946137 0.00029209908111329765 0 -0.016381205946950705 0.0038905529365079504 0 -0.019201266051257632 0.00049911086348033724 0 -0.0010425912748992189 -0.006586638906766213 0 -0.0071604491971340618 -0.0057903038900373608 0 -0.0042988367120490624 -0.0029477557748487666 0 -0.016381205946950705 0.0038905529365079504 0 -0.025429221545332135 -0.00040721594069090212 0 -0.034616894577317377 -0.00084070441574078116 0 -0.032944842944946137 0.00029209908111329765 0 -0.032561713706937855 -0.0012243821987860421 0 -0.033158893451287544 0.00052987309329592018 0 -0.033144482603635693 0.00039483634509792005 0 -0.032999835012296128 0.00073016812303134543 0 -0.031620880740947731 0.001519251918815122 0 -0.031485435829416084 0.0018615014681873862 0 -0.033144482603635693 0.00039483634509792005 0 -0.033138708810704194 0.00063028737851771304 0 -0.032944842944946137 0.00029209908111329765 0 -0.033144482603635693 0.00039483634509792005 0 -0.033138708810704194 0.00063028737851771304 0 -0.033335478210501437 0.00080781773794236179 0 -0.033138708810704194 0.00063028737851771304 0 -0.033179099401180689 0.0008442750960669489 0 -0.03303911184956005 0.0010129061475940243 0 -0.033229793367721645 0.0011187491699210382 0 -0.033335478210501437 0.00080781773794236179 0 -0.033266675348369482 0.0012435610700453007 0 -0.033138708810704194 0.00063028737851771304 0 -0.033179099401180689 0.0008442750960669489 0 -0.033335478210501437 0.00080781773794236179 0 -0.031485435829416084 0.0018615014681873862 0 -0.031062754427591144 0.0030045529008812357 0 -0.033191108790917752 0.00099670869145816548 0 -0.033176330860259291 0.0011658871189026536 0 -0.03303911184956005 0.0010129061475940243 0 -0.033179099401180689 0.0008442750960669489 0 -0.033191108790917752 0.00099670869145816548 0 -0.03303911184956005 0.0010129061475940243 0 -0.033191108790917752 0.00099670869145816548 0 -0.033229793367721645 0.0011187491699210382 0 -0.033176330860259291 0.0011658871189026536 0 -0.033191108790917752 0.00099670869145816548 0 -0.033229793367721645 0.0011187491699210382 0 -0.033335478210501437 0.00080781773794236179 0 -0.033179099401180689 0.0008442750960669489 0 -0.033191108790917752 0.00099670869145816548 0 -0.033335478210501437 0.00080781773794236179 0 -0.03314261925250471 0.0006298629218012186 0 -0.03320553387060398 0.00070793895323041059 0 -0.033180065460430334 0.00084380705542279821 0 -0.033336509875362207 0.0010526852489310392 0 -0.033317286648075706 0.00064211235783333417 0 -0.033180065460430334 0.00084380705542279821 0 -0.032999835012296128 0.00073016812303134543 0 -0.03314261925250471 0.0006298629218012186 0 -0.033428946247678656 0.0011878712736858661 0 -0.024278849378166125 0.0050748695984231653 0 -0.023365262144314884 0.0054907521581545422 0 -0.032999835012296128 0.00073016812303134543 0 -0.033428946247678656 0.0011878712736858661 0 -0.033048573785024661 0.0014381949385952972 0 -0.033206599861136415 0.00058548559066111589 0 -0.03314261925250471 0.0006298629218012186 0 -0.03320553387060398 0.00070793895323041059 0 -0.033317286648075706 0.00064211235783333417 0 -0.033206599861136415 0.00058548559066111589 0 -0.03320553387060398 0.00070793895323041059 0 -0.033317286648075706 0.00064211235783333417 0 -0.03320553387060398 0.00070793895323041059 0 -0.033180065460430334 0.00084380705542279821 0 -0.033428946247678656 0.0011878712736858661 0 -0.033048573785024661 0.0014381949385952972 0 -0.033399240802275375 0.0016248299413296437 0 -0.020322088512515844 0.0065750112456365844 0 -0.023365262144314884 0.0054907521581545422 0 -0.033260630505876063 0.0010920234826331328 0 -0.033336509875362207 0.0010526852489310392 0 -0.033180065460430334 0.00084380705542279821 0 -0.033745252857667392 0.0018464603051107629 0 -0.033428946247678656 0.0011878712736858661 0 -0.033399240802275375 0.0016248299413296437 0 -0.02971359659262577 0.0048962375677375778 0 -0.020322088512515844 0.0065750112456365844 0 -0.033378014628766703 0.0020319602642428374 0 -0.033745252857667392 0.0018464603051107629 0 -0.033399240802275375 0.0016248299413296437 0 -0.02971359659262577 0.0048962375677375778 0 -0.031062754427591144 0.0030045529008812357 0 -0.031939865120183743 0.0022155453197490009 0 -0.031062754427591144 0.0030045529008812357 0 -0.033378014628766703 0.0020319602642428374 0 -0.033048573785024661 0.0014381949385952972 0 -0.033399240802275375 0.0016248299413296437 0 -0.030676029256644918 0.0069079481259347875 0 -0.032305002868493152 0.0060856603213814298 0 -0.02993262717897165 0.0022254455862921589 0 -0.032879356632319418 0.00097343973152520585 0 -0.033115466950770625 0.0011621831983162825 0 -0.03312049910359164 0.0011097742663822609 0 -0.03312049910359164 0.0011097742663822609 0 -0.033176330860259291 0.0011658871189026536 0 -0.033345892184978347 0.0011442475757213741 0 -0.03312049910359164 0.0011097742663822609 0 -0.033176330860259291 0.0011658871189026536 0 -0.033164200263972647 0.0011543716644866046 0 -0.033229793367721645 0.0011187491699210382 0 -0.033176330860259291 0.0011658871189026536 0 -0.033164200263972647 0.0011543716644866046 0 -0.033115466950770625 0.0011621831983162825 0 -0.03312049910359164 0.0011097742663822609 0 -0.033164200263972647 0.0011543716644866046 0 -0.033229793367721645 0.0011187491699210382 0 -0.033115466950770625 0.0011621831983162825 0 -0.033164200263972647 0.0011543716644866046 0 -0.031077539385236917 0.0029655855238567368 0 -0.031062754427591144 0.0030045529008812357 0 -0.033287888192784665 0.001205985609436344 0 -0.032999913900803986 0.0012102004535283776 0 -0.03303911184956005 0.0010129061475940243 0 -0.033176330860259291 0.0011658871189026536 0 -0.033287888192784665 0.001205985609436344 0 -0.033345892184978347 0.0011442475757213741 0 -0.033176330860259291 0.0011658871189026536 0 -0.033287888192784665 0.001205985609436344 0 -0.03303911184956005 0.0010129061475940243 0 -0.033775864736511271 0.0012236814551959574 0 -0.033287888192784665 0.001205985609436344 0 -0.033345892184978347 0.0011442475757213741 0 -0.033775864736511271 0.0012236814551959574 0 -0.033287888192784665 0.001205985609436344 0 -0.032999913900803986 0.0012102004535283776 0 -0.035108841437451452 0.0012590674454258032 0 -0.033775864736511271 0.0012236814551959574 0 -0.032999913900803986 0.0012102004535283776 0 -0.035108841437451452 0.0012590674454258032 0 -0.032999913900803986 0.0012102004535283776 0 -0.031269036272761008 0.0012035766240461325 0 -0.032999913900803986 0.0012102004535283776 0 -0.032545954212009238 0.00069260014654005768 0 -0.031321042953110105 0.00053520206732147666 0 -0.032999913900803986 0.0012102004535283776 0 -0.03303911184956005 0.0010129061475940243 0 -0.032545954212009238 0.00069260014654005768 0 -0.033138708810704194 0.00063028737851771304 0 -0.03303911184956005 0.0010129061475940243 0 -0.032545954212009238 0.00069260014654005768 0 -0.033138708810704194 0.00063028737851771304 0 -0.032545954212009238 0.00069260014654005768 0 -0.032944842944946137 0.00029209908111329765 0 -0.032545954212009238 0.00069260014654005768 0 -0.032944842944946137 0.00029209908111329765 0 -0.031815254837011718 -0.00013100030090602128 0 -0.032944842944946137 0.00029209908111329765 0 -0.032561713706937855 -0.0012243821987860421 0 -0.031815254837011718 -0.00013100030090602128 0 -0.019201266051257632 0.00049911086348033724 0 -0.021277007406042079 -0.00041743830919013618 0 -0.032561713706937855 -0.0012243821987860421 0 -0.031815254837011718 -0.00013100030090602128 0 -0.029597975637247299 -0.0013580101464881961 0 -0.031321042953110105 0.00053520206732147666 0 -0.031815254837011718 -0.00013100030090602128 0 -0.029597975637247299 -0.0013580101464881961 0 -0.032545954212009238 0.00069260014654005768 0 -0.031321042953110105 0.00053520206732147666 0 -0.031815254837011718 -0.00013100030090602128 0 -0.031321042953110105 0.00053520206732147666 0 -0.029609856051482392 0.00041250350144485118 0 -0.029597975637247299 -0.0013580101464881961 0 -0.02668662392095799 2.6425477088917185e-06 0 -0.029609856051482392 0.00041250350144485118 0 -0.029597975637247299 -0.0013580101464881961 0 -0.02668662392095799 2.6425477088917185e-06 0 -0.022891756125540525 -7.0219069391767117e-06 0 -0.029597975637247299 -0.0013580101464881961 0 -0.02668662392095799 2.6425477088917185e-06 0 -0.029609856051482392 0.00041250350144485118 0 -0.030490619163747765 1.4875597205393789e-06 0 -0.030498522429337177 1.1713521289388578e-06 0 -0.032542000147859934 0.00091789303035629281 0 -0.029609856051482392 0.00041250350144485118 0 -0.030490619163747765 1.4875597205393789e-06 0 -0.031269036272761008 0.0012035766240461325 0 -0.032999913900803986 0.0012102004535283776 0 -0.031321042953110105 0.00053520206732147666 0 -0.031269036272761008 0.0012035766240461325 0 -0.031321042953110105 0.00053520206732147666 0 -0.029609856051482392 0.00041250350144485118 0 -0.031269036272761008 0.0012035766240461325 0 -0.033027814840758285 0.00098556445956101747 0 -0.032542000147859934 0.00091789303035629281 0 -0.037296348198405993 0.00050094263483742123 0 -0.035108841437451452 0.0012590674454258032 0 -0.03644605364530832 0.00037314560350004726 0 -0.030501411645842077 -3.5263367491866063e-06 0 -0.03644605364530832 0.00037314560350004726 0 -0.035613734041999266 3.519386582590312e-06 0 -0.037296348198405993 0.00050094263483742123 0 -0.03644605364530832 0.00037314560350004726 0 -0.035613734041999266 3.519386582590312e-06 0 -0.01278885106998892 0.00098062001277896644 0 -0.013134757622015386 3.140876980989679e-06 0 -0.014363502072814156 0.00034058069606253161 0 -0.01278885106998892 0.00098062001277896644 0 -0.012194923953907685 0.00057133957191583438 0 -0.014363502072814156 0.00034058069606253161 0 -0.01278885106998892 0.00098062001277896644 0 -0.011739266502183182 0.001086214361628634 0 -0.012044682955978275 0.0017557867275340493 0 -0.01278885106998892 0.00098062001277896644 0 -0.013134757622015386 3.140876980989679e-06 0 -0.011739266502183182 0.001086214361628634 0 -0.0097284705555170693 0.0013137472003604904 0 -0.012194923953907685 0.00057133957191583438 0 -0.0072832136072220775 -3.2526101669272292e-05 0 -0.0054465264266226245 0.0029110099543680668 0 -0.012118744717780877 0.0032764540796162644 0 -0.011875740818009666 0.0024466319342970467 0 -0.01278885106998892 0.00098062001277896644 0 -0.012044682955978275 0.0017557867275340493 0 -0.011799575166846149 0.0014289145152344594 0 -0.012044682955978275 0.0017557867275340493 0 -0.011631305700651526 0.0019321897830178758 0 -0.011875740818009666 0.0024466319342970467 0 -0.012044682955978275 0.0017557867275340493 0 -0.011631305700651526 0.0019321897830178758 0 -0.011799575166846149 0.0014289145152344594 0 -0.011631305700651526 0.0019321897830178758 0 -0.010328405788128507 0.0019362126928724737 0 -0.011875740818009666 0.0024466319342970467 0 -0.011631305700651526 0.0019321897830178758 0 -0.010328405788128507 0.0019362126928724737 0 -0.011799575166846149 0.0014289145152344594 0 -0.010328405788128507 0.0019362126928724737 0 -0.0097284705555170693 0.0013137472003604904 0 -0.011799575166846149 0.0014289145152344594 0 -0.0097284705555170693 0.0013137472003604904 0 -0.011799575166846149 0.0014289145152344594 0 -0.012194923953907685 0.00057133957191583438 0 -0.01278885106998892 0.00098062001277896644 0 -0.011799575166846149 0.0014289145152344594 0 -0.012194923953907685 0.00057133957191583438 0 -0.015098268750504204 0.0014333758864072035 0 -0.0097658240928777448 0.002508725254896634 0 -0.016214178477511301 0.0025914795497945435 0 -0.011415004222755369 0.0022515361880176064 0 -0.010373403769073832 0.0049882496460446051 0 -0.012194923953907685 0.00057133957191583438 0 -0.014363502072814156 0.00034058069606253161 0 -0.013926481937066457 -0.0015975149128974232 0 -0.012194923953907685 0.00057133957191583438 0 -0.013926481937066457 -0.0015975149128974232 0 -0.0072832136072220775 -3.2526101669272292e-05 0 -0.017242973702211811 -4.6983769811308408e-08 0 -0.014363502072814156 0.00034058069606253161 0 -0.013926481937066457 -0.0015975149128974232 0 -0.013134757622015386 3.140876980989679e-06 0 -0.017242973702211811 -4.6983769811308408e-08 0 -0.014363502072814156 0.00034058069606253161 0 -0.021355612500271268 6.627265345784688e-06 0 -0.017576927217322024 -0.00045613419506103424 0 -0.016214178477511301 0.0025914795497945435 0 -0.017242973702211811 -4.6983769811308408e-08 0 -0.021341299402847458 -4.0881747863751703e-06 0 -0.013926481937066457 -0.0015975149128974232 0 -0.021339081111916226 -2.307131795661633e-07 0 -0.015098268750504204 0.0014333758864072035 0 -0.021355612500271268 6.627265345784688e-06 0 -0.022871381789800707 -9.4223172593557077e-06 0 -0.017576927217322024 -0.00045613419506103424 0 -0.022871381789800707 -9.4223172593557077e-06 0 -0.017576927217322024 -0.00045613419506103424 0 -0.014311405459034206 -0.0045069269729676809 0 -0.022879357462099726 -1.0302916747880532e-06 0 -0.021277007406042079 -0.00041743830919013618 0 -0.017576927217322024 -0.00045613419506103424 0 -0.014311405459034206 -0.0045069269729676809 0 -0.011346067522502182 -0.00057617622786262283 0 -0.016214178477511301 0.0025914795497945435 0 -0.011415004222755369 0.0022515361880176064 0 -0.011346067522502182 -0.00057617622786262283 0 -0.017576927217322024 -0.00045613419506103424 0 -0.016214178477511301 0.0025914795497945435 0 -0.011346067522502182 -0.00057617622786262283 0 -0.011415004222755369 0.0022515361880176064 0 -0.011346067522502182 -0.00057617622786262283 0 -0.0079590920620856032 0.001933604797572564 0 -0.0071604491971340618 -0.0057903038900373608 0 -0.014311405459034206 -0.0045069269729676809 0 -0.011346067522502182 -0.00057617622786262283 0 -0.0071604491971340618 -0.0057903038900373608 0 -0.0061884035342364748 -0.00077350396287782211 0 -0.0042988367120490624 -0.0029477557748487666 0 -0.0071604491971340618 -0.0057903038900373608 0 -0.011346067522502182 -0.00057617622786262283 0 -0.0061884035342364748 -0.00077350396287782211 0 -0.011346067522502182 -0.00057617622786262283 0 -0.0061884035342364748 -0.00077350396287782211 0 -0.0079590920620856032 0.001933604797572564 0 -0.0061884035342364748 -0.00077350396287782211 0 -0.0050452411024631645 0.0022114773480290378 0 -0.0036577912130430616 0.00078941465491181651 0 -0.0061884035342364748 -0.00077350396287782211 0 -0.0079590920620856032 0.001933604797572564 0 -0.0050452411024631645 0.0022114773480290378 0 -0.0079590920620856032 0.001933604797572564 0 -0.0050452411024631645 0.0022114773480290378 0 -0.0064990188363835124 0.0041331474319635996 0 -0.0079590920620856032 0.001933604797572564 0 -0.0064990188363835124 0.0041331474319635996 0 -0.010373403769073832 0.0049882496460446051 0 -0.0050452411024631645 0.0022114773480290378 0 -0.0064990188363835124 0.0041331474319635996 0 -0.003779044088583948 0.0044773376101994253 0 -0.011415004222755369 0.0022515361880176064 0 -0.0079590920620856032 0.001933604797572564 0 -0.010373403769073832 0.0049882496460446051 0 -0.0054465264266226245 0.0029110099543680668 0 -0.0048393963428271496 0.0033012690963742201 0 -0.0034432069588008624 0.0025891723815158027 0 -0.0050400998092477748 0.00031333481861697663 0 -0.005332089202557011 -4.0011679310388343e-05 0 -0.010328405788128507 0.0019362126928724737 0 -0.0054465264266226245 0.0029110099543680668 0 -0.011875740818009666 0.0024466319342970467 0 -0.0072832136072220775 -3.2526101669272292e-05 0 -0.0054465264266226245 0.0029110099543680668 0 -0.0048393963428271496 0.0033012690963742201 0 -0.0097284705555170693 0.0013137472003604904 0 -0.0072832136072220775 -3.2526101669272292e-05 0 -0.0054465264266226245 0.0029110099543680668 0 -0.010328405788128507 0.0019362126928724737 0 -0.0097284705555170693 0.0013137472003604904 0 -0.0054465264266226245 0.0029110099543680668 0 -0.0097658240928777448 0.002508725254896634 0 -0.0050616683019743735 0.0032578032936860625 0 -0.0064990188363835124 0.0041331474319635996 0 -0.010373403769073832 0.0049882496460446051 0 -0.0054974637362270855 0.0068076621532631131 0 -0.0064990188363835124 0.0041331474319635996 0 -0.0054974637362270855 0.0068076621532631131 0 -0.003779044088583948 0.0044773376101994253 0 -0.0023933503917784415 0.0062694299782783932 0 -0.00087757532218983494 0.0046461290652470601 0 -0.003779044088583948 0.0044773376101994253 0 -0.0054974637362270855 0.0068076621532631131 0 -0.0023933503917784415 0.0062694299782783932 0 -0.003779044088583948 0.0044773376101994253 0 -0.00087757532218983494 0.0046461290652470601 0 0.0023474748004639083 0.0045258411513162677 0 -0.00022797371911468861 0.0067080376056029619 0 -0.0023933503917784415 0.0062694299782783932 0 -0.00087757532218983494 0.0046461290652470601 0 -0.00022797371911468861 0.0067080376056029619 0 -0.00087757532218983494 0.0046461290652470601 0 0.00086662806240816364 0.0025180129247074578 0 0.0023474748004639083 0.0045258411513162677 0 -0.00087757532218983494 0.0046461290652470601 0 0.00086662806240816364 0.0025180129247074578 0 -0.0020368527398767666 0.0024658187419031624 0 0.00086662806240816364 0.0025180129247074578 0 -0.0004457705492018896 0.0014847176993408402 0 0.00056138522997874543 0.00052392034804120446 0 0.00086662806240816364 0.0025180129247074578 0 -0.0020368527398767666 0.0024658187419031624 0 -0.0004457705492018896 0.0014847176993408402 0 -0.0020368527398767666 0.0024658187419031624 0 -0.0018855443655967556 0.00083246274263078387 0 -0.0004457705492018896 0.0014847176993408402 0 -0.00087757532218983494 0.0046461290652470601 0 -0.0020368527398767666 0.0024658187419031624 0 -0.003779044088583948 0.0044773376101994253 0 -0.0050452411024631645 0.0022114773480290378 0 -0.0020368527398767666 0.0024658187419031624 0 -0.003779044088583948 0.0044773376101994253 0 -0.0050452411024631645 0.0022114773480290378 0 -0.0020368527398767666 0.0024658187419031624 0 -0.0036577912130430616 0.00078941465491181651 0 -0.0036577912130430616 0.00078941465491181651 0 -0.0018855443655967556 0.00083246274263078387 0 -0.0031868522590833698 -0.00081318437221741325 0 -0.0020368527398767666 0.0024658187419031624 0 -0.0036577912130430616 0.00078941465491181651 0 -0.0018855443655967556 0.00083246274263078387 0 -0.0031868522590833698 -0.00081318437221741325 0 -0.002177132421226731 -0.0019881662460143768 0 -0.001088977097840887 -0.00051402665859640614 0 -0.0018855443655967556 0.00083246274263078387 0 -0.0031868522590833698 -0.00081318437221741325 0 -0.001088977097840887 -0.00051402665859640614 0 -0.0061884035342364748 -0.00077350396287782211 0 -0.0036577912130430616 0.00078941465491181651 0 -0.0031868522590833698 -0.00081318437221741325 0 -0.0031868522590833698 -0.00081318437221741325 0 -0.0042988367120490624 -0.0029477557748487666 0 -0.002177132421226731 -0.0019881662460143768 0 -0.0010425912748992189 -0.006586638906766213 0 -0.0042988367120490624 -0.0029477557748487666 0 -0.0016053840907539641 -0.0035318535577262594 0 -0.0061884035342364748 -0.00077350396287782211 0 -0.0031868522590833698 -0.00081318437221741325 0 -0.0042988367120490624 -0.0029477557748487666 0 -0.0042988367120490624 -0.0029477557748487666 0 -0.002177132421226731 -0.0019881662460143768 0 -0.0016053840907539641 -0.0035318535577262594 0 -0.002177132421226731 -0.0019881662460143768 0 -0.0016053840907539641 -0.0035318535577262594 0 -0.00074981088971676213 -0.0021813407172662368 0 0.0013529381371799553 -0.0049720900156878097 0 -7.462845963012143e-05 -0.0033919498551581951 0 0.00085669468036262385 -0.0015847887372478365 0 -0.0096703808337816159 0.0060058048878543222 0 -0.0052417942135900885 0.0033048835285788901 0 -0.0010425912748992189 -0.006586638906766213 0 -0.0016053840907539641 -0.0035318535577262594 0 -7.462845963012143e-05 -0.0033919498551581951 0 -7.462845963012143e-05 -0.0033919498551581951 0 -0.00074981088971676213 -0.0021813407172662368 0 0.00085669468036262385 -0.0015847887372478365 0 -0.0016053840907539641 -0.0035318535577262594 0 -7.462845963012143e-05 -0.0033919498551581951 0 -0.00074981088971676213 -0.0021813407172662368 0 -0.002177132421226731 -0.0019881662460143768 0 -0.00074981088971676213 -0.0021813407172662368 0 -0.001088977097840887 -0.00051402665859640614 0 -0.00074981088971676213 -0.0021813407172662368 0 0.00085669468036262385 -0.0015847887372478365 0 -0.00014126626506437255 -0.00093391787289388102 0 0.00085669468036262385 -0.0015847887372478365 0 -0.00014126626506437255 -0.00093391787289388102 0 0.00056138522997874543 0.00052392034804120446 0 -0.0052417942135900885 0.0033048835285788901 0 -0.0049526046650680338 0.002757349854014803 0 0.00092942493870822724 -0.00076973906165146732 0 0.00056138522997874543 0.00052392034804120446 0 0.0021323358082113815 6.7140351096605142e-05 0 -0.00074981088971676213 -0.0021813407172662368 0 -0.00014126626506437255 -0.00093391787289388102 0 -0.001088977097840887 -0.00051402665859640614 0 -0.00014126626506437255 -0.00093391787289388102 0 -0.001088977097840887 -0.00051402665859640614 0 0.00056138522997874543 0.00052392034804120446 0 -0.001088977097840887 -0.00051402665859640614 0 -0.0004457705492018896 0.0014847176993408402 0 0.00056138522997874543 0.00052392034804120446 0 -0.0018855443655967556 0.00083246274263078387 0 -0.001088977097840887 -0.00051402665859640614 0 -0.0004457705492018896 0.0014847176993408402 0 0.00086662806240816364 0.0025180129247074578 0 0.00056138522997874543 0.00052392034804120446 0 0.0027828422341149286 0.0012083718740510169 0 0.0027828422341149286 0.0012083718740510169 0 0.0021323358082113815 6.7140351096605142e-05 0 0.0040936898146604278 -0.00057362728710174727 0 0.00056138522997874543 0.00052392034804120446 0 0.0027828422341149286 0.0012083718740510169 0 0.0021323358082113815 6.7140351096605142e-05 0 0.00092942493870822724 -0.00076973906165146732 0 0.0021323358082113815 6.7140351096605142e-05 0 0.0040936898146604278 -0.00057362728710174727 0 -0.0096703808337816159 0.0060058048878543222 0 -0.0011286260104651975 0.0058407810342554602 0 -0.0052417942135900885 0.0033048835285788901 0 -0.0011286260104651975 0.0058407810342554602 0 -0.0073341233922454337 0.0045875012187041493 0 -0.0075693528513415655 0.0062950239622844659 0 -0.0050300006770815026 0.0060828392959926579 0 -0.0031407505274663344 0.016238197804449048 0 -0.0042075644301080286 0.016353578995461273 0 -0.0023840577912376984 0.017542652879141793 0 -0.0019654671387966164 0.016262009177966795 0 -0.0023840577912376984 0.017542652879141793 0 -6.999839579309497e-05 0.017339823097374658 0 -0.0011286260104651975 0.0058407810342554602 0 0.002109090849044495 0.0080005482188783422 0 -0.0019654671387966164 0.016262009177966795 0 -0.0031407505274663344 0.016238197804449048 0 -0.0023840577912376984 0.017542652879141793 0 -0.0011286260104651975 0.0058407810342554602 0 0.0016373268281536461 0.0053423236067551448 0 0.0040936898146604278 -0.00057362728710174727 0 0.0046983725507943313 0.0020296734697056204 0 0.0061321934831490522 0.0017613521649548574 0 0.0027828422341149286 0.0012083718740510169 0 0.0040936898146604278 -0.00057362728710174727 0 0.0046983725507943313 0.0020296734697056204 0 0.0046983725507943313 0.0020296734697056204 0 0.0032177703996413114 0.0027593289592989017 0 0.0047921448413752819 0.0035978286762141879 0 0.0046983725507943313 0.0020296734697056204 0 0.0047921448413752819 0.0035978286762141879 0 0.005727089777376646 0.0031319455154321975 0 0.0027828422341149286 0.0012083718740510169 0 0.0046983725507943313 0.0020296734697056204 0 0.0032177703996413114 0.0027593289592989017 0 0.00086662806240816364 0.0025180129247074578 0 0.0032177703996413114 0.0027593289592989017 0 0.0023474748004639083 0.0045258411513162677 0 0.00086662806240816364 0.0025180129247074578 0 0.0027828422341149286 0.0012083718740510169 0 0.0032177703996413114 0.0027593289592989017 0 0.0023474748004639083 0.0045258411513162677 0 0.0047921448413752819 0.0035978286762141879 0 0.0053170504709740343 0.0045788365523480763 0 0.0032177703996413114 0.0027593289592989017 0 0.0023474748004639083 0.0045258411513162677 0 0.0047921448413752819 0.0035978286762141879 0 0.0047921448413752819 0.0035978286762141879 0 0.0057164333014411263 0.0039109691248062619 0 0.0053170504709740343 0.0045788365523480763 0 0.0047921448413752819 0.0035978286762141879 0 0.0057164333014411263 0.0039109691248062619 0 0.005727089777376646 0.0031319455154321975 0 0.0057164333014411263 0.0039109691248062619 0 0.0060976187982073621 0.0032651890042180473 0 0.0062594852490428649 0.0032107869099362997 0 0.0057164333014411263 0.0039109691248062619 0 0.0053170504709740343 0.0045788365523480763 0 0.0060976187982073621 0.0032651890042180473 0 0.0053170504709740343 0.0045788365523480763 0 0.0063886999183385487 0.0031555246227616507 0 0.0068889337037192841 0.0033147007992133533 0 0.0023474748004639083 0.0045258411513162677 0 0.0053170504709740343 0.0045788365523480763 0 0.0018509209422584879 0.0073499280801914875 0 0.0026458369777321933 0.0037945184889539214 0 0.0020480396633867719 0.003744260204152266 0 0.0063886999183385487 0.0031555246227616507 0 0.0068716225823200281 0.0026116812049618659 0 0.0068889337037192841 0.0033147007992133533 0 0.0053170504709740343 0.0045788365523480763 0 0.0063886999183385487 0.0031555246227616507 0 0.0060976187982073621 0.0032651890042180473 0 0.0063886999183385487 0.0031555246227616507 0 0.0067881568901409072 0.002570377075662364 0 0.0060976187982073621 0.0032651890042180473 0 0.0063886999183385487 0.0031555246227616507 0 0.0067881568901409072 0.002570377075662364 0 0.0068716225823200281 0.0026116812049618659 0 0.0067881568901409072 0.002570377075662364 0 0.0060976187982073621 0.0032651890042180473 0 0.0067344180461955915 0.0026298610047133793 0 0.0060976187982073621 0.0032651890042180473 0 0.0067344180461955915 0.0026298610047133793 0 0.0062594852490428649 0.0032107869099362997 0 0.0067344180461955915 0.0026298610047133793 0 0.0072858611916499219 0.0022482132905819411 0 0.0067235609207097168 0.0024952977090710194 0 0.0073036506814587523 0.001781636078376912 0 0.0072858611916499219 0.0022482132905819411 0 0.0067235609207097168 0.0024952977090710194 0 0.0067881568901409072 0.002570377075662364 0 0.0072858611916499219 0.0022482132905819411 0 0.0069635214947957429 0.0021950410402402439 0 0.0067881568901409072 0.002570377075662364 0 0.0067344180461955915 0.0026298610047133793 0 0.0072858611916499219 0.0022482132905819411 0 0.0072858611916499219 0.0022482132905819411 0 0.0069635214947957429 0.0021950410402402439 0 0.0068615617038623976 0.0023571018487407993 0 0.0079856107863030511 0.0016624688760023189 0 0.0072858611916499219 0.0022482132905819411 0 0.0084463556168255689 0.0017267662257538926 0 0.0072707591126643942 0.0018802677884664338 0 0.0072846888907532707 0.0017727800285004414 0 0.0072846888907532707 0.0017727800285004414 0 0.0069254008953520468 0.0014993161981336947 0 0.0069635214947957429 0.0021950410402402439 0 0.0068615617038623976 0.0023571018487407993 0 0.0063518066555970903 0.0017184449914704602 0 0.0068615617038623976 0.0023571018487407993 0 0.0063518066555970903 0.0017184449914704602 0 0.0056360774715085151 0.0018832546528101278 0 0.0069635214947957429 0.0021950410402402439 0 0.0063518066555970903 0.0017184449914704602 0 0.0066817715759586692 0.0017925984747003327 0 0.0066817715759586692 0.0017925984747003327 0 0.0068773206745022736 0.0018664349230650072 0 0.0059059529261673736 0.00073802980588907256 0 0.0066817715759586692 0.0017925984747003327 0 0.0070485851760418074 0.0022826856771371428 0 0.0068773206745022736 0.0018664349230650072 0 0.0067881568901409072 0.002570377075662364 0 0.0069635214947957429 0.0021950410402402439 0 0.0068716225823200281 0.0026116812049618659 0 0.0069635214947957429 0.0021950410402402439 0 0.0066817715759586692 0.0017925984747003327 0 0.0070485851760418074 0.0022826856771371428 0 0.0069635214947957429 0.0021950410402402439 0 0.0068716225823200281 0.0026116812049618659 0 0.0070485851760418074 0.0022826856771371428 0 0.0020480396633867719 0.003744260204152266 0 0.0002201521753033471 0.0034950500164897705 0 0.0070485851760418074 0.0022826856771371428 0 0.0068889337037192841 0.0033147007992133533 0 0.0072315268435120816 0.0023960407620175379 0 0.0018509209422584879 0.0073499280801914875 0 -0.00022797371911468861 0.0067080376056029619 0 -0.0014580665956470838 0.008800754108832215 0 0.00047372392197092956 0.0035948335255663291 0 0.0002201521753033471 0.0034950500164897705 0 0.0068716225823200281 0.0026116812049618659 0 0.0070485851760418074 0.0022826856771371428 0 0.0068889337037192841 0.0033147007992133533 0 0.0023474748004639083 0.0045258411513162677 0 0.0018509209422584879 0.0073499280801914875 0 -0.00022797371911468861 0.0067080376056029619 0 0.0002201521753033471 0.0034950500164897705 0 0.00085645306488455082 0.0020760489150672737 0 -0.0050616683019743735 0.0032578032936860625 0 0.0002201521753033471 0.0034950500164897705 0 -0.0054974637362270855 0.0068076621532631131 0 -0.0023933503917784415 0.0062694299782783932 0 -0.0014580665956470838 0.008800754108832215 0 -0.0023933503917784415 0.0062694299782783932 0 -0.00022797371911468861 0.0067080376056029619 0 -0.0014580665956470838 0.008800754108832215 0 -0.0048393963428271496 0.0033012690963742201 0 -0.0070835738752001391 0.0015652144728451444 0 -0.004562873585257067 0.00071897036982302798 0 -0.0048393963428271496 0.0033012690963742201 0 -0.0034432069588008624 0.0025891723815158027 0 -0.004562873585257067 0.00071897036982302798 0 -0.0034432069588008624 0.0025891723815158027 0 -0.0006866178913007816 0.0014870723110459289 0 -0.004562873585257067 0.00071897036982302798 0 -0.0054465264266226245 0.0029110099543680668 0 -0.0034432069588008624 0.0025891723815158027 0 0.0010136614398478356 0.0034785472477350354 0 -0.0034432069588008624 0.0025891723815158027 0 -0.0006866178913007816 0.0014870723110459289 0 -6.2862334478665423e-05 0.0022979882239399854 0 0.00085645306488455082 0.0020760489150672737 0 0.0016501357428763581 0.0015031612747458171 0 -0.0006866178913007816 0.0014870723110459289 0 -0.004562873585257067 0.00071897036982302798 0 0.0031941262106066934 -3.6297416535883132e-05 0 0.0059059529261673736 0.00073802980588907256 0 0.0053446703117816085 0.0011580010511654138 0 0.0031941262106066934 -3.6297416535883132e-05 0 0.0063518066555970903 0.0017184449914704602 0 0.0066817715759586692 0.0017925984747003327 0 0.0059059529261673736 0.00073802980588907256 0 0.0063518066555970903 0.0017184449914704602 0 0.0059059529261673736 0.00073802980588907256 0 0.0053446703117816085 0.0011580010511654138 0 0.0063518066555970903 0.0017184449914704602 0 0.0056360774715085151 0.0018832546528101278 0 0.0053446703117816085 0.0011580010511654138 0 0.0085350003893445714 0.0013645356801188719 0 0.0084463556168255689 0.0017267662257538926 0 0.008342497758238759 0.0008728045422745146 0 0.008342497758238759 0.0008728045422745146 0 0.0056033566873812061 0.00065105015735353279 0 0.0067802693823515734 0.00096879582316892435 0 0.0076593134405248996 0.0011717679219611632 0 0.008342497758238759 0.0008728045422745146 0 0.0067802693823515734 0.00096879582316892435 0 0.0085350003893445714 0.0013645356801188719 0 0.0076593134405248996 0.0011717679219611632 0 0.008342497758238759 0.0008728045422745146 0 0.0069254008953520468 0.0014993161981336947 0 0.0064847717445913455 0.0013147304757800998 0 0.0056360774715085151 0.0018832546528101278 0 0.0053446703117816085 0.0011580010511654138 0 0.004763061261641088 0.00064290107772683601 0 0.0056360774715085151 0.0018832546528101278 0 0.004763061261641088 0.00064290107772683601 0 0.0056033566873812061 0.00065105015735353279 0 0.0056033566873812061 0.00065105015735353279 0 0.0060334976959854469 0.00084757591180121021 0 0.003795568577152551 -0.00016530690901998398 0 0.00026814392745992243 0.00053269526951588966 0 -0.0021113547213083496 -7.1372930061386666e-06 0 0.004763061261641088 0.00064290107772683601 0 0.0056033566873812061 0.00065105015735353279 0 0.003795568577152551 -0.00016530690901998398 0 0.0056033566873812061 0.00065105015735353279 0 0.0067802693823515734 0.00096879582316892435 0 0.0060334976959854469 0.00084757591180121021 0 0.0071395554663194992 0.00097226435369354811 0 0.0067802693823515734 0.00096879582316892435 0 0.0060334976959854469 0.00084757591180121021 0 0.0076593134405248996 0.0011717679219611632 0 0.0071395554663194992 0.00097226435369354811 0 0.0067802693823515734 0.00096879582316892435 0 0.0077984114138559173 0.0008002576795904105 0 0.0071395554663194992 0.00097226435369354811 0 0.0060334976959854469 0.00084757591180121021 0 0.0020196889854669203 0.0010624372414101912 0 0.00026814392745992243 0.00053269526951588966 0 0.0021825715062623366 -1.4430546605270297e-06 0 -0.0030394623123325996 0.00017081258317046293 0 -0.0034260454974902842 2.4290896215371897e-06 0 -0.0034260454974902842 2.4290896215371897e-06 0 -0.0045018063122148587 0.00037256350605928542 0 -0.0090236530634196822 -3.0606936831380332e-06 0 -0.0030394623123325996 0.00017081258317046293 0 -0.0045018063122148587 0.00037256350605928542 0 -0.0052927742292995569 0.00055168371855910889 0 -0.0030394623123325996 0.00017081258317046293 0 -0.0034260454974902842 2.4290896215371897e-06 0 -0.0045018063122148587 0.00037256350605928542 0 -0.0045018063122148587 0.00037256350605928542 0 -0.0052927742292995569 0.00055168371855910889 0 -0.0090236530634196822 -3.0606936831380332e-06 0 0.0053446703117816085 0.0011580010511654138 0 0.004763061261641088 0.00064290107772683601 0 0.0031941262106066934 -3.6297416535883132e-05 0 0.004763061261641088 0.00064290107772683601 0 0.0031941262106066934 -3.6297416535883132e-05 0 0.003795568577152551 -0.00016530690901998398 0 -0.0006866178913007816 0.0014870723110459289 0 0.0031941262106066934 -3.6297416535883132e-05 0 0.0016127629937782943 0.0013706353613506873 0 0.003795568577152551 -0.00016530690901998398 0 0.0016127629937782943 0.0013706353613506873 0 0.0015244012303502524 0.0019735201198337218 0 0.0031941262106066934 -3.6297416535883132e-05 0 0.003795568577152551 -0.00016530690901998398 0 0.0016127629937782943 0.0013706353613506873 0 -0.0034432069588008624 0.0025891723815158027 0 -6.2862334478665423e-05 0.0022979882239399854 0 0.0010136614398478356 0.0034785472477350354 0 0.003795568577152551 -0.00016530690901998398 0 0.0015244012303502524 0.0019735201198337218 0 0.0010136614398478356 0.0034785472477350354 0 -0.0021113547213083496 -7.1372930061386666e-06 0 -0.005332089202557011 -4.0011679310388343e-05 0 -0.0006866178913007816 0.0014870723110459289 0 0.0016127629937782943 0.0013706353613506873 0 -6.2862334478665423e-05 0.0022979882239399854 0 0.0015244012303502524 0.0019735201198337218 0 -6.2862334478665423e-05 0.0022979882239399854 0 0.0010136614398478356 0.0034785472477350354 0 0.0016127629937782943 0.0013706353613506873 0 0.0015244012303502524 0.0019735201198337218 0 -6.2862334478665423e-05 0.0022979882239399854 0 -0.005332089202557011 -4.0011679310388343e-05 0 -0.0053679067924286014 5.8492208564995488e-06 0 -0.011739266502183182 0.001086214361628634 0 -0.012044682955978275 0.0017557867275340493 0 -0.012240506745798668 0.0017961048965268352 0 -0.012044682955978275 0.0017557867275340493 0 -0.012240506745798668 0.0017961048965268352 0 -0.011875740818009666 0.0024466319342970467 0 -0.013134757622015386 3.140876980989679e-06 0 -0.011739266502183182 0.001086214361628634 0 -0.0090382710073614436 -5.5019103745513477e-07 0 -0.005332089202557011 -4.0011679310388343e-05 0 -0.00902827155325517 1.3580215214039396e-06 0 -0.0052927742292995569 0.00055168371855910889 0 -0.0049221624151014167 -0.0024680631936397968 0 -0.0090236530634196822 -3.0606936831380332e-06 0 -0.011739266502183182 0.001086214361628634 0 -0.012240506745798668 0.0017961048965268352 0 -0.0090382710073614436 -5.5019103745513477e-07 0 0.0017123122837011857 0.011056234256572138 0 0.0028867002558362492 0.0083606154760786193 0 0.00099312647220760634 0.0092267499772239019 0 0.0017123122837011857 0.011056234256572138 0 -0.00040252671374415596 0.011090758919565352 0 0.00045127392034981158 0.012616270705459865 0 0.0017123122837011857 0.011056234256572138 0 0.00099312647220760634 0.0092267499772239019 0 -0.00040252671374415596 0.011090758919565352 0 0.0017123122837011857 0.011056234256572138 0 0.0032580715013141781 0.01049594428083072 0 0.0028867002558362492 0.0083606154760786193 0 0.0017123122837011857 0.011056234256572138 0 0.0032580715013141781 0.01049594428083072 0 0.0028490232783987142 0.012229286425813519 0 0.0028867002558362492 0.0083606154760786193 0 0.00099312647220760634 0.0092267499772239019 0 0.0014633336256910598 0.0069475569423679377 0 0.00099312647220760634 0.0092267499772239019 0 -0.00089084187946833438 0.0077941457287100469 0 0.0014633336256910598 0.0069475569423679377 0 -0.00089084187946833438 0.0077941457287100469 0 -0.00060084804547488456 0.0095738988044091443 0 -0.0022253699208128657 0.010188513048988627 0 0.00099312647220760634 0.0092267499772239019 0 -0.00089084187946833438 0.0077941457287100469 0 -0.00060084804547488456 0.0095738988044091443 0 -0.00089084187946833438 0.0077941457287100469 0 -0.0030504739502955507 0.0086723320654662778 0 -0.0022253699208128657 0.010188513048988627 0 -0.0030504739502955507 0.0086723320654662778 0 -0.00386425891217355 0.0073904620637830131 0 -0.0049197270746770445 0.0087820567812194068 0 -0.00089084187946833438 0.0077941457287100469 0 -0.0030504739502955507 0.0086723320654662778 0 -0.0023773284480026035 0.0072269988750851971 0 -0.0030504739502955507 0.0086723320654662778 0 -0.00386425891217355 0.0073904620637830131 0 -0.0023773284480026035 0.0072269988750851971 0 -0.0030504739502955507 0.0086723320654662778 0 -0.0043695509416476442 0.010283643745953553 0 -0.0022253699208128657 0.010188513048988627 0 -0.0030504739502955507 0.0086723320654662778 0 -0.0043695509416476442 0.010283643745953553 0 -0.0049197270746770445 0.0087820567812194068 0 -0.0043695509416476442 0.010283643745953553 0 -0.0022253699208128657 0.010188513048988627 0 -0.0041951822396286385 0.011786170022391428 0 -0.0022253699208128657 0.010188513048988627 0 -0.0041951822396286385 0.011786170022391428 0 -0.0024772605294139422 0.012179698006099198 0 0.00099312647220760634 0.0092267499772239019 0 -0.00060084804547488456 0.0095738988044091443 0 -0.00040252671374415596 0.011090758919565352 0 -0.00060084804547488456 0.0095738988044091443 0 -0.0022253699208128657 0.010188513048988627 0 -0.00040252671374415596 0.011090758919565352 0 -0.0022253699208128657 0.010188513048988627 0 -0.00040252671374415596 0.011090758919565352 0 -0.0024772605294139422 0.012179698006099198 0 -0.00040252671374415596 0.011090758919565352 0 -0.00094583816095282936 0.012829916811970392 0 0.00045127392034981158 0.012616270705459865 0 -0.00040252671374415596 0.011090758919565352 0 -0.00094583816095282936 0.012829916811970392 0 -0.0024772605294139422 0.012179698006099198 0 -0.00094583816095282936 0.012829916811970392 0 -0.0023309126877948116 0.014296720279969087 0 -0.00028664274607793444 0.013817853534167061 0 -0.00094583816095282936 0.012829916811970392 0 -0.00028664274607793444 0.013817853534167061 0 0.00045127392034981158 0.012616270705459865 0 -0.0041951822396286385 0.011786170022391428 0 -0.0041392993186976351 0.01299005768581489 0 -0.0024772605294139422 0.012179698006099198 0 -0.00094583816095282936 0.012829916811970392 0 -0.0024772605294139422 0.012179698006099198 0 -0.0023309126877948116 0.014296720279969087 0 -0.0041392993186976351 0.01299005768581489 0 -0.0024772605294139422 0.012179698006099198 0 -0.0023309126877948116 0.014296720279969087 0 -0.0041392993186976351 0.01299005768581489 0 -0.0023309126877948116 0.014296720279969087 0 -0.0049405406549259028 0.014303280860884922 0 -0.00039578476761701405 0.018450832362958552 0 -0.0023309126877948116 0.014296720279969087 0 -0.0044303708426477262 0.016581732277011686 0 -0.0023309126877948116 0.014296720279969087 0 -0.0044303708426477262 0.016581732277011686 0 -0.0049405406549259028 0.014303280860884922 0 -0.0037058504967363661 0.016206859847566521 0 -0.003458191132451164 0.015717543465510433 0 -5.2979211218438649e-05 0.014842088411499706 0 -0.0023309126877948116 0.014296720279969087 0 -0.00054639636197565712 0.014372926496889758 0 -0.0023309126877948116 0.014296720279969087 0 -0.00028664274607793444 0.013817853534167061 0 -0.00054639636197565712 0.014372926496889758 0 -0.00028664274607793444 0.013817853534167061 0 -0.00054639636197565712 0.014372926496889758 0 0.00036943678887376737 0.01441448882714183 0 -5.2979211218438649e-05 0.014842088411499706 0 -0.00054639636197565712 0.014372926496889758 0 0.00036943678887376737 0.01441448882714183 0 0.00036943678887376737 0.01441448882714183 0 0.0011973580345640473 0.01430343000286278 0 0.00091071163705164486 0.013692312653968024 0 0.0011973580345640473 0.01430343000286278 0 0.00091071163705164486 0.013692312653968024 0 0.0018645319712956852 0.013997755012798907 0 0.00091071163705164486 0.013692312653968024 0 0.0017799557706653136 0.012896801682967177 0 0.0018645319712956852 0.013997755012798907 0 -0.00028664274607793444 0.013817853534167061 0 0.00036943678887376737 0.01441448882714183 0 0.00091071163705164486 0.013692312653968024 0 -0.00028664274607793444 0.013817853534167061 0 0.00091071163705164486 0.013692312653968024 0 0.00045127392034981158 0.012616270705459865 0 0.0017123122837011857 0.011056234256572138 0 0.00045127392034981158 0.012616270705459865 0 0.0017799557706653136 0.012896801682967177 0 0.00091071163705164486 0.013692312653968024 0 0.00045127392034981158 0.012616270705459865 0 0.0017799557706653136 0.012896801682967177 0 0.0017123122837011857 0.011056234256572138 0 0.0028490232783987142 0.012229286425813519 0 0.0017799557706653136 0.012896801682967177 0 0.0028490232783987142 0.012229286425813519 0 0.0017799557706653136 0.012896801682967177 0 0.0026063855595117439 0.013513861190594979 0 0.0017799557706653136 0.012896801682967177 0 0.0026063855595117439 0.013513861190594979 0 0.0018645319712956852 0.013997755012798907 0 0.0025122785748550231 0.014379348749295891 0 0.0026063855595117439 0.013513861190594979 0 0.0018645319712956852 0.013997755012798907 0 0.0025122785748550231 0.014379348749295891 0 0.0026063855595117439 0.013513861190594979 0 0.0031779555045329702 0.014081377050315053 0 0.0026063855595117439 0.013513861190594979 0 0.0031779555045329702 0.014081377050315053 0 0.0033438839717849227 0.013029958625655128 0 0.0031779555045329702 0.014081377050315053 0 0.004128546030463265 0.013168921628261897 0 0.0033438839717849227 0.013029958625655128 0 0.0031779555045329702 0.014081377050315053 0 0.0037215778626211999 0.013918156815057276 0 0.004128546030463265 0.013168921628261897 0 0.0031779555045329702 0.014081377050315053 0 0.0033954453798367467 0.014457718309077005 0 0.0037215778626211999 0.013918156815057276 0 0.0028929347420516222 0.014773214586695416 0 0.0031779555045329702 0.014081377050315053 0 0.0033954453798367467 0.014457718309077005 0 0.0028376001694446918 0.015147134620845194 0 0.0033954453798367467 0.014457718309077005 0 0.0044320917146530867 0.013912602460080675 0 0.0033954453798367467 0.014457718309077005 0 0.0044320917146530867 0.013912602460080675 0 0.0042718028274113182 0.013919082513613307 0 0.0033954453798367467 0.014457718309077005 0 0.0037215778626211999 0.013918156815057276 0 0.0042718028274113182 0.013919082513613307 0 0.0024461436431171069 0.010996553853298346 0 0.0024449622149256257 0.0096195574369317676 0 0.0028376001694446918 0.015147134620845194 0 0.0027033126391377985 0.017090370851654314 0 0.0011685875433396077 0.01624850941923401 0 0.0024449622149256257 0.0096195574369317676 0 0.0024591083524515009 0.0096283100050912392 0 0.0037215778626211999 0.013918156815057276 0 0.0042718028274113182 0.013919082513613307 0 0.004128546030463265 0.013168921628261897 0 0.0046067949171882229 0.013883445024713682 0 0.0042718028274113182 0.013919082513613307 0 0.004128546030463265 0.013168921628261897 0 0.0024449622149256257 0.0096195574369317676 0 0.0044923896222735238 0.0068357157317587647 0 0.0046067949171882229 0.013883445024713682 0 0.004128546030463265 0.013168921628261897 0 0.0059740141515540208 0.011203058600716329 0 0.004128546030463265 0.013168921628261897 0 0.0041702838964286773 0.011716338145927643 0 0.0059740141515540208 0.011203058600716329 0 0.0071241603914509715 0.0011584143224410313 0 0.0066166735736437037 0.0016775752045947391 0 0.0070882331577879322 0.0021654033943492887 0 0.0032580715013141781 0.01049594428083072 0 0.0028490232783987142 0.012229286425813519 0 0.0041702838964286773 0.011716338145927643 0 0.0028490232783987142 0.012229286425813519 0 0.0026063855595117439 0.013513861190594979 0 0.0033438839717849227 0.013029958625655128 0 0.0028490232783987142 0.012229286425813519 0 0.0041702838964286773 0.011716338145927643 0 0.0033438839717849227 0.013029958625655128 0 0.004128546030463265 0.013168921628261897 0 0.0041702838964286773 0.011716338145927643 0 0.0033438839717849227 0.013029958625655128 0 -2.1642953104582176e-05 0.01600823858824121 0 -0.0019654671387966164 0.016262009177966795 0 -6.999839579309497e-05 0.017339823097374658 0 0.0027033126391377985 0.017090370851654314 0 -6.999839579309497e-05 0.017339823097374658 0 0.0011685875433396077 0.01624850941923401 0 0.0024449622149256257 0.0096195574369317676 0 0.002109090849044495 0.0080005482188783422 0 0.0071241603914509715 0.0011584143224410313 0 0.0061828563665331741 0.0012538288273700889 0 0.0066166735736437037 0.0016775752045947391 0 -2.1642953104582176e-05 0.01600823858824121 0 -6.999839579309497e-05 0.017339823097374658 0 0.0011685875433396077 0.01624850941923401 0 0.005390915630728587 0.0013292734005501904 0 0.0061828563665331741 0.0012538288273700889 0 0.0061321934831490522 0.0017613521649548574 0 0.0061828563665331741 0.0012538288273700889 0 0.0066166735736437037 0.0016775752045947391 0 0.0061321934831490522 0.0017613521649548574 0 0.0046983725507943313 0.0020296734697056204 0 0.0061321934831490522 0.0017613521649548574 0 0.005727089777376646 0.0031319455154321975 0 0.0061321934831490522 0.0017613521649548574 0 0.0064514978124246836 0.0026546885523457938 0 0.005727089777376646 0.0031319455154321975 0 0.0066166735736437037 0.0016775752045947391 0 0.0061321934831490522 0.0017613521649548574 0 0.0064514978124246836 0.0026546885523457938 0 0.0064514978124246836 0.0026546885523457938 0 0.0070882331577879322 0.0021654033943492887 0 0.0067559162461382468 0.0031741800177029649 0 0.0066166735736437037 0.0016775752045947391 0 0.0064514978124246836 0.0026546885523457938 0 0.0070882331577879322 0.0021654033943492887 0 0.0064514978124246836 0.0026546885523457938 0 0.0067559162461382468 0.0031741800177029649 0 0.0061952679649788928 0.0035652063036662809 0 0.0064514978124246836 0.0026546885523457938 0 0.005727089777376646 0.0031319455154321975 0 0.0061952679649788928 0.0035652063036662809 0 0.0057164333014411263 0.0039109691248062619 0 0.005727089777376646 0.0031319455154321975 0 0.0061952679649788928 0.0035652063036662809 0 0.0032580715013141781 0.01049594428083072 0 0.0041702838964286773 0.011716338145927643 0 0.0046908308213247487 0.0093737316010334085 0 0.0059740141515540208 0.011203058600716329 0 0.0067780675962124315 0.0080817760890702656 0 0.0046908308213247487 0.0093737316010334085 0 0.0044923896222735238 0.0068357157317587647 0 0.0055192163551072617 0.0054579653028966144 0 0.0041702838964286773 0.011716338145927643 0 0.0059740141515540208 0.011203058600716329 0 0.0046908308213247487 0.0093737316010334085 0 0.0067780675962124315 0.0080817760890702656 0 0.0046908308213247487 0.0093737316010334085 0 0.0049922803399537509 0.0061109699535861492 0 0.0028867002558362492 0.0083606154760786193 0 0.0046908308213247487 0.0093737316010334085 0 0.0049922803399537509 0.0061109699535861492 0 0.0032580715013141781 0.01049594428083072 0 0.0028867002558362492 0.0083606154760786193 0 0.0046908308213247487 0.0093737316010334085 0 0.0055192163551072617 0.0054579653028966144 0 0.0059558782338253683 0.0043991825806084474 0 0.0067780675962124315 0.0080817760890702656 0 0.0049922803399537509 0.0061109699535861492 0 0.0069348983617819023 0.0049991456634374317 0 0.0049922803399537509 0.0061109699535861492 0 0.0057319280429757287 0.0038675807060114622 0 0.0069348983617819023 0.0049991456634374317 0 0.0057319280429757287 0.0038675807060114622 0 0.0069348983617819023 0.0049991456634374317 0 0.006339458127622306 0.002737203515910008 0 0.0059558782338253683 0.0043991825806084474 0 0.006065554798678572 0.00384288826518408 0 0.0049922803399537509 0.0061109699535861492 0 0.0057319280429757287 0.0038675807060114622 0 0.0046037319119665732 0.0039529334767930899 0 0.0049922803399537509 0.0061109699535861492 0 0.0046037319119665732 0.0039529334767930899 0 0.0032728959592337034 0.0054489114358001649 0 0.0057164333014411263 0.0039109691248062619 0 0.0061952679649788928 0.0035652063036662809 0 0.0062594852490428649 0.0032107869099362997 0 0.0067559162461382468 0.0031741800177029649 0 0.0062768257657363847 0.0033903169888488847 0 0.0061952679649788928 0.0035652063036662809 0 0.0062768257657363847 0.0033903169888488847 0 0.0063583070136927497 0.0031119998692491612 0 0.006339458127622306 0.002737203515910008 0 0.0062768257657363847 0.0033903169888488847 0 0.0061952679649788928 0.0035652063036662809 0 0.0063583070136927497 0.0031119998692491612 0 0.0061952679649788928 0.0035652063036662809 0 0.0063583070136927497 0.0031119998692491612 0 0.0062594852490428649 0.0032107869099362997 0 0.0067344180461955915 0.0026298610047133793 0 0.0062594852490428649 0.0032107869099362997 0 0.0067235609207097168 0.0024952977090710194 0 0.0063583070136927497 0.0031119998692491612 0 0.0062594852490428649 0.0032107869099362997 0 0.0067235609207097168 0.0024952977090710194 0 0.0063583070136927497 0.0031119998692491612 0 0.0067235609207097168 0.0024952977090710194 0 0.006339458127622306 0.002737203515910008 0 0.0069036616881519323 0.0017429305464509168 0 0.0067235609207097168 0.0024952977090710194 0 0.006339458127622306 0.002737203515910008 0 0.0058681178809794178 0.0015981821027765577 0 0.0069036616881519323 0.0017429305464509168 0 0.006339458127622306 0.002737203515910008 0 0.0069036616881519323 0.0017429305464509168 0 0.0073036506814587523 0.001781636078376912 0 0.0067235609207097168 0.0024952977090710194 0 0.0046037319119665732 0.0039529334767930899 0 0.0053033410006937953 0.0025650106066538842 0 0.0036470836107587406 0.002986722790690133 0 0.0057319280429757287 0.0038675807060114622 0 0.0046037319119665732 0.0039529334767930899 0 0.0053033410006937953 0.0025650106066538842 0 0.0053033410006937953 0.0025650106066538842 0 0.0043777560276426963 0.0016062472570056131 0 0.0036470836107587406 0.002986722790690133 0 0.0057319280429757287 0.0038675807060114622 0 0.0053033410006937953 0.0025650106066538842 0 0.006339458127622306 0.002737203515910008 0 0.0058681178809794178 0.0015981821027765577 0 0.0053033410006937953 0.0025650106066538842 0 0.006339458127622306 0.002737203515910008 0 0.0058681178809794178 0.0015981821027765577 0 0.0053033410006937953 0.0025650106066538842 0 0.0043777560276426963 0.0016062472570056131 0 0.0043594880288251271 0.00098488470589040418 0 0.0043777560276426963 0.0016062472570056131 0 0.0038418796520175895 0.0008768678949448471 0 0.0043777560276426963 0.0016062472570056131 0 0.0038418796520175895 0.0008768678949448471 0 0.0031409793744355107 0.0015134677315010116 0 0.0038418796520175895 0.0008768678949448471 0 0.0030873006563800795 0.00031829970902753609 0 0.0031409793744355107 0.0015134677315010116 0 0.0037865480083378584 0.00053230455727462872 0 0.0038418796520175895 0.0008768678949448471 0 0.0030873006563800795 0.00031829970902753609 0 0.0030873006563800795 0.00031829970902753609 0 0.0031409793744355107 0.0015134677315010116 0 0.0020727376540867837 0.0010802642369195973 0 0.0031409793744355107 0.0015134677315010116 0 0.0021575107978734128 0.0027003553933937518 0 0.0036470836107587406 0.002986722790690133 0 0.0031409793744355107 0.0015134677315010116 0 0.0021575107978734128 0.0027003553933937518 0 0.0020727376540867837 0.0010802642369195973 0 0.0043777560276426963 0.0016062472570056131 0 0.0031409793744355107 0.0015134677315010116 0 0.0036470836107587406 0.002986722790690133 0 0.0046037319119665732 0.0039529334767930899 0 0.0036470836107587406 0.002986722790690133 0 0.0032728959592337034 0.0054489114358001649 0 0.0036470836107587406 0.002986722790690133 0 0.0019439817533841188 0.0046047822716289563 0 0.0032728959592337034 0.0054489114358001649 0 0.0021575107978734128 0.0027003553933937518 0 0.0036470836107587406 0.002986722790690133 0 0.0019439817533841188 0.0046047822716289563 0 0.0021575107978734128 0.0027003553933937518 0 0.0019439817533841188 0.0046047822716289563 0 0.00088836490564586353 0.0038860685157193183 0 0.0019439817533841188 0.0046047822716289563 0 0.00024340239572186932 0.0058589862732574731 0 0.00088836490564586353 0.0038860685157193183 0 0.0019439817533841188 0.0046047822716289563 0 0.0014633336256910598 0.0069475569423679377 0 0.00024340239572186932 0.0058589862732574731 0 0.0019439817533841188 0.0046047822716289563 0 0.0014633336256910598 0.0069475569423679377 0 0.0032728959592337034 0.0054489114358001649 0 0.0028867002558362492 0.0083606154760786193 0 0.0014633336256910598 0.0069475569423679377 0 0.0032728959592337034 0.0054489114358001649 0 0.0028867002558362492 0.0083606154760786193 0 0.0049922803399537509 0.0061109699535861492 0 0.0032728959592337034 0.0054489114358001649 0 -0.0029066866108175436 0.0060974880246997707 0 -0.0020100238501775465 0.0046620017512432124 0 -0.0036273558793001506 0.0047793614949458085 0 -0.0029066866108175436 0.0060974880246997707 0 -0.001363067027064082 0.0060722707308516833 0 -0.0020100238501775465 0.0046620017512432124 0 -0.0029066866108175436 0.0060974880246997707 0 -0.0036273558793001506 0.0047793614949458085 0 -0.0046787512914040069 0.0059621894292629556 0 -0.0029066866108175436 0.0060974880246997707 0 -0.00386425891217355 0.0073904620637830131 0 -0.0046787512914040069 0.0059621894292629556 0 -0.0029066866108175436 0.0060974880246997707 0 -0.0023773284480026035 0.0072269988750851971 0 -0.001363067027064082 0.0060722707308516833 0 -0.0029066866108175436 0.0060974880246997707 0 -0.00386425891217355 0.0073904620637830131 0 -0.0023773284480026035 0.0072269988750851971 0 -0.00089084187946833438 0.0077941457287100469 0 -0.0023773284480026035 0.0072269988750851971 0 -0.001363067027064082 0.0060722707308516833 0 -0.00089084187946833438 0.0077941457287100469 0 0.0014633336256910598 0.0069475569423679377 0 0.00024340239572186932 0.0058589862732574731 0 -0.00089084187946833438 0.0077941457287100469 0 0.00024340239572186932 0.0058589862732574731 0 -0.001363067027064082 0.0060722707308516833 0 -0.001363067027064082 0.0060722707308516833 0 -0.00043184086242718448 0.0047216575689575813 0 -0.0020100238501775465 0.0046620017512432124 0 0.00024340239572186932 0.0058589862732574731 0 -0.001363067027064082 0.0060722707308516833 0 -0.00043184086242718448 0.0047216575689575813 0 -0.00043184086242718448 0.0047216575689575813 0 -0.0012686831678790967 0.0027044722735913417 0 -0.0020100238501775465 0.0046620017512432124 0 0.00024340239572186932 0.0058589862732574731 0 -0.00043184086242718448 0.0047216575689575813 0 0.00088836490564586353 0.0038860685157193183 0 -0.00043184086242718448 0.0047216575689575813 0 0.00088836490564586353 0.0038860685157193183 0 0.00059907464418140842 0.0025263156203524759 0 0.0021575107978734128 0.0027003553933937518 0 0.00088836490564586353 0.0038860685157193183 0 0.00059907464418140842 0.0025263156203524759 0 -0.00043184086242718448 0.0047216575689575813 0 -0.0012686831678790967 0.0027044722735913417 0 0.00059907464418140842 0.0025263156203524759 0 -0.0026351323053933336 0.0034778811707198518 0 -0.0012686831678790967 0.0027044722735913417 0 -0.0020100238501775465 0.0046620017512432124 0 -0.0026351323053933336 0.0034778811707198518 0 -0.0012686831678790967 0.0027044722735913417 0 -0.0038876443893194196 0.0021901684867164516 0 -0.0026351323053933336 0.0034778811707198518 0 -0.0020100238501775465 0.0046620017512432124 0 -0.0036273558793001506 0.0047793614949458085 0 -0.0036273558793001506 0.0047793614949458085 0 -0.0038876443893194196 0.0021901684867164516 0 -0.0054284305428846137 0.0041913364585017864 0 -0.0026351323053933336 0.0034778811707198518 0 -0.0036273558793001506 0.0047793614949458085 0 -0.0038876443893194196 0.0021901684867164516 0 -0.0012686831678790967 0.0027044722735913417 0 -0.0017089846485491798 0.00071913414591199274 0 0.00047313618853454142 0.00091887100230805114 0 -0.0012686831678790967 0.0027044722735913417 0 -0.0038876443893194196 0.0021901684867164516 0 -0.0017089846485491798 0.00071913414591199274 0 -0.0038876443893194196 0.0021901684867164516 0 -0.0017089846485491798 0.00071913414591199274 0 -0.0036755325446511684 -0.00068848109629612571 0 0.0021575107978734128 0.0027003553933937518 0 0.00059907464418140842 0.0025263156203524759 0 0.0020727376540867837 0.0010802642369195973 0 -0.0012686831678790967 0.0027044722735913417 0 0.00059907464418140842 0.0025263156203524759 0 0.00047313618853454142 0.00091887100230805114 0 0.00047313618853454142 0.00091887100230805114 0 0.0020727376540867837 0.0010802642369195973 0 0.0020543608165637141 -0.00047174967516157822 0 0.00059907464418140842 0.0025263156203524759 0 0.00047313618853454142 0.00091887100230805114 0 0.0020727376540867837 0.0010802642369195973 0 -0.00013638062322528599 -0.0068796499628716781 0 0.0020543608165637141 -0.00047174967516157822 0 -0.00085693734886941751 -0.0025176019275868753 0 0.0030873006563800795 0.00031829970902753609 0 0.0020727376540867837 0.0010802642369195973 0 0.0020543608165637141 -0.00047174967516157822 0 0.00047313618853454142 0.00091887100230805114 0 0.0020543608165637141 -0.00047174967516157822 0 -0.00085693734886941751 -0.0025176019275868753 0 0.0037288437202111675 4.5613752121063603e-05 0 0.0030873006563800795 0.00031829970902753609 0 0.0020543608165637141 -0.00047174967516157822 0 -0.0036755325446511684 -0.00068848109629612571 0 -0.00085693734886941751 -0.0025176019275868753 0 -0.0039591889646819721 -0.003202196001188074 0 -0.0017089846485491798 0.00071913414591199274 0 0.00047313618853454142 0.00091887100230805114 0 -0.00085693734886941751 -0.0025176019275868753 0 -0.0017089846485491798 0.00071913414591199274 0 -0.0036755325446511684 -0.00068848109629612571 0 -0.00085693734886941751 -0.0025176019275868753 0 -0.0028861057516068921 -0.0047110589240156051 0 -0.00085693734886941751 -0.0025176019275868753 0 -0.0039591889646819721 -0.003202196001188074 0 -0.0028861057516068921 -0.0047110589240156051 0 -0.0044305612452437172 -0.0054078434585089017 0 -0.0039591889646819721 -0.003202196001188074 0 -0.0039591889646819721 -0.003202196001188074 0 -0.005737226072533904 -0.0041514363087417705 0 -0.0061391734412342205 -0.0020898144343084566 0 -0.0044305612452437172 -0.0054078434585089017 0 -0.0039591889646819721 -0.003202196001188074 0 -0.005737226072533904 -0.0041514363087417705 0 -0.0036755325446511684 -0.00068848109629612571 0 -0.0039591889646819721 -0.003202196001188074 0 -0.0061391734412342205 -0.0020898144343084566 0 -0.0061391734412342205 -0.0020898144343084566 0 -0.0093330156059347764 -0.0026757300200042082 0 -0.0075027113486627883 -0.000287877110392456 0 -0.005737226072533904 -0.0041514363087417705 0 -0.0061391734412342205 -0.0020898144343084566 0 -0.0078920809407420599 -0.0045949776761499495 0 -0.01109150001171562 -0.0054831702631588878 0 -0.0093330156059347764 -0.0026757300200042082 0 -0.013478810815657653 -0.0031589606324897834 0 -0.01109150001171562 -0.0054831702631588878 0 -0.0078920809407420599 -0.0045949776761499495 0 -0.0093330156059347764 -0.0026757300200042082 0 -0.0093330156059347764 -0.0026757300200042082 0 -0.010578265309351085 -0.00034211038320264341 0 -0.013478810815657653 -0.0031589606324897834 0 -0.0061391734412342205 -0.0020898144343084566 0 -0.0078920809407420599 -0.0045949776761499495 0 -0.0093330156059347764 -0.0026757300200042082 0 -0.0093330156059347764 -0.0026757300200042082 0 -0.010578265309351085 -0.00034211038320264341 0 -0.0075027113486627883 -0.000287877110392456 0 -0.010578265309351085 -0.00034211038320264341 0 -0.0087049124963522653 0.0012734868085533904 0 -0.010080109736217119 0.0027482818367974937 0 -0.010578265309351085 -0.00034211038320264341 0 -0.0087049124963522653 0.0012734868085533904 0 -0.0075027113486627883 -0.000287877110392456 0 -0.0087049124963522653 0.0012734868085533904 0 -0.0075027113486627883 -0.000287877110392456 0 -0.0062961369772230073 0.0021793067123181899 0 -0.0054253100329019832 0.00030323649766578876 0 -0.0075027113486627883 -0.000287877110392456 0 -0.0062961369772230073 0.0021793067123181899 0 -0.0038876443893194196 0.0021901684867164516 0 -0.0054253100329019832 0.00030323649766578876 0 -0.0062961369772230073 0.0021793067123181899 0 -0.0038876443893194196 0.0021901684867164516 0 -0.0036755325446511684 -0.00068848109629612571 0 -0.0054253100329019832 0.00030323649766578876 0 -0.0036755325446511684 -0.00068848109629612571 0 -0.0061391734412342205 -0.0020898144343084566 0 -0.0054253100329019832 0.00030323649766578876 0 -0.0061391734412342205 -0.0020898144343084566 0 -0.0054253100329019832 0.00030323649766578876 0 -0.0075027113486627883 -0.000287877110392456 0 -0.017735982910565988 -0.0066686601813632446 0 -0.017451484053403861 -0.0034179508952039868 0 -0.013478810815657653 -0.0031589606324897834 0 -0.017451484053403861 -0.0034179508952039868 0 -0.013478810815657653 -0.0031589606324897834 0 -0.01545343714356336 -0.0013759266204680528 0 -0.010578265309351085 -0.00034211038320264341 0 -0.013478810815657653 -0.0031589606324897834 0 -0.013622069692150697 0.00090093929543388516 0 -0.013478810815657653 -0.0031589606324897834 0 -0.013622069692150697 0.00090093929543388516 0 -0.01545343714356336 -0.0013759266204680528 0 -0.010578265309351085 -0.00034211038320264341 0 -0.013622069692150697 0.00090093929543388516 0 -0.010080109736217119 0.0027482818367974937 0 -0.013622069692150697 0.00090093929543388516 0 -0.01545343714356336 -0.0013759266204680528 0 -0.017341771822498984 0.00014768685424657195 0 -0.017451484053403861 -0.0034179508952039868 0 -0.01545343714356336 -0.0013759266204680528 0 -0.017341771822498984 0.00014768685424657195 0 -0.017451484053403861 -0.0034179508952039868 0 -0.017341771822498984 0.00014768685424657195 0 -0.020312423399629947 -0.0024400059814146178 0 -0.017341771822498984 0.00014768685424657195 0 -0.016208376193296646 0.0037009107231954952 0 -0.021010086486363499 0.0014836188715867493 0 -0.013622069692150697 0.00090093929543388516 0 -0.017341771822498984 0.00014768685424657195 0 -0.016208376193296646 0.0037009107231954952 0 -0.016208376193296646 0.0037009107231954952 0 -0.012083296163536698 0.0038607303387576727 0 -0.013187414191419231 0.0063958584756399562 0 -0.013622069692150697 0.00090093929543388516 0 -0.016208376193296646 0.0037009107231954952 0 -0.012083296163536698 0.0038607303387576727 0 -0.013622069692150697 0.00090093929543388516 0 -0.012083296163536698 0.0038607303387576727 0 -0.010080109736217119 0.0027482818367974937 0 -0.012083296163536698 0.0038607303387576727 0 -0.013187414191419231 0.0063958584756399562 0 -0.010725934085472531 0.0059107915500753189 0 -0.011071766727238674 0.0076308788187610136 0 -0.013187414191419231 0.0063958584756399562 0 -0.010725934085472531 0.0059107915500753189 0 -0.011071766727238674 0.0076308788187610136 0 -0.013187414191419231 0.0063958584756399562 0 -0.013857119456130274 0.0087079154947483171 0 -0.013187414191419231 0.0063958584756399562 0 -0.016031999320794209 0.006560151007921327 0 -0.013857119456130274 0.0087079154947483171 0 -0.016208376193296646 0.0037009107231954952 0 -0.016031999320794209 0.006560151007921327 0 -0.020315476392918249 0.005697163460548489 0 -0.016208376193296646 0.0037009107231954952 0 -0.013187414191419231 0.0063958584756399562 0 -0.016031999320794209 0.006560151007921327 0 -0.0073661528317880273 0.0036978577745854684 0 -0.0054284305428846137 0.0041913364585017864 0 -0.0066922075030556036 0.0058535366506851675 0 -0.0073661528317880273 0.0036978577745854684 0 -0.0087516527495350004 0.0046330813247068949 0 -0.0066922075030556036 0.0058535366506851675 0 -0.0038876443893194196 0.0021901684867164516 0 -0.0054284305428846137 0.0041913364585017864 0 -0.0062961369772230073 0.0021793067123181899 0 -0.0073661528317880273 0.0036978577745854684 0 -0.0054284305428846137 0.0041913364585017864 0 -0.0062961369772230073 0.0021793067123181899 0 -0.0087049124963522653 0.0012734868085533904 0 -0.0073661528317880273 0.0036978577745854684 0 -0.0062961369772230073 0.0021793067123181899 0 -0.0087049124963522653 0.0012734868085533904 0 -0.0073661528317880273 0.0036978577745854684 0 -0.010080109736217119 0.0027482818367974937 0 -0.012083296163536698 0.0038607303387576727 0 -0.010080109736217119 0.0027482818367974937 0 -0.0087516527495350004 0.0046330813247068949 0 -0.0073661528317880273 0.0036978577745854684 0 -0.010080109736217119 0.0027482818367974937 0 -0.0087516527495350004 0.0046330813247068949 0 -0.0087516527495350004 0.0046330813247068949 0 -0.0086193872769962914 0.0069707976612414183 0 -0.0066922075030556036 0.0058535366506851675 0 -0.0087516527495350004 0.0046330813247068949 0 -0.010725934085472531 0.0059107915500753189 0 -0.0086193872769962914 0.0069707976612414183 0 -0.012083296163536698 0.0038607303387576727 0 -0.0087516527495350004 0.0046330813247068949 0 -0.010725934085472531 0.0059107915500753189 0 -0.011071766727238674 0.0076308788187610136 0 -0.0086193872769962914 0.0069707976612414183 0 -0.0095476829370950683 0.0082094458371390379 0 -0.011071766727238674 0.0076308788187610136 0 -0.010725934085472531 0.0059107915500753189 0 -0.0086193872769962914 0.0069707976612414183 0 -0.0086193872769962914 0.0069707976612414183 0 -0.0070936077224009785 0.0075487188502857258 0 -0.0066922075030556036 0.0058535366506851675 0 -0.0070936077224009785 0.0075487188502857258 0 -0.0066922075030556036 0.0058535366506851675 0 -0.0055859940950717425 0.0073750761887874669 0 -0.0036273558793001506 0.0047793614949458085 0 -0.0054284305428846137 0.0041913364585017864 0 -0.0046787512914040069 0.0059621894292629556 0 -0.0054284305428846137 0.0041913364585017864 0 -0.0066922075030556036 0.0058535366506851675 0 -0.0046787512914040069 0.0059621894292629556 0 -0.00386425891217355 0.0073904620637830131 0 -0.0046787512914040069 0.0059621894292629556 0 -0.0055859940950717425 0.0073750761887874669 0 -0.0066922075030556036 0.0058535366506851675 0 -0.0046787512914040069 0.0059621894292629556 0 -0.0055859940950717425 0.0073750761887874669 0 -0.00386425891217355 0.0073904620637830131 0 -0.0055859940950717425 0.0073750761887874669 0 -0.0049197270746770445 0.0087820567812194068 0 -0.0055859940950717425 0.0073750761887874669 0 -0.0049197270746770445 0.0087820567812194068 0 -0.0066346696043077663 0.0088276873430026825 0 -0.0070936077224009785 0.0075487188502857258 0 -0.0055859940950717425 0.0073750761887874669 0 -0.0066346696043077663 0.0088276873430026825 0 -0.0070936077224009785 0.0075487188502857258 0 -0.0066346696043077663 0.0088276873430026825 0 -0.0081858139118506749 0.0084261044511626405 0 -0.0066346696043077663 0.0088276873430026825 0 -0.0060836406389901468 0.010085821363666521 0 -0.0080256191387341764 0.010066848802858835 0 -0.0043695509416476442 0.010283643745953553 0 -0.0049197270746770445 0.0087820567812194068 0 -0.0060836406389901468 0.010085821363666521 0 -0.0049197270746770445 0.0087820567812194068 0 -0.0066346696043077663 0.0088276873430026825 0 -0.0060836406389901468 0.010085821363666521 0 -0.0043695509416476442 0.010283643745953553 0 -0.0041951822396286385 0.011786170022391428 0 -0.0057405428239547026 0.011305400687457551 0 -0.0043695509416476442 0.010283643745953553 0 -0.0060836406389901468 0.010085821363666521 0 -0.0057405428239547026 0.011305400687457551 0 -0.0060836406389901468 0.010085821363666521 0 -0.0057405428239547026 0.011305400687457551 0 -0.0071520365638233644 0.011075538971982149 0 -0.0060836406389901468 0.010085821363666521 0 -0.0071520365638233644 0.011075538971982149 0 -0.0080256191387341764 0.010066848802858835 0 -0.0057405428239547026 0.011305400687457551 0 -0.0069306836433894754 0.012065048640445138 0 -0.005721485085765865 0.012481282993138077 0 -0.0057405428239547026 0.011305400687457551 0 -0.0071520365638233644 0.011075538971982149 0 -0.0069306836433894754 0.012065048640445138 0 -0.0071520365638233644 0.011075538971982149 0 -0.0069306836433894754 0.012065048640445138 0 -0.0081009113621347273 0.01229895672059934 0 -0.0069306836433894754 0.012065048640445138 0 -0.0081009113621347273 0.01229895672059934 0 -0.0069995934800936863 0.013055906020100592 0 -0.0069306836433894754 0.012065048640445138 0 -0.005721485085765865 0.012481282993138077 0 -0.0069995934800936863 0.013055906020100592 0 -0.0041951822396286385 0.011786170022391428 0 -0.0057405428239547026 0.011305400687457551 0 -0.005721485085765865 0.012481282993138077 0 -0.0094891167542107829 0.011881163862885107 0 -0.0095907034005971083 0.012778871962060767 0 -0.0081009113621347273 0.01229895672059934 0 -0.0094891167542107829 0.011881163862885107 0 -0.0095907034005971083 0.012778871962060767 0 -0.010718922101624298 0.01208162909048063 0 -0.0095907034005971083 0.012778871962060767 0 -0.010718922101624298 0.01208162909048063 0 -0.010686479274228129 0.01283549116609317 0 -0.0095907034005971083 0.012778871962060767 0 -0.010686479274228129 0.01283549116609317 0 -0.010135571884716891 0.013485791891860973 0 -0.0095907034005971083 0.012778871962060767 0 -0.0081009113621347273 0.01229895672059934 0 -0.0080168051167735753 0.013809010357220699 0 -0.0094891167542107829 0.011881163862885107 0 -0.0081009113621347273 0.01229895672059934 0 -0.0087540945964151816 0.011199598734265355 0 -0.0071520365638233644 0.011075538971982149 0 -0.0087540945964151816 0.011199598734265355 0 -0.0080256191387341764 0.010066848802858835 0 -0.0071520365638233644 0.011075538971982149 0 -0.0081009113621347273 0.01229895672059934 0 -0.0087540945964151816 0.011199598734265355 0 -0.0087540945964151816 0.011199598734265355 0 -0.0093786469308190113 0.010354514891837781 0 -0.0080256191387341764 0.010066848802858835 0 -0.0087540945964151816 0.011199598734265355 0 -0.01035397171273863 0.011024146154774315 0 -0.0093786469308190113 0.010354514891837781 0 -0.0094891167542107829 0.011881163862885107 0 -0.0087540945964151816 0.011199598734265355 0 -0.01035397171273863 0.011024146154774315 0 -0.0094891167542107829 0.011881163862885107 0 -0.01035397171273863 0.011024146154774315 0 -0.010718922101624298 0.01208162909048063 0 -0.01035397171273863 0.011024146154774315 0 -0.0093786469308190113 0.010354514891837781 0 -0.01096419875616321 0.0096834922406126463 0 -0.0093169960222072631 0.0093516027595613692 0 -0.0095476829370950683 0.0082094458371390379 0 -0.01096419875616321 0.0096834922406126463 0 -0.0093786469308190113 0.010354514891837781 0 -0.0093169960222072631 0.0093516027595613692 0 -0.01096419875616321 0.0096834922406126463 0 -0.0066346696043077663 0.0088276873430026825 0 -0.0080256191387341764 0.010066848802858835 0 -0.0081858139118506749 0.0084261044511626405 0 -0.0093169960222072631 0.0093516027595613692 0 -0.0080256191387341764 0.010066848802858835 0 -0.0081858139118506749 0.0084261044511626405 0 -0.0093786469308190113 0.010354514891837781 0 -0.0093169960222072631 0.0093516027595613692 0 -0.0080256191387341764 0.010066848802858835 0 -0.0086193872769962914 0.0069707976612414183 0 -0.0070936077224009785 0.0075487188502857258 0 -0.0081858139118506749 0.0084261044511626405 0 -0.0086193872769962914 0.0069707976612414183 0 -0.0081858139118506749 0.0084261044511626405 0 -0.0095476829370950683 0.0082094458371390379 0 -0.0093169960222072631 0.0093516027595613692 0 -0.0081858139118506749 0.0084261044511626405 0 -0.0095476829370950683 0.0082094458371390379 0 -0.011071766727238674 0.0076308788187610136 0 -0.0095476829370950683 0.0082094458371390379 0 -0.01096419875616321 0.0096834922406126463 0 -0.011071766727238674 0.0076308788187610136 0 -0.013857119456130274 0.0087079154947483171 0 -0.01096419875616321 0.0096834922406126463 0 -0.013857119456130274 0.0087079154947483171 0 -0.01096419875616321 0.0096834922406126463 0 -0.012873461633291056 0.010775930688126422 0 -0.013857119456130274 0.0087079154947483171 0 -0.015903383545466294 0.011379392192030732 0 -0.012873461633291056 0.010775930688126422 0 -0.016031999320794209 0.006560151007921327 0 -0.013857119456130274 0.0087079154947483171 0 -0.017231297166589159 0.0084434644592954085 0 -0.013857119456130274 0.0087079154947483171 0 -0.017231297166589159 0.0084434644592954085 0 -0.015903383545466294 0.011379392192030732 0 -0.015903383545466294 0.011379392192030732 0 -0.01605967823376396 0.014244674208956145 0 -0.020515565904579446 0.013909119129274622 0 -0.015903383545466294 0.011379392192030732 0 -0.012556907504181552 0.012540854634704723 0 -0.01605967823376396 0.014244674208956145 0 -0.012556907504181552 0.012540854634704723 0 -0.011320661006367356 0.014337929837600875 0 -0.01605967823376396 0.014244674208956145 0 -0.01035397171273863 0.011024146154774315 0 -0.01096419875616321 0.0096834922406126463 0 -0.011559490723190137 0.011417040555843286 0 -0.011559490723190137 0.011417040555843286 0 -0.012873461633291056 0.010775930688126422 0 -0.012556907504181552 0.012540854634704723 0 -0.01096419875616321 0.0096834922406126463 0 -0.011559490723190137 0.011417040555843286 0 -0.012873461633291056 0.010775930688126422 0 -0.01035397171273863 0.011024146154774315 0 -0.011559490723190137 0.011417040555843286 0 -0.010718922101624298 0.01208162909048063 0 -0.015903383545466294 0.011379392192030732 0 -0.012873461633291056 0.010775930688126422 0 -0.012556907504181552 0.012540854634704723 0 -0.011559490723190137 0.011417040555843286 0 -0.012556907504181552 0.012540854634704723 0 -0.010718922101624298 0.01208162909048063 0 -0.012556907504181552 0.012540854634704723 0 -0.010718922101624298 0.01208162909048063 0 -0.010686479274228129 0.01283549116609317 0 -0.012556907504181552 0.012540854634704723 0 -0.010686479274228129 0.01283549116609317 0 -0.011432138640368374 0.013226792996426326 0 -0.012556907504181552 0.012540854634704723 0 -0.011432138640368374 0.013226792996426326 0 -0.011320661006367356 0.014337929837600875 0 -0.010686479274228129 0.01283549116609317 0 -0.011088407612212921 0.013661252763821992 0 -0.010135571884716891 0.013485791891860973 0 -0.010686479274228129 0.01283549116609317 0 -0.011432138640368374 0.013226792996426326 0 -0.011088407612212921 0.013661252763821992 0 -0.011088407612212921 0.013661252763821992 0 -0.011320661006367356 0.014337929837600875 0 -0.010135571884716891 0.013485791891860973 0 -0.011432138640368374 0.013226792996426326 0 -0.011088407612212921 0.013661252763821992 0 -0.011320661006367356 0.014337929837600875 0 -0.028183609105784019 0.011664030444820157 0 -0.033762669064384201 0.014263959493123443 0 -0.050862288479484805 0.013787452008223263 0 -0.052063472904511382 0.014667327298267046 0 -0.053052190822139376 0.013583910064847512 0 -0.050862288479484805 0.013787452008223263 0 -0.051175707923090889 0.014958081151288719 0 -0.050478851537785155 0.015529646007371941 0 -0.050862288479484805 0.013787452008223263 0 -0.052063472904511382 0.014667327298267046 0 -0.051175707923090889 0.014958081151288719 0 -0.053052190822139376 0.013583910064847512 0 -0.05336123323478742 0.015404894470223111 0 -0.05465355277936567 0.014943052103692876 0 -0.052063472904511382 0.014667327298267046 0 -0.053052190822139376 0.013583910064847512 0 -0.05336123323478742 0.015404894470223111 0 -0.05336123323478742 0.015404894470223111 0 -0.052968288321196315 0.016452806809037029 0 -0.051663534548997497 0.015860906862851274 0 -0.052063472904511382 0.014667327298267046 0 -0.05336123323478742 0.015404894470223111 0 -0.051663534548997497 0.015860906862851274 0 -0.05336123323478742 0.015404894470223111 0 -0.052968288321196315 0.016452806809037029 0 -0.05451163156336903 0.016399241070904857 0 -0.051175707923090889 0.014958081151288719 0 -0.051663534548997497 0.015860906862851274 0 -0.050478851537785155 0.015529646007371941 0 -0.052063472904511382 0.014667327298267046 0 -0.051175707923090889 0.014958081151288719 0 -0.051663534548997497 0.015860906862851274 0 -0.051663534548997497 0.015860906862851274 0 -0.050478851537785155 0.015529646007371941 0 -0.05029879961769123 0.016968234190007835 0 -0.050478851537785155 0.015529646007371941 0 -0.049128950334739734 0.016089945937439978 0 -0.05029879961769123 0.016968234190007835 0 -0.050862288479484805 0.013787452008223263 0 -0.050478851537785155 0.015529646007371941 0 -0.049128950334739734 0.016089945937439978 0 -0.0086657441127403149 0.014224900107342325 0 -0.0076609584601985518 0.014291199139716665 0 -0.0075909098098110618 0.014194350824981279 0 -0.0090989801682694674 0.013471242536164912 0 -0.0086657441127403149 0.014224900107342325 0 -0.0076609584601985518 0.014291199139716665 0 -0.0044303708426477262 0.016581732277011686 0 -0.0075909098098110618 0.014194350824981279 0 -0.0049405406549259028 0.014303280860884922 0 -0.0066077270229672009 0.014975311248614901 0 -0.0070189616513875739 0.014610812070008332 0 -0.0041392993186976351 0.01299005768581489 0 -0.0049405406549259028 0.014303280860884922 0 -0.0059976699242486652 0.013438477796902385 0 -0.0075909098098110618 0.014194350824981279 0 -0.0049405406549259028 0.014303280860884922 0 -0.0059976699242486652 0.013438477796902385 0 -0.0041392993186976351 0.01299005768581489 0 -0.0059976699242486652 0.013438477796902385 0 -0.005721485085765865 0.012481282993138077 0 -0.0041951822396286385 0.011786170022391428 0 -0.0041392993186976351 0.01299005768581489 0 -0.005721485085765865 0.012481282993138077 0 -0.0075909098098110618 0.014194350824981279 0 -0.0059976699242486652 0.013438477796902385 0 -0.0069995934800936863 0.013055906020100592 0 -0.0059976699242486652 0.013438477796902385 0 -0.005721485085765865 0.012481282993138077 0 -0.0069995934800936863 0.013055906020100592 0 -0.0075909098098110618 0.014194350824981279 0 -0.0069995934800936863 0.013055906020100592 0 -0.0080168051167735753 0.013809010357220699 0 -0.0081009113621347273 0.01229895672059934 0 -0.0069995934800936863 0.013055906020100592 0 -0.0080168051167735753 0.013809010357220699 0 -0.028183609105784019 0.011664030444820157 0 -0.028011705531364055 0.014126770230609516 0 -0.0085791297457862657 0.013862793016662364 0 -0.0076609584601985518 0.014291199139716665 0 -0.0075909098098110618 0.014194350824981279 0 -0.0085791297457862657 0.013862793016662364 0 -0.0075909098098110618 0.014194350824981279 0 -0.0080168051167735753 0.013809010357220699 0 -0.0095907034005971083 0.012778871962060767 0 -0.0080168051167735753 0.013809010357220699 0 -0.010135571884716891 0.013485791891860973 0 -0.011320661006367356 0.014337929837600875 0 -0.0080168051167735753 0.013809010357220699 0 -0.010135571884716891 0.013485791891860973 0 -0.028183609105784019 0.011664030444820157 0 -0.023248033356026661 0.012148749817102065 0 -0.050046055348790121 0.018587242895903595 0 -0.052597236021629641 0.019617239482048101 0 -0.048294013856633448 0.020907145773970896 0 -0.050046055348790121 0.018587242895903595 0 -0.052597236021629641 0.019617239482048101 0 -0.051925328438537179 0.01710470046574045 0 -0.052597236021629641 0.019617239482048101 0 -0.048294013856633448 0.020907145773970896 0 -0.052133461262436037 0.022873928863799169 0 -0.048294013856633448 0.020907145773970896 0 -0.045784810198378836 0.02090365315256356 0 -0.044169579117091552 0.023540018519442801 0 -0.045784810198378836 0.02090365315256356 0 -0.04385622031004293 0.02107909556495214 0 -0.044169579117091552 0.023540018519442801 0 -0.04385622031004293 0.02107909556495214 0 -0.046819120394458305 0.018036093913467808 0 -0.043187118829531336 0.017579451061277649 0 -0.045784810198378836 0.02090365315256356 0 -0.04385622031004293 0.02107909556495214 0 -0.046819120394458305 0.018036093913467808 0 -0.048294013856633448 0.020907145773970896 0 -0.045784810198378836 0.02090365315256356 0 -0.046819120394458305 0.018036093913467808 0 -0.050046055348790121 0.018587242895903595 0 -0.048294013856633448 0.020907145773970896 0 -0.046819120394458305 0.018036093913467808 0 -0.046819120394458305 0.018036093913467808 0 -0.050489037025016545 0.016231217710441236 0 -0.048340476090636186 0.013419639707421353 0 -0.046819120394458305 0.018036093913467808 0 -0.045181962238495181 0.015094234592532967 0 -0.048340476090636186 0.013419639707421353 0 -0.046819120394458305 0.018036093913467808 0 -0.045181962238495181 0.015094234592532967 0 -0.043187118829531336 0.017579451061277649 0 -0.05193993314969754 0.014456469845767013 0 -0.050489037025016545 0.016231217710441236 0 -0.048340476090636186 0.013419639707421353 0 -0.05193993314969754 0.014456469845767013 0 -0.050489037025016545 0.016231217710441236 0 -0.052463634423271982 0.015477390155513585 0 -0.050046055348790121 0.018587242895903595 0 -0.050489037025016545 0.016231217710441236 0 -0.051925328438537179 0.01710470046574045 0 -0.050046055348790121 0.018587242895903595 0 -0.046819120394458305 0.018036093913467808 0 -0.050489037025016545 0.016231217710441236 0 -0.052597236021629641 0.019617239482048101 0 -0.051925328438537179 0.01710470046574045 0 -0.053520097414876538 0.015724768857495935 0 -0.050489037025016545 0.016231217710441236 0 -0.051925328438537179 0.01710470046574045 0 -0.052463634423271982 0.015477390155513585 0 -0.051925328438537179 0.01710470046574045 0 -0.053520097414876538 0.015724768857495935 0 -0.052463634423271982 0.015477390155513585 0 -0.053520097414876538 0.015724768857495935 0 -0.052463634423271982 0.015477390155513585 0 -0.053541763518573496 0.013966700461671637 0 -0.05193993314969754 0.014456469845767013 0 -0.052463634423271982 0.015477390155513585 0 -0.053541763518573496 0.013966700461671637 0 -0.05193993314969754 0.014456469845767013 0 -0.053541763518573496 0.013966700461671637 0 -0.052879547588594894 0.012590256246084904 0 -0.053904421057430839 0.017160167158560908 0 -0.054960869478582447 0.015671919786189266 0 -0.054308989611200238 0.014120722915205639 0 -0.054896643924959833 0.014533122690411605 0 -0.054911072859487792 0.012732182492212902 0 -0.052597236021629641 0.019617239482048101 0 -0.055582195999992798 0.016208685058714981 0 -0.055572510084592006 0.016580976546289761 0 -0.052597236021629641 0.019617239482048101 0 -0.054896643924959833 0.014533122690411605 0 -0.056894581611571092 0.01342599051299836 0 -0.052597236021629641 0.019617239482048101 0 -0.053520097414876538 0.015724768857495935 0 -0.054896643924959833 0.014533122690411605 0 -0.053520097414876538 0.015724768857495935 0 -0.054308989611200238 0.014120722915205639 0 -0.054896643924959833 0.014533122690411605 0 -0.053520097414876538 0.015724768857495935 0 -0.053541763518573496 0.013966700461671637 0 -0.054308989611200238 0.014120722915205639 0 -0.054896643924959833 0.014533122690411605 0 -0.056894581611571092 0.01342599051299836 0 -0.055828995583610479 0.013070708586101655 0 -0.05336123323478742 0.015404894470223111 0 -0.05451163156336903 0.016399241070904857 0 -0.054612142447097278 0.0158028919079817 0 -0.055572510084592006 0.016580976546289761 0 -0.05451163156336903 0.016399241070904857 0 -0.054612142447097278 0.0158028919079817 0 -0.055582195999992798 0.016208685058714981 0 -0.055572510084592006 0.016580976546289761 0 -0.05451163156336903 0.016399241070904857 0 -0.055572510084592006 0.016580976546289761 0 -0.054612142447097278 0.0158028919079817 0 -0.05465355277936567 0.014943052103692876 0 -0.05336123323478742 0.015404894470223111 0 -0.054612142447097278 0.0158028919079817 0 -0.05465355277936567 0.014943052103692876 0 -0.053052190822139376 0.013583910064847512 0 -0.05465355277936567 0.014943052103692876 0 -0.055389487939684422 0.013306523666619247 0 -0.042202922718267886 0.01761470571701931 0 -0.037643215180496903 0.017138222787196133 0 -0.033762669064384201 0.014263959493123443 0 -0.037643215180496903 0.017138222787196133 0 -0.055572510084592006 0.016580976546289761 0 -0.05465355277936567 0.014943052103692876 0 -0.055389487939684422 0.013306523666619247 0 -0.052597236021629641 0.019617239482048101 0 -0.056541838950827719 0.021788689399080328 0 -0.052133461262436037 0.022873928863799169 0 -0.052597236021629641 0.019617239482048101 0 -0.055572510084592006 0.016580976546289761 0 -0.056541838950827719 0.021788689399080328 0 -0.031042749968454963 0.020841930136510298 0 -0.023909980959226106 0.027747396309039597 0 -0.033615557171244065 0.026872602794884244 0 -0.031042749968454963 0.020841930136510298 0 -0.023909980959226106 0.027747396309039597 0 -0.023170327513855313 0.018434032978613325 0 -0.037643215180496903 0.017138222787196133 0 -0.040751610901944187 0.019625018545333633 0 -0.015903383545466294 0.011379392192030732 0 -0.020515565904579446 0.013909119129274622 0 -0.020219594557749864 0.0096800447118151629 0 -0.037643215180496903 0.017138222787196133 0 -0.030745853735586852 0.013068966338950784 0 -0.017231297166589159 0.0084434644592954085 0 -0.020219594557749864 0.0096800447118151629 0 -0.020315476392918249 0.005697163460548489 0 -0.017231297166589159 0.0084434644592954085 0 -0.015903383545466294 0.011379392192030732 0 -0.020219594557749864 0.0096800447118151629 0 -0.031042749968454963 0.020841930136510298 0 -0.023170327513855313 0.018434032978613325 0 -0.027678120188579378 0.014828401807547692 0 -0.023170327513855313 0.018434032978613325 0 -0.027678120188579378 0.014828401807547692 0 -0.02223429002768107 0.0097086316801700285 0 -0.031042749968454963 0.020841930136510298 0 -0.027678120188579378 0.014828401807547692 0 -0.032574537952835186 0.015407600689836511 0 -0.032574537952835186 0.015407600689836511 0 -0.037815843365538317 0.017239164796984289 0 -0.03609877233114589 0.019625697343110707 0 -0.032574537952835186 0.015407600689836511 0 -0.037815843365538317 0.017239164796984289 0 -0.034271433214261446 0.012189042668749196 0 -0.037815843365538317 0.017239164796984289 0 -0.03609877233114589 0.019625697343110707 0 -0.04004104352043663 0.02149601929928395 0 -0.031042749968454963 0.020841930136510298 0 -0.032574537952835186 0.015407600689836511 0 -0.03609877233114589 0.019625697343110707 0 -0.048294013856633448 0.020907145773970896 0 -0.052133461262436037 0.022873928863799169 0 -0.044169579117091552 0.023540018519442801 0 -0.031042749968454963 0.020841930136510298 0 -0.037156701232405082 0.022899360901803775 0 -0.033615557171244065 0.026872602794884244 0 -0.040751610901944187 0.019625018545333633 0 -0.04175246137898752 0.020288031444154388 0 -0.031042749968454963 0.020841930136510298 0 -0.03609877233114589 0.019625697343110707 0 -0.037156701232405082 0.022899360901803775 0 -0.037156701232405082 0.022899360901803775 0 -0.033615557171244065 0.026872602794884244 0 -0.044169579117091552 0.023540018519442801 0 -0.03609877233114589 0.019625697343110707 0 -0.037156701232405082 0.022899360901803775 0 -0.04004104352043663 0.02149601929928395 0 -0.04385622031004293 0.02107909556495214 0 -0.044169579117091552 0.023540018519442801 0 -0.044355918950591933 0.02327203030016424 0 -0.037156701232405082 0.022899360901803775 0 -0.044169579117091552 0.023540018519442801 0 -0.04004104352043663 0.02149601929928395 0 -0.044169579117091552 0.023540018519442801 0 -0.04004104352043663 0.02149601929928395 0 -0.044355918950591933 0.02327203030016424 0 0.0063226307201168742 -0.0085107687731731854 0 0.0072237419201995083 -0.012385442462817604 0 0.0090874040987462164 -0.014258948977092343 0 -0.019682026979293405 0.0041819072606498016 0 -0.014701047846973849 -0.00088984853628966876 0 -0.037815843365538317 0.017239164796984289 0 -0.044355918950591933 0.02327203030016424 0 -0.038590421091363153 0.012237312390083979 0 0.0063226307201168742 -0.0085107687731731854 0 0.0061637119178115478 -0.011724683497911285 0 0.0072237419201995083 -0.012385442462817604 0 -0.037815843365538317 0.017239164796984289 0 -0.04004104352043663 0.02149601929928395 0 -0.044355918950591933 0.02327203030016424 0 0.0061637119178115478 -0.011724683497911285 0 0.0072237419201995083 -0.012385442462817604 0 0.0072930729115969553 -0.015067582055440527 0 0.0072930729115969553 -0.015067582055440527 0 0.0090874040987462164 -0.014258948977092343 0 0.010781369903422371 -0.020455289526708879 0 0.010142833015053932 -0.017094898219882793 0 0.0090473292070179824 -0.018750124077958813 0 0.0065137136804375847 -0.017000139920411498 0 0.0072237419201995083 -0.012385442462817604 0 0.0072930729115969553 -0.015067582055440527 0 0.0090874040987462164 -0.014258948977092343 0 -0.037815843365538317 0.017239164796984289 0 -0.038590421091363153 0.012237312390083979 0 -0.034271433214261446 0.012189042668749196 0 -0.032574537952835186 0.015407600689836511 0 -0.034271433214261446 0.012189042668749196 0 -0.029540077592823961 0.0099680556959433394 0 -0.033136840336095964 0.0078034626015850801 0 -0.029540077592823961 0.0099680556959433394 0 -0.029885841047143813 0.0063164942841694369 0 -0.034271433214261446 0.012189042668749196 0 -0.033136840336095964 0.0078034626015850801 0 -0.029540077592823961 0.0099680556959433394 0 -0.038590421091363153 0.012237312390083979 0 -0.034271433214261446 0.012189042668749196 0 -0.033136840336095964 0.0078034626015850801 0 -0.038590421091363153 0.012237312390083979 0 -0.033136840336095964 0.0078034626015850801 0 -0.031039714899748584 0.0026166069686824446 0 0.0090874040987462164 -0.014258948977092343 0 0.010781369903422371 -0.020455289526708879 0 0.011224039964331073 -0.020728945053399124 0 0.010142833015053932 -0.017094898219882793 0 0.010781369903422371 -0.020455289526708879 0 0.010257776874148505 -0.019832494879619435 0 0.0079132958235537225 -0.015307669074371543 0 0.0095625050330833301 -0.017372240340045017 0 -0.014701047846973849 -0.00088984853628966876 0 -0.0091615283352894979 -0.0069536739934905056 0 -0.033136840336095964 0.0078034626015850801 0 -0.030789665064109961 0.0051752889532490874 0 -0.031039714899748584 0.0026166069686824446 0 -0.033136840336095964 0.0078034626015850801 0 -0.030789665064109961 0.0051752889532490874 0 -0.029885841047143813 0.0063164942841694369 0 -0.030789665064109961 0.0051752889532490874 0 -0.031039714899748584 0.0026166069686824446 0 -0.029161495090772767 0.0040040148279743915 0 0.010781369903422371 -0.020455289526708879 0 0.010469277948278899 -0.020689581677965922 0 0.010772328609139972 -0.020872718105663563 0 0.010781369903422371 -0.020455289526708879 0 0.011224039964331073 -0.020728945053399124 0 0.010772328609139972 -0.020872718105663563 0 0.010781369903422371 -0.020455289526708879 0 0.010469277948278899 -0.020689581677965922 0 0.010257776874148505 -0.019832494879619435 0 0.010469277948278899 -0.020689581677965922 0 0.010257776874148505 -0.019832494879619435 0 0.010046997627370926 -0.020839245577375622 0 0.010142833015053932 -0.017094898219882793 0 0.010257776874148505 -0.019832494879619435 0 0.0098716577583567253 -0.019613895941892438 0 0.010257776874148505 -0.019832494879619435 0 0.0098716577583567253 -0.019613895941892438 0 0.010046997627370926 -0.020839245577375622 0 0.0091984864195433415 -0.021030470158215266 0 0.0098716577583567253 -0.019613895941892438 0 0.010046997627370926 -0.020839245577375622 0 0.0091984864195433415 -0.021030470158215266 0 0.0090473292070179824 -0.018750124077958813 0 0.0098716577583567253 -0.019613895941892438 0 0.010142833015053932 -0.017094898219882793 0 0.0090473292070179824 -0.018750124077958813 0 0.0098716577583567253 -0.019613895941892438 0 -0.030745853735586852 0.013068966338950784 0 -0.027236926832399862 0.0082290093345035106 0 -0.016031999320794209 0.006560151007921327 0 -0.017231297166589159 0.0084434644592954085 0 -0.020315476392918249 0.005697163460548489 0 -0.027678120188579378 0.014828401807547692 0 -0.02223429002768107 0.0097086316801700285 0 -0.029540077592823961 0.0099680556959433394 0 -0.02223429002768107 0.0097086316801700285 0 -0.029540077592823961 0.0099680556959433394 0 -0.025974642478955191 0.005384626280990349 0 -0.027678120188579378 0.014828401807547692 0 -0.032574537952835186 0.015407600689836511 0 -0.029540077592823961 0.0099680556959433394 0 -0.029885841047143813 0.0063164942841694369 0 -0.029161495090772767 0.0040040148279743915 0 -0.025974642478955191 0.005384626280990349 0 -0.029540077592823961 0.0099680556959433394 0 -0.029885841047143813 0.0063164942841694369 0 -0.025974642478955191 0.005384626280990349 0 -0.030789665064109961 0.0051752889532490874 0 -0.029885841047143813 0.0063164942841694369 0 -0.029161495090772767 0.0040040148279743915 0 -0.031039714899748584 0.0026166069686824446 0 -0.028807375491645189 0.002662814260201049 0 -0.026863028569763418 0.0007362807760689737 0 -0.029161495090772767 0.0040040148279743915 0 -0.027350912453840501 0.0029274029864988344 0 -0.025974642478955191 0.005384626280990349 0 -0.031039714899748584 0.0026166069686824446 0 -0.029161495090772767 0.0040040148279743915 0 -0.028807375491645189 0.002662814260201049 0 -0.029161495090772767 0.0040040148279743915 0 -0.028807375491645189 0.002662814260201049 0 -0.027350912453840501 0.0029274029864988344 0 -0.028807375491645189 0.002662814260201049 0 -0.027350912453840501 0.0029274029864988344 0 -0.026863028569763418 0.0007362807760689737 0 -0.02452734678798571 0.0020451259137336127 0 -0.025974642478955191 0.005384626280990349 0 -0.021010086486363499 0.0014836188715867493 0 -0.027350912453840501 0.0029274029864988344 0 -0.02452734678798571 0.0020451259137336127 0 -0.025974642478955191 0.005384626280990349 0 -0.02223429002768107 0.0097086316801700285 0 -0.025974642478955191 0.005384626280990349 0 -0.021010086486363499 0.0014836188715867493 0 -0.016208376193296646 0.0037009107231954952 0 -0.020315476392918249 0.005697163460548489 0 -0.021010086486363499 0.0014836188715867493 0 -0.027236926832399862 0.0082290093345035106 0 -0.026122077859746691 0.0056060278483542666 0 -0.017341771822498984 0.00014768685424657195 0 -0.020312423399629947 -0.0024400059814146178 0 -0.021010086486363499 0.0014836188715867493 0 -0.02452734678798571 0.0020451259137336127 0 -0.021010086486363499 0.0014836188715867493 0 -0.022620449631752956 -0.001063632733727318 0 -0.020312423399629947 -0.0024400059814146178 0 -0.022620449631752956 -0.001063632733727318 0 -0.023656470895898042 -0.003622628627767353 0 -0.020312423399629947 -0.0024400059814146178 0 -0.021010086486363499 0.0014836188715867493 0 -0.022620449631752956 -0.001063632733727318 0 0.011224039964331073 -0.020728945053399124 0 0.010401333556785354 -0.021600746114328793 0 0.010678770417143803 -0.021162525251413589 0 -0.031039714899748584 0.0026166069686824446 0 -0.026863028569763418 0.0007362807760689737 0 -0.024392291020167954 -0.0046355595591969952 0 -0.024686123680697017 -0.0016419023595555869 0 -0.026863028569763418 0.0007362807760689737 0 -0.024392291020167954 -0.0046355595591969952 0 -0.0091615283352894979 -0.0069536739934905056 0 -0.0026304401823859583 -0.012508993936750252 0 -0.022620449631752956 -0.001063632733727318 0 -0.024686123680697017 -0.0016419023595555869 0 -0.023656470895898042 -0.003622628627767353 0 -0.022620449631752956 -0.001063632733727318 0 -0.024686123680697017 -0.0016419023595555869 0 -0.024857915709471608 0.00015290423491519934 0 -0.02452734678798571 0.0020451259137336127 0 -0.022620449631752956 -0.001063632733727318 0 -0.024857915709471608 0.00015290423491519934 0 -0.024686123680697017 -0.0016419023595555869 0 -0.024857915709471608 0.00015290423491519934 0 -0.026863028569763418 0.0007362807760689737 0 -0.027350912453840501 0.0029274029864988344 0 -0.02452734678798571 0.0020451259137336127 0 -0.026863028569763418 0.0007362807760689737 0 -0.02452734678798571 0.0020451259137336127 0 -0.024857915709471608 0.00015290423491519934 0 -0.026863028569763418 0.0007362807760689737 0 0.010401333556785354 -0.021600746114328793 0 0.010392861077116896 -0.021393984161804318 0 0.010678770417143803 -0.021162525251413589 0 0.010401333556785354 -0.021600746114328793 0 0.010392861077116896 -0.021393984161804318 0 0.010016828653410614 -0.021568424211907553 0 -0.024686123680697017 -0.0016419023595555869 0 -0.024392291020167954 -0.0046355595591969952 0 -0.023656470895898042 -0.003622628627767353 0 -0.024045001307984908 -0.0041394466571487249 0 -0.023656470895898042 -0.003622628627767353 0 -0.021383498549593181 -0.005354033801506999 0 -0.0026304401823859583 -0.012508993936750252 0 -0.0028212471141339998 -0.012553078582563234 0 -0.0030723668236969709 -0.010566831431443657 0 -0.0026304401823859583 -0.012508993936750252 0 -0.021064887272622967 -0.00787682691063437 0 -0.024045001307984908 -0.0041394466571487249 0 -0.021383498549593181 -0.005354033801506999 0 -0.020312423399629947 -0.0024400059814146178 0 -0.023656470895898042 -0.003622628627767353 0 -0.021383498549593181 -0.005354033801506999 0 -0.017735982910565988 -0.0066686601813632446 0 -0.017451484053403861 -0.0034179508952039868 0 -0.021383498549593181 -0.005354033801506999 0 -0.017451484053403861 -0.0034179508952039868 0 -0.020312423399629947 -0.0024400059814146178 0 -0.021383498549593181 -0.005354033801506999 0 0.010007971540355355 -0.021323696676289763 0 0.0096370973109815 -0.021570651254898928 0 0.0099647215788100721 -0.021577646402997568 0 0.0091984864195433415 -0.021030470158215266 0 0.0096370973109815 -0.021570651254898928 0 0.010046997627370926 -0.020839245577375622 0 0.010007971540355355 -0.021323696676289763 0 0.0096370973109815 -0.021570651254898928 0 0.010046997627370926 -0.020839245577375622 0 0.010469277948278899 -0.020689581677965922 0 0.010046997627370926 -0.020839245577375622 0 0.010405505151972543 -0.021163567238258206 0 0.010007971540355355 -0.021323696676289763 0 0.010046997627370926 -0.020839245577375622 0 0.010405505151972543 -0.021163567238258206 0 0.010469277948278899 -0.020689581677965922 0 0.010405505151972543 -0.021163567238258206 0 0.010772328609139972 -0.020872718105663563 0 0.011224039964331073 -0.020728945053399124 0 0.010772328609139972 -0.020872718105663563 0 0.010678770417143803 -0.021162525251413589 0 0.010405505151972543 -0.021163567238258206 0 0.010772328609139972 -0.020872718105663563 0 0.010678770417143803 -0.021162525251413589 0 0.010405505151972543 -0.021163567238258206 0 0.010392861077116896 -0.021393984161804318 0 0.0099647215788100721 -0.021577646402997568 0 0.010405505151972543 -0.021163567238258206 0 0.010392861077116896 -0.021393984161804318 0 0.010678770417143803 -0.021162525251413589 0 0.010007971540355355 -0.021323696676289763 0 0.010405505151972543 -0.021163567238258206 0 0.0099647215788100721 -0.021577646402997568 0 0.0093088413096272058 -0.021572200027581798 0 0.0099647215788100721 -0.021577646402997568 0 0.010016828653410614 -0.021568424211907553 0 0.0093088413096272058 -0.021572200027581798 0 0.010401333556785354 -0.021600746114328793 0 0.010016828653410614 -0.021568424211907553 0 0.0093088413096272058 -0.021572200027581798 0 0.0099647215788100721 -0.021577646402997568 0 0.0095480974186220157 -0.0217413419319476 0 0.010392861077116896 -0.021393984161804318 0 0.0099647215788100721 -0.021577646402997568 0 0.010016828653410614 -0.021568424211907553 0 0.0096370973109815 -0.021570651254898928 0 0.0099647215788100721 -0.021577646402997568 0 0.0095480974186220157 -0.0217413419319476 0 0.0096370973109815 -0.021570651254898928 0 0.0095480974186220157 -0.0217413419319476 0 0.0098594899609781433 -0.022168592299953282 0 0.0096370973109815 -0.021570651254898928 0 0.0098594899609781433 -0.022168592299953282 0 0.0097794565604213748 -0.021694862439625446 0 0.0091984864195433415 -0.021030470158215266 0 0.0096370973109815 -0.021570651254898928 0 0.0097794565604213748 -0.021694862439625446 0 0.0097794565604213748 -0.021694862439625446 0 0.0094925218276476087 -0.022783694322284529 0 0.0085369996068150877 -0.021874512406570481 0 0.010205543773336816 -0.022499557325191575 0 0.0098594899609781433 -0.022168592299953282 0 0.0094925218276476087 -0.022783694322284529 0 0.0098594899609781433 -0.022168592299953282 0 0.0097794565604213748 -0.021694862439625446 0 0.0094925218276476087 -0.022783694322284529 0 0.0094925218276476087 -0.022783694322284529 0 0.009266953028926439 -0.023175427137516354 0 0.0067480036538067134 -0.024701819482426092 0 0.010205543773336816 -0.022499557325191575 0 0.0094925218276476087 -0.022783694322284529 0 0.009266953028926439 -0.023175427137516354 0 0.009266953028926439 -0.023175427137516354 0 0.0095338883919547923 -0.023238151228527109 0 0.0067480036538067134 -0.024701819482426092 0 0.0098386234032973117 -0.022891638185870901 0 0.009266953028926439 -0.023175427137516354 0 0.0095338883919547923 -0.023238151228527109 0 0.0048384390252702537 -0.027304401989969439 0 0.0053247355841188589 -0.026561894636071538 0 0.002960866439338081 -0.033123885355827672 0 0.0067480036538067134 -0.024701819482426092 0 0.00024311771045141956 -0.027199667475067482 0 0.0067480036538067134 -0.024701819482426092 0 0.00024311771045141956 -0.027199667475067482 0 0.0010470926914461628 -0.021270895496394659 0 0.0067480036538067134 -0.024701819482426092 0 0.0085369996068150877 -0.021874512406570481 0 0.0010470926914461628 -0.021270895496394659 0 0.0094925218276476087 -0.022783694322284529 0 0.0067480036538067134 -0.024701819482426092 0 0.0085369996068150877 -0.021874512406570481 0 0.0085369996068150877 -0.021874512406570481 0 0.0056822200854184162 -0.016774276232200763 0 0.0099686683954593788 -0.020515113808374882 0 -0.00051034066809945138 -0.01689608411053602 0 0.0045118692032569121 -0.018872185483498474 0 0.0085369996068150877 -0.021874512406570481 0 0.0056822200854184162 -0.016774276232200763 0 0.0010470926914461628 -0.021270895496394659 0 -0.0048169432638141378 -0.016820912660453664 0 -0.010859311097833155 -0.014258715760802136 0 -0.0068320137329058303 -0.011162446045270533 0 -0.0048169432638141378 -0.016820912660453664 0 0.001972260795822738 -0.019384084047425251 0 -0.0010844040288878365 -0.011984561988341554 0 0.0031919582524915038 -0.014872864630113078 0 0.0065137136804375847 -0.017000139920411498 0 0.001972260795822738 -0.019384084047425251 0 0.0031919582524915038 -0.014872864630113078 0 0.001972260795822738 -0.019384084047425251 0 -0.0010844040288878365 -0.011984561988341554 0 0.010142833015053932 -0.017094898219882793 0 0.0065137136804375847 -0.017000139920411498 0 0.0054044702100898498 -0.011083029920355454 0 0.0031919582524915038 -0.014872864630113078 0 0.0065137136804375847 -0.017000139920411498 0 0.0054044702100898498 -0.011083029920355454 0 0.0091984864195433415 -0.021030470158215266 0 0.0090473292070179824 -0.018750124077958813 0 0.0065137136804375847 -0.017000139920411498 0 0.0091984864195433415 -0.021030470158215266 0 0.0065137136804375847 -0.017000139920411498 0 0.001972260795822738 -0.019384084047425251 0 0.0091984864195433415 -0.021030470158215266 0 0.0097794565604213748 -0.021694862439625446 0 0.0099686683954593788 -0.020515113808374882 0 0.0067000133905821182 -0.019715571359178084 0 0.0045118692032569121 -0.018872185483498474 0 0.0097794565604213748 -0.021694862439625446 0 0.0085369996068150877 -0.021874512406570481 0 0.0099686683954593788 -0.020515113808374882 0 -0.025236631438266838 -0.022749518422366489 0 -0.019764083289538267 -0.030111752574626147 0 -0.019319541124131621 -0.019957384096655595 0 -0.01896579374221943 -0.034115463801356771 0 -0.022764636644460122 -0.033433083138253661 0 -0.019764083289538267 -0.030111752574626147 0 -0.019764083289538267 -0.030111752574626147 0 -0.013317501297646464 -0.026016879407405373 0 -0.010647013032767154 -0.034727588351004007 0 -0.012362528045553404 -0.02799023806776544 0 -0.0074815691355055872 -0.028646939547294966 0 -0.01896579374221943 -0.034115463801356771 0 -0.019764083289538267 -0.030111752574626147 0 -0.013297435515470125 -0.033374019032238016 0 -0.019764083289538267 -0.030111752574626147 0 -0.013317501297646464 -0.026016879407405373 0 -0.019319541124131621 -0.019957384096655595 0 -0.013317501297646464 -0.026016879407405373 0 -0.0060161248947497373 -0.026521051035518453 0 -0.010290770669646442 -0.019712732751459554 0 -0.013317501297646464 -0.026016879407405373 0 -0.0060161248947497373 -0.026521051035518453 0 -0.010647013032767154 -0.034727588351004007 0 -0.0060161248947497373 -0.026521051035518453 0 -0.010647013032767154 -0.034727588351004007 0 -0.0029367135653613737 -0.032242297737624666 0 -0.00059852755319947891 -0.039647041282277307 0 0.002960866439338081 -0.033123885355827672 0 -0.0029367135653613737 -0.032242297737624666 0 0.002960866439338081 -0.033123885355827672 0 -0.0029367135653613737 -0.032242297737624666 0 0.00024311771045141956 -0.027199667475067482 0 -0.0060161248947497373 -0.026521051035518453 0 0.00024311771045141956 -0.027199667475067482 0 0.0010470926914461628 -0.021270895496394659 0 -0.0060161248947497373 -0.026521051035518453 0 -0.0029367135653613737 -0.032242297737624666 0 0.00024311771045141956 -0.027199667475067482 0 0.0010470926914461628 -0.021270895496394659 0 -0.0041365422171307804 -0.013334983508409028 0 -0.010290770669646442 -0.019712732751459554 0 -0.00051034066809945138 -0.01689608411053602 0 -0.0066156715163803404 -0.014728612482463902 0 0.0056822200854184162 -0.016774276232200763 0 0.0010470926914461628 -0.021270895496394659 0 -0.0041365422171307804 -0.013334983508409028 0 -0.0066156715163803404 -0.014728612482463902 0 -0.010307462847100305 -0.013568143085165888 0 -0.0041365422171307804 -0.013334983508409028 0 -0.010290770669646442 -0.019712732751459554 0 -0.015844574536429776 -0.012158922421459743 0 -0.0060161248947497373 -0.026521051035518453 0 0.0010470926914461628 -0.021270895496394659 0 -0.010290770669646442 -0.019712732751459554 0 -0.013317501297646464 -0.026016879407405373 0 -0.010290770669646442 -0.019712732751459554 0 -0.019319541124131621 -0.019957384096655595 0 -0.010290770669646442 -0.019712732751459554 0 -0.019319541124131621 -0.019957384096655595 0 -0.015844574536429776 -0.012158922421459743 0 -0.026241660242744689 -0.017227073017624148 0 -0.019319541124131621 -0.019957384096655595 0 -0.022902724676070737 -0.012713666920208901 0 -0.019319541124131621 -0.019957384096655595 0 -0.022902724676070737 -0.012713666920208901 0 -0.015844574536429776 -0.012158922421459743 0 -0.020930788466265438 -0.0075253427964185934 0 -0.015844574536429776 -0.012158922421459743 0 -0.016189850038267572 -0.004853933731958286 0 -0.025564001134743289 -0.0085824759503380366 0 -0.020930788466265438 -0.0075253427964185934 0 -0.022902724676070737 -0.012713666920208901 0 -0.025564001134743289 -0.0085824759503380366 0 -0.024852220354762044 -0.0047507922727225487 0 -0.020930788466265438 -0.0075253427964185934 0 -0.020930788466265438 -0.0075253427964185934 0 -0.022902724676070737 -0.012713666920208901 0 -0.015844574536429776 -0.012158922421459743 0 -0.015844574536429776 -0.012158922421459743 0 -0.012420106475842048 -0.0090610234192228193 0 -0.016189850038267572 -0.004853933731958286 0 -0.012420106475842048 -0.0090610234192228193 0 -0.012003454104801222 -0.0045424704352803715 0 -0.016189850038267572 -0.004853933731958286 0 -0.010859311097833155 -0.014258715760802136 0 -0.015844574536429776 -0.012158922421459743 0 -0.012420106475842048 -0.0090610234192228193 0 -0.010859311097833155 -0.014258715760802136 0 -0.012420106475842048 -0.0090610234192228193 0 -0.0068320137329058303 -0.011162446045270533 0 -0.012420106475842048 -0.0090610234192228193 0 -0.0085044547767650098 -0.0062835526719648045 0 -0.0068320137329058303 -0.011162446045270533 0 -0.012420106475842048 -0.0090610234192228193 0 -0.0085044547767650098 -0.0062835526719648045 0 -0.012003454104801222 -0.0045424704352803715 0 -0.0085044547767650098 -0.0062835526719648045 0 -0.0091356432873780265 -0.0019715081008511775 0 -0.012003454104801222 -0.0045424704352803715 0 -0.0091356432873780265 -0.0019715081008511775 0 -0.0062161153491908936 -1.4340794459951998e-05 0 -0.0094578659483003924 0.00243993607920534 0 -0.0091356432873780265 -0.0019715081008511775 0 -0.013858820303744074 -0.00036708651013986463 0 -0.0094578659483003924 0.00243993607920534 0 -0.013858820303744074 -0.00036708651013986463 0 -0.013026938398470227 0.0032889593513544813 0 -0.0094578659483003924 0.00243993607920534 0 -0.013858820303744074 -0.00036708651013986463 0 -0.017963013488425997 0.0033348510894203789 0 -0.013026938398470227 0.0032889593513544813 0 -0.0091356432873780265 -0.0019715081008511775 0 -0.013858820303744074 -0.00036708651013986463 0 -0.012003454104801222 -0.0045424704352803715 0 -0.013858820303744074 -0.00036708651013986463 0 -0.012003454104801222 -0.0045424704352803715 0 -0.016189850038267572 -0.004853933731958286 0 -0.013858820303744074 -0.00036708651013986463 0 -0.016189850038267572 -0.004853933731958286 0 -0.020724913039092296 -0.0014265745885822206 0 -0.020930788466265438 -0.0075253427964185934 0 -0.016189850038267572 -0.004853933731958286 0 -0.020724913039092296 -0.0014265745885822206 0 -0.013858820303744074 -0.00036708651013986463 0 -0.020724913039092296 -0.0014265745885822206 0 -0.017963013488425997 0.0033348510894203789 0 -0.026098827779097181 -0.00024748559066845282 0 -0.024608412621183819 0.0047800625942473265 0 -0.020724913039092296 -0.0014265745885822206 0 -0.024852220354762044 -0.0047507922727225487 0 -0.020930788466265438 -0.0075253427964185934 0 -0.020724913039092296 -0.0014265745885822206 0 -0.026098827779097181 -0.00024748559066845282 0 -0.024852220354762044 -0.0047507922727225487 0 -0.020724913039092296 -0.0014265745885822206 0 -0.00012784018388121559 -0.0058610459897289772 0 0.0033583426452417605 -0.0069272205382356171 0 0.0035648679013723849 -0.01030111772670996 0 -0.00012784018388121559 -0.0058610459897289772 0 0.0054044702100898498 -0.011083029920355454 0 -0.0010844040288878365 -0.011984561988341554 0 0.0024679906501471542 -0.0090419580548207514 0 0.0046008432136581765 -0.011416713447608855 0 0.0063226307201168742 -0.0085107687731731854 0 0.0033583426452417605 -0.0069272205382356171 0 0.0038554458228984524 -0.0057961255090743192 0 0.0063226307201168742 -0.0085107687731731854 0 0.0046253592204768242 -0.008947720561664093 0 0.0052805049461755078 -0.010062286710525246 0 0.0063226307201168742 -0.0085107687731731854 0 0.0033583426452417605 -0.0069272205382356171 0 0.0046253592204768242 -0.008947720561664093 0 0.0033583426452417605 -0.0069272205382356171 0 0.0046253592204768242 -0.008947720561664093 0 0.0035648679013723849 -0.01030111772670996 0 0.0061637119178115478 -0.011724683497911285 0 0.0072930729115969553 -0.015067582055440527 0 0.0035648679013723849 -0.01030111772670996 0 0.0079132958235537225 -0.015307669074371543 0 0.0046008432136581765 -0.011416713447608855 0 0.0061637119178115478 -0.011724683497911285 0 0.0035648679013723849 -0.01030111772670996 0 0.0052805049461755078 -0.010062286710525246 0 0.0046253592204768242 -0.008947720561664093 0 0.0035648679013723849 -0.01030111772670996 0 0.0052805049461755078 -0.010062286710525246 0 0.0063226307201168742 -0.0085107687731731854 0 0.0061637119178115478 -0.011724683497911285 0 0.0052805049461755078 -0.010062286710525246 0 0.0031919582524915038 -0.014872864630113078 0 0.0054044702100898498 -0.011083029920355454 0 -0.0010844040288878365 -0.011984561988341554 0 -0.0048169432638141378 -0.016820912660453664 0 -0.0010844040288878365 -0.011984561988341554 0 -0.0068320137329058303 -0.011162446045270533 0 -0.0010844040288878365 -0.011984561988341554 0 -0.0068320137329058303 -0.011162446045270533 0 -0.0040148740749988568 -0.0067815963324436498 0 -0.0085044547767650098 -0.0062835526719648045 0 -0.0068320137329058303 -0.011162446045270533 0 -0.0040148740749988568 -0.0067815963324436498 0 -0.00012784018388121559 -0.0058610459897289772 0 -0.0010844040288878365 -0.011984561988341554 0 -0.0040148740749988568 -0.0067815963324436498 0 -0.00012784018388121559 -0.0058610459897289772 0 -0.0040148740749988568 -0.0067815963324436498 0 -0.0014056890047861117 -0.0030524338487792251 0 -0.0040148740749988568 -0.0067815963324436498 0 -0.0014056890047861117 -0.0030524338487792251 0 -0.0053481887562916971 -0.0028852469060557931 0 -0.0014056890047861117 -0.0030524338487792251 0 -0.0053481887562916971 -0.0028852469060557931 0 -0.003479375686849064 -0.00052100323395266543 0 -0.0085044547767650098 -0.0062835526719648045 0 -0.0040148740749988568 -0.0067815963324436498 0 -0.0053481887562916971 -0.0028852469060557931 0 -0.0085044547767650098 -0.0062835526719648045 0 -0.0091356432873780265 -0.0019715081008511775 0 -0.0053481887562916971 -0.0028852469060557931 0 -0.0062161153491908936 -1.4340794459951998e-05 0 -0.0038818539192580688 0.002525118696034904 0 -0.0094578659483003924 0.00243993607920534 0 -0.0091356432873780265 -0.0019715081008511775 0 -0.0053481887562916971 -0.0028852469060557931 0 -0.0062161153491908936 -1.4340794459951998e-05 0 -0.0053481887562916971 -0.0028852469060557931 0 -0.0062161153491908936 -1.4340794459951998e-05 0 -0.003479375686849064 -0.00052100323395266543 0 -0.0062161153491908936 -1.4340794459951998e-05 0 -0.003479375686849064 -0.00052100323395266543 0 -0.0038818539192580688 0.002525118696034904 0 -0.0014056890047861117 -0.0030524338487792251 0 -0.003479375686849064 -0.00052100323395266543 0 -0.00082843700163626427 0.0001902026366619199 0 -0.012085722545541489 0.00092746537875000492 0 -0.022731847173528299 0.0060551484464007625 0 -0.003479375686849064 -0.00052100323395266543 0 -0.00082843700163626427 0.0001902026366619199 0 -0.0038818539192580688 0.002525118696034904 0 -0.040637591456506125 0.019653537071151805 0 -0.040004684875930889 0.015063469807074067 0 -0.035897868629260497 0.011963449922124563 0 -0.024253961354382288 0.0054480713714058163 0 -0.033780895442844738 0.0066973388489278505 0 -0.0014056890047861117 -0.0030524338487792251 0 -0.00082843700163626427 0.0001902026366619199 0 0.0018049138093504855 -0.001757166642671269 0 0.0018049138093504855 -0.001757166642671269 0 0.0038903135031197788 -0.0031427193145106749 0 -0.0011798034919151656 0.0056591366655392864 0 -0.0035934329339116244 0.0015258834419581949 0 0.0018049138093504855 -0.001757166642671269 0 -0.0011798034919151656 0.0056591366655392864 0 -0.012085722545541489 0.00092746537875000492 0 -0.0086886351310264884 -0.00072327344593519337 0 -0.00012784018388121559 -0.0058610459897289772 0 0.0033583426452417605 -0.0069272205382356171 0 0.0016442670299968599 -0.0045555350634373607 0 -0.0014056890047861117 -0.0030524338487792251 0 0.0018049138093504855 -0.001757166642671269 0 0.0016442670299968599 -0.0045555350634373607 0 0.0018049138093504855 -0.001757166642671269 0 0.0016442670299968599 -0.0045555350634373607 0 0.0038903135031197788 -0.0031427193145106749 0 0.0033583426452417605 -0.0069272205382356171 0 0.0016442670299968599 -0.0045555350634373607 0 0.0038554458228984524 -0.0057961255090743192 0 -0.00012784018388121559 -0.0058610459897289772 0 -0.0014056890047861117 -0.0030524338487792251 0 0.0016442670299968599 -0.0045555350634373607 0 -0.019682026979293405 0.0041819072606498016 0 -0.024253961354382288 0.0054480713714058163 0 -0.04385622031004293 0.02107909556495214 0 -0.044355918950591933 0.02327203030016424 0 -0.040637591456506125 0.019653537071151805 0 0.0063226307201168742 -0.0085107687731731854 0 0.0038554458228984524 -0.0057961255090743192 0 0.0038903135031197788 -0.0031427193145106749 0 0.0016442670299968599 -0.0045555350634373607 0 0.0038554458228984524 -0.0057961255090743192 0 0.0038903135031197788 -0.0031427193145106749 0 -0.04385622031004293 0.02107909556495214 0 -0.040637591456506125 0.019653537071151805 0 -0.043187118829531336 0.017579451061277649 0 -0.040637591456506125 0.019653537071151805 0 -0.043187118829531336 0.017579451061277649 0 -0.040004684875930889 0.015063469807074067 0 -0.045181962238495181 0.015094234592532967 0 -0.043227057277651831 0.014738791036280169 0 -0.044551461556606879 0.011158773799668844 0 -0.040004684875930889 0.015063469807074067 0 -0.043227057277651831 0.014738791036280169 0 -0.044551461556606879 0.011158773799668844 0 -0.045181962238495181 0.015094234592532967 0 -0.043187118829531336 0.017579451061277649 0 -0.043227057277651831 0.014738791036280169 0 -0.043187118829531336 0.017579451061277649 0 -0.040004684875930889 0.015063469807074067 0 -0.043227057277651831 0.014738791036280169 0 -0.040004684875930889 0.015063469807074067 0 -0.035897868629260497 0.011963449922124563 0 -0.044551461556606879 0.011158773799668844 0 -0.033780895442844738 0.0066973388489278505 0 -0.047178982177845899 0.0083107503659227422 0 -0.055227049301599801 0.010267134175246618 0 -0.055320395685492338 0.010061942560425837 0 -0.055142871446432103 0.010243054476332022 0 -0.055195800619509058 0.010401069712038771 0 -0.055227049301599801 0.010267134175246618 0 -0.055142871446432103 0.010243054476332022 0 -0.055227049301599801 0.010267134175246618 0 -0.055243483417320077 0.010258733694867827 0 -0.055191207904632097 0.010158750758541456 0 -0.055195800619509058 0.010401069712038771 0 -0.055243483417320077 0.010258733694867827 0 -0.055324827240934224 0.010292106024647982 0 -0.055195800619509058 0.010401069712038771 0 -0.055227049301599801 0.010267134175246618 0 -0.055243483417320077 0.010258733694867827 0 -0.055227049301599801 0.010267134175246618 0 -0.055812335074699938 0.01030669609896151 0 -0.055166786057477782 0.010196296424346506 0 -0.057336783012856572 0.010973779638134486 0 -0.057597138495749961 0.011074106939994608 0 -0.055227049301599801 0.010267134175246618 0 -0.055320395685492338 0.010061942560425837 0 -0.055812335074699938 0.01030669609896151 0 -0.055320395685492338 0.010061942560425837 0 -0.05529507064950602 0.0096248532533128595 0 -0.055142871446432103 0.010243054476332022 0 -0.055320395685492338 0.010061942560425837 0 -0.05529507064950602 0.0096248532533128595 0 -0.055812335074699938 0.01030669609896151 0 -0.053053569146815603 0.0054288199824684821 0 -0.057670064658413088 0.0050921875778336331 0 -0.05827971149344998 0.0083791661154338226 0 -0.0035934329339116244 0.0015258834419581949 0 -0.0011798034919151656 0.0056591366655392864 0 -0.0092920068839435939 0.0052503681744894481 0 -0.033780895442844738 0.0066973388489278505 0 -0.022731847173528299 0.0060551484464007625 0 -0.022731847173528299 0.0060551484464007625 0 -0.014487605981138347 0.0057814134524951499 0 -0.0033762692207719375 0.0029091707516825829 0 -0.0094578659483003924 0.00243993607920534 0 -0.0095139964117909662 0.007276245946950601 0 -0.057670064658413088 0.0050921875778336331 0 -0.05827971149344998 0.0083791661154338226 0 -0.062857689042829248 0.0091493770863709835 0 -0.022731847173528299 0.0060551484464007625 0 -0.033651037463235507 0.0093447737429838279 0 -0.05827971149344998 0.0083791661154338226 0 -0.06064604257676591 0.011075982614088162 0 -0.062857689042829248 0.0091493770863709835 0 -0.05827971149344998 0.0083791661154338226 0 -0.056614317795045298 0.01092445021525915 0 -0.06064604257676591 0.011075982614088162 0 -0.033780895442844738 0.0066973388489278505 0 -0.042505589928759836 0.012586670447592612 0 -0.05529507064950602 0.0096248532533128595 0 -0.055812335074699938 0.01030669609896151 0 -0.056614317795045298 0.01092445021525915 0 -0.055812335074699938 0.01030669609896151 0 -0.056614317795045298 0.01092445021525915 0 -0.05497364738301188 0.01206905026423835 0 -0.053053569146815603 0.0054288199824684821 0 -0.05827971149344998 0.0083791661154338226 0 -0.056614317795045298 0.01092445021525915 0 -0.056614317795045298 0.01092445021525915 0 -0.05622295264471118 0.013025054106540481 0 -0.05497364738301188 0.01206905026423835 0 -0.056614317795045298 0.01092445021525915 0 -0.05622295264471118 0.013025054106540481 0 -0.058441142611915943 0.012502042767181013 0 -0.05622295264471118 0.013025054106540481 0 -0.058441142611915943 0.012502042767181013 0 -0.057020782430409735 0.014597931197820374 0 -0.056614317795045298 0.01092445021525915 0 -0.06064604257676591 0.011075982614088162 0 -0.058441142611915943 0.012502042767181013 0 -0.058441142611915943 0.012502042767181013 0 -0.060411058573988159 0.013955005732222249 0 -0.057020782430409735 0.014597931197820374 0 -0.06064604257676591 0.011075982614088162 0 -0.058441142611915943 0.012502042767181013 0 -0.060411058573988159 0.013955005732222249 0 -0.06064604257676591 0.011075982614088162 0 -0.060411058573988159 0.013955005732222249 0 -0.063309469038845156 0.012187565778323568 0 -0.06078721338655118 0.010843530269715133 0 -0.05925423253085603 0.010987487177056615 0 -0.064285388946947047 0.012352154306682912 0 -0.064354961504519845 0.011972166198175512 0 -0.06502205262797911 0.0120025065889396 0 -0.064354961504519845 0.011972166198175512 0 -0.06502205262797911 0.0120025065889396 0 -0.064748164937140681 0.011698190025342833 0 -0.06078721338655118 0.010843530269715133 0 -0.061157870949859486 0.0102728956074826 0 -0.064285388946947047 0.012352154306682912 0 -0.064354961504519845 0.011972166198175512 0 -0.063725873245945072 0.012185242009054676 0 -0.060105048622325172 0.010744031058122938 0 -0.060131711957303387 0.010633896015506225 0 -0.059762763288849559 0.01072289994748719 0 -0.05925423253085603 0.010987487177056615 0 -0.058775293628753889 0.010473295719434384 0 -0.05622295264471118 0.013025054106540481 0 -0.057020782430409735 0.014597931197820374 0 -0.054110054805536156 0.01522959991452741 0 -0.060504551665078961 0.010548725531577071 0 -0.060105048622325172 0.010744031058122938 0 -0.060131711957303387 0.010633896015506225 0 -0.061157870949859486 0.0102728956074826 0 -0.060105323636066077 0.0097650248986681301 0 -0.060105048622325172 0.010744031058122938 0 -0.059762763288849559 0.01072289994748719 0 -0.059709798570961939 0.010942367502929054 0 -0.054905875214489919 0.0096017532153725126 0 -0.055293158991494548 0.0096492505824064597 0 -0.055140942791161142 0.0099389153513316075 0 -0.058775293628753889 0.010473295719434384 0 -0.060105323636066077 0.0097650248986681301 0 -0.054905875214489919 0.0096017532153725126 0 -0.055515506400881154 0.0090175501350935085 0 -0.055293158991494548 0.0096492505824064597 0 -0.059044004564241533 0.0081111182083667237 0 -0.058486665027274176 0.0082348019677977412 0 -0.05898210729650287 0.0083694985440977247 0 -0.058775293628753889 0.010473295719434384 0 -0.057781712752568722 0.0098456424825867153 0 -0.055515506400881154 0.0090175501350935085 0 -0.055293158991494548 0.0096492505824064597 0 -0.055829780325467912 0.0096444211212382436 0 -0.055293158991494548 0.0096492505824064597 0 -0.055337898182972321 0.010022391101751821 0 -0.055140942791161142 0.0099389153513316075 0 -0.055337898182972321 0.010022391101751821 0 -0.055191207904632097 0.010158750758541456 0 -0.055140942791161142 0.0099389153513316075 0 -0.055293158991494548 0.0096492505824064597 0 -0.055337898182972321 0.010022391101751821 0 -0.055829780325467912 0.0096444211212382436 0 -0.055243483417320077 0.010258733694867827 0 -0.055337898182972321 0.010022391101751821 0 -0.055324827240934224 0.010292106024647982 0 -0.055243483417320077 0.010258733694867827 0 -0.055337898182972321 0.010022391101751821 0 -0.055191207904632097 0.010158750758541456 0 -0.058775293628753889 0.010473295719434384 0 -0.057597138495749961 0.011074106939994608 0 -0.05622295264471118 0.013025054106540481 0 -0.054110054805536156 0.01522959991452741 0 -0.05497364738301188 0.01206905026423835 0 -0.055227049301599801 0.010267134175246618 0 -0.055191207904632097 0.010158750758541456 0 -0.055166786057477782 0.010196296424346506 0 -0.055191207904632097 0.010158750758541456 0 -0.055166786057477782 0.010196296424346506 0 -0.055140942791161142 0.0099389153513316075 0 -0.054905875214489919 0.0096017532153725126 0 -0.055166786057477782 0.010196296424346506 0 -0.055140942791161142 0.0099389153513316075 0 -0.024608412621183819 0.0047800625942473265 0 -0.024197713208180517 0.010246409923216675 0 -0.019471396168308036 0.0086077853467968583 0 -0.024608412621183819 0.0047800625942473265 0 -0.017963013488425997 0.0033348510894203789 0 -0.019471396168308036 0.0086077853467968583 0 -0.024608412621183819 0.0047800625942473265 0 -0.020724913039092296 -0.0014265745885822206 0 -0.017963013488425997 0.0033348510894203789 0 -0.017963013488425997 0.0033348510894203789 0 -0.019471396168308036 0.0086077853467968583 0 -0.0144523106182544 0.0068541540138234028 0 -0.019471396168308036 0.0086077853467968583 0 -0.0144523106182544 0.0068541540138234028 0 -0.015787274781479409 0.011861067258116155 0 -0.0144523106182544 0.0068541540138234028 0 -0.0095139964117909662 0.007276245946950601 0 -0.015787274781479409 0.011861067258116155 0 -0.062857689042829248 0.0091493770863709835 0 -0.063266050763620213 0.010860876598496787 0 -0.064513918016687113 0.011905701719244589 0 -0.033651037463235507 0.0093447737429838279 0 -0.039677001855693159 0.011326920832225399 0 -0.0144523106182544 0.0068541540138234028 0 -0.013026938398470227 0.0032889593513544813 0 -0.0095139964117909662 0.007276245946950601 0 -0.017963013488425997 0.0033348510894203789 0 -0.0144523106182544 0.0068541540138234028 0 -0.013026938398470227 0.0032889593513544813 0 -0.013026938398470227 0.0032889593513544813 0 -0.0094578659483003924 0.00243993607920534 0 -0.0095139964117909662 0.007276245946950601 0 -0.06064604257676591 0.011075982614088162 0 -0.062857689042829248 0.0091493770863709835 0 -0.063266050763620213 0.010860876598496787 0 -0.06064604257676591 0.011075982614088162 0 -0.063266050763620213 0.010860876598496787 0 -0.063309469038845156 0.012187565778323568 0 -0.063266050763620213 0.010860876598496787 0 -0.063309469038845156 0.012187565778323568 0 -0.063841175342272571 0.011833719387281727 0 -0.063309469038845156 0.012187565778323568 0 -0.063725873245945072 0.012185242009054676 0 -0.063841175342272571 0.011833719387281727 0 -0.06078721338655118 0.010843530269715133 0 -0.061187319888714044 0.010847916309964086 0 -0.064285388946947047 0.012352154306682912 0 -0.063309469038845156 0.012187565778323568 0 -0.063725873245945072 0.012185242009054676 0 -0.063725873245945072 0.012185242009054676 0 -0.063832250550048597 0.01203510567643854 0 -0.063841175342272571 0.011833719387281727 0 -0.064354961504519845 0.011972166198175512 0 -0.063725873245945072 0.012185242009054676 0 -0.063832250550048597 0.01203510567643854 0 -0.064354961504519845 0.011972166198175512 0 -0.063832250550048597 0.01203510567643854 0 -0.064215387578524477 0.01176455247574639 0 -0.066297082574658842 0.010650981230615765 0 -0.067077418915214709 0.0099814603706465041 0 -0.063832250550048597 0.01203510567643854 0 -0.063841175342272571 0.011833719387281727 0 -0.063593087076379118 0.011949651631334391 0 -0.063266050763620213 0.010860876598496787 0 -0.064513918016687113 0.011905701719244589 0 -0.063841175342272571 0.011833719387281727 0 -0.064513918016687113 0.011905701719244589 0 -0.063841175342272571 0.011833719387281727 0 -0.064500292024809766 0.011948454859611692 0 -0.039677001855693159 0.011326920832225399 0 -0.044477022846657277 0.012388968547272053 0 -0.019471396168308036 0.0086077853467968583 0 -0.015787274781479409 0.011861067258116155 0 -0.02232674044890352 0.016450660213641041 0 -0.064513918016687113 0.011905701719244589 0 -0.064206328635194335 0.011990325981944074 0 -0.064500292024809766 0.011948454859611692 0 -0.026920878378256224 0.01326550570290572 0 -0.024197713208180517 0.010246409923216675 0 -0.02232674044890352 0.016450660213641041 0 -0.024197713208180517 0.010246409923216675 0 -0.019471396168308036 0.0086077853467968583 0 -0.02232674044890352 0.016450660213641041 0 -0.064053635677740736 0.011355337020343855 0 -0.064257096205667649 0.011422069046204623 0 -0.064218341891419728 0.011151479986944192 0 -0.064257096205667649 0.011422069046204623 0 -0.064325065404573431 0.011245029482248311 0 -0.064218341891419728 0.011151479986944192 0 -0.064053635677740736 0.011355337020343855 0 -0.064257096205667649 0.011422069046204623 0 -0.064196260326633503 0.011680817521408591 0 -0.063939603064548975 0.011638536332022095 0 -0.064053635677740736 0.011355337020343855 0 -0.064196260326633503 0.011680817521408591 0 -0.063939603064548975 0.011638536332022095 0 -0.064206328635194335 0.011990325981944074 0 -0.064196260326633503 0.011680817521408591 0 -0.064206328635194335 0.011990325981944074 0 -0.064196260326633503 0.011680817521408591 0 -0.064500292024809766 0.011948454859611692 0 -0.064257096205667649 0.011422069046204623 0 -0.064196260326633503 0.011680817521408591 0 -0.064500292024809766 0.011948454859611692 0 -0.069510902584754397 0.0063153225573393257 0 -0.067077418915214709 0.0099814603706465041 0 -0.064257096205667649 0.011422069046204623 0 -0.064471804704079233 0.011337736546750903 0 -0.064500292024809766 0.011948454859611692 0 -0.062876652828480706 0.010720902952559595 0 -0.06330937839037229 0.011031445015798832 0 -0.063593087076379118 0.011949651631334391 0 -0.064257096205667649 0.011422069046204623 0 -0.064471804704079233 0.011337736546750903 0 -0.064325065404573431 0.011245029482248311 0 -0.062876652828480706 0.010720902952559595 0 -0.063047655152623283 0.010677669828451405 0 -0.06312781393377849 0.010793531414809281 0 -0.062876652828480706 0.010720902952559595 0 -0.063047655152623283 0.010677669828451405 0 -0.063151857092867442 0.010425365516271334 0 -0.063047655152623283 0.010677669828451405 0 -0.063251886323687417 0.010713798195922797 0 -0.063151857092867442 0.010425365516271334 0 -0.063047655152623283 0.010677669828451405 0 -0.063251886323687417 0.010713798195922797 0 -0.06312781393377849 0.010793531414809281 0 -0.062876652828480706 0.010720902952559595 0 -0.06312781393377849 0.010793531414809281 0 -0.06330937839037229 0.011031445015798832 0 -0.063251886323687417 0.010713798195922797 0 -0.06312781393377849 0.010793531414809281 0 -0.06330937839037229 0.011031445015798832 0 -0.06347610600506888 0.010832630871466868 0 -0.063480519925391249 0.010537791167668148 0 -0.063949278571423851 0.010620906966609618 0 -0.063251886323687417 0.010713798195922797 0 -0.06347610600506888 0.010832630871466868 0 -0.06330937839037229 0.011031445015798832 0 -0.063251886323687417 0.010713798195922797 0 -0.06347610600506888 0.010832630871466868 0 -0.063480519925391249 0.010537791167668148 0 -0.063251886323687417 0.010713798195922797 0 -0.063480519925391249 0.010537791167668148 0 -0.063151857092867442 0.010425365516271334 0 -0.063949278571423851 0.010620906966609618 0 -0.063751890634860919 0.011043252799040061 0 -0.064227314583759479 0.011069813376727687 0 -0.06347610600506888 0.010832630871466868 0 -0.063949278571423851 0.010620906966609618 0 -0.063751890634860919 0.011043252799040061 0 -0.063751890634860919 0.011043252799040061 0 -0.063857280502986807 0.011640756786023327 0 -0.064227314583759479 0.011069813376727687 0 -0.06347610600506888 0.010832630871466868 0 -0.063751890634860919 0.011043252799040061 0 -0.06330937839037229 0.011031445015798832 0 -0.063751890634860919 0.011043252799040061 0 -0.06330937839037229 0.011031445015798832 0 -0.063857280502986807 0.011640756786023327 0 -0.063832250550048597 0.01203510567643854 0 -0.063593087076379118 0.011949651631334391 0 -0.063857280502986807 0.011640756786023327 0 -0.06330937839037229 0.011031445015798832 0 -0.063593087076379118 0.011949651631334391 0 -0.063857280502986807 0.011640756786023327 0 -0.063857280502986807 0.011640756786023327 0 -0.064326132327772123 0.011439789789373756 0 -0.064227314583759479 0.011069813376727687 0 -0.063857280502986807 0.011640756786023327 0 -0.064215387578524477 0.01176455247574639 0 -0.064326132327772123 0.011439789789373756 0 -0.063832250550048597 0.01203510567643854 0 -0.063857280502986807 0.011640756786023327 0 -0.064215387578524477 0.01176455247574639 0 -0.064215387578524477 0.01176455247574639 0 -0.064326132327772123 0.011439789789373756 0 -0.064748164937140681 0.011698190025342833 0 -0.065295429098333566 0.010608379184448603 0 -0.065759801899527959 0.0098836239177947458 0 -0.064326132327772123 0.011439789789373756 0 -0.064760226655488043 0.010690336849520584 0 -0.065809178482976696 0.010137398881607118 0 -0.064326132327772123 0.011439789789373756 0 -0.064227314583759479 0.011069813376727687 0 -0.064760226655488043 0.010690336849520584 0 -0.063949278571423851 0.010620906966609618 0 -0.064227314583759479 0.011069813376727687 0 -0.064760226655488043 0.010690336849520584 0 -0.064760226655488043 0.010690336849520584 0 -0.065640455432114012 0.0095712066651386755 0 -0.065809178482976696 0.010137398881607118 0 -0.064760226655488043 0.010690336849520584 0 -0.064320390566756314 0.010015433500219321 0 -0.065118456553911158 0.0093550862685311161 0 -0.065644066130280787 0.0098723889833767127 0 -0.065911038124903482 0.0092040021455902146 0 -0.063949278571423851 0.010620906966609618 0 -0.064760226655488043 0.010690336849520584 0 -0.064320390566756314 0.010015433500219321 0 -0.064320390566756314 0.010015433500219321 0 -0.065118456553911158 0.0093550862685311161 0 -0.064149410420819966 0.0093434014010372584 0 -0.065466864946438497 0.0079647584004049112 0 -0.065118456553911158 0.0093550862685311161 0 -0.064583160619951438 0.0085905455519730001 0 -0.065118456553911158 0.0093550862685311161 0 -0.064583160619951438 0.0085905455519730001 0 -0.064149410420819966 0.0093434014010372584 0 -0.064583160619951438 0.0085905455519730001 0 -0.064149410420819966 0.0093434014010372584 0 -0.063512337596919863 0.0086985384852247046 0 -0.064149410420819966 0.0093434014010372584 0 -0.063512337596919863 0.0086985384852247046 0 -0.063364235622143689 0.0095845811601375092 0 -0.063364235622143689 0.0095845811601375092 0 -0.063658414487887852 0.010063882508570822 0 -0.063033851449977737 0.010084577275097243 0 -0.064320390566756314 0.010015433500219321 0 -0.064149410420819966 0.0093434014010372584 0 -0.063658414487887852 0.010063882508570822 0 -0.064149410420819966 0.0093434014010372584 0 -0.063364235622143689 0.0095845811601375092 0 -0.063658414487887852 0.010063882508570822 0 -0.063480519925391249 0.010537791167668148 0 -0.063949278571423851 0.010620906966609618 0 -0.063658414487887852 0.010063882508570822 0 -0.063949278571423851 0.010620906966609618 0 -0.064320390566756314 0.010015433500219321 0 -0.063658414487887852 0.010063882508570822 0 -0.063480519925391249 0.010537791167668148 0 -0.063658414487887852 0.010063882508570822 0 -0.063151857092867442 0.010425365516271334 0 -0.063658414487887852 0.010063882508570822 0 -0.063033851449977737 0.010084577275097243 0 -0.063151857092867442 0.010425365516271334 0 -0.069615126409763667 0.0051224018077397808 0 -0.069854439862682624 0.0057840358777186997 0 -0.069991763030488485 0.0056585423846690066 0 -0.069510902584754397 0.0063153225573393257 0 -0.070771042459222597 0.0034936466339050578 0 -0.062876652828480706 0.010720902952559595 0 -0.063033851449977737 0.010084577275097243 0 -0.062476175998144076 0.0097180899211612992 0 -0.062876652828480706 0.010720902952559595 0 -0.063033851449977737 0.010084577275097243 0 -0.063151857092867442 0.010425365516271334 0 -0.069510902584754397 0.0063153225573393257 0 -0.070386634581058163 0.0046071548644668345 0 -0.064471804704079233 0.011337736546750903 0 -0.064325065404573431 0.011245029482248311 0 -0.06432859936295604 0.011054561450723591 0 -0.070771042459222597 0.0034936466339050578 0 -0.070386634581058163 0.0046071548644668345 0 -0.063364235622143689 0.0095845811601375092 0 -0.063033851449977737 0.010084577275097243 0 -0.062476175998144076 0.0097180899211612992 0 -0.078487882449505414 -0.0062644518277193816 0 -0.077398186746226574 -0.0093975265194796726 0 -0.076989219357987415 -0.0072060237675474603 0 -0.075124831228920774 -0.0073932139762452123 0 -0.077398186746226574 -0.0093975265194796726 0 -0.076989219357987415 -0.0072060237675474603 0 -0.063512337596919863 0.0086985384852247046 0 -0.063364235622143689 0.0095845811601375092 0 -0.062476175998144076 0.0097180899211612992 0 -0.07015181073299824 0.0023204698310877602 0 -0.070771042459222597 0.0034936466339050578 0 -0.078487882449505414 -0.0062644518277193816 0 -0.077685419220152485 -0.008509144579484422 0 -0.078879408223191325 -0.0075758797543998358 0 -0.071394496735286903 -0.001594628935293167 0 -0.070771042459222597 0.0034936466339050578 0 -0.071700701791598209 0.0019613825377603079 0 -0.070386634581058163 0.0046071548644668345 0 -0.079881278050348184 -0.006281431257549811 0 -0.079186439180121526 -0.0063185092215940243 0 -0.078879408223191325 -0.0075758797543998358 0 -0.07321499264034835 -0.00035930479288956993 0 -0.071700701791598209 0.0019613825377603079 0 -0.063936865382958841 0.010961120528359666 0 -0.064178099547065728 0.010677250866022801 0 -0.064173166629675316 0.010915296163503962 0 -0.063936865382958841 0.010961120528359666 0 -0.064173166629675316 0.010915296163503962 0 -0.064218341891419728 0.011151479986944192 0 -0.063936865382958841 0.010961120528359666 0 -0.064053635677740736 0.011355337020343855 0 -0.064218341891419728 0.011151479986944192 0 -0.064173166629675316 0.010915296163503962 0 -0.064388095995478373 0.011003510734897764 0 -0.064218341891419728 0.011151479986944192 0 -0.077685419220152485 -0.008509144579484422 0 -0.078879408223191325 -0.0075758797543998358 0 -0.077997174331877889 -0.0087919483371987905 0 -0.064178099547065728 0.010677250866022801 0 -0.064173166629675316 0.010915296163503962 0 -0.064388095995478373 0.011003510734897764 0 -0.064325065404573431 0.011245029482248311 0 -0.06432859936295604 0.011054561450723591 0 -0.064218341891419728 0.011151479986944192 0 -0.070386634581058163 0.0046071548644668345 0 -0.069753973416210785 0.0052098544559613866 0 -0.065267543334853489 0.011461515196993633 0 -0.065507047959862563 0.0112844244276102 0 -0.065314055153240014 0.011081363412024448 0 -0.062403605703275959 0.0097200401736961557 0 -0.060105323636066077 0.0097650248986681301 0 -0.065267543334853489 0.011461515196993633 0 -0.065014073034258685 0.011411175677583771 0 -0.065314055153240014 0.011081363412024448 0 -0.065267543334853489 0.011461515196993633 0 -0.065507047959862563 0.0112844244276102 0 -0.0653855435310602 0.011799434999108425 0 -0.059265050007742924 0.0086991014518731525 0 -0.059043758173515787 0.0086327187537802268 0 -0.059100582210503114 0.0083522828948084313 0 -0.059265050007742924 0.0086991014518731525 0 -0.059043758173515787 0.0086327187537802268 0 -0.059119330224881632 0.0087594444359131388 0 -0.058486665027274176 0.0082348019677977412 0 -0.058453129357694082 0.0086292351714041138 0 -0.05898210729650287 0.0083694985440977247 0 -0.059265050007742924 0.0086991014518731525 0 -0.059100582210503114 0.0083522828948084313 0 -0.059424541071647283 0.0081900323126528566 0 -0.05946883012042669 0.009454810152185902 0 -0.060105323636066077 0.0097650248986681301 0 -0.065267543334853489 0.011461515196993633 0 -0.0653855435310602 0.011799434999108425 0 -0.06509948975865168 0.011696864297759325 0 -0.06502205262797911 0.0120025065889396 0 -0.0653855435310602 0.011799434999108425 0 -0.06509948975865168 0.011696864297759325 0 -0.06509948975865168 0.011696864297759325 0 -0.064748164937140681 0.011698190025342833 0 -0.065014073034258685 0.011411175677583771 0 -0.06502205262797911 0.0120025065889396 0 -0.06509948975865168 0.011696864297759325 0 -0.064748164937140681 0.011698190025342833 0 -0.064326132327772123 0.011439789789373756 0 -0.064748164937140681 0.011698190025342833 0 -0.065357936978450562 0.010819074318495988 0 -0.064354961504519845 0.011972166198175512 0 -0.064215387578524477 0.01176455247574639 0 -0.064748164937140681 0.011698190025342833 0 -0.065120887505792188 0.010797353542252419 0 -0.065330705133404762 0.010434650842796621 0 -0.064326132327772123 0.011439789789373756 0 -0.065357936978450562 0.010819074318495988 0 -0.065287121491091948 0.0098207050896542674 0 -0.064748164937140681 0.011698190025342833 0 -0.065357936978450562 0.010819074318495988 0 -0.066480521368497261 0.010887415120005415 0 -0.065267543334853489 0.011461515196993633 0 -0.06509948975865168 0.011696864297759325 0 -0.065014073034258685 0.011411175677583771 0 -0.065357936978450562 0.010819074318495988 0 -0.066480521368497261 0.010887415120005415 0 -0.066162088129239918 0.010085035419289396 0 -0.065330705133404762 0.010434650842796621 0 -0.065467814388060153 0.0096678859702111018 0 -0.066162088129239918 0.010085035419289396 0 -0.066656592641285567 0.0093265215520270481 0 -0.067790501738589526 0.0097418426837558268 0 -0.066480521368497261 0.010887415120005415 0 -0.066162088129239918 0.010085035419289396 0 -0.067790501738589526 0.0097418426837558268 0 -0.066162088129239918 0.010085035419289396 0 -0.065287121491091948 0.0098207050896542674 0 -0.066656592641285567 0.0093265215520270481 0 -0.065357936978450562 0.010819074318495988 0 -0.066162088129239918 0.010085035419289396 0 -0.065287121491091948 0.0098207050896542674 0 -0.066957456003159666 0.0087945295779694732 0 -0.066301499177831097 0.0084691387082749797 0 -0.065640455432114012 0.0095712066651386755 0 -0.066518056017232111 0.008754505325291111 0 -0.065759801899527959 0.0098836239177947458 0 -0.066618117046968045 0.008283290956452272 0 -0.065287121491091948 0.0098207050896542674 0 -0.066656592641285567 0.0093265215520270481 0 -0.066957456003159666 0.0087945295779694732 0 -0.065640455432114012 0.0095712066651386755 0 -0.065809178482976696 0.010137398881607118 0 -0.066587145128331318 0.0075911088939119575 0 -0.065911038124903482 0.0092040021455902146 0 -0.066618117046968045 0.008283290956452272 0 -0.066656592641285567 0.0093265215520270481 0 -0.067042640907832074 0.0086414310470622792 0 -0.066656592641285567 0.0093265215520270481 0 -0.067598724110739916 0.0088190072754612669 0 -0.067790501738589526 0.0097418426837558268 0 -0.066656592641285567 0.0093265215520270481 0 -0.067042640907832074 0.0086414310470622792 0 -0.067598724110739916 0.0088190072754612669 0 -0.0673601579480613 0.0083147201457441054 0 -0.067042640907832074 0.0086414310470622792 0 -0.067598724110739916 0.0088190072754612669 0 -0.065467814388060153 0.0096678859702111018 0 -0.064868692275291032 0.0088366095500535119 0 -0.067598724110739916 0.0088190072754612669 0 -0.067790501738589526 0.0097418426837558268 0 -0.068630041291804472 0.0087256500900843061 0 -0.067856935860106563 0.0080990489152628388 0 -0.067598724110739916 0.0088190072754612669 0 -0.068630041291804472 0.0087256500900843061 0 -0.065507047959862563 0.0112844244276102 0 -0.065314055153240014 0.011081363412024448 0 -0.065630883796347572 0.010748705356406861 0 -0.059265050007742924 0.0086991014518731525 0 -0.059253116555348567 0.0087322706387498693 0 -0.059119330224881632 0.0087594444359131388 0 -0.062403605703275959 0.0097200401736961557 0 -0.064868692275291032 0.0088366095500535119 0 -0.059253116555348567 0.0087322706387498693 0 -0.059364830689013 0.0087232081464783881 0 -0.059881300306322535 0.008649185192006751 0 -0.059364830689013 0.0087232081464783881 0 -0.059881300306322535 0.008649185192006751 0 -0.059275101626549934 0.0085716799517568023 0 -0.059808724707092045 0.008510624633877549 0 -0.059881300306322535 0.008649185192006751 0 -0.059275101626549934 0.0085716799517568023 0 -0.059364830689013 0.0087232081464783881 0 -0.058849142589447269 0.0086616650358007849 0 -0.059275101626549934 0.0085716799517568023 0 -0.059253116555348567 0.0087322706387498693 0 -0.059364830689013 0.0087232081464783881 0 -0.059119330224881632 0.0087594444359131388 0 -0.059364830689013 0.0087232081464783881 0 -0.058849142589447269 0.0086616650358007849 0 -0.059119330224881632 0.0087594444359131388 0 -0.05946883012042669 0.009454810152185902 0 -0.059232487610045376 0.0093853340134160187 0 -0.058849142589447269 0.0086616650358007849 0 -0.059119330224881632 0.0087594444359131388 0 -0.058496953509283786 0.0086328192175519555 0 -0.059043758173515787 0.0086327187537802268 0 -0.059100582210503114 0.0083522828948084313 0 -0.058496953509283786 0.0086328192175519555 0 -0.059043758173515787 0.0086327187537802268 0 -0.059119330224881632 0.0087594444359131388 0 -0.058496953509283786 0.0086328192175519555 0 -0.058849142589447269 0.0086616650358007849 0 -0.058496953509283786 0.0086328192175519555 0 -0.058296377691207525 0.0085915135597508449 0 -0.058496953509283786 0.0086328192175519555 0 -0.058296377691207525 0.0085915135597508449 0 -0.057541960341394201 0.0085549702476194964 0 -0.058296377691207525 0.0085915135597508449 0 -0.057541960341394201 0.0085549702476194964 0 -0.057978266720353937 0.0086501865737008445 0 -0.058486665027274176 0.0082348019677977412 0 -0.057541960341394201 0.0085549702476194964 0 -0.058233335211973582 0.0085958911049741592 0 -0.058453129357694082 0.0086292351714041138 0 -0.058496953509283786 0.0086328192175519555 0 -0.058233335211973582 0.0085958911049741592 0 -0.058496953509283786 0.0086328192175519555 0 -0.057541960341394201 0.0085549702476194964 0 -0.058233335211973582 0.0085958911049741592 0 -0.057781712752568722 0.0098456424825867153 0 -0.057674673576512264 0.0096175205765407605 0 -0.058486665027274176 0.0082348019677977412 0 -0.058453129357694082 0.0086292351714041138 0 -0.058233335211973582 0.0085958911049741592 0 -0.058211590780137858 0.0086661651327740712 0 -0.057978266720353937 0.0086501865737008445 0 -0.05796426063040188 0.0089384705696621668 0 -0.058211590780137858 0.0086661651327740712 0 -0.057978266720353937 0.0086501865737008445 0 -0.058748374138889503 0.008653433573216936 0 -0.058296377691207525 0.0085915135597508449 0 -0.057978266720353937 0.0086501865737008445 0 -0.058748374138889503 0.008653433573216936 0 -0.058849142589447269 0.0086616650358007849 0 -0.058296377691207525 0.0085915135597508449 0 -0.058748374138889503 0.008653433573216936 0 -0.058211590780137858 0.0086661651327740712 0 -0.058748374138889503 0.008653433573216936 0 -0.058333491893854165 0.0087065045940792618 0 -0.05886278375751839 0.0089817684985909543 0 -0.058794096180645634 0.0091648411408562763 0 -0.058748374138889503 0.008653433573216936 0 -0.058537268367429715 0.0092748304554997069 0 -0.058333491893854165 0.0087065045940792618 0 -0.058748374138889503 0.008653433573216936 0 -0.059275101626549934 0.0085716799517568023 0 -0.059142643717526283 0.0083672471075444607 0 -0.058849142589447269 0.0086616650358007849 0 -0.058748374138889503 0.008653433573216936 0 -0.059275101626549934 0.0085716799517568023 0 -0.059808724707092045 0.008510624633877549 0 -0.059275101626549934 0.0085716799517568023 0 -0.059142643717526283 0.0083672471075444607 0 -0.058586922120029063 0.0096951461476840126 0 -0.058794096180645634 0.0091648411408562763 0 -0.058222524227179225 0.0099503345709078227 0 -0.058537268367429715 0.0092748304554997069 0 -0.057909840420809024 0.0093625879044776442 0 -0.057909840420809024 0.0093625879044776442 0 -0.058165003867699933 0.0089333670381685337 0 -0.057857549186422629 0.0087584523559069375 0 -0.058537268367429715 0.0092748304554997069 0 -0.058165003867699933 0.0089333670381685337 0 -0.058333491893854165 0.0087065045940792618 0 -0.058537268367429715 0.0092748304554997069 0 -0.057909840420809024 0.0093625879044776442 0 -0.058165003867699933 0.0089333670381685337 0 -0.056904741678918402 0.0098074455818124781 0 -0.057241735360756982 0.0092175404730153142 0 -0.056599745528814679 0.0092385504267594575 0 -0.057561402136504174 0.0099660700276120659 0 -0.057909840420809024 0.0093625879044776442 0 -0.057406137120250292 0.0095856031799235776 0 -0.056904741678918402 0.0098074455818124781 0 -0.057406137120250292 0.0095856031799235776 0 -0.057241735360756982 0.0092175404730153142 0 -0.057909840420809024 0.0093625879044776442 0 -0.057406137120250292 0.0095856031799235776 0 -0.057241735360756982 0.0092175404730153142 0 -0.057909840420809024 0.0093625879044776442 0 -0.057241735360756982 0.0092175404730153142 0 -0.057857549186422629 0.0087584523559069375 0 -0.057241735360756982 0.0092175404730153142 0 -0.057103502461222748 0.0087639155948202006 0 -0.057857549186422629 0.0087584523559069375 0 -0.057241735360756982 0.0092175404730153142 0 -0.056848418089913845 0.0089358486231922822 0 -0.056599745528814679 0.0092385504267594575 0 -0.057103502461222748 0.0087639155948202006 0 -0.056848418089913845 0.0089358486231922822 0 -0.056750062488527417 0.0085287407271178658 0 -0.057241735360756982 0.0092175404730153142 0 -0.057103502461222748 0.0087639155948202006 0 -0.056848418089913845 0.0089358486231922822 0 -0.056438624412750549 0.0088254376987647529 0 -0.056848418089913845 0.0089358486231922822 0 -0.056750062488527417 0.0085287407271178658 0 -0.056438624412750549 0.0088254376987647529 0 -0.056848418089913845 0.0089358486231922822 0 -0.056599745528814679 0.0092385504267594575 0 -0.053166023809800185 0.0069117992340341104 0 -0.056877335269695878 0.0067834062193610663 0 -0.055557313933754023 0.0082743409011607188 0 -0.051031580757944971 0.012756610009257319 0 -0.051341145622042422 0.012413391026603077 0 -0.056776740589116075 0.0079101858284402454 0 -0.055557313933754023 0.0082743409011607188 0 -0.056750062488527417 0.0085287407271178658 0 -0.057103502461222748 0.0087639155948202006 0 -0.056776740589116075 0.0079101858284402454 0 -0.056750062488527417 0.0085287407271178658 0 -0.057857549186422629 0.0087584523559069375 0 -0.058016380278625303 0.0087456661620256351 0 -0.058143107100863956 0.008729539375850073 0 -0.051031580757944971 0.012756610009257319 0 -0.05342966729509635 0.012649269531596632 0 -0.057103502461222748 0.0087639155948202006 0 -0.056776740589116075 0.0079101858284402454 0 -0.057857549186422629 0.0087584523559069375 0 -0.057949520246302622 0.0087573500560540578 0 -0.057857549186422629 0.0087584523559069375 0 -0.058016380278625303 0.0087456661620256351 0 -0.051031580757944971 0.012756610009257319 0 -0.05283086772768706 0.014440122085845825 0 -0.057949520246302622 0.0087573500560540578 0 -0.058016380278625303 0.0087456661620256351 0 -0.05814638755422024 0.0087272650699547222 0 -0.058016380278625303 0.0087456661620256351 0 -0.058143107100863956 0.008729539375850073 0 -0.05814638755422024 0.0087272650699547222 0 -0.048213449540046506 0.024694976937490263 0 -0.047500374573113791 0.023187794559294175 0 -0.048472150615424085 0.022625118128613651 0 -0.048213449540046506 0.024694976937490263 0 -0.048472150615424085 0.022625118128613651 0 -0.049978543701574521 0.022679400658383107 0 -0.047500374573113791 0.023187794559294175 0 -0.047478872369658365 0.022356527656410257 0 -0.048472150615424085 0.022625118128613651 0 -0.058333491893854165 0.0087065045940792618 0 -0.058176854954339295 0.0087375664525649582 0 -0.058239819992632121 0.0087228965573586115 0 -0.058165003867699933 0.0089333670381685337 0 -0.058333491893854165 0.0087065045940792618 0 -0.058176854954339295 0.0087375664525649582 0 -0.058165003867699933 0.0089333670381685337 0 -0.057857549186422629 0.0087584523559069375 0 -0.058176854954339295 0.0087375664525649582 0 -0.057857549186422629 0.0087584523559069375 0 -0.058176854954339295 0.0087375664525649582 0 -0.058143107100863956 0.008729539375850073 0 -0.058143107100863956 0.008729539375850073 0 -0.058239819992632121 0.0087228965573586115 0 -0.058291127556073907 0.0088052064250767389 0 -0.058176854954339295 0.0087375664525649582 0 -0.058143107100863956 0.008729539375850073 0 -0.058239819992632121 0.0087228965573586115 0 -0.058143107100863956 0.008729539375850073 0 -0.058291127556073907 0.0088052064250767389 0 -0.05814638755422024 0.0087272650699547222 0 -0.058211590780137858 0.0086661651327740712 0 -0.058239819992632121 0.0087228965573586115 0 -0.058211885145556336 0.0088531572412409304 0 -0.058211590780137858 0.0086661651327740712 0 -0.058333491893854165 0.0087065045940792618 0 -0.058239819992632121 0.0087228965573586115 0 -0.058239819992632121 0.0087228965573586115 0 -0.058211885145556336 0.0088531572412409304 0 -0.058291127556073907 0.0088052064250767389 0 -0.058211885145556336 0.0088531572412409304 0 -0.058291127556073907 0.0088052064250767389 0 -0.058253077986478267 0.0093425169887333022 0 -0.057930354272871361 0.0091904377907104599 0 -0.0575547852114787 0.0095329578505219149 0 -0.058291127556073907 0.0088052064250767389 0 -0.058415197402615256 0.0091176613641538017 0 -0.05814638755422024 0.0087272650699547222 0 -0.054334412384615602 0.01461685342413995 0 -0.05283086772768706 0.014440122085845825 0 -0.05179531597687817 0.020687327938529138 0 -0.049978543701574521 0.022679400658383107 0 -0.050254870082800066 0.020967033007530635 0 -0.05179531597687817 0.020687327938529138 0 -0.050732575491438184 0.01972671058197523 0 -0.051811768071830085 0.018996465327501363 0 -0.05179531597687817 0.020687327938529138 0 -0.050732575491438184 0.01972671058197523 0 -0.050254870082800066 0.020967033007530635 0 -0.058291127556073907 0.0088052064250767389 0 -0.058415197402615256 0.0091176613641538017 0 -0.057873761754354713 0.0092115712442445759 0 -0.058415197402615256 0.0091176613641538017 0 -0.057873761754354713 0.0092115712442445759 0 -0.058077947227643291 0.01046658937588373 0 -0.047868445574297938 0.021602090949999261 0 -0.047478872369658365 0.022356527656410257 0 -0.048472150615424085 0.022625118128613651 0 -0.047868445574297938 0.021602090949999261 0 -0.04917429275039914 0.021451959521961706 0 -0.048308362351631676 0.020623819683762319 0 -0.047868445574297938 0.021602090949999261 0 -0.048472150615424085 0.022625118128613651 0 -0.04917429275039914 0.021451959521961706 0 -0.04917429275039914 0.021451959521961706 0 -0.049978543701574521 0.022679400658383107 0 -0.050254870082800066 0.020967033007530635 0 -0.048472150615424085 0.022625118128613651 0 -0.04917429275039914 0.021451959521961706 0 -0.049978543701574521 0.022679400658383107 0 -0.050732575491438184 0.01972671058197523 0 -0.049596490256270311 0.020272855111490497 0 -0.049767601015745067 0.019150051982628747 0 -0.050732575491438184 0.01972671058197523 0 -0.050254870082800066 0.020967033007530635 0 -0.049596490256270311 0.020272855111490497 0 -0.04917429275039914 0.021451959521961706 0 -0.049596490256270311 0.020272855111490497 0 -0.048308362351631676 0.020623819683762319 0 -0.04917429275039914 0.021451959521961706 0 -0.050254870082800066 0.020967033007530635 0 -0.049596490256270311 0.020272855111490497 0 -0.049596490256270311 0.020272855111490497 0 -0.048308362351631676 0.020623819683762319 0 -0.048611675983512084 0.019328456554212566 0 -0.04731555101012843 0.020018674696159956 0 -0.048308362351631676 0.020623819683762319 0 -0.048611675983512084 0.019328456554212566 0 -0.047358141501974378 0.020972936495731898 0 -0.047868445574297938 0.021602090949999261 0 -0.048308362351631676 0.020623819683762319 0 -0.04731555101012843 0.020018674696159956 0 -0.047358141501974378 0.020972936495731898 0 -0.048308362351631676 0.020623819683762319 0 -0.047413629366346396 0.018352526860043707 0 -0.04731555101012843 0.020018674696159956 0 -0.048611675983512084 0.019328456554212566 0 -0.047413629366346396 0.018352526860043707 0 -0.048611675983512084 0.019328456554212566 0 -0.049296532913074002 0.018054299252098123 0 -0.048611675983512084 0.019328456554212566 0 -0.049767601015745067 0.019150051982628747 0 -0.049296532913074002 0.018054299252098123 0 -0.049596490256270311 0.020272855111490497 0 -0.048611675983512084 0.019328456554212566 0 -0.049767601015745067 0.019150051982628747 0 -0.050732575491438184 0.01972671058197523 0 -0.049767601015745067 0.019150051982628747 0 -0.050607143493195346 0.018359163647262675 0 -0.049767601015745067 0.019150051982628747 0 -0.049296532913074002 0.018054299252098123 0 -0.050607143493195346 0.018359163647262675 0 -0.049128950334739734 0.016089945937439978 0 -0.05029879961769123 0.016968234190007835 0 -0.049296532913074002 0.018054299252098123 0 -0.05029879961769123 0.016968234190007835 0 -0.049296532913074002 0.018054299252098123 0 -0.050607143493195346 0.018359163647262675 0 -0.028127936758096553 0.015024281385230523 0 -0.028011705531364055 0.014126770230609516 0 -0.047413629366346396 0.018352526860043707 0 -0.049128950334739734 0.016089945937439978 0 -0.049296532913074002 0.018054299252098123 0 -0.0090989801682694674 0.013471242536164912 0 -0.00876297651883284 0.012627790279602294 0 -0.0076609584601985518 0.014291199139716665 0 -0.054334412384615602 0.01461685342413995 0 -0.055166919219083829 0.014761051180099608 0 -0.05179531597687817 0.020687327938529138 0 -0.053714235110472415 0.018660833184056414 0 -0.051811768071830085 0.018996465327501363 0 -0.053714235110472415 0.018660833184056414 0 -0.051811768071830085 0.018996465327501363 0 -0.05216183791615539 0.017540073881663548 0 -0.050732575491438184 0.01972671058197523 0 -0.051811768071830085 0.018996465327501363 0 -0.050607143493195346 0.018359163647262675 0 -0.051811768071830085 0.018996465327501363 0 -0.050607143493195346 0.018359163647262675 0 -0.05216183791615539 0.017540073881663548 0 -0.051663534548997497 0.015860906862851274 0 -0.05029879961769123 0.016968234190007835 0 -0.05216183791615539 0.017540073881663548 0 -0.05029879961769123 0.016968234190007835 0 -0.050607143493195346 0.018359163647262675 0 -0.05216183791615539 0.017540073881663548 0 -0.053714235110472415 0.018660833184056414 0 -0.05216183791615539 0.017540073881663548 0 -0.053842886974105213 0.017167494552683016 0 -0.052968288321196315 0.016452806809037029 0 -0.051663534548997497 0.015860906862851274 0 -0.05216183791615539 0.017540073881663548 0 -0.052968288321196315 0.016452806809037029 0 -0.05216183791615539 0.017540073881663548 0 -0.053842886974105213 0.017167494552683016 0 -0.052968288321196315 0.016452806809037029 0 -0.05451163156336903 0.016399241070904857 0 -0.053842886974105213 0.017167494552683016 0 -0.054960869478582447 0.015671919786189266 0 -0.055166919219083829 0.014761051180099608 0 -0.055582195999992798 0.016208685058714981 0 -0.05451163156336903 0.016399241070904857 0 -0.053842886974105213 0.017167494552683016 0 -0.055582195999992798 0.016208685058714981 0 -0.053714235110472415 0.018660833184056414 0 -0.053842886974105213 0.017167494552683016 0 -0.056894581611571092 0.01342599051299836 0 -0.058077947227643291 0.01046658937588373 0 -0.056266471771523864 0.011846487426974205 0 -0.058077947227643291 0.01046658937588373 0 -0.056275274227991778 0.010396092460206847 0 -0.056266471771523864 0.011846487426974205 0 -0.0575547852114787 0.0095329578505219149 0 -0.056415751396246404 0.010485964778178722 0 -0.057873761754354713 0.0092115712442445759 0 -0.058077947227643291 0.01046658937588373 0 -0.056275274227991778 0.010396092460206847 0 -0.0575339946726805 0.010315232179002869 0 -0.054017885323310345 0.011612174094642993 0 -0.055654159403117652 0.010372300016772385 0 -0.0575339946726805 0.010315232179002869 0 -0.055654159403117652 0.010372300016772385 0 -0.056724436616707959 0.0096406539584219745 0 -0.0575339946726805 0.010315232179002869 0 -0.054017885323310345 0.011612174094642993 0 -0.052879547588594894 0.012590256246084904 0 -0.056415751396246404 0.010485964778178722 0 -0.055235356297852457 0.011432592495237459 0 -0.056275274227991778 0.010396092460206847 0 -0.056266471771523864 0.011846487426974205 0 -0.054911072859487792 0.012732182492212902 0 -0.056275274227991778 0.010396092460206847 0 -0.054911072859487792 0.012732182492212902 0 -0.052879547588594894 0.012590256246084904 0 -0.056266471771523864 0.011846487426974205 0 -0.055828995583610479 0.013070708586101655 0 -0.054911072859487792 0.012732182492212902 0 -0.056894581611571092 0.01342599051299836 0 -0.056266471771523864 0.011846487426974205 0 -0.055828995583610479 0.013070708586101655 0 -0.054896643924959833 0.014533122690411605 0 -0.055828995583610479 0.013070708586101655 0 -0.054911072859487792 0.012732182492212902 0 -0.053541763518573496 0.013966700461671637 0 -0.054308989611200238 0.014120722915205639 0 -0.054911072859487792 0.012732182492212902 0 -0.054017885323310345 0.011612174094642993 0 -0.052879547588594894 0.012590256246084904 0 -0.048340476090636186 0.013419639707421353 0 -0.053541763518573496 0.013966700461671637 0 -0.054911072859487792 0.012732182492212902 0 -0.052879547588594894 0.012590256246084904 0 -0.05193993314969754 0.014456469845767013 0 -0.052879547588594894 0.012590256246084904 0 -0.048340476090636186 0.013419639707421353 0 -0.050672250729901044 0.0088819065282862691 0 -0.047178982177845899 0.0083107503659227422 0 -0.054017885323310345 0.011612174094642993 0 -0.055142871446432103 0.010243054476332022 0 -0.054958828692537792 0.010725966437831327 0 -0.054017885323310345 0.011612174094642993 0 -0.044551461556606879 0.011158773799668844 0 -0.048340476090636186 0.013419639707421353 0 -0.045181962238495181 0.015094234592532967 0 -0.044551461556606879 0.011158773799668844 0 -0.048340476090636186 0.013419639707421353 0 -0.054958828692537792 0.010725966437831327 0 -0.055324827240934224 0.010292106024647982 0 -0.05589758891431771 0.0099505259419656444 0 -0.055195800619509058 0.010401069712038771 0 -0.055142871446432103 0.010243054476332022 0 -0.054958828692537792 0.010725966437831327 0 -0.055195800619509058 0.010401069712038771 0 -0.054958828692537792 0.010725966437831327 0 -0.055324827240934224 0.010292106024647982 0 -0.054017885323310345 0.011612174094642993 0 -0.054958828692537792 0.010725966437831327 0 -0.055654159403117652 0.010372300016772385 0 -0.054958828692537792 0.010725966437831327 0 -0.055654159403117652 0.010372300016772385 0 -0.05589758891431771 0.0099505259419656444 0 -0.05589758891431771 0.0099505259419656444 0 -0.055829780325467912 0.0096444211212382436 0 -0.056919855198011328 0.0092149660313315725 0 -0.055654159403117652 0.010372300016772385 0 -0.05589758891431771 0.0099505259419656444 0 -0.056724436616707959 0.0096406539584219745 0 -0.05589758891431771 0.0099505259419656444 0 -0.056919855198011328 0.0092149660313315725 0 -0.056724436616707959 0.0096406539584219745 0 -0.055337898182972321 0.010022391101751821 0 -0.055324827240934224 0.010292106024647982 0 -0.055584665194203686 0.0099745788742198003 0 -0.055324827240934224 0.010292106024647982 0 -0.05589758891431771 0.0099505259419656444 0 -0.055584665194203686 0.0099745788742198003 0 -0.05589758891431771 0.0099505259419656444 0 -0.055584665194203686 0.0099745788742198003 0 -0.055829780325467912 0.0096444211212382436 0 -0.055337898182972321 0.010022391101751821 0 -0.055584665194203686 0.0099745788742198003 0 -0.055829780325467912 0.0096444211212382436 0 -0.055515506400881154 0.0090175501350935085 0 -0.057541960341394201 0.0085549702476194964 0 -0.055829780325467912 0.0096444211212382436 0 -0.057541960341394201 0.0085549702476194964 0 -0.055829780325467912 0.0096444211212382436 0 -0.056919855198011328 0.0092149660313315725 0 -0.057541960341394201 0.0085549702476194964 0 -0.057978266720353937 0.0086501865737008445 0 -0.056919855198011328 0.0092149660313315725 0 -0.057978266720353937 0.0086501865737008445 0 -0.057434410908517371 0.0091359765445493298 0 -0.05796426063040188 0.0089384705696621668 0 -0.057978266720353937 0.0086501865737008445 0 -0.056919855198011328 0.0092149660313315725 0 -0.057434410908517371 0.0091359765445493298 0 -0.057434410908517371 0.0091359765445493298 0 -0.05796426063040188 0.0089384705696621668 0 -0.057625397226223826 0.0094026820529373861 0 -0.058211885145556336 0.0088531572412409304 0 -0.058253077986478267 0.0093425169887333022 0 -0.05796426063040188 0.0089384705696621668 0 -0.058211590780137858 0.0086661651327740712 0 -0.058211885145556336 0.0088531572412409304 0 -0.05796426063040188 0.0089384705696621668 0 -0.058253077986478267 0.0093425169887333022 0 -0.0575339946726805 0.010315232179002869 0 -0.057625397226223826 0.0094026820529373861 0 -0.058253077986478267 0.0093425169887333022 0 -0.05796426063040188 0.0089384705696621668 0 -0.057625397226223826 0.0094026820529373861 0 -0.0575339946726805 0.010315232179002869 0 -0.056724436616707959 0.0096406539584219745 0 -0.057625397226223826 0.0094026820529373861 0 -0.057434410908517371 0.0091359765445493298 0 -0.056724436616707959 0.0096406539584219745 0 -0.057625397226223826 0.0094026820529373861 0 -0.056919855198011328 0.0092149660313315725 0 -0.057434410908517371 0.0091359765445493298 0 -0.056724436616707959 0.0096406539584219745 0 
</DataArray>
</PointData>
<CellData Scalars="region_id,cross_section_updated," Vectors="" Tensors="stress,">
<DataArray type="Float64" Name="region_id" format="ascii">
5 5 5 5 5 6 5 5 5 5 5 5 5 6 5 5 5 5 6 5 5 6 5 5 5 5 6 5 5 5 5 6 5 5 5 5 5 5 5 5 5 5 5 5 5 6 5 5 6 5 5 5 5 5 6 5 5 5 5 5 5 5 6 5 5 5 5 6 5 5 5 5 5 5 5 5 5 6 5 5 6 5 5 6 5 5 5 5 6 5 5 5 5 5 5 5 6 6 6 5 5 6 5 5 5 5 5 6 5 5 5 5 5 5 5 5 5 5 5 5 5 6 5 5 5 6 5 5 5 5 5 5 6 5 5 5 5 5 5 5 5 5 5 5 5 5 5 5 5 5 5 5 5 5 5 5 5 5 6 5 5 5 6 5 5 6 5 5 5 5 5 5 5 5 5 5 5 6 5 5 5 5 5 5 5 5 6 5 5 5 5 5 5 5 5 6 5 5 5 5 5 5 5 5 5 6 5 5 5 5 5 5 5 5 5 5 5 5 5 5 5 5 5 5 5 5 5 5 5 6 5 5 5 6 5 6 5 6 5 5 6 5 5 5 6 5 6 5 6 5 6 6 5 6 5 5 6 5 6 5 5 5 6 5 6 6 5 5 6 5 5 5 6 5 6 6 6 5 6 5 5 5 6 5 6 6 6 5 5 6 6 5 5 5 5 6 5 6 5 5 6 5 5 5 6 5 6 6 6 5 5 5 6 5 6 6 6 6 5 5 5 6 6 5 5 6 6 6 5 6 5 5 5 5 6 5 5 5 5 5 5 5 6 5 5 5 5 5 5 6 6 5 5 5 6 5 5 5 6 5 6 5 6 6 5 5 5 5 6 5 5 6 5 5 5 5 6 5 6 5 5 5 5 5 6 6 5 5 5 5 5 5 5 5 6 5 5 5 6 5 5 6 5 6 5 5 5 5 5 5 5 5 5 5 5 6 5 6 5 6 5 5 5 6 5 6 5 6 5 5 5 5 5 5 6 5 6 5 5 5 6 5 5 5 6 5 6 6 5 5 5 5 6 5 5 5 5 6 6 5 5 6 5 6 5 6 6 5 5 5 6 5 5 5 5 6 5 5 5 5 5 5 5 5 5 5 5 6 5 5 5 5 6 5 5 5 6 5 6 6 6 5 5 5 6 6 5 6 5 5 6 5 5 5 5 6 5 5 5 5 5 5 5 5 5 5 5 6 6 5 5 6 5 5 5 6 5 5 5 5 5 5 6 5 5 5 6 5 5 5 6 5 5 5 5 5 5 5 5 5 5 5 6 5 5 5 6 5 5 5 5 5 5 5 6 5 5 5 5 5 6 5 5 5 5 5 5 5 5 5 5 5 5 5 5 5 5 5 5 5 6 5 5 5 5 6 5 5 6 5 5 5 5 5 5 5 6 5 5 5 5 5 5 5 5 6 5 6 5 5 6 5 5 5 6 5 5 6 5 5 5 6 5 6 5 5 6 5 6 5 5 5 5 5 5 5 5 5 5 5 5 5 5 5 5 5 5 5 5 5 5 6 5 6 5 6 5 5 5 5 5 5 5 5 5 5 5 5 5 5 5 6 5 5 5 5 5 5 5 5 5 6 5 5 5 5 5 5 5 5 5 5 5 5 5 5 5 5 5 5 5 5 5 5 5 5 5 5 5 5 5 6 5 5 6 5 5 5 6 6 5 6 5 5 5 5 5 6 5 5 5 5 5 6 5 5 5 5 5 5 5 5 5 5 5 5 5 5 5 5 5 5 5 5 5 5 5 5 5 5 5 5 5 5 5 5 5 5 5 5 5 5 5 5 5 5 5 5 5 5 5 5 5 6 5 5 5 5 5 5 5 5 5 5 5 5 5 5 5 6 5 5 5 5 6 5 5 5 5 5 5 5 5 5 5 5 5 5 5 5 5 5 5 5 5 5 5 5 5 5 5 5 6 5 5 6 5 6 6 6 6 5 5 6 5 5 5 5 5 5 5 5 5 5 5 5 5 5 5 5 5 6 5 5 6 5 6 5 5 5 5 6 5 6 5 5 5 5 6 5 5 5 6 5 5 5 5 5 6 5 6 5 5 6 6 5 6 5 5 5 5 5 5 5 5 5 5 5 6 5 5 5 6 5 5 5 6 5 5 6 6 6 5 5 5 5 5 5 5 5 5 5 5 6 5 5 5 5 5 5 5 5 6 6 6 5 5 5 5 5 5 5 5 6 6 5 5 5 6 5 5 6 5 5 5 5 5 5 5 5 5 5 5 6 5 5 5 5 5 5 5 5 6 5 5 5 5 5 5 5 5 5 5 6 5 6 6 6 5 5 5 5 5 5 5 6 6 5 6 5 5 5 5 5 6 5 6 6 5 5 5 6 5 6 5 5 5 5 6 5 5 5 5 5 5 5 5 5 5 5 5 5 5 5 5 5 6 5 5 5 6 5 5 5 5 5 6 5 5 5 5 5 5 6 5 6 5 5 5 5 5 5 5 5 6 5 5 5 6 5 5 5 5 5 5 5 5 5 5 5 5 5 5 5 5 5 5 5 5 5 5 5 5 5 6 6 6 5 5 5 5 6 5 5 5 5 6 5 5 5 5 5 5 5 6 5 5 5 5 5 5 5 5 6 5 5 5 5 5 5 5 5 5 5 5 5 6 5 5 5 5 5 5 6 5 5 5 5 5 5 5 5 6 5 5 5 6 5 5 5 5 5 5 5 5 5 5 5 5 6 5 5 5 5 5 5 5 5 5 5 5 5 5 5 5 5 5 5 5 5 5 5 5 5 5 5 5 5 5 5 5 5 5 5 5 5 5 5 5 5 5 5 5 5 5 5 5 6 5 5 5 5 5 5 5 5 5 5 5 5 5 5 5 5 5 5 5 5 5 5 5 5 6 5 5 5 5 5 5 5 5 5 5 6 5 5 6 5 5 5 5 5 5 5 5 5 6 5 6 5 5 5 5 6 5 5 6 5 6 5 5 5 5 5 6 5 5 5 5 5 5 5 5 6 5 5 5 5 5 5 5 5 5 5 5 5 5 5 6 5 6 6 5 5 5 5 5 6 5 5 5 5 5 5 5 5 5 5 5 5 5 5 5 6 5 5 5 5 5 5 5 5 5 5 5 5 5 5 5 5 6 5 5 5 5 5 6 6 5 5 6 5 5 5 5 5 5 5 5 5 5 6 5 5 5 5 5 5 5 5 5 6 5 6 5 5 5 5 5 6 5 5 5 5 6 5 5 5 6 5 5 5 6 5 5 6 5 5 5 5 5 5 5 5 5 5 5 5 5 5 5 5 6 5 5 5 5 5 5 5 6 5 5 5 5 5 5 5 5 5 5 5 5 5 5 5 5 5 5 5 5 5 5 5 5 5 5 5 6 5 5 5 5 6 5 5 5 6 5 5 5 5 5 5 5 5 5 6 5 6 5 5 5 5 5 5 5 5 5 5 5 5 5 5 5 5 5 5 6 6 5 5 5 6 5 5 6 5 5 6 5 5 5 6 5 5 6 5 5 5 5 5 5 5 5 5 5 5 5 5 5 5 5 5 5 5 5 6 5 6 5 5 5 5 5 5 5 5 5 5 5 6 5 6 5 5 5 6 5 5 5 5 5 6 5 5 5 5 5 5 6 5 5 5 5 5 5 5 5 5 5 5 6 5 5 5 5 5 5 5 5 6 5 5 5 6 5 5 6 5 5 5 5 5 6 5 5 5 5 5 5 5 5 5 6 5 5 6 5 6 5 6 6 6 5 6 5 5 5 5 5 5 6 5 5 5 5 5 5 6 5 5 5 5 5 5 5 6 5 5 5 5 6 5 5 5 5 5 6 5 6 5 5 5 5 5 5 5 5 5 5 6 5 5 5 5 5 5 5 6 5 5 5 5 5 5 5 6 5 6 5 5 5 5 5 5 5 5 6 5 5 5 6 6 5 5 5 5 5 6 6 5 6 5 5 6 5 5 6 5 5 5 5 5 5 5 5 6 5 5 5 5 5 6 5 5 5 5 6 5 5 6 5 5 5 5 5 5 5 5 5 5 5 5 5 5 5 5 5 5 5 5 5 5 5 5 5 5 5 5 5 5 5 5 5 5 5 5 5 5 5 5 5 6 5 5 6 5 5 5 5 5 6 5 5 5 5 6 5 5 5 5 5 5 5 5 5 5 5 5 5 5 5 5 5 5 5 5 5 5 5 5 6 5 5 5 6 5 5 5 5 5 5 6 5 5 5 5 5 5 5 5 5 5 5 6 5 6 6 5 5 6 5 5 5 5 5 5 5 5 5 5 5 6 5 5 6 5 5 5 5 5 5 5 5 5 5 5 5 5 5 5 6 5 5 5 5 5 5 5 6 5 6 5 5 5 5 6 5 6 5 5 5 5 5 5 5 5 5 6 5 5 5 5 5 5 5 5 5 5 5 5 5 5 5 5 5 6 5 5 5 5 5 5 5 5 5 5 5 5 5 5 5 5 5 5 5 5 5 5 5 5 5 6 6 5 5 5 5 5 5 5 5 5 5 5 6 5 5 5 5 6 5 5 5 5 6 5 5 5 5 5 5 5 5 6 5 5 5 5 5 5 5 5 5 6 5 5 5 5 5 5 5 5 5 5 5 5 5 5 5 5 5 5 5 5 6 5 5 5 5 5 5 5 5 5 5 5 5 5 5 6 5 6 5 5 5 5 5 5 5 5 6 5 5 6 5 5 5 5 5 5 5 5 5 5 5 5 5 5 5 5 5 5 5 5 5 5 5 5 5 5 5 5 5 5 5 5 5 5 5 5 6 5 5 6 5 5 5 5 6 5 6 5 5 6 5 6 5 5 5 5 5 6 5 5 5 5 5 5 5 5 5 5 5 5 6 5 5 5 6 5 5 5 5 5 5 5 5 5 6 5 5 5 5 6 6 5 5 5 5 5 5 5 5 6 5 5 5 5 5 6 5 5 5 6 5 5 5 6 5 5 5 5 6 5 5 5 5 5 5 5 5 5 5 5 5 5 5 6 5 5 5 5 5 5 6 5 6 6 5 6 5 6 5 5 5 5 6 5 5 5 5 6 5 5 5 5 5 5 5 5 5 6 5 5 5 5 5 5 5 5 5 5 5 5 5 5 6 5 5 5 6 5 5 5 6 5 6 5 5 5 5 5 5 5 5 5 5 5 5 5 5 5 5 6 5 5 5 5 5 5 6 5 5 5 5 5 5 5 5 5 5 5 5 5 5 5 5 5 5 6 5 5 5 5 5 5 5 5 5 5 5 5 5 5 5 5 5 5 5 5 5 5 5 5 5 5 5 5 5 5 5 5 5 5 6 5 5 5 5 6 5 5 5 5 5 5 5 6 5 5 5 5 5 5 5 5 5 6 5 5 6 5 5 5 5 5 6 5 5 5 6 5 5 6 5 5 5 5 5 5 5 5 5 5 5 5 5 5 5 5 5 5 5 5 6 5 5 5 5 5 5 5 5 5 5 6 6 5 6 5 5 5 5 5 6 5 5 5 5 6 5 5 5 5 5 6 5 6 5 5 6 5 5 5 5 5 5 5 5 6 5 5 5 5 5 5 6 5 5 5 5 5 5 6 5 5 5 5 6 5 5 6 5 6 5 5 6 5 5 5 5 5 5 6 5 5 5 5 6 5 5 5 5 5 5 5 5 6 6 5 5 5 5 5 5 5 5 6 5 5 5 5 5 5 6 5 5 5 5 5 5 5 6 5 5 5 6 5 5 5 5 5 5 5 5 5 5 5 5 6 5 5 5 5 6 5 5 6 5 5 5 5 6 5 5 5 6 6 5 5 5 6 5 5 5 6 5 5 5 5 5 5 5 5 5 6 5 5 5 6 5 5 5 5 5 5 5 5 5 5 5 5 6 5 6 5 5 6 5 5 6 5 5 5 5 5 5 5 6 5 5 5 5 5 6 5 6 5 5 5 6 6 5 6 6 5 6 5 5 5 5 5 5 6 5 6 5 5 5 5 5 5 5 5 5 5 5 5 5 6 5 5 6 5 6 5 5 6 5 5 5 6 6 5 5 6 5 5 5 5 5 5 5 5 5 5 5 5 5 5 5 5 5 5 5 5 5 5 5 6 6 5 6 5 6 5 5 6 6 5 5 6 5 5 6 5 5 6 5 6 5 5 5 5 6 5 5 5 5 6 5 6 6 5 6 5 5 6 6 5 5 5 6 5 5 5 5 6 6 5 5 5 5 5 6 5 5 5 5 5 5 5 5 5 5 5 6 5 6 5 6 5 5 6 5 6 5 5 5 5 5 5 5 5 6 5 5 6 5 5 5 5 6 5 5 5 5 5 5 5 5 5 5 5 5 6 5 5 5 5 5 5 5 5 5 5 5 6 5 5 5 5 5 5 6 5 6 5 5 6 5 5 5 5 5 5 5 5 5 5 5 5 5 5 5 5 5 6 6 5 5 5 6 5 5 6 5 5 5 5 5 5 5 5 5 5 5 5 5 5 5 5 5 5 5 5 5 5 5 5 5 6 6 5 5 5 5 5 5 5 5 5 5 5 6 5 5 5 5 5 5 5 5 5 5 5 5 5 5 5 5 5 5 5 5 5 5 5 5 5 5 5 5 5 5 5 5 5 6 5 5 5 5 5 6 5 5 6 5 5 6 6 5 5 5 5 5 5 5 5 5 5 5 5 5 6 5 5 6 5 5 5 5 5 5 6 5 5 6 5 5 5 5 5 5 5 5 5 5 5 5 5 6 5 5 5 5 5 5 5 6 5 5 5 5 5 5 5 5 5 5 5 5 6 5 5 6 5 5 5 5 5 5 5 5 5 5 5 5 5 5 5 5 5 5 5 5 6 5 5 6 5 6 5 5 5 6 5 5 6 5 6 5 5 5 6 5 5 5 5 6 5 5 5 5 5 5 5 6 5 5 5 6 5 5 5 5 5 5 5 5 5 5 5 5 6 5 5 5 5 5 5 5 5 6 5 5 5 5 5 5 5 5 5 5 5 6 5 5 5 5 5 5 5 5 5 5 5 5 5 5 5 5 5 5 5 6 6 5 5 5 6 5 5 5 5 5 5 5 5 5 5 5 5 6 5 5 5 5 5 5 5 5 5 6 5 5 5 5 5 5 5 5 5 5 5 5 5 5 5 5 6 5 6 5 5 5 5 5 6 5 5 5 5 6 5 5 5 6 5 5 5 6 5 5 5 5 5 5 5 5 5 6 5 5 5 6 5 5 6 5 5 5 5 5 5 6 5 5 5 5 5 5 5 5 6 5 5 5 6 5 5 5 5 5 5 5 5 5 5 5 5 5 5 5 5 5 5 5 5 5 5 5 5 5 5 5 6 5 5 5 5 5 5 5 6 5 5 5 5 5 5 5 5 5 5 5 5 5 5 5 5 5 5 5 5 5 5 5 5 5 6 5 6 5 5 5 5 5 5 6 5 5 5 6 5 5 6 5 5 5 5 5 5 5 5 5 5 5 5 6 5 5 5 5 5 6 5 5 5 5 5 5 5 5 5 5 5 5 5 6 5 5 5 6 5 5 5 5 5 5 5 5 5 5 5 5 6 6 5 5 5 5 6 5 5 5 5 5 5 5 5 5 6 6 5 5 5 5 5 6 5 5 5 5 5 6 5 5 5 5 5 6 5 6 5 5 5 5 6 5 6 5 6 6 5 5 5 5 5 5 5 6 6 5 5 5 5 5 5 6 6 6 5 6 6 5 5 5 6 5 5 5 5 5 6 6 6 5 6 5 5 5 6 5 6 6 5 5 5 5 5 5 5 6 6 5 5 6 6 6 5 5 5 5 5 5 5 5 5 5 5 5 5 5 5 5 5 5 5 5 5 5 5 5 5 5 5 5 5 5 5 5 5 5 5 5 5 5 5 5 6 5 5 5 5 5 5 5 5 5 5 6 5 5 5 5 5 5 6 5 5 6 5 5 5 5 5 5 5 5 5 5 5 5 5 6 5 6 5 5 5 5 6 5 5 5 6 5 5 6 5 5 5 6 5 5 6 5 5 5 5 5 6 5 5 5 5 5 5 5 6 5 5 5 5 5 5 5 6 5 5 6 5 5 5 5 6 5 6 5 5 5 5 5 6 5 5 5 5 6 5 5 5 5 5 5 6 6 5 5 5 5 5 6 5 5 6 5 5 5 5 5 5 5 5 5 5 6 5 5 5 5 5 5 5 5 5 5 5 5 5 5 5 5 5 5 6 5 5 5 5 5 5 6 5 5 5 5 5 5 5 6 6 5 5 5 5 6 5 5 5 5 5 5 5 6 5 5 6 5 6 6 6 5 5 5 5 5 5 6 5 5 5 5 5 6 5 5 5 5 6 5 5 5 6 5 5 5 6 5 5 5 5 5 5 5 5 5 5 5 5 5 5 5 5 5 5 5 5 5 5 5 5 5 6 5 5 5 5 5 5 5 6 5 6 5 5 5 5 5 5 6 5 5 6 5 5 5 6 5 5 6 5 5 5 5 5 6 5 5 5 6 6 5 5 5 5 5 5 5 5 5 5 5 5 6 5 5 5 5 5 5 5 5 5 6 5 5 5 5 5 6 6 5 5 5 5 5 5 5 5 5 6 5 5 5 5 5 5 5 5 6 5 5 5 5 5 5 5 5 5 5 5 5 5 5 5 5 5 5 6 5 5 5 5 6 5 6 5 6 5 5 5 5 5 5 5 5 5 5 5 5 5 5 5 5 5 6 5 5 5 5 5 6 5 5 5 6 6 5 5 5 5 5 6 5 5 5 5 6 5 5 5 5 5 5 5 5 6 5 5 5 5 5 5 5 6 5 5 5 5 5 5 5 5 5 6 5 5 5 5 5 5 5 5 5 5 5 5 5 5 5 5 5 5 6 5 5 5 5 5 5 5 5 5 5 5 5 5 6 5 5 5 5 5 5 6 5 5 6 5 5 6 5 5 5 5 5 5 5 5 5 5 5 5 5 5 5 5 5 5 5 5 5 5 5 5 5 5 6 5 6 5 6 6 5 5 5 6 5 5 5 5 5 5 5 5 5 6 6 5 6 5 5 5 5 5 5 5 5 5 5 5 5 5 5 6 5 6 6 5 6 5 5 5 5 5 5 5 5 5 6 6 5 5 5 5 5 5 5 5 5 5 5 5 5 5 5 5 5 5 5 5 5 5 6 5 5 5 5 5 6 5 5 5 5 5 6 5 5 5 6 5 5 5 5 5 5 5 5 5 6 5 5 5 5 6 5 5 5 5 5 5 6 5 5 5 5 5 5 5 6 5 5 5 5 6 5 5 5 5 5 5 5 5 5 5 6 5 5 5 5 6 5 5 5 6 5 5 5 5 5 6 5 5 5 5 5 5 5 5 5 5 5 5 5 5 6 6 5 5 6 5 5 5 5 5 5 5 6 5 5 5 5 5 5 6 5 5 5 5 5 5 5 5 5 5 5 5 5 5 5 5 5 5 5 5 5 5 5 6 5 5 5 5 5 5 5 5 6 5 5 5 5 6 5 5 5 5 5 6 5 6 5 6 5 5 5 5 5 5 5 6 5 5 5 6 5 5 5 5 5 6 5 5 5 5 5 6 5 6 5 5 6 5 6 5 5 5 5 5 6 5 5 5 6 5 5 5 5 5 5 5 5 5 5 6 5 5 5 5 5 5 5 5 5 5 5 5 5 5 5 5 5 5 5 5 5 5 6 5 5 5 5 5 5 5 5 5 5 5 5 5 5 5 5 5 5 6 5 5 5 6 5 5 5 5 5 5 6 5 5 5 6 6 5 6 5 6 6 5 6 5 5 6 5 5 6 6 5 5 5 5 5 5 5 5 6 5 6 5 5 5 5 5 5 5 5 5 5 5 5 5 5 5 5 5 5 5 5 5 5 6 5 5 5 5 5 5 5 5 6 5 5 6 5 5 6 6 5 5 6 5 5 5 5 5 5 5 5 5 5 5 5 5 5 5 5 5 5 5 5 5 5 5 5 5 5 5 5 5 5 5 5 5 5 5 5 5 5 5 6 5 6 5 5 5 5 5 5 5 5 5 5 5 5 5 5 5 5 5 5 5 5 5 5 5 5 5 5 5 5 5 5 5 5 5 5 5 5 5 5 5 5 6 5 5 6 5 5 5 5 5 6 5 6 5 5 6 5 5 5 5 5 5 6 5 5 5 5 5 5 5 5 5 5 5 6 5 5 6 6 5 6 5 5 6 5 5 5 5 6 5 5 5 5 5 5 5 5 5 6 5 6 5 5 5 5 5 5 5 6 5 6 5 5 5 5 5 5 5 5 5 6 5 6 5 5 5 5 5 5 5 5 5 5 6 5 5 5 6 5 5 6 5 5 6 5 5 5 5 6 5 5 5 6 5 5 5 5 5 5 5 5 5 5 5 5 5 5 6 5 5 5 5 5 5 6 5 6 5 6 5 5 5 6 5 5 5 5 5 5 5 5 6 5 5 5 5 5 6 5 5 6 5 5 5 5 5 5 5 5 5 6 5 5 5 6 5 5 5 5 5 5 6 5 5 5 5 5 5 5 5 5 5 5 5 5 5 5 5 5 5 5 5 5 5 5 5 5 5 5 5 5 5 5 6 5 5 5 5 5 6 5 5 6 6 5 5 5 5 6 5 5 5 5 5 6 5 5 5 5 5 5 5 5 5 5 5 5 5 5 5 5 6 5 5 5 5 5 5 5 5 6 6 5 5 5 5 5 5 6 5 5 5 5 6 5 5 5 5 5 5 5 5 5 5 5 5 5 5 5 5 5 5 5 5 5 5 5 5 6 5 5 6 5 5 5 5 5 5 5 5 5 5 5 5 5 5 5 5 5 5 5 5 5 5 5 5 5 5 5 6 5 6 5 5 5 5 5 6 5 5 5 5 5 5 5 5 5 5 5 5 5 5 5 5 5 5 5 5 6 6 5 6 5 5 5 5 5 5 5 5 5 5 5 5 5 5 5 5 6 5 5 5 6 5 5 5 5 5 5 5 5 5 5 5 5 5 6 5 5 5 5 5 5 5 5 5 5 5 5 5 5 5 5 5 5 5 5 5 5 6 5 5 5 5 5 5 5 5 5 5 5 5 5 6 5 6 5 5 6 6 5 5 5 5 5 5 5 5 5 5 5 5 5 5 5 5 5 5 5 5 6 5 5 6 5 5 5 6 5 5 5 5 5 5 6 5 5 5 6 5 5 5 5 5 5 5 5 6 5 5 6 5 5 6 5 6 5 5 5 5 6 6 5 5 6 6 5 5 6 5 5 5 5 6 5 5 6 6 5 6 5 5 5 5 5 5 5 5 5 5 5 5 5 5 5 5 5 5 5 5 6 5 5 5 5 6 5 5 5 5 6 6 5 5 5 5 5 5 5 5 5 5 5 5 6 5 5 5 6 5 5 5 5 5 5 5 6 5 5 5 6 5 5 6 6 5 5 5 6 5 5 5 6 5 5 5 5 5 5 5 5 5 5 5 5 5 5 5 5 5 5 6 5 5 5 5 5 5 5 5 5 5 5 5 5 5 5 5 5 5 6 6 5 5 5 5 5 6 6 5 6 5 5 5 5 5 5 5 5 5 6 5 5 5 6 5 5 5 5 5 5 5 5 5 5 5 5 5 5 6 5 5 5 5 5 5 5 6 5 5 6 5 5 5 5 5 5 6 5 5 5 5 6 5 5 5 5 5 5 6 5 5 5 5 5 5 5 5 6 6 5 5 5 6 6 5 5 5 5 5 6 5 5 5 5 5 5 6 5 5 5 5 6 5 5 5 5 5 6 5 5 5 5 6 5 5 5 5 5 5 5 5 5 5 5 5 5 5 5 5 5 5 5 5 5 5 5 5 5 6 5 5 5 5 6 5 6 5 6 5 5 6 5 5 6 5 5 6 5 5 5 5 5 5 6 5 5 6 5 6 6 6 5 5 6 5 6 6 5 5 5 6 5 6 5 5 5 5 5 5 6 5 5 5 6 5 5 5 5 5 5 5 6 5 5 5 6 5 6 6 5 5 5 5 5 5 5 6 5 5 5 5 5 5 5 5 6 6 5 5 5 5 6 5 5 6 5 5 5 6 5 5 5 6 6 5 5 5 5 6 5 5 5 5 5 6 6 5 5 5 5 5 5 5 5 5 5 5 5 5 5 5 5 5 5 5 5 5 5 5 5 5 5 5 5 5 5 5 6 5 5 5 6 5 5 5 5 5 5 5 5 5 5 5 5 5 5 5 6 5 6 6 5 5 6 5 5 5 5 5 5 5 5 5 5 5 5 5 5 5 5 5 5 5 5 5 5 5 6 5 5 6 6 5 5 5 5 5 5 5 6 5 5 5 6 5 5 5 5 6 6 5 5 5 5 5 5 5 6 5 5 5 5 6 5 5 5 5 6 5 5 5 5 5 5 5 5 5 5 5 5 5 5 5 5 5 5 5 6 5 5 5 5 5 5 5 5 5 5 5 5 5 5 5 5 6 5 5 5 6 5 5 5 5 5 5 5 5 5 6 5 5 5 5 5 5 5 5 5 5 5 5 5 5 5 5 5 5 5 5 5 6 5 5 5 5 5 5 5 5 5 5 5 5 5 5 5 5 5 6 5 5 5 5 5 6 5 5 5 5 5 5 5 5 5 5 5 5 5 5 5 5 5 5 5 5 5 5 5 5 5 5 5 6 5 5 6 5 5 5 6 5 5 5 5 5 5 5 5 5 5 5 5 5 5 5 6 5 6 5 5 5 5 5 5 5 5 5 6 5 5 5 5 5 5 5 5 5 6 6 5 5 5 5 5 5 5 5 5 5 5 5 5 5 5 5 5 5 5 5 5 5 5 5 5 5 5 5 5 5 5 5 5 5 5 5 5 5 5 5 5 5 5 5 5 5 5 5 5 5 5 5 5 5 5 5 5 5 5 5 5 5 5 5 5 5 5 5 5 5 5 6 5 5 5 5 5 5 6 5 5 5 5 5 5 5 5 5 6 5 6 5 5 5 5 5 5 5 5 5 5 5 5 5 5 5 5 5 5 5 5 5 5 5 5 5 5 5 5 5 5 5 5 5 5 6 5 5 5 6 6 5 5 5 5 5 5 5 5 5 5 5 5 5 5 5 5 5 5 5 5 5 5 6 6 5 5 5 5 5 5 5 5 6 5 5 5 5 5 5 6 5 5 5 5 5 6 5 5 5 5 6 5 5 5 6 5 5 5 6 5 5 6 5 5 5 5 5 5 5 5 5 5 5 5 5 6 5 5 5 5 5 5 5 5 6 5 5 5 5 5 5 5 5 5 5 5 6 5 5 5 6 5 5 5 5 6 5 5 5 5 5 5 5 5 6 5 6 5 5 6 5 5 5 5 5 6 5 5 5 5 5 5 5 5 5 5 5 5 6 5 5 5 5 5 5 5 5 5 6 5 5 5 5 5 5 6 5 5 5 5 5 5 5 6 5 5 5 5 5 6 5 5 5 5 5 5 5 5 5 5 5 5 5 5 5 5 5 5 5 5 5 5 5 5 5 5 5 5 5 5 5 5 5 5 5 5 5 5 5 5 5 5 5 5 5 5 5 6 5 6 5 5 5 5 5 5 5 5 5 5 5 5 5 5 6 5 5 5 5 5 5 5 5 5 5 5 5 5 5 5 6 5 5 6 5 6 5 5 5 5 5 6 5 5 5 5 5 5 5 5 5 5 5 5 5 5 5 5 5 5 5 5 6 5 5 5 5 5 5 5 5 5 5 5 6 5 6 5 5 6 5 6 5 5 5 5 5 5 5 6 5 6 5 5 5 5 6 5 5 5 5 6 6 5 5 6 5 5 5 5 5 5 5 5 5 5 5 5 5 5 5 5 6 5 5 5 5 5 5 5 5 5 5 5 5 5 5 6 5 6 5 5 5 5 5 5 5 6 5 6 5 5 5 5 5 5 5 5 5 6 6 5 5 5 6 5 5 5 5 6 5 6 5 5 6 5 6 6 6 5 5 6 5 5 5 6 6 6 5 5 5 5 5 5 5 5 5 5 5 6 5 5 5 5 5 5 6 5 5 5 6 5 5 5 5 5 5 5 5 6 5 5 5 6 5 5 5 5 5 5 5 5 5 5 5 5 5 5 5 5 5 5 5 5 5 5 5 5 5 5 5 5 5 5 5 5 5 5 5 5 5 5 5 5 5 5 5 5 5 5 5 5 5 5 5 5 5 5 5 5 5 5 5 5 6 5 5 5 5 5 6 5 5 5 5 6 5 5 5 6 5 5 5 5 5 5 5 5 5 5 5 5 5 5 5 5 5 5 5 5 5 5 5 5 5 5 5 5 5 5 5 5 5 5 5 5 5 5 5 5 6 5 5 6 5 5 5 5 5 5 5 6 5 5 5 5 5 5 5 5 5 5 5 6 5 5 6 5 6 5 5 5 6 5 5 5 5 5 5 5 5 6 5 5 5 5 6 5 5 5 5 6 5 6 5 5 5 5 5 5 5 5 5 5 5 5 6 5 6 5 5 5 5 5 5 5 5 5 5 5 5 5 6 5 5 5 5 5 5 5 5 5 6 5 5 5 6 5 5 5 5 5 5 5 5 5 5 5 5 5 5 5 5 5 5 5 5 5 5 5 5 5 5 5 5 5 5 5 5 5 5 5 6 5 5 6 5 5 5 5 6 5 5 5 5 5 5 5 5 5 5 5 5 5 5 5 6 5 5 5 5 5 5 5 5 5 6 5 6 5 5 5 5 5 5 5 6 5 5 5 5 5 5 5 5 5 5 5 5 5 5 6 5 5 5 5 5 5 5 5 5 5 5 6 5 5 5 5 5 5 5 5 5 5 5 5 5 5 5 5 5 5 5 5 5 5 5 6 5 6 5 5 5 5 5 5 6 5 6 5 5 5 6 5 5 5 6 5 5 5 6 5 5 6 5 5 5 5 5 5 5 6 5 5 5 5 5 5 5 6 5 5 5 5 5 5 5 5 5 5 5 5 5 6 5 5 5 5 5 5 5 5 6 5 5 5 5 5 5 5 5 5 5 5 5 5 5 5 5 5 5 5 5 6 5 5 5 5 5 5 5 5 5 5 5 5 5 5 5 5 5 5 5 5 5 5 5 5 5 5 5 5 5 5 5 5 5 5 5 5 5 5 5 5 5 5 5 5 5 5 5 5 5 5 6 5 6 5 5 5 6 5 5 6 6 5 6 5 5 5 5 5 5 5 5 5 5 5 5 5 5 5 5 5 5 5 5 5 5 5 5 5 5 5 5 5 5 5 5 5 5 5 6 5 5 5 5 6 5 5 6 5 5 5 6 5 5 5 5 6 5 6 6 5 5 5 5 6 5 5 5 6 5 5 5 6 5 5 5 5 5 5 6 5 5 5 5 5 5 5 5 5 5 5 5 5 5 5 5 5 5 5 5 6 5 5 5 5 5 5 5 5 5 5 5 5 5 5 5 5 5 5 6 5 5 6 5 5 6 5 5 5 5 5 5 5 5 5 5 5 6 5 5 5 5 6 5 5 5 5 6 5 5 5 6 5 5 5 5 5 5 5 5 5 5 5 5 5 5 5 5 5 5 5 5 5 5 5 5 5 6 5 5 5 5 5 5 5 5 6 5 5 5 6 5 5 5 5 5 5 5 5 5 5 5 5 5 5 5 5 5 5 5 5 5 5 5 5 6 5 5 5 6 5 5 5 5 5 5 5 5 6 5 5 6 5 5 5 5 6 5 5 5 5 5 5 5 6 5 6 5 5 6 5 5 6 6 5 5 5 5 5 5 5 5 5 5 5 5 5 5 5 5 5 5 5 5 5 6 5 5 5 5 6 5 5 5 5 5 5 5 5 5 5 5 5 5 6 5 5 6 5 5 5 5 5 5 5 5 5 5 5 5 5 5 5 5 5 5 5 5 5 5 5 5 5 5 5 5 5 5 5 5 5 5 5 5 5 5 5 5 5 5 5 5 5 5 5 5 5 5 5 5 5 5 5 5 5 5 5 5 5 5 5 5 5 5 5 5 5 5 5 5 5 5 5 5 5 5 5 5 5 5 5 5 5 5 5 5 5 5 5 5 5 5 5 5 5 5 5 5 5 5 5 5 5 5 5 5 5 5 5 5 5 5 5 5 5 5 5 5 5 5 5 5 5 5 5 5 6 5 5 5 5 5 5 5 6 5 5 5 5 5 5 5 5 5 6 5 6 5 5 5 6 5 5 6 5 5 5 5 5 5 5 5 5 5 5 5 5 5 5 5 5 5 5 5 5 5 5 5 5 5 5 5 5 5 5 5 5 5 5 5 5 6 5 5 6 6 5 5 6 5 5 6 5 5 5 6 5 5 5 5 5 5 5 5 5 6 5 5 5 5 5 5 6 5 5 5 5 5 5 5 5 5 5 5 5 5 5 5 5 5 5 5 5 5 5 5 5 5 5 5 5 5 5 5 6 5 5 5 5 5 5 5 5 5 5 5 5 5 5 5 5 5 5 5 5 5 5 5 5 5 5 5 5 5 5 5 5 5 5 5 5 5 5 5 5 5 5 5 5 5 5 6 5 6 5 5 5 5 6 5 5 5 5 6 5 5 5 5 6 5 5 5 5 5 5 5 5 6 5 5 6 5 6 5 5 5 5 6 5 5 6 6 5 5 5 5 5 5 6 5 5 5 5 5 5 5 5 5 5 6 6 5 5 5 5 5 6 5 5 6 5 5 5 5 6 5 5 6 5 5 5 5 5 5 5 5 5 5 5 5 5 5 5 5 5 5 5 5 5 5 5 5 5 5 5 5 5 6 5 6 5 5 5 5 5 5 5 5 5 5 5 5 5 6 5 5 5 5 6 6 5 5 5 5 5 5 5 5 5 5 5 5 5 5 5 5 5 5 5 5 5 5 5 5 5 5 5 5 5 5 5 5 5 5 5 5 5 5 5 5 5 5 6 5 5 5 6 5 5 5 5 5 5 5 5 5 5 5 5 5 5 5 5 5 5 5 5 6 5 5 6 5 5 5 5 5 5 5 5 5 6 5 5 5 5 5 6 5 5 5 5 5 6 5 6 5 5 5 5 5 5 5 5 5 5 5 5 5 6 5 5 5 6 6 5 5 5 5 5 5 5 5 6 5 5 6 5 5 6 6 5 5 5 5 5 6 5 5 5 5 5 5 5 6 5 5 6 6 5 5 5 5 5 5 6 6 5 5 5 6 5 5 5 5 5 5 5 6 5 5 5 5 5 5 5 5 5 5 5 5 5 5 5 5 5 5 5 5 5 5 5 5 5 5 6 5 5 5 5 5 5 5 6 5 5 5 5 5 5 5 5 5 5 5 6 5 5 5 5 5 5 5 5 6 5 5 5 5 5 5 5 5 5 5 5 5 5 5 5 5 6 5 5 5 6 5 5 5 5 5 6 5 5 5 5 5 5 5 5 5 5 5 5 5 5 6 5 5 5 5 6 5 5 6 5 5 5 5 5 6 5 5 5 5 5 5 5 5 5 5 5 5 5 5 6 5 6 5 5 5 6 5 6 5 6 5 5 5 5 5 5 6 6 5 5 5 5 5 5 6 5 6 5 5 5 5 5 5 5 5 5 5 5 5 5 5 5 5 5 6 5 5 5 6 6 5 5 5 5 5 6 5 5 6 6 5 5 5 5 5 5 5 5 5 5 5 5 5 5 5 5 5 5 5 5 5 5 5 5 5 5 5 5 5 5 5 5 5 5 5 5 5 5 5 5 5 5 5 5 6 5 5 6 6 6 5 5 5 5 5 5 6 5 5 5 5 5 5 5 5 5 6 5 5 5 6 5 5 5 5 5 5 5 5 5 5 5 5 5 5 5 5 5 5 5 5 6 5 5 5 5 6 5 5 5 5 5 5 5 5 5 5 5 5 5 5 5 5 5 5 5 5 5 5 5 5 5 5 5 5 5 5 5 5 5 5 6 5 6 5 5 5 5 5 5 5 5 6 5 5 5 6 5 6 5 5 5 5 5 5 5 5 6 5 5 5 5 6 5 5 5 5 6 5 5 5 5 5 5 5 6 5 5 5 5 6 5 5 5 5 5 5 5 5 5 5 5 5 5 5 5 5 5 5 5 5 5 5 5 5 5 5 5 5 5 5 5 5 5 5 5 5 5 5 5 5 5 5 5 5 5 5 6 5 5 5 5 6 6 5 5 6 6 5 5 5 5 5 5 5 5 5 5 5 5 5 5 5 5 5 5 5 6 5 5 5 6 6 5 5 5 5 5 5 5 5 5 5 5 5 5 5 5 5 5 5 5 5 5 5 5 5 5 5 5 6 5 5 5 5 5 5 5 6 5 5 5 5 5 5 5 5 5 5 5 5 5 5 5 6 5 5 5 5 5 5 5 5 6 5 6 6 5 5 5 5 5 5 5 5 5 5 5 5 6 5 5 5 5 5 5 5 5 5 5 5 5 5 5 5 5 5 5 6 5 5 5 6 5 5 5 5 5 5 5 5 6 5 5 5 5 5 5 5 5 5 5 5 5 5 5 5 6 5 5 5 6 5 5 5 5 5 5 5 5 5 5 5 5 5 5 5 5 5 5 5 5 5 5 5 5 5 5 5 5 5 5 5 5 5 6 5 6 5 5 5 5 5 5 5 5 6 5 5 5 5 5 5 5 5 5 6 5 5 6 5 5 5 5 5 6 5 5 5 5 6 5 5 5 5 6 5 5 5 6 5 6 5 5 6 5 5 5 5 5 5 5 5 5 5 5 5 5 5 6 5 5 6 5 6 5 5 5 6 5 5 6 5 5 5 5 6 5 6 5 5 5 5 5 5 6 5 6 5 5 5 5 5 6 5 5 5 5 6 5 5 5 5 5 5 6 5 5 5 5 5 5 5 5 5 5 5 5 5 5 5 5 5 5 5 5 5 5 5 5 5 5 5 5 5 5 5 5 5 6 6 5 5 5 5 5 5 5 5 5 5 6 5 5 6 6 5 6 5 5 5 5 5 5 5 6 5 5 5 5 5 5 5 5 5 5 5 5 6 5 5 5 5 6 5 5 5 5 5 5 5 5 5 5 5 5 6 5 5 5 5 5 5 5 5 5 5 5 5 5 5 5 5 5 6 5 5 5 5 5 6 5 5 5 6 5 5 5 5 5 5 6 5 6 5 5 5 6 5 5 5 5 5 5 5 5 5 6 5 5 6 5 5 5 5 5 5 5 6 5 5 5 5 5 5 5 5 5 5 5 5 5 6 5 5 6 5 5 5 5 5 5 6 5 5 5 5 5 5 6 5 5 5 5 5 5 5 6 5 5 5 5 5 5 5 5 5 5 5 5 5 5 5 5 5 5 5 5 5 5 6 5 5 5 5 5 5 5 5 5 5 6 5 5 5 5 6 6 5 5 5 5 6 5 5 5 5 5 5 5 5 5 6 5 5 5 5 5 5 5 5 5 5 5 6 5 5 5 6 5 5 5 6 5 5 5 5 5 5 5 5 5 5 5 5 6 5 5 5 5 5 6 5 5 6 5 5 5 5 5 5 5 5 5 5 5 5 5 5 6 5 5 5 5 5 5 5 6 5 5 5 6 5 5 5 5 5 6 5 5 5 5 5 5 5 5 5 6 5 5 5 5 5 5 5 5 6 5 5 5 5 5 6 5 5 5 5 5 5 5 6 5 5 5 5 5 5 5 5 5 5 5 5 5 5 5 5 5 5 5 5 5 5 5 5 5 5 5 5 5 5 5 5 5 5 5 5 5 5 5 5 5 5 5 5 5 5 5 5 6 5 5 5 5 5 5 5 6 5 5 5 5 5 5 5 5 5 5 5 5 5 5 5 5 5 5 5 5 5 5 6 6 5 5 6 6 5 5 5 5 5 5 5 6 5 5 5 5 5 5 5 5 5 5 5 5 5 5 6 5 5 5 5 5 5 5 5 6 5 5 6 5 5 5 6 5 5 5 5 5 5 5 5 5 5 5 5 5 5 5 5 5 5 5 5 5 5 5 5 5 5 5 5 6 5 5 5 5 5 5 5 5 6 5 5 5 5 5 5 6 6 5 5 5 5 6 5 5 6 5 5 6 5 5 5 5 5 5 6 5 5 5 5 5 5 5 5 6 5 5 5 5 5 5 5 5 5 5 5 6 5 5 6 5 5 5 5 5 5 5 6 5 5 5 6 5 6 5 6 5 5 5 5 5 5 5 5 5 5 5 5 5 5 5 5 5 6 5 6 5 5 5 5 5 5 5 5 5 5 6 5 5 5 5 5 5 5 6 5 5 5 6 5 6 6 5 5 6 5 5 5 5 6 5 5 5 6 5 5 5 6 5 6 6 5 5 5 5 5 5 6 5 5 5 5 5 5 5 5 6 6 6 5 6 5 5 6 6 5 5 6 5 5 5 5 5 5 5 5 5 5 5 6 5 5 5 5 5 5 5 5 5 5 5 5 5 6 6 5 5 5 5 6 5 5 5 6 5 5 5 5 5 6 6 5 5 5 6 5 5 5 5 5 5 5 5 5 5 5 5 5 5 5 6 5 5 5 6 5 5 5 6 5 5 5 5 5 5 6 5 5 5 5 5 6 5 5 5 5 5 5 5 5 6 5 5 5 5 5 5 5 5 5 6 5 5 5 5 6 5 6 5 5 6 5 6 5 5 5 5 5 5 6 5 6 6 5 5 5 5 5 5 5 5 6 5 6 5 6 5 6 5 5 5 5 5 5 5 5 5 5 5 6 5 5 5 6 5 5 5 5 5 5 5 5 6 5 5 5 5 5 5 5 5 5 6 5 5 5 5 6 5 5 6 5 5 5 5 5 5 5 5 5 6 5 5 5 6 5 5 5 5 5 5 5 5 5 5 5 5 5 5 5 5 5 5 5 6 5 5 5 5 5 5 5 5 5 5 6 5 5 5 5 5 5 5 5 5 5 5 5 5 5 5 5 5 5 5 5 5 5 5 5 5 5 5 5 5 5 5 5 5 5 5 5 5 5 5 5 5 5 5 5 5 6 6 5 5 5 5 5 5 5 5 5 5 5 5 5 6 6 5 5 5 6 5 5 6 5 5 5 6 5 5 5 6 5 5 5 5 5 5 5 5 6 5 5 6 5 6 6 5 5 5 5 5 5 6 5 6 6 6 5 5 6 5 5 6 6 5 5 5 5 5 5 5 5 5 5 5 5 5 5 5 5 5 5 5 5 5 6 5 5 5 5 5 5 5 5 5 6 5 5 5 5 5 5 5 6 6 5 5 5 5 5 5 5 5 5 5 5 5 5 5 5 5 5 5 5 5 5 5 5 6 5 6 5 5 5 5 5 5 5 6 5 5 5 6 6 5 5 6 5 5 5 5 6 5 5 5 6 5 5 5 6 5 5 5 5 5 5 5 5 5 6 6 5 5 5 5 5 6 5 5 6 6 6 5 5 5 5 5 6 5 5 5 5 5 5 5 5 5 6 5 6 5 5 5 5 5 5 5 5 5 5 5 5 5 5 5 5 5 5 5 5 5 5 5 5 6 5 5 5 5 6 6 5 5 5 6 5 5 5 5 5 5 5 5 5 5 5 5 5 5 5 5 6 5 5 5 6 5 5 6 5 5 5 5 5 5 5 5 5 5 5 5 5 6 5 5 6 5 5 5 6 5 6 5 6 5 6 6 6 5 5 5 5 5 5 5 5 6 5 5 5 5 5 5 5 5 6 5 5 6 5 5 5 5 5 5 5 5 5 5 5 5 5 5 5 5 5 5 5 5 5 6 5 5 5 5 5 5 5 5 5 5 6 5 6 5 5 6 5 6 5 6 5 5 6 5 6 5 5 6 5 5 5 6 5 5 5 5 5 5 5 5 5 5 5 5 5 5 5 5 5 5 5 5 5 5 5 5 5 5 5 5 5 5 5 5 5 5 5 5 5 5 5 5 5 5 5 5 5 5 5 5 5 5 5 5 5 5 5 5 5 5 5 5 5 6 5 5 6 5 5 5 5 5 5 6 6 5 5 5 5 5 5 5 5 5 5 5 5 5 5 5 5 5 5 6 5 5 5 6 5 5 5 5 5 5 5 5 5 5 5 5 5 5 5 5 6 5 5 5 5 5 5 5 6 5 5 5 5 5 5 5 5 6 5 6 5 5 5 5 5 5 5 5 5 5 5 5 5 5 5 5 6 5 5 5 5 5 5 5 6 5 5 5 5 6 5 5 5 5 5 5 5 6 5 5 6 6 5 5 6 5 5 5 5 5 5 6 5 5 5 5 5 5 5 5 5 6 5 5 6 5 5 6 5 5 6 5 5 5 5 5 6 5 5 5 5 5 5 5 5 6 5 5 5 5 5 5 5 6 5 5 5 5 5 5 5 5 5 5 5 5 6 5 5 5 5 5 5 5 6 6 5 6 5 6 5 5 5 5 5 5 5 5 5 5 5 5 5 5 5 6 5 6 5 5 5 5 5 5 5 5 6 5 6 5 6 5 6 5 6 5 5 6 5 5 5 5 5 6 5 5 5 5 5 5 5 5 6 5 5 5 5 5 6 5 5 6 5 6 6 5 5 5 5 5 5 5 5 6 5 5 5 5 5 5 5 5 5 5 5 5 5 6 5 5 5 5 5 5 5 6 5 5 5 6 5 5 5 5 5 5 5 5 5 5 5 5 5 5 5 5 5 6 5 5 5 5 5 5 5 6 5 5 6 5 5 5 5 5 5 5 5 5 5 5 5 5 5 5 6 5 5 5 5 6 5 5 5 5 5 5 5 5 5 5 5 5 5 5 5 5 5 5 5 5 5 5 5 5 5 6 5 5 5 5 5 5 6 5 5 5 5 5 5 5 5 5 6 6 5 5 5 6 5 6 5 5 5 5 5 5 5 5 5 5 5 5 5 5 5 6 5 5 5 5 5 5 5 5 5 5 5 5 6 6 5 5 5 5 5 5 5 5 6 5 5 6 5 5 6 6 5 5 5 5 5 5 5 6 5 5 5 5 5 5 5 5 5 6 5 5 5 6 5 5 5 5 5 6 5 5 5 5 5 5 5 5 5 5 5 5 6 5 5 5 6 5 5 5 6 5 5 5 5 5 5 5 5 5 5 5 5 5 5 5 5 5 5 5 5 5 5 5 5 5 5 5 5 5 5 5 5 6 5 5 5 5 5 5 5 5 5 5 5 5 5 5 5 5 5 5 5 5 5 5 5 5 6 5 6 5 5 6 5 5 5 5 5 5 5 5 5 6 5 5 5 5 5 5 5 5 5 5 5 5 5 5 6 5 5 5 5 6 5 5 5 6 5 5 5 5 5 5 5 5 5 5 5 5 5 5 5 5 5 5 5 5 5 5 5 5 5 5 5 5 5 5 5 5 5 5 5 5 5 5 5 5 5 5 5 5 5 5 5 5 5 5 5 5 5 5 5 5 5 5 5 5 5 5 5 5 5 5 5 5 5 5 5 5 5 5 5 5 5 5 5 5 5 5 5 5 5 5 5 5 5 5 5 5 5 5 5 5 5 5 5 5 5 5 5 5 5 5 5 5 5 5 5 5 5 5 5 5 5 5 5 5 5 5 5 5 5 5 5 5 5 5 5 5 5 5 5 5 5 5 5 5 5 5 5 5 5 5 5 5 5 5 5 5 5 5 5 5 5 5 5 5 5 5 5 5 5 5 5 5 5 5 5 5 5 5 5 5 5 5 5 5 5 5 5 5 5 5 5 5 5 6 5 5 5 5 5 5 5 5 5 5 5 5 5 5 5 5 6 5 5 5 5 5 5 5 5 6 5 5 5 5 6 5 5 5 5 5 5 5 5 5 5 5 5 5 5 5 5 5 5 5 5 5 5 6 5 5 5 5 5 5 5 5 5 5 5 5 5 6 6 5 5 5 5 5 6 5 6 5 5 5 5 5 5 5 5 5 5 5 6 5 5 5 5 5 5 5 6 5 5 5 5 5 5 5 5 5 5 5 5 5 5 5 6 6 5 5 5 5 5 5 5 5 5 5 5 5 6 5 5 5 5 5 5 5 5 5 5 5 5 5 5 5 5 6 5 5 5 5 5 5 5 6 5 5 5 5 5 5 5 5 5 5 6 6 5 5 5 5 5 5 5 5 5 5 5 5 5 5 5 5 5 5 5 5 5 5 5 5 5 5 5 5 5 5 6 5 5 5 5 5 6 5 5 5 5 5 5 5 5 5 5 6 5 5 5 5 6 5 5 5 5 5 5 5 5 5 5 6 5 6 5 5 5 5 5 5 5 5 5 5 5 5 5 5 5 5 5 5 5 5 5 5 5 5 5 5 5 5 5 5 5 6 5 5 5 5 5 6 5 5 5 5 5 5 5 5 5 5 5 5 5 5 5 5 5 5 6 5 5 6 5 5 5 6 5 5 5 5 5 6 5 5 5 5 5 5 5 5 5 5 6 5 5 5 5 5 5 6 5 5 5 5 5 6 6 5 5 6 5 5 6 5 5 5 5 5 5 5 5 5 5 6 5 5 6 5 5 6 5 5 6 5 5 6 5 5 6 5 5 5 5 5 5 6 5 5 5 5 5 5 5 5 5 5 5 6 5 5 5 5 5 5 5 6 5 5 5 5 6 5 5 5 6 5 5 5 5 5 5 5 5 5 5 5 6 5 5 5 5 5 5 5 5 5 5 5 5 5 5 5 5 5 5 5 5 5 5 5 5 6 5 5 5 5 5 6 5 5 5 5 5 5 5 5 5 5 5 5 5 5 6 5 5 6 5 6 5 5 5 5 6 5 6 6 5 6 5 5 5 5 5 5 5 6 5 6 5 5 5 5 5 5 6 5 5 5 5 5 5 6 5 5 5 5 6 5 5 5 5 5 6 5 5 6 5 5 5 5 6 5 5 5 5 6 5 5 5 5 5 5 6 5 5 5 5 5 5 5 5 5 6 5 5 5 5 5 5 6 5 5 5 5 6 5 5 5 5 5 5 5 5 5 5 5 5 5 5 5 5 6 5 5 5 6 5 5 6 5 5 5 5 5 5 5 5 5 5 5 5 5 5 5 5 6 5 6 5 5 5 5 5 5 5 5 5 5 5 5 5 5 5 5 5 5 5 5 5 5 5 5 5 5 6 5 5 6 5 5 5 5 5 5 5 5 5 5 6 5 5 5 5 6 5 5 5 5 6 5 5 5 5 5 5 5 5 5 6 5 5 5 5 5 5 5 5 5 5 5 5 5 5 5 5 5 5 5 5 5 5 5 5 5 5 5 5 
</DataArray>
<DataArray type="Float64" Name="stress" NumberOfComponents="9" format="ascii">
-3175022253.1882172 317147508.63326794 0 317147508.63326794 513761.95522031211 0 0 0 0 -5359388200.5157471 619059288.8397913 0 619059288.8397913 204783176.88402954 0 0 0 0 -5976989351.0529099 942577200.02671635 0 942577200.02671635 483495965.56407499 0 0 0 0 -5080816557.4091873 1143423247.516381 0 1143423247.516381 -182414159.79972121 0 0 0 0 -4094756558.710022 1687646503.7483928 0 1687646503.7483928 -170092836.17407539 0 0 0 0 -3911361.9729474485 -13677.835458345711 0 -13677.835458345711 -50673.830836386915 0 0 0 0 -66498738.828582764 -267340976.02999431 0 -267340976.02999431 -519308391.58823937 0 0 0 0 -1346902881.7523499 -480589758.11899197 0 -480589758.11899197 -232561895.21831051 0 0 0 0 -3601384049.1721954 248148659.46901125 0 248148659.46901125 46859458.29044044 0 0 0 0 -2735132366.4522629 1514277781.3041425 0 1514277781.3041425 -790752323.30323982 0 0 0 0 -286963212.10905457 141695654.50720382 0 141695654.50720382 -494522760.79258466 0 0 0 0 -1356229964.8594055 902573283.10489166 0 902573283.10489166 -291374090.26317191 0 0 0 0 -6840031.4753952026 999172.03899943223 0 999172.03899943223 2093.0491254279482 0 0 0 0 -3858523.0195214152 -1449140.8686237931 0 -1449140.8686237931 -595019.30417367385 0 0 0 0 -7667365.4231643677 2560286.3884616056 0 2560286.3884616056 3347825.4441826716 0 0 0 0 -4080874.4812011719 3701584.6628289125 0 3701584.6628289125 4622.5542435163798 0 0 0 0 -7126956.9495239258 1354915.1346232728 0 1354915.1346232728 1171404.1029105892 0 0 0 0 -10143075.723327637 -35925.507080084877 0 -35925.507080084877 1541742.4633182352 0 0 0 0 -5880834.6967934221 -1765132.4286779389 0 -1765132.4286779389 180105.98821647352 0 0 0 0 -7782557.2366485596 1650813.5982459728 0 1650813.5982459728 875320.53336145543 0 0 0 0 -6619767.4239501953 505034.89778823825 0 505034.89778823825 1984985.3981345939 0 0 0 0 -7026431.602248162 677027.44905264489 0 677027.44905264489 547579.80986308376 0 0 0 0 30966733.541763306 -35814183.558506966 0 -35814183.558506966 28173837.085632324 0 0 0 0 72305581.774719238 -35111364.988469362 0 -35111364.988469362 -20053598.948212147 0 0 0 0 27056089.769714355 -9229812.753308773 0 -9229812.753308773 7106248.3190345764 0 0 0 0 -11563835.429000854 -16108843.159063578 0 -16108843.159063578 -55163914.126644135 0 0 0 0 -8088650.7866061032 -607841.51338793337 0 -607841.51338793337 -1327003.8090778736 0 0 0 0 52498499.041473389 -45951371.113097966 0 -45951371.113097966 -45255587.506565928 0 0 0 0 -6279006.804473877 15274830.465315342 0 15274830.465315342 -6066159.1824145317 0 0 0 0 37152832.837165833 11825169.164203107 0 11825169.164203107 -37951816.326319695 0 0 0 0 -6998317.7704467773 19106803.903197527 0 19106803.903197527 31909684.622477889 0 0 0 0 -9233933.5281594694 -490262.54867146164 0 -490262.54867146164 172957.87638198916 0 0 0 0 -334118333.37956238 228889233.8621529 0 228889233.8621529 -163885183.75743699 0 0 0 0 178621373.46813965 74653742.378201842 0 74653742.378201842 -281384496.46095061 0 0 0 0 72446598.754501343 -54187957.057344168 0 -54187957.057344168 -82026606.668554306 0 0 0 0 -177182765.68017578 174712712.00465083 0 174712712.00465083 -74508328.627859056 0 0 0 0 -6732613.0798060298 6929757.7076441711 0 6929757.7076441711 -302391215.09880042 0 0 0 0 -26902680.107200623 -358303542.07987463 0 -358303542.07987463 -325065242.77892327 0 0 0 0 116672425.17053223 -282712870.88623303 0 -282712870.88623303 -46454447.41729553 0 0 0 0 145210788.59130859 -67432950.73742938 0 -67432950.73742938 -86167130.367269397 0 0 0 0 -7036061.5066659451 -64864846.681651361 0 -64864846.681651361 -38603345.461964369 0 0 0 0 219154437.77423096 -81486395.040764451 0 -81486395.040764451 -235530409.84833241 0 0 0 0 185970945.9654541 -10688153.729280233 0 -10688153.729280233 -31889420.225425482 0 0 0 0 238364230.54078674 -165190257.92176062 0 -165190257.92176062 -45498734.615586877 0 0 0 0 -13021896.048675537 -106032657.26462273 0 -106032657.26462273 132165771.21092209 0 0 0 0 -1966040.5186688118 -737769.94681999087 0 -737769.94681999087 -72342.693718592505 0 0 0 0 237150917.5604248 -278782022.27087194 0 -278782022.27087194 220433649.46616364 0 0 0 0 -92307715.384529114 -4173118.5289377728 0 -4173118.5289377728 50241631.299159139 0 0 0 0 -2000889.1439200044 -346274.20027152449 0 -346274.20027152449 506515.50732035527 0 0 0 0 551956746.36981201 -184020260.70027751 0 -184020260.70027751 -7548855.9708455801 0 0 0 0 143932196.45376587 -27394436.141677678 0 -27394436.141677678 202616997.21607256 0 0 0 0 540759167.72583008 -178831748.48370397 0 -178831748.48370397 36636769.807918847 0 0 0 0 115877622.75097656 -273866201.43291533 0 -273866201.43291533 192935367.75226185 0 0 0 0 52321184.233612061 -94536264.146044195 0 -94536264.146044195 -19473100.835891753 0 0 0 0 -3431637.8615370095 -7401754.5197990984 0 -7401754.5197990984 -3125021.9665850867 0 0 0 0 39973382.236114502 -89374284.662303001 0 -89374284.662303001 11105142.751854897 0 0 0 0 -118676106.07086182 -135876186.44515431 0 -135876186.44515431 67552739.279952466 0 0 0 0 -126916417.50611687 -62207579.82596226 0 -62207579.82596226 374848685.95759702 0 0 0 0 82401222.536262512 -223390046.07430395 0 -223390046.07430395 102805931.57134295 0 0 0 0 -9597866.6176147461 -274505747.86507237 0 -274505747.86507237 75363089.795161009 0 0 0 0 -78208544.203735352 -51404113.49127496 0 -51404113.49127496 1692324.9773392677 0 0 0 0 7377477.9603729248 36373249.056386352 0 36373249.056386352 -8028391.7972455025 0 0 0 0 -7403963.6648962796 321380.3146404624 0 321380.3146404624 -3696045.183615339 0 0 0 0 -64415936.174682617 -21826206.540766835 0 -21826206.540766835 -9642403.1931065619 0 0 0 0 -64378838.713378906 -24968779.389658481 0 -24968779.389658481 8162436.6270509958 0 0 0 0 -12683810.310760498 -44113743.140671201 0 -44113743.140671201 3528913.0739471614 0 0 0 0 -21929523.368164062 -9138714.1437659264 0 -9138714.1437659264 -18298754.51211679 0 0 0 0 -11667975.265970126 4152030.507889688 0 4152030.507889688 3421500.527014412 0 0 0 0 -37174946.71395874 -11535616.317333698 0 -11535616.317333698 12199690.862736925 0 0 0 0 -17786467.928710938 -25578959.094279408 0 -25578959.094279408 -3163977.0676985979 0 0 0 0 -48465172.00944519 -32642036.931996763 0 -32642036.931996763 -16005615.841962457 0 0 0 0 -68402440.621795654 -34284126.367148519 0 -34284126.367148519 -14970421.073697686 0 0 0 0 -68148136.933490753 10190893.976134017 0 10190893.976134017 -14696737.057028532 0 0 0 0 -79657920.051971436 -25412310.185437918 0 -25412310.185437918 -7432030.7378668785 0 0 0 0 -67808458.838813782 26684453.809787095 0 26684453.809787095 2576567.3678281307 0 0 0 0 -93154751.462203979 -10663508.417082906 0 -10663508.417082906 5206430.3690657616 0 0 0 0 -23810153.961364746 -24374714.362607837 0 -24374714.362607837 -39355425.739728928 0 0 0 0 -18170021.291608371 2076611.0945683047 0 2076611.0945683047 3143994.1605178714 0 0 0 0 -11491037.575115204 -1556512.4782457352 0 -1556512.4782457352 -2108246.1054701805 0 0 0 0 -11944547.669158936 -2327847.7917346954 0 -2327847.7917346954 -1746906.5014572144 0 0 0 0 -8692079.9074793011 -991048.083235987 0 -991048.083235987 -6752361.2687365077 0 0 0 0 -42064017.958221436 -4526565.0491404533 0 -4526565.0491404533 23605573.788313389 0 0 0 0 -35544953.965122223 -8168070.3460971564 0 -8168070.3460971564 3462784.5437164307 0 0 0 0 -21387192.337638587 4628374.9828993352 0 4628374.9828993352 776854.4548174222 0 0 0 0 -31333627.187713623 25623884.297974348 0 25623884.297974348 -3048561.4070270061 0 0 0 0 -17473539.708496094 -3433376.3286418915 0 -3433376.3286418915 -1777763.3200311661 0 0 0 0 -11540991.40763855 -65424299.008742481 0 -65424299.008742481 18856164.184579849 0 0 0 0 -51915653.591094971 -12234257.767779708 0 -12234257.767779708 27787843.418856621 0 0 0 0 -9782194.6563303731 -7836367.7440070957 0 -7836367.7440070957 -1879046.7454789751 0 0 0 0 -25994750.494354248 -10401570.792305022 0 -10401570.792305022 4387910.1837030649 0 0 0 0 -34241441.893859863 -17342219.280300438 0 -17342219.280300438 45159230.753984317 0 0 0 0 -51985122.883224487 6254199.3651862741 0 6254199.3651862741 15595493.652293205 0 0 0 0 -79168804.85345459 53256130.727565646 0 53256130.727565646 69526214.382514805 0 0 0 0 -69407201.694030762 72877301.310160875 0 72877301.310160875 -38901477.385423183 0 0 0 0 -2784659940.4472351 1838913151.7709427 0 1838913151.7709427 -1039448142.649596 0 0 0 0 -52335618.651081085 -14210411.397487521 0 -14210411.397487521 74193477.217813492 0 0 0 0 -22117726.338276923 -4260397.4026659541 0 -4260397.4026659541 2126364.8977333321 0 0 0 0 -568021.21396322548 227033.96650924534 0 227033.96650924534 -8300.5554201018531 0 0 0 0 -815943.45090635121 11266645.18588458 0 11266645.18588458 5758914.4705009814 0 0 0 0 -55851125.714050293 35196636.423254192 0 35196636.423254192 22786263.022444606 0 0 0 0 -40324131.758087158 7923128.9867626429 0 7923128.9867626429 7580891.7650828958 0 0 0 0 -1755027.5080231577 11615275.223419584 0 11615275.223419584 2519358.8572978508 0 0 0 0 -35868134.004760742 40391730.103021845 0 40391730.103021845 8907314.38573654 0 0 0 0 -27031487.461929321 70844925.687839955 0 70844925.687839955 -153074.2502483502 0 0 0 0 -23184998.197525024 55895606.963750869 0 55895606.963750869 -251897785.76927969 0 0 0 0 -19859799.999191284 54507914.362529226 0 54507914.362529226 -75529190.783024833 0 0 0 0 -51186721.84262085 67852933.834204674 0 67852933.834204674 42401511.204737186 0 0 0 0 -9665716.2388196588 23013.419262889773 0 23013.419262889773 18832.083839518251 0 0 0 0 -1775442293.315094 -2058316348.8320422 0 -2058316348.8320422 -2132742805.0138505 0 0 0 0 -5975829769.5926056 4478476028.137949 0 4478476028.137949 -2945271825.9384737 0 0 0 0 -2827495094.1193466 1861048432.4406817 0 1861048432.4406817 -769354834.90950608 0 0 0 0 -3978701886.5484314 2604097183.5053749 0 2604097183.5053749 -662901317.94640958 0 0 0 0 -5988560412.7453356 2292562337.170331 0 2292562337.170331 257347236.07049641 0 0 0 0 -2766383970.8874207 1327064216.5693433 0 1327064216.5693433 -264318905.56913492 0 0 0 0 -3042341931.2472992 2082526427.7317812 0 2082526427.7317812 -477895112.3253659 0 0 0 0 -3279575316.0402298 833612582.01522839 0 833612582.01522839 70572588.733504549 0 0 0 0 -887801926.49511719 194924592.55389631 0 194924592.55389631 66347740.466644421 0 0 0 0 -320941093.90083122 488757342.89461166 0 488757342.89461166 151785276.78155005 0 0 0 0 -412483829.43948364 -480013030.28507262 0 -480013030.28507262 167391053.3903563 0 0 0 0 77375389.172607422 -273738513.99142647 0 -273738513.99142647 734843422.87838364 0 0 0 0 -1041633237.7363892 -203982101.86558902 0 -203982101.86558902 950064666.09840751 0 0 0 0 -4103111.7374772877 4274226.9734778181 0 4274226.9734778181 2498423.697488972 0 0 0 0 -332364083.53012085 879422482.27960467 0 879422482.27960467 -503736186.97059435 0 0 0 0 -672686571.80566406 280125877.75286293 0 280125877.75286293 107329499.85517311 0 0 0 0 -2636993955.6135254 1541461120.789453 0 1541461120.789453 90595352.739993215 0 0 0 0 -12496203.542120315 -4258798.6991124079 0 -4258798.6991124079 3597149.6799599733 0 0 0 0 576393120.9152565 352098529.58248091 0 352098529.58248091 -765117794.89943409 0 0 0 0 9678938.41065979 -60309545.277948856 0 -60309545.277948856 35749240.592582822 0 0 0 0 -36525698.8810215 -38756828.678277075 0 -38756828.678277075 29339565.204826355 0 0 0 0 -36375035.134735107 -42420246.116857231 0 -42420246.116857231 114952264.79712558 0 0 0 0 -34703371.143829346 -135947616.02900231 0 -135947616.02900231 15805152.607513785 0 0 0 0 24078732.597061157 -61908230.819533557 0 -61908230.819533557 32882049.378386438 0 0 0 0 -3738110.8000478111 -620255.8688679859 0 -620255.8688679859 845588.94157088257 0 0 0 0 264180801.20962524 -100486971.15213592 0 -100486971.15213592 -84169772.639945149 0 0 0 0 -203463383.14508247 -443154186.89756352 0 -443154186.89756352 -590178764.0821054 0 0 0 0 -450320730.24221992 -214209636.67519543 0 -214209636.67519543 -33211511.082303762 0 0 0 0 -539116062.06396294 -791233665.31500602 0 -791233665.31500602 -223949366.69216889 0 0 0 0 -216837908.48086548 -87738107.80424346 0 -87738107.80424346 -385644.96657490608 0 0 0 0 24848105.22857666 -231707244.8385286 0 -231707244.8385286 -66363183.214018524 0 0 0 0 -100069386.05194092 -64584671.641545065 0 -64584671.641545065 -2784013.2602034807 0 0 0 0 -162248108.09959412 -48911370.8156728 0 -48911370.8156728 -39122704.955504537 0 0 0 0 -99664062.245376587 -93479002.242903113 0 -93479002.242903113 -97648431.950015977 0 0 0 0 -228962618.94762421 -26530070.706886239 0 -26530070.706886239 52913.0268030222 0 0 0 0 -223182834.95503235 -50533519.128110304 0 -50533519.128110304 -106399455.17333984 0 0 0 0 -297948140.29797363 70983432.775005281 0 70983432.775005281 -104861334.30490217 0 0 0 0 -458389932.52200317 51320765.817342155 0 51320765.817342155 -24567324.738989383 0 0 0 0 -181840373.51138306 -102793730.7179053 0 -102793730.7179053 -179677414.53838325 0 0 0 0 -145073747.5899353 2284966.9175266325 0 2284966.9175266325 -22423465.395898193 0 0 0 0 -141180916.79925537 59604498.131596208 0 59604498.131596208 138748095.26114511 0 0 0 0 -107764626.70883179 -10094926.82295835 0 -10094926.82295835 85600607.507632852 0 0 0 0 -226317085.87156677 -4520380.0559478998 0 -4520380.0559478998 92952838.622110605 0 0 0 0 -99150286.444992065 -64855625.204352379 0 -64855625.204352379 63984653.212444246 0 0 0 0 -129466951.65975952 -116667337.97455043 0 -116667337.97455043 -17662338.223014072 0 0 0 0 -70886132.268188477 -88355280.130313039 0 -88355280.130313039 77962353.170629919 0 0 0 0 -73054630.30219841 27970915.603005894 0 27970915.603005894 125628416.168311 0 0 0 0 -64307672.171356201 516445.11039352417 0 516445.11039352417 153296251.29766643 0 0 0 0 -62324862.934112549 15669228.392677903 0 15669228.392677903 76460300.677198648 0 0 0 0 -5196214.1841125488 61502896.591811538 0 61502896.591811538 107287889.73601794 0 0 0 0 -2263774.5896423161 -1067304.5846261978 0 -1067304.5846261978 -480355.30792555178 0 0 0 0 -31289197.551971436 -44736753.899317026 0 -44736753.899317026 709574.59626249224 0 0 0 0 75712110.456176758 170899894.746759 0 170899894.746759 103480587.77000129 0 0 0 0 -2491699.9598770142 -20160700.608887628 0 -20160700.608887628 14811162.995532751 0 0 0 0 -4242786.8790319413 -1690159.943747744 0 -1690159.943747744 -377546.47009408288 0 0 0 0 -5567531.7837677002 -13056109.589239717 0 -13056109.589239717 3516768.145570755 0 0 0 0 -18462715.669006348 -31062194.14842999 0 -31062194.14842999 33043494.365562916 0 0 0 0 -4086894.0791878253 -1484166.4462047294 0 -1484166.4462047294 2225919.0569662959 0 0 0 0 120943444.73112488 99582109.181406498 0 99582109.181406498 533191.43556165695 0 0 0 0 -12821973.8956604 -9824372.8222854137 0 -9824372.8222854137 20379500.4635849 0 0 0 0 -12270344.462020874 -13185717.714383781 0 -13185717.714383781 40424792.476455688 0 0 0 0 -51800971.810699463 25859415.268443346 0 25859415.268443346 44726903.95969677 0 0 0 0 -41842097.870513916 -491678.67597484589 0 -491678.67597484589 114383254.77920246 0 0 0 0 -133936673.19778442 197881484.99531507 0 197881484.99531507 178078431.88181174 0 0 0 0 84334180.670166016 186208266.39871162 0 186208266.39871162 107762875.08420217 0 0 0 0 -49761226.092163086 99773971.832675457 0 99773971.832675457 109249210.02554953 0 0 0 0 -93967394.285766602 148953033.12368023 0 148953033.12368023 140054013.88468283 0 0 0 0 -246202229.03405762 15118437.393584549 0 15118437.393584549 127698249.72137822 0 0 0 0 -7371349.218963623 138445667.35426682 0 138445667.35426682 -478584994.86842024 0 0 0 0 -707952.5900131166 309516.10613638908 0 309516.10613638908 106483.09957929721 0 0 0 0 -101488989.33532715 -64711431.706667379 0 -64711431.706667379 20528833.736008864 0 0 0 0 49564373.39263916 -342462404.16117418 0 -342462404.16117418 -110974777.91096255 0 0 0 0 -30403403.133422852 7229527.5756207732 0 7229527.5756207732 -42720.015324236228 0 0 0 0 -132916829.46987915 -15516341.549210088 0 -15516341.549210088 4498668.2762277331 0 0 0 0 -222470090.62284851 -71088344.370816708 0 -71088344.370816708 39245180.380816877 0 0 0 0 26714833.631408691 -14859202.663998336 0 -14859202.663998336 -9452031.2160584275 0 0 0 0 27031115.42984271 28266490.953835119 0 28266490.953835119 6805268.6962372549 0 0 0 0 -9440495.3903656006 -1857215.3053079676 0 -1857215.3053079676 -3104193.3345309179 0 0 0 0 -2665188.2117235512 639626.15874542668 0 639626.15874542668 324691.106414315 0 0 0 0 -4686401.1811828613 6998413.0267540552 0 6998413.0267540552 36892486.761132479 0 0 0 0 16713573.932159424 172711875.58716491 0 172711875.58716491 -148728653.8715091 0 0 0 0 -86692586.687316895 308757752.03516239 0 308757752.03516239 509259460.60838079 0 0 0 0 -65741522.022521973 229883872.62908721 0 229883872.62908721 53970052.040422529 0 0 0 0 -3300540.5300140381 3536846.3040835476 0 3536846.3040835476 6227892.9023578493 0 0 0 0 5484840.8414306641 9988605.0507573318 0 9988605.0507573318 6770.8916274595258 0 0 0 0 -2374110.100982666 7582869.030963473 0 7582869.030963473 7204478.3548039347 0 0 0 0 -5385134.9680480957 3323505.2690396248 0 3323505.2690396248 7374110.5291550849 0 0 0 0 -4941515.7726622522 474479.91458139755 0 474479.91458139755 388171.39715130103 0 0 0 0 33504723.729511261 93184925.112204969 0 93184925.112204969 -53545138.009068251 0 0 0 0 -251663645.19219971 -56455646.089465141 0 -56455646.089465141 90406724.667644024 0 0 0 0 -193904912.04571533 47818497.388922453 0 47818497.388922453 -6750119.990237236 0 0 0 0 26424970.63079834 31674255.163851976 0 31674255.163851976 -39716565.15909338 0 0 0 0 12519329.944335938 66256626.834679127 0 66256626.834679127 6980769.0396845341 0 0 0 0 -33320277.989135742 37638717.751118183 0 37638717.751118183 -8396466.3097743988 0 0 0 0 -12070396.242919922 13219656.754639149 0 13219656.754639149 16127800.107727528 0 0 0 0 -213235789.96820068 -98793387.077177525 0 -98793387.077177525 -46534142.908076286 0 0 0 0 -4163205.1309204102 -2657592.4870271683 0 -2657592.4870271683 -33798273.675688744 0 0 0 0 -790904.90824651718 -429073.65768013895 0 -429073.65768013895 -648515.6670599475 0 0 0 0 -63607477.313171387 -37103607.978097677 0 -37103607.978097677 -54764740.883247852 0 0 0 0 -18800055.537414551 2822958.6803326607 0 2822958.6803326607 330033.16309642792 0 0 0 0 -67361777.037902832 -2569625.8398007154 0 -2569625.8398007154 -7016886.9919528961 0 0 0 0 -43933542.0390625 -51601040.397439957 0 -51601040.397439957 14702685.676733017 0 0 0 0 -39674495.288696289 -40832998.316147327 0 -40832998.316147327 -2454981.8072099686 0 0 0 0 -61521727.358947754 -48349035.138794899 0 -48349035.138794899 1429409.0810604095 0 0 0 0 -90597839.224227905 -27556609.946265459 0 -27556609.946265459 17067045.50598526 0 0 0 0 -58691698.756866455 12135424.525988579 0 12135424.525988579 11807390.308240891 0 0 0 0 -32560966.163421631 60443400.256451607 0 60443400.256451607 -19021227.100729942 0 0 0 0 -153278665.3949585 -10644887.66298151 0 -10644887.66298151 6334437.0459096432 0 0 0 0 -27009595.061340332 -3389299.5479331017 0 -3389299.5479331017 7025906.7428627014 0 0 0 0 -34758821.557312012 3384053.1676669121 0 3384053.1676669121 17990629.712819099 0 0 0 0 -37997465.838470459 -13670076.106958866 0 -13670076.106958866 2107962.9253015518 0 0 0 0 -30280463.536865234 -21588568.431184053 0 -21588568.431184053 -1773899.8537893295 0 0 0 0 -62149896.345214844 -19740649.325102329 0 -19740649.325102329 14945727.894735336 0 0 0 0 -45996700.13973999 -18685000.492901325 0 -18685000.492901325 3744240.8224658966 0 0 0 0 -49016219.292816162 -13467055.694424629 0 -13467055.694424629 -4932109.9836235046 0 0 0 0 -43719956.030883789 -14027823.784762383 0 -14027823.784762383 13244315.398488998 0 0 0 0 -30790057.745872498 -1801659.4203515053 0 -1801659.4203515053 9944365.2557048798 0 0 0 0 -29791019.963043213 -1270485.9110207558 0 -1270485.9110207558 10049399.246354103 0 0 0 0 -34316647.017150879 -15517286.224618912 0 -15517286.224618912 -16237124.450111389 0 0 0 0 -65263525.397888184 -18370780.539958954 0 -18370780.539958954 3873484.537674427 0 0 0 0 -55030845.531585693 2100213.8245458603 0 2100213.8245458603 -407680.03387451172 0 0 0 0 886869.08743958175 -2358779.5926851369 0 -2358779.5926851369 -872670.37611792516 0 0 0 0 -30134920.134124756 3129976.4003763199 0 3129976.4003763199 3477006.7198343277 0 0 0 0 -13058792.313903809 -25880560.070874691 0 -25880560.070874691 -11833601.622056961 0 0 0 0 -9237274.1915283203 15472288.063070297 0 15472288.063070297 8036095.4825739861 0 0 0 0 -9476446.7299888134 588647.44974501431 0 588647.44974501431 -5949979.9416670818 0 0 0 0 -16804048.182891846 -1899117.4858269691 0 -1899117.4858269691 1085849.5376062393 0 0 0 0 -128794.76368767023 -814023.9505351088 0 -814023.9505351088 -1363284.0314431153 0 0 0 0 -44992593.343078613 -46365721.18961525 0 -46365721.18961525 -51815678.164431587 0 0 0 0 -10362928.763710797 -4313398.017254658 0 -4313398.017254658 -4551887.3040355621 0 0 0 0 -23071757.477966309 -16581228.962475777 0 -16581228.962475777 -15657457.548629284 0 0 0 0 -25731771.574462891 -18792949.384726763 0 -18792949.384726763 -15457906.512740016 0 0 0 0 -17659298.068247065 -510767.53880751121 0 -510767.53880751121 -1962328.7312940801 0 0 0 0 -27301651.057449341 -15451866.346520185 0 -15451866.346520185 -2075538.3657274246 0 0 0 0 -12281973.752716064 -2366424.4284548759 0 -2366424.4284548759 345704.1266450882 0 0 0 0 -9935882.3784713745 -2060213.8691525459 0 -2060213.8691525459 -1824484.7374839783 0 0 0 0 -14620664.558037329 367003.98961889744 0 367003.98961889744 -1507339.6066233367 0 0 0 0 970969.875 -4863772.6346321106 0 -4863772.6346321106 2506842.9558030367 0 0 0 0 -3157779.9932446778 -4112640.2090419289 0 -4112640.2090419289 -9172924.311478205 0 0 0 0 -2199913.3605957031 -726483.39379119873 0 -726483.39379119873 515441.01772940159 0 0 0 0 -5707448.8656604588 -1931377.5956772482 0 -1931377.5956772482 -8002339.8587700604 0 0 0 0 -14162385.225097656 -818221.85984420776 0 -818221.85984420776 -124215.17038726807 0 0 0 0 -11311076.019046091 -5725553.0834069997 0 -5725553.0834069997 -6499329.8733878322 0 0 0 0 -14559197.342875734 -2022240.9258668865 0 -2022240.9258668865 -1120126.4599618656 0 0 0 0 -11532648.178405762 -1714126.9380600452 0 -1714126.9380600452 913019.26788234711 0 0 0 0 -6365930.6046092808 -3213108.9618461411 0 -3213108.9618461411 -4704697.7814619076 0 0 0 0 -8774407.8693847656 -2486987.9396162033 0 -2486987.9396162033 -2239267.0126800537 0 0 0 0 -8966990.0758361816 -2888555.6526098251 0 -2888555.6526098251 -3061135.1742402315 0 0 0 0 -10596497.800962597 -1157700.1955893068 0 -1157700.1955893068 -7673226.3597337147 0 0 0 0 -9036768.3766479492 -2883412.8227832317 0 -2883412.8227832317 -2020214.3183040619 0 0 0 0 -5552452.6909431964 560256.47377163917 0 560256.47377163917 -5145723.9087613337 0 0 0 0 -7572262.2330932617 -740536.64604187012 0 -740536.64604187012 -1507116.9727554321 0 0 0 0 -2169455.297668457 -629442.44712638855 0 -629442.44712638855 -3761950.8773229718 0 0 0 0 -4331745.0892028809 -1315866.8086495399 0 -1315866.8086495399 -3343434.1161003113 0 0 0 0 -14867118.348749876 -6578587.4979278743 0 -6578587.4979278743 -5872887.7836706322 0 0 0 0 -6055597.3862991333 -887330.04492592812 0 -887330.04492592812 -1165407.0310401917 0 0 0 0 -14151446.11803814 -5220822.3314686492 0 -5220822.3314686492 -3278274.9602798177 0 0 0 0 -5153969.1090397984 -1338564.788941035 0 -1338564.788941035 -2932755.7717943955 0 0 0 0 -6984230.2149047852 -1779678.2047696114 0 -1779678.2047696114 -1546683.5856428146 0 0 0 0 -7520869.8943786621 -1212088.5823574066 0 -1212088.5823574066 -185696.86361312866 0 0 0 0 -5065359.1413264275 -350693.82800292596 0 -350693.82800292596 -685132.52063473128 0 0 0 0 -7733901.7345352173 -1811941.3294072151 0 -1811941.3294072151 -307687.72569084167 0 0 0 0 -4855516.4105224609 -1142041.7985877991 0 -1142041.7985877991 -977338.38641357422 0 0 0 0 -5936222.1737365723 -2245402.3627281189 0 -2245402.3627281189 -493236.05137938261 0 0 0 0 -12625862.81802354 -3858913.1413174197 0 -3858913.1413174197 -1635901.1728397831 0 0 0 0 -6112831.7489318848 -867938.19067144394 0 -867938.19067144394 -625116.53288269043 0 0 0 0 -13272843.932091929 -3983632.8539918885 0 -3983632.8539918885 -1523114.3515513847 0 0 0 0 -8252515.0959904976 -4280963.83938618 0 -4280963.83938618 -1635073.2115901411 0 0 0 0 -10447468.782505721 -3324872.28856121 0 -3324872.28856121 -86487.786476750858 0 0 0 0 -1799121.9677734375 -1481537.0194358826 0 -1481537.0194358826 92626.273728370667 0 0 0 0 -2262777.5564145297 -2489806.6810123222 0 -2489806.6810123222 -2341796.051197547 0 0 0 0 -35599017.616333008 -14292032.501255512 0 -14292032.501255512 -16667124.890419006 0 0 0 0 -4885781.3911361694 -1656102.2293680906 0 -1656102.2293680906 251463.37238883972 0 0 0 0 -4593187.6468582153 -775699.37013828754 0 -775699.37013828754 140514.37771701813 0 0 0 0 -2991703.284282431 -865144.50437015295 0 -865144.50437015295 -110807.91246211156 0 0 0 0 -15472477.043884277 -8239907.2571153641 0 -8239907.2571153641 -4334406.6401557922 0 0 0 0 -10800112.753691494 -4833615.9489461333 0 -4833615.9489461333 -743159.35939854616 0 0 0 0 -11194007.672255903 -1940586.6319976747 0 -1940586.6319976747 -372677.43861473096 0 0 0 0 -7613862.1487030834 -3328055.6979389414 0 -3328055.6979389414 -1398887.3908282071 0 0 0 0 -34617722.58706665 -3948759.7746162415 0 -3948759.7746162415 5284665.3758487701 0 0 0 0 -29207189.96496582 -20946334.53092587 0 -20946334.53092587 -8682158.2897815704 0 0 0 0 -12120692.118453756 -3744988.4007229144 0 -3744988.4007229144 1125572.6706489478 0 0 0 0 -13654494.013608247 -5095618.5989289843 0 -5095618.5989289843 929588.57456907688 0 0 0 0 -25045273.498748779 12628826.151196897 0 12628826.151196897 74028281.24156189 0 0 0 0 -6599374.2270507812 -3098374.8845672607 0 -3098374.8845672607 996015.24027729034 0 0 0 0 -17247776.51348877 -3221435.1039873362 0 -3221435.1039873362 -2832319.2408149242 0 0 0 0 -9454840.7563476562 -56969432.654353619 0 -56969432.654353619 77935750.164651752 0 0 0 0 -18043528.596651673 -5288132.0361883799 0 -5288132.0361883799 77340.748508977093 0 0 0 0 -9846861.5371856689 -9062198.3326368332 0 -9062198.3326368332 789661.93897438049 0 0 0 0 -3561188.9942805357 -2137139.0524298474 0 -2137139.0524298474 552448.20846719947 0 0 0 0 -25894934.465167999 13784654.302861452 0 13784654.302861452 46975516.090687633 0 0 0 0 -8949845.7434539795 -8408395.3139944077 0 -8408395.3139944077 -1304538.6868915558 0 0 0 0 -12024129.406447534 -3765848.3721619025 0 -3765848.3721619025 -1273729.9672832172 0 0 0 0 -8350722.3448257446 -8950089.4432473183 0 -8950089.4432473183 -2645706.0210418701 0 0 0 0 -9190223.6319885254 -5935303.3073701859 0 -5935303.3073701859 -2190740.6355438232 0 0 0 0 -7445386.3240356445 -3767992.9339475632 0 -3767992.9339475632 476804.68398094177 0 0 0 0 -8299698.5063877851 -4375680.5909646079 0 -4375680.5909646079 -1146804.5450033871 0 0 0 0 -7306439.7627563477 -2400670.251247406 0 -2400670.251247406 -662817.80101156235 0 0 0 0 -12824314.167714939 -6204864.9579928294 0 -6204864.9579928294 -2753716.4731662842 0 0 0 0 -9253668.9939975739 -4577456.5314769894 0 -4577456.5314769894 -1977757.8796465332 0 0 0 0 -12897526.268068314 -6113011.1967783347 0 -6113011.1967783347 -1257583.6925260229 0 0 0 0 -5071839.4013061523 -1760568.4716739655 0 -1760568.4716739655 1134226.0230808258 0 0 0 0 -4274935.7250671387 -162684.61888885498 0 -162684.61888885498 -1194266.8991889954 0 0 0 0 -7744156.7698974609 -4702067.6558227539 0 -4702067.6558227539 -1150720.387554884 0 0 0 0 -3077137.027116701 -3081572.7760817986 0 -3081572.7760817986 -4239985.9309595553 0 0 0 0 -4213575.0498046875 -2723148.0471782684 0 -2723148.0471782684 -449333.56667327881 0 0 0 0 -11872013.66972734 -5350643.257155031 0 -5350643.257155031 -3607444.9011916108 0 0 0 0 -12559642.659874089 -4604264.1547199488 0 -4604264.1547199488 -5542623.4833406843 0 0 0 0 -3446948.0668489635 -1677625.2150197607 0 -1677625.2150197607 -12319820.238745276 0 0 0 0 -6463004.186610043 -174396.58959509432 0 -174396.58959509432 -2868323.1557723186 0 0 0 0 -7142014.4757995605 -4862762.0167675018 0 -4862762.0167675018 -3260834.0836524963 0 0 0 0 -2892548.921875 -3476624.8674488068 0 -3476624.8674488068 -5599209.1484241486 0 0 0 0 -10517688.873291016 -9065585.4446029663 0 -9065585.4446029663 -1232844.9981079102 0 0 0 0 -19264479.254676878 -7864259.393445164 0 -7864259.393445164 -308637.16123130545 0 0 0 0 178118.77586556226 -399902.76294685155 0 -399902.76294685155 -426296.72972663492 0 0 0 0 -3222824.2779541016 -2695261.3944091797 0 -2695261.3944091797 -6992540.5646972656 0 0 0 0 -20780.212951660156 -2651222.7980976105 0 -2651222.7980976105 -1386987.4389343262 0 0 0 0 -8535590.0665136129 -6235378.0281476974 0 -6235378.0281476974 -2605561.9702215102 0 0 0 0 -8200523.1603564508 -2766921.2561468333 0 -2766921.2561468333 -3655984.2551687714 0 0 0 0 -3341955.5662742704 -2628369.4171521906 0 -2628369.4171521906 -12077351.516608724 0 0 0 0 -5069654.1207885742 -12008885.629325867 0 -12008885.629325867 -11527154.697158813 0 0 0 0 -2753773.6528747082 -6782524.2047470529 0 -6782524.2047470529 -10362760.37737303 0 0 0 0 -5103884.513885498 -9546783.8552494049 0 -9546783.8552494049 -9094666.122543335 0 0 0 0 -5180439.1361083984 -6565691.6875114441 0 -6565691.6875114441 1293495.4395751953 0 0 0 0 -10004987.115661621 -14614341.719017029 0 -14614341.719017029 -12133472.884490967 0 0 0 0 -20751366.071472168 -18338004.883215904 0 -18338004.883215904 -7284606.9617080688 0 0 0 0 -414425.45103088766 -1062667.131108813 0 -1062667.131108813 -892264.10596919805 0 0 0 0 6418430.6203308105 -9770585.6449127197 0 -9770585.6449127197 -11826837.955352783 0 0 0 0 3290196.0059814453 -13716425.865474701 0 -13716425.865474701 -12567865.99596405 0 0 0 0 1229523.2602844238 -10041597.689247131 0 -10041597.689247131 -17588134.423934937 0 0 0 0 -2101180.8499145508 -8787375.0585136414 0 -8787375.0585136414 -20222140.422801971 0 0 0 0 -2541150.1158447266 -10402779.822025299 0 -10402779.822025299 -12256934.841506958 0 0 0 0 -10986254.079559326 -22635756.515403748 0 -22635756.515403748 3802122.0220603943 0 0 0 0 892949.27499389648 -16004322.382037163 0 -16004322.382037163 -31076433.158828735 0 0 0 0 -7825682.1979247183 -9067550.7736900412 0 -9067550.7736900412 -5866570.9726687502 0 0 0 0 -1709825.9481811523 -8708409.0650234222 0 -8708409.0650234222 -1441420.3971328735 0 0 0 0 -139618.16046142578 -16074334.734788895 0 -16074334.734788895 -13932040.060043335 0 0 0 0 -739050.82958984375 -13206583.213747025 0 -13206583.213747025 -8498113.4938392639 0 0 0 0 -4835569.655456543 -9483744.3123054504 0 -9483744.3123054504 -10974436.216409683 0 0 0 0 219997.56079101562 -10489713.615726471 0 -10489713.615726471 -2871054.1802444458 0 0 0 0 -11135036.3046875 -881911.82508850098 0 -881911.82508850098 5802097.8122615814 0 0 0 0 -20541929.826226205 -6962287.1117654294 0 -6962287.1117654294 730827.84412078559 0 0 0 0 -123481.63891661167 -51726.191476792097 0 -51726.191476792097 56115.598439950496 0 0 0 0 -9073338.9049682617 -10429571.574754715 0 -10429571.574754715 -842174.34848976135 0 0 0 0 -10169832.517471313 -18094983.264399052 0 -18094983.264399052 -3182780.3926391602 0 0 0 0 -12584841.8318367 4640604.6974698305 0 4640604.6974698305 12733101.331150055 0 0 0 0 -8109246.972310245 -9804563.5951610189 0 -9804563.5951610189 -5701177.089002979 0 0 0 0 -10851421.738006592 -11070850.709215164 0 -11070850.709215164 -4138928.3739215136 0 0 0 0 -16996652.817077637 -39859612.306186676 0 -39859612.306186676 -17842716.526374817 0 0 0 0 -22232263.469940186 -6935844.5955677032 0 -6935844.5955677032 9371046.6934356689 0 0 0 0 -684279.5955767706 -2790873.0430989787 0 -2790873.0430989787 -1048777.8263375759 0 0 0 0 -2652572.223815918 -8979367.9496002197 0 -8979367.9496002197 -14912915.80847168 0 0 0 0 -3592876.0571877658 -6425434.2401111508 0 -6425434.2401111508 -7215036.2639869507 0 0 0 0 22004643.88684082 30846198.710790634 0 30846198.710790634 19825182.405208588 0 0 0 0 4155730.6104524285 -3096464.5383469593 0 -3096464.5383469593 -5142397.3199262572 0 0 0 0 -13061093.419318847 -13500660.302525811 0 -13500660.302525811 -263398.01404259726 0 0 0 0 135065975.53517151 19731777.740074158 0 19731777.740074158 -41798189.082233429 0 0 0 0 257906880.08192444 -11807931.271848679 0 -11807931.271848679 -48697858.61158371 0 0 0 0 42248322.436462402 -86064473.164785385 0 -86064473.164785385 39298672.358898163 0 0 0 0 56093643.320495605 191824679.0070343 0 191824679.0070343 257579996.82252884 0 0 0 0 -1415178.5311089456 -3915224.8942286531 0 -3915224.8942286531 -2878202.7375488286 0 0 0 0 56396923.499511719 -268015907.34466362 0 -268015907.34466362 305187087.22089767 0 0 0 0 -48482964.406463623 -53436482.931005478 0 -53436482.931005478 125563540.13568878 0 0 0 0 -17554898.563656889 -13624286.051115923 0 -13624286.051115923 352000.67254660651 0 0 0 0 -16049829.506469727 -9704260.8647041321 0 -9704260.8647041321 -576281.64018249512 0 0 0 0 -11817506.360076904 -9824252.7460803986 0 -9824252.7460803986 -584911.15494257212 0 0 0 0 486211276.03813171 56252117.341574907 0 56252117.341574907 9962090.5896869898 0 0 0 0 582858544.41028595 252796954.5546279 0 252796954.5546279 -166360934.93133545 0 0 0 0 -2550235.5604671184 -1653764.9125472307 0 -1653764.9125472307 -321069.91737455688 0 0 0 0 1235432222.1904602 146541258.0057373 0 146541258.0057373 -96544224.778770447 0 0 0 0 1249094.6516399011 242054.96832172573 0 242054.96832172573 -423735.07615176216 0 0 0 0 -10737191.706390381 -10213785.163576126 0 -10213785.163576126 -654506.81996870041 0 0 0 0 -10549096.56489563 -9814917.1250991821 0 -9814917.1250991821 -829965.77222251892 0 0 0 0 -8531540.1017379761 -9648987.7772163153 0 -9648987.7772163153 -1105368.2171401978 0 0 0 0 -11660093.92943573 -8484409.9485273361 0 -8484409.9485273361 2642147.9986572266 0 0 0 0 -13833971.637512207 -9869010.7467975616 0 -9869010.7467975616 5521683.1388578415 0 0 0 0 -20372593.369493283 -16321786.576926261 0 -16321786.576926261 1629248.3790996335 0 0 0 0 -17290839.82559815 -10046326.69614742 0 -10046326.69614742 -1077399.3521337593 0 0 0 0 -13764879.419128418 -10827520.161019325 0 -10827520.161019325 2853329.6335716248 0 0 0 0 572610410.79327393 -170912525.30776262 0 -170912525.30776262 -214641992.66819763 0 0 0 0 1750036043.4774475 440152433.30096436 0 440152433.30096436 -784642211.87365723 0 0 0 0 415821735.95269775 162194693.46976852 0 162194693.46976852 -503717453.06360626 0 0 0 0 1136956621.9296722 120254864.67398453 0 120254864.67398453 -600437929.68060303 0 0 0 0 181500562.89283752 383477042.98953438 0 383477042.98953438 -186699573.69458008 0 0 0 0 1591936809.3617401 -329508184.23707962 0 -329508184.23707962 -535058048.60469055 0 0 0 0 -24481331.127182007 -4498814.1874847412 0 -4498814.1874847412 -25239147.827232361 0 0 0 0 -496356.51233145781 -1636510.9325502291 0 -1636510.9325502291 -197881.42548999563 0 0 0 0 732239262.30517578 -175990295.44355011 0 -175990295.44355011 -918170983.56420898 0 0 0 0 -23597077.767790437 -106670813.29773957 0 -106670813.29773957 -31511508.982757568 0 0 0 0 -5251263.1184082031 25204929.745628357 0 25204929.745628357 257292927.12614727 0 0 0 0 635726.53034188598 -4313521.5207133368 0 -4313521.5207133368 -2499649.179975152 0 0 0 0 -43338091.435676575 66063792.282361984 0 66063792.282361984 238057117.7796669 0 0 0 0 117628052.24690247 42355401.44666481 0 42355401.44666481 -145379768.14740753 0 0 0 0 667831.69696326554 -1482012.635336183 0 -1482012.635336183 -13242900.448214617 0 0 0 0 75252599.144897461 116980327.79748535 0 116980327.79748535 100599830.63731003 0 0 0 0 155307.50070045888 -347996.93697919697 0 -347996.93697919697 -456787.47507437877 0 0 0 0 679051593.70602417 368506166.97460175 0 368506166.97460175 561305731.00804901 0 0 0 0 1344828085.1708374 769454972.86910629 0 769454972.86910629 -172773979.6000061 0 0 0 0 1261004979.4440689 449501256.52895164 0 449501256.52895164 -656954617.2664032 0 0 0 0 457019725.4017334 -70647828.982192993 0 -70647828.982192993 -107624651.96658325 0 0 0 0 281296824.49245453 237719496.51866341 0 237719496.51866341 -521267296.71346283 0 0 0 0 692676532.29733276 -515036375.40948486 0 -515036375.40948486 58811863.270772934 0 0 0 0 191328769.85284424 -641338229.43378258 0 -641338229.43378258 -442527963.39756012 0 0 0 0 502857731.65916443 -244841685.475214 0 -244841685.475214 -141841801.69464874 0 0 0 0 193595721.66877747 -376297384.47649574 0 -376297384.47649574 651818176.60569382 0 0 0 0 142965750.84864807 -626616573.87440109 0 -626616573.87440109 376366230.6892128 0 0 0 0 525623458.47305298 -505660739.41011047 0 -505660739.41011047 -201958725.02346992 0 0 0 0 813999.53758841008 -6849451.4551276825 0 -6849451.4551276825 -11583051.40923107 0 0 0 0 681717.45526123047 -7662850.3160705566 0 -7662850.3160705566 1144704.5613600016 0 0 0 0 -3305205.1853122413 -10669435.680033907 0 -10669435.680033907 -4097423.8123092912 0 0 0 0 3798481.2744750977 -1954606.3528900146 0 -1954606.3528900146 149643512.32702637 0 0 0 0 -3053493.5035291761 -11336649.779167403 0 -11336649.779167403 -2290759.4440377727 0 0 0 0 609674743.66010284 -243671584.88628578 0 -243671584.88628578 218542200.69528961 0 0 0 0 899713316.28372192 -269632645.72860241 0 -269632645.72860241 -128230492.35066986 0 0 0 0 -31527485.313655853 -57944912.063482285 0 -57944912.063482285 -3161370.3274154663 0 0 0 0 -1829249.9418070186 -8750701.293676801 0 -8750701.293676801 -521001.6645485498 0 0 0 0 -9970643.0041503906 -2376955.5167350769 0 -2376955.5167350769 -7450720.1431655884 0 0 0 0 422788.11328544468 640300.4235567674 0 640300.4235567674 -748572.47513585538 0 0 0 0 1716291.0536956787 -7702035.9023780823 0 -7702035.9023780823 -6651846.8486356735 0 0 0 0 -3929176.3215216845 -6058948.3322103769 0 -6058948.3322103769 -5824859.7438529879 0 0 0 0 3404388.7495117188 -5199764.3801040649 0 -5199764.3801040649 -8025746.3181028366 0 0 0 0 -6471082.8690490723 -7101405.2375679016 0 -7101405.2375679016 -3432017.6237411499 0 0 0 0 -5605917.9059295654 -4859322.4723110199 0 -4859322.4723110199 -5974267.3600578904 0 0 0 0 -4613428.4385986328 -3438244.0930595398 0 -3438244.0930595398 -5625613.0775498152 0 0 0 0 -7139985.8132324219 -3317766.4318466187 0 -3317766.4318466187 -4646552.933921814 0 0 0 0 -2625414.3742980957 -2383531.114030838 0 -2383531.114030838 -6224578.4906082153 0 0 0 0 -6651766.2036421727 -3149186.4662894234 0 -3149186.4662894234 -4761546.371580448 0 0 0 0 -4753013.0408935547 -726764.14889335632 0 -726764.14889335632 -4444323.4679946899 0 0 0 0 -6944347.5403783843 -2892451.983764872 0 -2892451.983764872 -8132063.0344328042 0 0 0 0 7217921.3395233154 7065259.0940847397 0 7065259.0940847397 -23252601.651012421 0 0 0 0 3488715.3069152832 -10683932.738729239 0 -10683932.738729239 -13683454.545928955 0 0 0 0 -6815333.4047088623 -6219083.086309433 0 -6219083.086309433 -4602948.5003088117 0 0 0 0 -6613441.1190078482 -2449150.0550372303 0 -2449150.0550372303 -4912273.9440185949 0 0 0 0 -3218872.0038757324 -4431211.975944519 0 -4431211.975944519 -7972378.7256317139 0 0 0 0 -731015.59512329102 -10160596.079984665 0 -10160596.079984665 -11977851.016139984 0 0 0 0 -13209966.777526855 -6068903.3052158356 0 -6068903.3052158356 -2173894.0828170776 0 0 0 0 -8614762.6814322397 -2915979.895168893 0 -2915979.895168893 -6554412.9859044198 0 0 0 0 -119676.55380249023 -3234950.1156654358 0 -3234950.1156654358 -3073398.6038360596 0 0 0 0 -3902474.9063269645 -5390822.6041960493 0 -5390822.6041960493 -7146525.6674991846 0 0 0 0 -2331907.3066987246 -3588366.1366988374 0 -3588366.1366988374 -10753548.594603077 0 0 0 0 -13789153.277740479 -2233093.0389328003 0 -2233093.0389328003 -190837.03725814819 0 0 0 0 4208727.2110137939 4268225.6565361023 0 4268225.6565361023 -14764334.119049072 0 0 0 0 7945356.1569366455 8351766.9677972794 0 8351766.9677972794 -12420260.168190002 0 0 0 0 -169854.31106567383 -591351.37407684326 0 -591351.37407684326 -34711160.164863586 0 0 0 0 2485062.8670587689 -1953930.2324576899 0 -1953930.2324576899 -16407236.129136123 0 0 0 0 -6580145.2647705078 4584459.5961914062 0 4584459.5961914062 -38703570.982095718 0 0 0 0 -625816.20565795898 7144797.8490905762 0 7144797.8490905762 -20037042.474113464 0 0 0 0 4952652.0181694031 -17591695.459945679 0 -17591695.459945679 -26599627.138702393 0 0 0 0 -19312664.879394531 7949756.2479133606 0 7949756.2479133606 -11508455.342433929 0 0 0 0 -1368295.632962659 4858753.3513487652 0 4858753.3513487652 -11390353.295077967 0 0 0 0 -3574910.8599401265 7751335.7276123269 0 7751335.7276123269 -12930338.271543302 0 0 0 0 3408561.3460388184 1901053.6072311401 0 1901053.6072311401 -3718113.5357055664 0 0 0 0 7312562.82421875 1174223.7568492889 0 1174223.7568492889 -8611395.2817382812 0 0 0 0 -1309934.4982809573 5812381.4706432698 0 5812381.4706432698 -15889594.029296469 0 0 0 0 -936040.23876953125 -730713.58645629883 0 -730713.58645629883 -1017870.1774749756 0 0 0 0 -6482523.9466935201 -1338272.4130468369 0 -1338272.4130468369 -2500526.4479954354 0 0 0 0 -13622386.18460083 12090745.017918587 0 12090745.017918587 -11420593.155822754 0 0 0 0 -15612629.382049412 6215483.961545201 0 6215483.961545201 -8172897.0071795117 0 0 0 0 -16200240.708013251 10497760.583391197 0 10497760.583391197 -6529903.0099045215 0 0 0 0 -28338095.010124207 11699108.51396513 0 11699108.51396513 -4249230.1437473297 0 0 0 0 -25602113.28446579 16123925.9177351 0 16123925.9177351 -25652551.595827103 0 0 0 0 -8884383.2277946472 -17651218.386362314 0 -17651218.386362314 -20001734.295532227 0 0 0 0 807582.56081084907 -1460192.0008657798 0 -1460192.0008657798 -3256754.0988633148 0 0 0 0 -34489979.006744385 -5630188.0590085983 0 -5630188.0590085983 -5902010.6326575279 0 0 0 0 -788693.46612548828 -9471274.6888883114 0 -9471274.6888883114 -32805440.334640503 0 0 0 0 5510150.4735946655 1452236.3500461578 0 1452236.3500461578 -34351020.984203339 0 0 0 0 -54711677.628143311 -752473.25650024414 0 -752473.25650024414 -6142313.1342544556 0 0 0 0 -9894847.3931232169 -1308977.9590908363 0 -1308977.9590908363 -6570105.3093056101 0 0 0 0 -8293941.8823699951 4211424.9995894432 0 4211424.9995894432 -5605942.5975532532 0 0 0 0 -28624691.537567139 8093747.9518508911 0 8093747.9518508911 -4763027.8949699402 0 0 0 0 -32847060.242004395 204236.69080924988 0 204236.69080924988 3484642.748758018 0 0 0 0 -16497794.950229645 -972484.83403611183 0 -972484.83403611183 -3881627.979675293 0 0 0 0 -40534066.538421631 -13995609.372520447 0 -13995609.372520447 -11524456.955020905 0 0 0 0 -33316889.267913818 -2894667.1760253906 0 -2894667.1760253906 -3105712.1178936958 0 0 0 0 -29467792.727554321 -13640360.895094872 0 -13640360.895094872 -29991538.907661438 0 0 0 0 -32950723.911254883 -8794982.233253479 0 -8794982.233253479 -18588277.391992569 0 0 0 0 -30170398.619781494 2214777.8311009407 0 2214777.8311009407 -8336619.0715255737 0 0 0 0 -20297817.820785522 2139756.9565839767 0 2139756.9565839767 -13472671.470396042 0 0 0 0 -29248892.596862793 552189.80069160461 0 552189.80069160461 -5992629.2320098877 0 0 0 0 -3433358.7924286649 -871854.29913274944 0 -871854.29913274944 382068.19123113714 0 0 0 0 -26379853.699127197 -467369.05903625488 0 -467369.05903625488 -9924810.7141103745 0 0 0 0 -10917287.947998047 5734183.2022895813 0 5734183.2022895813 7822525.1319333911 0 0 0 0 -26319711.288879395 -1350568.7833385468 0 -1350568.7833385468 -9079585.4434585571 0 0 0 0 -23267071.785758972 -22676160.213996649 0 -22676160.213996649 -4786677.3972434998 0 0 0 0 -11491003.66727294 -3452372.4275914449 0 -3452372.4275914449 -6386150.8657356324 0 0 0 0 718574.6767578125 -4649298.1795654297 0 -4649298.1795654297 2627919.8212852478 0 0 0 0 -8234764.3306884766 207466.39533233643 0 207466.39533233643 -2559320.0142288208 0 0 0 0 -36192442.730716705 -22871617.678719997 0 -22871617.678719997 -2343918.9364852905 0 0 0 0 -15145856.776336715 -3334695.1619861871 0 -3334695.1619861871 -3671237.5784135796 0 0 0 0 -31918088.628662109 -3279482.1863937378 0 -3279482.1863937378 2536126.2927093506 0 0 0 0 -13057427.955642644 2303128.9595160261 0 2303128.9595160261 -269009.55228744354 0 0 0 0 -29091073.233550277 -2065182.8095387891 0 -2065182.8095387891 2511977.755044925 0 0 0 0 -779366.69793289527 -428619.2286548391 0 -428619.2286548391 242827.32775329053 0 0 0 0 -11658367.9347229 8673104.1065535545 0 8673104.1065535545 6731482.682015419 0 0 0 0 -24028814.467712402 2608555.423889637 0 2608555.423889637 -2415869.8150138855 0 0 0 0 -24569666.084823608 3956662.2417743206 0 3956662.2417743206 -1454367.7147731781 0 0 0 0 -17018283.082446888 8716189.4101027567 0 8716189.4101027567 -2790973.9130118038 0 0 0 0 -31211489.667295214 6640401.3542767651 0 6640401.3542767651 -3109962.1880556606 0 0 0 0 -15836609.916282654 8652060.7255911827 0 8652060.7255911827 -7231482.6390609741 0 0 0 0 -26037160.253596857 10168890.634398445 0 10168890.634398445 -5935184.0669650575 0 0 0 0 -2533540.89818573 43440667.216040611 0 43440667.216040611 -17395591.228319168 0 0 0 0 -27879744.014419556 12026633.863273621 0 12026633.863273621 -7610475.6539902687 0 0 0 0 -5198335.9258627072 12991059.533668159 0 12991059.533668159 -2145276.1484932806 0 0 0 0 -14311780.746261597 44269444.457871437 0 44269444.457871437 -15358073.191534519 0 0 0 0 -21630751.110206604 84695994.711718321 0 84695994.711718321 29452455.477710724 0 0 0 0 -23264655.180000305 53583190.473656178 0 53583190.473656178 103883442.23773813 0 0 0 0 9434588.1148147583 75214546.105991125 0 75214546.105991125 19597828.25460434 0 0 0 0 -17320516.963064358 12804917.139769889 0 12804917.139769889 -6464056.4812027551 0 0 0 0 -18117311.117969513 95680972.763990045 0 95680972.763990045 10657832.651284218 0 0 0 0 -40882645.90709877 48490128.142066479 0 48490128.142066479 8254104.4359865189 0 0 0 0 35802662.613607407 52257216.062328041 0 52257216.062328041 -65787202.522892952 0 0 0 0 -874299.1891040802 193643557.01717806 0 193643557.01717806 -131372744.44019032 0 0 0 0 188887780.0296936 198349271.14934778 0 198349271.14934778 -155374471.94406223 0 0 0 0 -110243379.68305969 57518380.088689804 0 57518380.088689804 -118489439.74765998 0 0 0 0 222423811.13624573 25563180.833638668 0 25563180.833638668 -139240117.53786683 0 0 0 0 106043011.34465027 -71533805.624577403 0 -71533805.624577403 7287258.594496727 0 0 0 0 71233043.032821655 48757459.625014067 0 48757459.625014067 -74899041.722030163 0 0 0 0 -9754071.566192627 18604589.811160088 0 18604589.811160088 -7324605.4133110046 0 0 0 0 57149858.436225891 36953709.478138447 0 36953709.478138447 -18903119.34887743 0 0 0 0 -12511924.141072273 14030836.127773918 0 14030836.127773918 -10307249.716293978 0 0 0 0 -7774174.4419983551 7945913.0752679575 0 7945913.0752679575 -7523784.1178672202 0 0 0 0 44854238.888374329 -10116535.554416418 0 -10116535.554416418 -28659842.187880635 0 0 0 0 -3567123.8715438843 9969852.5147237778 0 9969852.5147237778 -7697607.9613113403 0 0 0 0 8301178.5518932939 4629022.0703814887 0 4629022.0703814887 -12378893.958107615 0 0 0 0 11025308.715576172 7723883.7408123016 0 7723883.7408123016 -12167745.168119669 0 0 0 0 -3786434.519618988 11899958.761472821 0 11899958.761472821 -7919630.7984199524 0 0 0 0 15954846.584823608 8706681.0000534058 0 8706681.0000534058 -12011750.745891571 0 0 0 0 -1605755.4907477647 906908.94986376166 0 906908.94986376166 -478445.81677042507 0 0 0 0 -7786189.2413978577 13709141.706946969 0 13709141.706946969 -11062020.787570953 0 0 0 0 -8294212.6824960709 17150585.812517881 0 17150585.812517881 -5891028.2577781677 0 0 0 0 -8255730.4598770142 10439264.431197166 0 10439264.431197166 -11640406.274668694 0 0 0 0 -5390894.3357162476 16472529.774281502 0 16472529.774281502 -6909117.5325932503 0 0 0 0 -11693167.204284668 11298334.176895142 0 11298334.176895142 -6654528.1683235168 0 0 0 0 -12670820.55301857 7319609.1132810116 0 7319609.1132810116 -11721594.436393738 0 0 0 0 -5517193.6077590883 6902919.7772314847 0 6902919.7772314847 -15892867.244484402 0 0 0 0 -17193437.479400635 10241637.219004631 0 10241637.219004631 -9779916.445889473 0 0 0 0 36476415.868545532 -44490177.292776108 0 -44490177.292776108 -23199518.545394897 0 0 0 0 32745258.338279724 -41975731.177903175 0 -41975731.177903175 -10385188.86580658 0 0 0 0 6136468.9982749522 -5751989.3424248546 0 -5751989.3424248546 -1506751.3600186668 0 0 0 0 33144092.611816406 -39761063.308246613 0 -39761063.308246613 -29186720.350952148 0 0 0 0 6995177.8050842285 -1261069.04945755 0 -1261069.04945755 -6086969.2555770874 0 0 0 0 1025593.1484985352 -5865888.0940551758 0 -5865888.0940551758 -7710015.8511161804 0 0 0 0 405376.59443518519 12533.540751948953 0 12533.540751948953 -10158092.703669712 0 0 0 0 4172813.833480835 6313603.4420547485 0 6313603.4420547485 20382637.095245361 0 0 0 0 31344365.039916992 -35842633.104064941 0 -35842633.104064941 -36494004.764129639 0 0 0 0 21326713.608154297 -27528499.884017944 0 -27528499.884017944 -40262801.909118652 0 0 0 0 11033919.805053711 -24277966.459197998 0 -24277966.459197998 -20920803.74823761 0 0 0 0 1294020.4012451172 -6441392.5467834473 0 -6441392.5467834473 -45944975.227443695 0 0 0 0 -25642709.879425049 -23055284.150821686 0 -23055284.150821686 -10716323.46698761 0 0 0 0 23389759.843139648 -15980602.874557495 0 -15980602.874557495 -38176353.695785522 0 0 0 0 -51210105.378631592 1810600.1243247986 0 1810600.1243247986 -15749830.157333374 0 0 0 0 39083765.116271973 -29377999.223125458 0 -29377999.223125458 -28822217.672447205 0 0 0 0 42810924.588806152 16100827.601905823 0 16100827.601905823 -10218587.101394653 0 0 0 0 128203480.50995255 -23275818.29228878 0 -23275818.29228878 -45560465.595481873 0 0 0 0 -5599189.7397481529 10291922.723630778 0 10291922.723630778 -12954552.094428467 0 0 0 0 22333966.925689697 -13319542.833403111 0 -13319542.833403111 6870980.2656707764 0 0 0 0 -10678094.733398438 12525651.545898438 0 12525651.545898438 -8136129.4179916382 0 0 0 0 42220317.278686523 -12182231.706260681 0 -12182231.706260681 13749009.50025177 0 0 0 0 -10294145.375338964 12294855.050091207 0 12294855.050091207 -9521251.9795729909 0 0 0 0 134890664.79281616 29589745.627218246 0 29589745.627218246 -63494857.515483856 0 0 0 0 -14214384.13973999 -48048743.356199265 0 -48048743.356199265 -72507313.814685822 0 0 0 0 72990216.809646606 30245483.202356339 0 30245483.202356339 -152667698.34356117 0 0 0 0 42899405.415145874 -12944447.742303848 0 -12944447.742303848 -61205887.256904602 0 0 0 0 -20660994.275741577 -28622959.141705513 0 -28622959.141705513 -2821231.7896499634 0 0 0 0 -47968982.346343994 -16580067.147974014 0 -16580067.147974014 -45282561.783576965 0 0 0 0 -17061244.261497498 -34733202.830290318 0 -34733202.830290318 -59748270.249473572 0 0 0 0 -1946108.4887722805 155292.37792143226 0 155292.37792143226 658822.17408767715 0 0 0 0 -45430189.995124817 -55436098.575856209 0 -55436098.575856209 -289086267.32843018 0 0 0 0 -523011197.54699707 416642259.65942574 0 416642259.65942574 2785064.8725295067 0 0 0 0 -392848548.18513489 -16011950.277608871 0 -16011950.277608871 106613761.83675766 0 0 0 0 319116774.67687988 207620075.10805893 0 207620075.10805893 -109596613.37419128 0 0 0 0 -57838938.685146332 -61981234.306752563 0 -61981234.306752563 -20548603.28427887 0 0 0 0 -1950469.5242943466 -759810.15209193528 0 -759810.15209193528 -1706943.8498971313 0 0 0 0 257136098.91884613 69394893.453101158 0 69394893.453101158 -108112245.55886841 0 0 0 0 242809308.59848022 80598160.24357605 0 80598160.24357605 5557228.115486145 0 0 0 0 397452398.11004639 -45018231.082061768 0 -45018231.082061768 -33526920.451370239 0 0 0 0 238584767.90332031 -61415168.931732178 0 -61415168.931732178 -27738361.869888306 0 0 0 0 196730210.41339111 -63755989.415283203 0 -63755989.415283203 -20747982.647392273 0 0 0 0 379155551.04974365 -151651576.23245239 0 -151651576.23245239 -61962843.450088501 0 0 0 0 55229841.269226074 16301665.567703247 0 16301665.567703247 -4238664.4797382355 0 0 0 0 170367891.18222046 -15546203.4661026 0 -15546203.4661026 -10482963.883666992 0 0 0 0 40412752.071777344 -8009579.2989616394 0 -8009579.2989616394 -24220560.578826904 0 0 0 0 47339801.028930664 4437847.1905822754 0 4437847.1905822754 -4592244.3186397552 0 0 0 0 82433154.127105713 -81502944.650257111 0 -81502944.650257111 -12434442.511108398 0 0 0 0 211178473.62374878 -129298448.58371735 0 -129298448.58371735 -59453884.635162354 0 0 0 0 597411680.90005493 -263022527.85191345 0 -263022527.85191345 115251819.70231628 0 0 0 0 -71562458.827774048 43288539.229057312 0 43288539.229057312 61843419.958992004 0 0 0 0 714808601.46173096 -279985245.3712697 0 -279985245.3712697 110850418.2570343 0 0 0 0 500586963.93023682 -95931584.834770203 0 -95931584.834770203 -99995978.891845703 0 0 0 0 404867568.62495041 576173134.04771471 0 576173134.04771471 550797407.59765625 0 0 0 0 57958149.136764526 39734845.797849774 0 39734845.797849774 -57153328.552463412 0 0 0 0 -22132642.158920288 -237180690.05765718 0 -237180690.05765718 214310378.29689348 0 0 0 0 -27188870.265650086 -9650761.8488802817 0 -9650761.8488802817 -5315039.0376061667 0 0 0 0 31620861.585401535 -50355925.187572412 0 -50355925.187572412 16739634.149120688 0 0 0 0 -9573351.0203514099 509428932.31131196 0 509428932.31131196 -405788412.14018631 0 0 0 0 412131029.83009338 -376036467.03101873 0 -376036467.03101873 -679652148.39190865 0 0 0 0 467435217.10102844 -221852108.19612694 0 -221852108.19612694 -529019051.75117493 0 0 0 0 -19902481.126943082 -8584312.1655318663 0 -8584312.1655318663 -5957655.6337019661 0 0 0 0 51074399.210929871 -671630771.95884395 0 -671630771.95884395 -146255160.62471581 0 0 0 0 -352992646.49786377 876433627.77787745 0 876433627.77787745 -616869147.45123088 0 0 0 0 -7432271.4487301409 -3765936.4331379887 0 -3765936.4331379887 -5470915.5437076362 0 0 0 0 -5973506214.9134674 1716192759.52773 0 1716192759.52773 298099433.86268669 0 0 0 0 -3842113345.8285675 2618118232.5167031 0 2618118232.5167031 -1475039107.2821863 0 0 0 0 -3878297363.8015079 793436830.51384676 0 793436830.51384676 687513694.3161639 0 0 0 0 -185182961.54652405 155501736.91480553 0 155501736.91480553 -6897816.6697580814 0 0 0 0 -1981764565.1332474 111429582.48364747 0 111429582.48364747 -95756102.872272253 0 0 0 0 -3747430761.7707539 1558337344.8569098 0 1558337344.8569098 -262541803.59703749 0 0 0 0 277025794.75128174 -311268292.38624048 0 -311268292.38624048 -726197584.51655066 0 0 0 0 -2437634.7828846984 220534.7615160495 0 220534.7615160495 162275.15696249175 0 0 0 0 -3554850914.0736389 163529991.67287195 0 163529991.67287195 453688704.05646837 0 0 0 0 -3722658146.0000458 -724364411.8778038 0 -724364411.8778038 1091396384.1591432 0 0 0 0 -5987987991.7052002 406515701.67991441 0 406515701.67991441 1217294001.0071862 0 0 0 0 -5972628984.3801088 -2226564384.7127919 0 -2226564384.7127919 1063077507.8551939 0 0 0 0 -4023775762.4908447 -798070332.94380736 0 -798070332.94380736 1075474879.7352622 0 0 0 0 -705212214.82620239 -167537062.08153468 0 -167537062.08153468 -148422565.54878682 0 0 0 0 -712147100.35590363 -166618722.54557908 0 -166618722.54557908 -47950302.824332878 0 0 0 0 -2750471508.7472687 -2217196002.4946218 0 -2217196002.4946218 -828214447.0566138 0 0 0 0 701182.3526070118 2809840.5610210057 0 2809840.5610210057 -500235.88701478316 0 0 0 0 -40373830.913909912 37168074.899867833 0 37168074.899867833 -33064034.109914064 0 0 0 0 -6916612.9550957941 2495510.6773352697 0 2495510.6773352697 556252.17813435453 0 0 0 0 -37625970.184410095 5714490.9967068434 0 5714490.9967068434 -36269749.87310791 0 0 0 0 -1172345.0080413818 11323347.14061594 0 11323347.14061594 -27505314.46732235 0 0 0 0 -26091366.098286465 5042203.1087101605 0 5042203.1087101605 2350417.9227449 0 0 0 0 -21157159.600914001 -2819085.5206249952 0 -2819085.5206249952 -15819423.02803278 0 0 0 0 -10057057.413360596 -5679146.4475238323 0 -5679146.4475238323 -19870112.280187905 0 0 0 0 -17034411.927581787 -4569025.0816709995 0 -4569025.0816709995 -11166644.195551157 0 0 0 0 -24133658.315856159 -3163845.8456055662 0 -3163845.8456055662 -918063.87104208185 0 0 0 0 -14314315.947265625 -15421964.724989593 0 -15421964.724989593 -527685.16254019737 0 0 0 0 -26150333.549770355 -101867188.51592267 0 -101867188.51592267 311737370.00561905 0 0 0 0 -35697373.463519067 -6405205.7515454059 0 -6405205.7515454059 -2571381.9447528021 0 0 0 0 -7348162.0297546387 -7280804.7478473186 0 -7280804.7478473186 -19398289.523173988 0 0 0 0 -13083927.814704895 -1587301.3970967531 0 -1587301.3970967531 -664508.80815124512 0 0 0 0 -17555331.367462158 5586501.5401220322 0 5586501.5401220322 12251338.678545058 0 0 0 0 -28508688.032300234 -8026914.6873860359 0 -8026914.6873860359 -1501039.9053884195 0 0 0 0 -13315120.286880493 -1945743.1679217815 0 -1945743.1679217815 -1220142.4864935428 0 0 0 0 -23277435.610830519 -4613086.1942766309 0 -4613086.1942766309 -6083173.2331103198 0 0 0 0 -70308576.226654053 26983080.115501404 0 26983080.115501404 76267914.745824814 0 0 0 0 -125769441.44125366 -77826192.505269527 0 -77826192.505269527 339114921.98989105 0 0 0 0 -1552537.3816130925 -568026.62733747438 0 -568026.62733747438 -110734.82540013455 0 0 0 0 -51886160.102539062 11938967.631943703 0 11938967.631943703 46660346.339725494 0 0 0 0 -32112821.551516227 -9290327.2363056876 0 -9290327.2363056876 -4620492.7793123983 0 0 0 0 -67438647.300720215 6197729.269411087 0 6197729.269411087 87822016.231069565 0 0 0 0 -31776790.446418762 39750773.382100105 0 39750773.382100105 23699609.651161194 0 0 0 0 -50777711.783401489 66776406.03451252 0 66776406.03451252 -13308983.208055496 0 0 0 0 -60976124.923370361 51173595.989229202 0 51173595.989229202 93714017.193855286 0 0 0 0 -27714790.681308746 31058708.841484785 0 31058708.841484785 41521530.593553543 0 0 0 0 -57363929.707672119 57931879.942130089 0 57931879.942130089 30927315.922954559 0 0 0 0 -82199972.639953613 101762321.17828941 0 101762321.17828941 -9595616.040014267 0 0 0 0 -50255532.440628052 83387676.367343903 0 83387676.367343903 95608609.403320312 0 0 0 0 -89612929.430784225 31913535.192140818 0 31913535.192140818 53037879.112148285 0 0 0 0 -32921601.607910156 78366562.135940552 0 78366562.135940552 -47984174.118011475 0 0 0 0 -42075009.059204102 133259918.41919804 0 133259918.41919804 -317410742.91638756 0 0 0 0 -23034872.891326904 83562644.902995586 0 83562644.902995586 -100362483.62762642 0 0 0 0 -14326217.121655658 36579612.954981461 0 36579612.954981461 -8174324.7684555054 0 0 0 0 37637876.102584839 125913857.05858994 0 125913857.05858994 8708577.4942483902 0 0 0 0 -230605538.81755066 -298355719.99535179 0 -298355719.99535179 519059490.88643742 0 0 0 0 -184061559.01420593 -17627790.373495102 0 -17627790.373495102 373419433.43790579 0 0 0 0 -311069970.77469635 -146575143.02535295 0 -146575143.02535295 -163408988.64931393 0 0 0 0 -189309202.91960907 178464801.68912554 0 178464801.68912554 -62124203.81759119 0 0 0 0 -357221510.1962204 -111487387.65549994 0 -111487387.65549994 -188571794.57941103 0 0 0 0 -381471289.20007801 -119505719.75538981 0 -119505719.75538981 65072670.347007751 0 0 0 0 -370392353.22868824 -172734767.65360826 0 -172734767.65360826 -243270726.40761757 0 0 0 0 -512863104.02848053 -319178368.80784845 0 -319178368.80784845 -101042124.50774145 0 0 0 0 -1812119.647924386 1323749.9772773981 0 1323749.9772773981 -422695.58022173424 0 0 0 0 -105003812.85843658 -495575434.44945186 0 -495575434.44945186 -782689893.87519455 0 0 0 0 -1445342.8731251657 2686448.3777635624 0 2686448.3777635624 -2380080.5356065496 0 0 0 0 -101042259.69395447 15036846.459515572 0 15036846.459515572 233612305.32895255 0 0 0 0 -258012.70624671876 50675.135357849998 0 50675.135357849998 -993849.97084093909 0 0 0 0 -185197874.89347839 -242601464.51664734 0 -242601464.51664734 140671282.47497845 0 0 0 0 27732973.093070984 8333885.0440320969 0 8333885.0440320969 2586310.6913709641 0 0 0 0 -171500804.95678711 -185167040.34684563 0 -185167040.34684563 -90362838.971120358 0 0 0 0 -280795200.47592163 -34723756.487446785 0 -34723756.487446785 25083244.409463882 0 0 0 0 -162942324.94332886 126879083.99450541 0 126879083.99450541 -29288093.167291641 0 0 0 0 -175733366.27160692 -58994620.806415513 0 -58994620.806415513 -83531293.528737068 0 0 0 0 -161140608.70762634 37050416.660137177 0 37050416.660137177 -111247020.9569006 0 0 0 0 -500804744.0672226 -212341163.8111124 0 -212341163.8111124 -34915843.346635818 0 0 0 0 -336155359.37197113 6316453.3688263893 0 6316453.3688263893 -75886712.788345814 0 0 0 0 -867568969.68260193 11647735.213133454 0 11647735.213133454 -127770531.91133332 0 0 0 0 -595764110.10467529 -577416052.99647617 0 -577416052.99647617 -683978030.28851104 0 0 0 0 -468641101.49186707 -122979584.07898903 0 -122979584.07898903 -142808706.67948747 0 0 0 0 -403633937.33355141 202447397.30641121 0 202447397.30641121 -51950608.595694542 0 0 0 0 -182577431.87532043 187720087.51617265 0 187720087.51617265 -228742917.95524693 0 0 0 0 -410913542.04214478 -271306128.53509295 0 -271306128.53509295 -152020562.89476109 0 0 0 0 -976262.49576225877 558503.71608262137 0 558503.71608262137 -178502.86445356905 0 0 0 0 -306104776.37256622 -206764469.10583699 0 -206764469.10583699 -209955030.36951429 0 0 0 0 -1217683369.5528488 -1211712261.491087 0 -1211712261.491087 -1010815446.4601791 0 0 0 0 -2289564140.6420822 -1080837519.4962661 0 -1080837519.4962661 -521600403.98515546 0 0 0 0 -990800953.73155212 -1427962149.1944618 0 -1427962149.1944618 -1039552633.2359167 0 0 0 0 -1018437362.4610748 -762313537.04753101 0 -762313537.04753101 -461240802.04145885 0 0 0 0 -757889387.25416183 -953323680.52472925 0 -953323680.52472925 -307982145.54266024 0 0 0 0 -895350990.23588562 -674149844.54588342 0 -674149844.54588342 -813140978.11060655 0 0 0 0 -193168908.57189178 206671699.61079597 0 206671699.61079597 -571580716.87248039 0 0 0 0 -614593892.772995 -489697460.33954978 0 -489697460.33954978 -195967375.36395502 0 0 0 0 -1283051.6961073577 1067603.4410026781 0 1067603.4410026781 121502.29853167571 0 0 0 0 -582256911.09580231 -635815763.22315168 0 -635815763.22315168 -414766089.00021774 0 0 0 0 602189170.64263916 217428657.85266542 0 217428657.85266542 -801028627.22500992 0 0 0 0 322090065.54644775 274458067.82882214 0 274458067.82882214 -697975135.11999178 0 0 0 0 -1411223427.4196472 -3241101017.2926898 0 -3241101017.2926898 -5260757740.2625504 0 0 0 0 -260666723.65699768 -424644103.42084551 0 -424644103.42084551 -1251337612.0947876 0 0 0 0 -1485271007.4088211 -2342383571.6867533 0 -2342383571.6867533 -2217871852.3054628 0 0 0 0 -3706829380.2684784 -2470973712.4524813 0 -2470973712.4524813 -199571838.32731295 0 0 0 0 -5971988297.2012253 -3667603473.5633616 0 -3667603473.5633616 -798625581.90104771 0 0 0 0 -5986884942.4530258 -2047191324.4003582 0 -2047191324.4003582 543335599.13355207 0 0 0 0 -3577853678.6232758 -1894811555.9921167 0 -1894811555.9921167 -398411313.65065765 0 0 0 0 -2729380440.1356506 -1858614820.7480323 0 -1858614820.7480323 -459714007.42103302 0 0 0 0 -4271397167.2709122 -1168338477.4521599 0 -1168338477.4521599 540884360.82081592 0 0 0 0 -5982502706.3065948 42756597.487099469 0 42756597.487099469 1048949385.4655104 0 0 0 0 -3809467663.2141724 -937742692.09801984 0 -937742692.09801984 531789178.32818049 0 0 0 0 -3338001861.0210915 -171804875.5029363 0 -171804875.5029363 267475402.48362088 0 0 0 0 -3030432555.0915375 -151319638.84625614 0 -151319638.84625614 265235909.63592175 0 0 0 0 -3338991219.4947128 442824396.74906433 0 442824396.74906433 1092406535.9595289 0 0 0 0 -1188082590.5425758 -442271156.91859549 0 -442271156.91859549 -724711213.04592526 0 0 0 0 -1871229101.7591248 -950828456.77729845 0 -950828456.77729845 -498786887.1230548 0 0 0 0 -2189069501.9589005 599945594.7314353 0 599945594.7314353 177174378.73959136 0 0 0 0 -754742970.79374695 -452114741.68288505 0 -452114741.68288505 -729408871.55576515 0 0 0 0 -259495958.32002497 -1034787595.8173333 0 -1034787595.8173333 766872526.65237904 0 0 0 0 -461927071.20249462 468824922.71211439 0 468824922.71211439 -73876033.166758776 0 0 0 0 -1358173260.319313 2586244.8019333482 0 2586244.8019333482 636593578.59375024 0 0 0 0 -5984493690.8217239 1304610497.1424801 0 1304610497.1424801 1226631487.1614456 0 0 0 0 -2054591930.2829399 2189603453.8975711 0 2189603453.8975711 -679393072.605299 0 0 0 0 -3236387437.7370911 1348067553.4030797 0 1348067553.4030797 917821723.28213358 0 0 0 0 -5976274234.5680923 3473486049.5663748 0 3473486049.5663748 -150564354.76178393 0 0 0 0 -156193440.52853394 3018015435.7589893 0 3018015435.7589893 -4867684934.3931084 0 0 0 0 -3134050.5973626673 630171.42481462285 0 630171.42481462285 -1469439.9996256894 0 0 0 0 -5958796623.118988 120235.76587268927 0 120235.76587268927 3566283.079333432 0 0 0 0 -138489722.66648865 -3001127544.1238976 0 -3001127544.1238976 -3755136207.8211398 0 0 0 0 -8940893.1422509067 3898456.7482184852 0 3898456.7482184852 -1303456.9042964752 0 0 0 0 93539826.876571655 -6384489.3874540329 0 -6384489.3874540329 -1264735.2823303342 0 0 0 0 96130394.698287964 38434718.483796597 0 38434718.483796597 332274.47043526173 0 0 0 0 -544734780.53271484 471914978.7860536 0 471914978.7860536 -542732253.03940904 0 0 0 0 -15137454.193018742 4066070.4353063218 0 4066070.4353063218 -1495085.2905114929 0 0 0 0 -5788150.5063527301 4805264.9771734476 0 4805264.9771734476 -100717.10548276873 0 0 0 0 -1741762073.7125664 757033098.23290682 0 757033098.23290682 -265597278.5615617 0 0 0 0 -5832617.27913405 -1276507.5685126707 0 -1276507.5685126707 -2704697.2498657266 0 0 0 0 358488476.48220825 -210661298.32913685 0 -210661298.32913685 68341598.189155579 0 0 0 0 450160822.42369461 -84406619.484548569 0 -84406619.484548569 -297789974.46570873 0 0 0 0 347650232.54904175 70168391.695279121 0 70168391.695279121 -124429475.58340693 0 0 0 0 96509404.784057617 36131045.193085432 0 36131045.193085432 -58597329.202705681 0 0 0 0 92336144.232221603 -14940346.901945353 0 -14940346.901945353 -61365528.090878487 0 0 0 0 -16438241.773304105 4102675.6244330965 0 4102675.6244330965 -870303.817868429 0 0 0 0 -237900492.26329803 601308754.87772715 0 601308754.87772715 -130545308.90887535 0 0 0 0 289398063.89640236 193661507.97900659 0 193661507.97900659 67304065.893394709 0 0 0 0 253259377.15834045 277797021.48146451 0 277797021.48146451 285304311.1645031 0 0 0 0 308028884.55825233 152256515.24315318 0 152256515.24315318 -187393438.26078939 0 0 0 0 307642308.40209961 590454322.22841239 0 590454322.22841239 335840863.08721375 0 0 0 0 -16928746.157703947 1901179.2007259279 0 1901179.2007259279 328588.94259274757 0 0 0 0 260799674.77641296 -155415953.65293682 0 -155415953.65293682 -299120098.80935645 0 0 0 0 -5082368221.96521 -434852416.26297367 0 -434852416.26297367 521025804.58625126 0 0 0 0 -905827044.45923615 440519659.75158012 0 440519659.75158012 231987712.56675351 0 0 0 0 -4660410129.9800949 -2284686628.1250467 0 -2284686628.1250467 -647665371.42422915 0 0 0 0 -5977061254.9620934 -2753893157.1167359 0 -2753893157.1167359 491611505.88913113 0 0 0 0 -2506365328.5995636 -4128005657.7830591 0 -4128005657.7830591 -2140176623.4449711 0 0 0 0 -3482426982.3574715 -1019401374.5196108 0 -1019401374.5196108 126576037.59432068 0 0 0 0 -425189871.55365753 -1052048180.8933802 0 -1052048180.8933802 -288367702.12001592 0 0 0 0 -368184431.84751892 352851260.95922828 0 352851260.95922828 -786481431.52907026 0 0 0 0 -1029261513.4704323 297493455.43112636 0 297493455.43112636 93055113.648409128 0 0 0 0 -390871698.3165741 213028539.09596366 0 213028539.09596366 -33055127.361652613 0 0 0 0 -806340532.71393967 -496210097.11602181 0 -496210097.11602181 -192359156.6051445 0 0 0 0 -1820688461.2342377 71574113.52393955 0 71574113.52393955 -493487749.96611369 0 0 0 0 -111655527.77893066 -117652490.91638547 0 -117652490.91638547 -78583291.708871722 0 0 0 0 -638802242.04398346 132216474.64545012 0 132216474.64545012 665207079.03565693 0 0 0 0 -315247941.83416748 110844127.96564054 0 110844127.96564054 141846851.82977211 0 0 0 0 -187237494.22120667 450543519.18992037 0 450543519.18992037 -32062319.159723997 0 0 0 0 -459578755.9930191 327521380.35866636 0 327521380.35866636 508513844.92764902 0 0 0 0 -192676713.30410767 211058866.70099115 0 211058866.70099115 550890401.92952466 0 0 0 0 -49296675.059997559 419022432.54250622 0 419022432.54250622 427975381.06550777 0 0 0 0 -109061880.16036987 401901588.864393 0 401901588.864393 650690084.52111816 0 0 0 0 70642613.370407104 289874587.20961827 0 289874587.20961827 475247269.52863097 0 0 0 0 -4826141.7028503418 464917945.11839104 0 464917945.11839104 497940511.58257788 0 0 0 0 -44910217.148712158 499676600.52940416 0 499676600.52940416 136045653.47346258 0 0 0 0 -200218275.35314941 326268217.0164243 0 326268217.0164243 428660716.70809776 0 0 0 0 407498036.22489929 273403656.59350789 0 273403656.59350789 385892137.02300048 0 0 0 0 196763481.2440834 494778857.8886317 0 494778857.8886317 158213966.89375055 0 0 0 0 288000312.55097198 228659683.3027997 0 228659683.3027997 -331287192.85673809 0 0 0 0 43539313.954650879 407077941.5685246 0 407077941.5685246 174244182.01776648 0 0 0 0 -133542753.98791885 482191369.71061206 0 482191369.71061206 -346514057.43357134 0 0 0 0 34134887.414764404 233380944.68882847 0 233380944.68882847 -16254594.795652628 0 0 0 0 -68415952.030677795 -16636180.087742805 0 -16636180.087742805 -640066999.42924809 0 0 0 0 27298562.581588745 269957697.72540402 0 269957697.72540402 -301612586.74961948 0 0 0 0 352718498.89746857 92583746.225846767 0 92583746.225846767 -655623785.79808664 0 0 0 0 259430742.84365082 -37044103.802445412 0 -37044103.802445412 -13702648.944400787 0 0 0 0 96627792.136940002 -303072468.99488735 0 -303072468.99488735 -404118168.17455053 0 0 0 0 -104821831.44702911 59399543.443921328 0 59399543.443921328 -643441176.96936893 0 0 0 0 -1255753234.8488007 -254142030.11861801 0 -254142030.11861801 -1217319884.3457012 0 0 0 0 -1068596505.967247 -545793261.14731383 0 -545793261.14731383 -834102959.07706833 0 0 0 0 -2113389672.4305573 -1159332462.1141768 0 -1159332462.1141768 -691675076.96576166 0 0 0 0 -300274570.4226265 260494876.57106471 0 260494876.57106471 -943380985.77543879 0 0 0 0 -1055317966.2844849 -122839187.57301807 0 -122839187.57301807 -643407081.96713507 0 0 0 0 -1677601416.1636429 -1514181801.765389 0 -1514181801.765389 -3822424139.6159286 0 0 0 0 -2039092864.5861816 -846681275.34371567 0 -846681275.34371567 -1090247632.3962402 0 0 0 0 -809489479.88721085 -548606661.75377476 0 -548606661.75377476 -1886664268.8067484 0 0 0 0 -3445719592.1750031 -2370811199.5487576 0 -2370811199.5487576 -1060271207.7802773 0 0 0 0 -1739999018.546402 -1131370881.5159807 0 -1131370881.5159807 -1572598916.2977304 0 0 0 0 -3586997512.9785461 -813029440.38819313 0 -813029440.38819313 -909491992.01865959 0 0 0 0 -3954418554.2958107 -2023411818.353992 0 -2023411818.353992 490140002.31393051 0 0 0 0 -75715.355095334351 -1001485.2559469417 0 -1001485.2559469417 -3443890.0573853562 0 0 0 0 -218375383.93942261 -661542629.58473969 0 -661542629.58473969 -1462667809.5343876 0 0 0 0 -3715696561.1660233 -300024147.2234838 0 -300024147.2234838 252351815.72251034 0 0 0 0 -2200755952.2942753 68119021.189367712 0 68119021.189367712 341222749.29867077 0 0 0 0 -2326070207.9658203 -1137390464.6632509 0 -1137390464.6632509 -133948808.23004961 0 0 0 0 -3110038413.8572159 -1726366197.9036436 0 -1726366197.9036436 -554274957.79685211 0 0 0 0 -2181427029.3861084 -861087284.92774582 0 -861087284.92774582 -1521459085.2353449 0 0 0 0 -1288151986.7426376 -703564256.56664109 0 -703564256.56664109 -481639952.13665152 0 0 0 0 -2319539242.4325891 -1228214186.9453549 0 -1228214186.9453549 374194814.63298607 0 0 0 0 -2164810123.2862091 -1595579647.7814002 0 -1595579647.7814002 -350099740.76053023 0 0 0 0 -2427695587.3388748 -1578078367.7037675 0 -1578078367.7037675 193818496.9849374 0 0 0 0 -1880950238.4405823 -787131553.82284641 0 -787131553.82284641 89678172.06656456 0 0 0 0 -807721392.06708527 -307983622.69513047 0 -307983622.69513047 -46937065.251562595 0 0 0 0 -452934538.88031006 -112503057.36016941 0 -112503057.36016941 13965132.533867836 0 0 0 0 -1673389975.8283997 -1007909674.551455 0 -1007909674.551455 277841450.11079884 0 0 0 0 -2504954413.2220917 -1318441693.3629847 0 -1318441693.3629847 237832755.17942619 0 0 0 0 -5851918.6492159739 -3845133.9792170525 0 -3845133.9792170525 -3230460.5827241074 0 0 0 0 542331834.75478363 -895397265.18381357 0 -895397265.18381357 307379041.4845376 0 0 0 0 205317251.37983704 118884997.53164887 0 118884997.53164887 99974706.149044991 0 0 0 0 -1283379408.634613 -741385850.82894945 0 -741385850.82894945 -297397302.49996924 0 0 0 0 -2161400300.4046021 -698224039.33826792 0 -698224039.33826792 1072261806.0411667 0 0 0 0 -2759217.6202057898 -2137095.7771974951 0 -2137095.7771974951 -1598761.0784796674 0 0 0 0 -511436730.23861694 77828879.270825386 0 77828879.270825386 141793560.59609571 0 0 0 0 623761985.14710236 -1060686301.8394644 0 -1060686301.8394644 -1394275946.9524541 0 0 0 0 -1352512897.4123535 -1367727904.9378195 0 -1367727904.9378195 -1103471830.6539676 0 0 0 0 -482112083.63256454 -1068311753.7062602 0 -1068311753.7062602 -1176295714.2984653 0 0 0 0 -978217343.00613403 -327445634.8975029 0 -327445634.8975029 -170660230.9772253 0 0 0 0 -550429839.9848938 -458123642.13162994 0 -458123642.13162994 -147104891.29448664 0 0 0 0 -42845663.334594727 -152621747.07619476 0 -152621747.07619476 -285248356.04167318 0 0 0 0 -1489863300.3906784 -160490470.09086776 0 -160490470.09086776 -411741863.80460882 0 0 0 0 -1399148703.5598145 -1194965566.0387876 0 -1194965566.0387876 -985592015.13657832 0 0 0 0 -832707743.14520264 -333693672.22112823 0 -333693672.22112823 -961243746.28239202 0 0 0 0 -1882621396.913147 -1003118677.9714435 0 -1003118677.9714435 -484624912.39028978 0 0 0 0 -749211843.85630798 -364271409.50705945 0 -364271409.50705945 -519276701.84426928 0 0 0 0 -651172351.20083046 86317561.84293443 0 86317561.84293443 -104658113.01704502 0 0 0 0 -275547791.32765198 -122346178.61558461 0 -122346178.61558461 -454534256.12750387 0 0 0 0 -399479867.07722473 -72119591.725678205 0 -72119591.725678205 -134032046.72453833 0 0 0 0 -36277476.760986328 -51773589.869346619 0 -51773589.869346619 72377651.656845331 0 0 0 0 -138001853.42878723 137026099.99287748 0 137026099.99287748 -166092365.21895123 0 0 0 0 162951596.90935516 -188253.64406812191 0 -188253.64406812191 76844985.486111641 0 0 0 0 727495408.18734741 -171668683.45449591 0 -171668683.45449591 14799252.541294098 0 0 0 0 233384420.39657593 -55515546.622858524 0 -55515546.622858524 179107763.40327835 0 0 0 0 754603943.95379639 180948744.58363056 0 180948744.58363056 119535610.21221542 0 0 0 0 206266746.80488968 124542283.09238172 0 124542283.09238172 63805256.051793098 0 0 0 0 300222916.43518066 -189285606.49898052 0 -189285606.49898052 -21762152.827667475 0 0 0 0 272807345.90887833 -27005331.940736115 0 -27005331.940736115 351802146.78683758 0 0 0 0 -237464290.71768188 -266064537.5641377 0 -266064537.5641377 10903690.430098414 0 0 0 0 541253734.86427307 -2369163.9830127954 0 -2369163.9830127954 -321569545.29985571 0 0 0 0 92789272.856079102 -375304018.42323875 0 -375304018.42323875 -258553497.36455607 0 0 0 0 -1624385.723301094 -3569849.4386333488 0 -3569849.4386333488 -7594096.675874969 0 0 0 0 -76826473.099784851 -51862960.320336342 0 -51862960.320336342 55671345.800930023 0 0 0 0 601684670.83015442 -334684346.3332392 0 -334684346.3332392 -170543326.01915789 0 0 0 0 -7917894.9034448676 -3464168.8503060415 0 -3464168.8503060415 -2386735.0792512354 0 0 0 0 4146230.0923309326 -1116763.0638399124 0 -1116763.0638399124 -2798485.2206058502 0 0 0 0 -7401439.9782446027 3650488.5043706782 0 3650488.5043706782 -5299374.2491704281 0 0 0 0 -4241087.1401930153 2907128.3001425993 0 2907128.3001425993 -4165949.2750287354 0 0 0 0 2531697.609528631 -5570108.5759284757 0 -5570108.5759284757 -2142312.7651034482 0 0 0 0 -8423111.2485629991 4005830.0563512519 0 4005830.0563512519 -7304843.4631023929 0 0 0 0 -9621224.4063873291 -5325198.7572045326 0 -5325198.7572045326 9626196.0192461014 0 0 0 0 1546182.4676437378 -26375587.369278312 0 -26375587.369278312 20128917.746081829 0 0 0 0 -1130585.0016937414 -2141792.4988071546 0 -2141792.4988071546 873415.85576843726 0 0 0 0 1098959010.2872009 -66818529.614382505 0 -66818529.614382505 -100697334.69514942 0 0 0 0 -16880105.878311157 12677239.729765892 0 12677239.729765892 -2535794.4256362915 0 0 0 0 -14564429.909927368 8133431.6087703705 0 8133431.6087703705 -5369333.9022741318 0 0 0 0 2606026.7198028564 14737280.24072361 0 14737280.24072361 -6694643.7440719604 0 0 0 0 -7621493.7983856201 13768566.916715622 0 13768566.916715622 -2303075.0517196655 0 0 0 0 -7911829.2549743652 12872314.367031574 0 12872314.367031574 -2879224.6990661621 0 0 0 0 -2392295.6342468262 11249962.287109375 0 11249962.287109375 -7963220.998374939 0 0 0 0 -4537518.4969329834 16252033.903820038 0 16252033.903820038 -3911913.5432853699 0 0 0 0 -4557851.958694458 18012565.365674973 0 18012565.365674973 -51496.996757507324 0 0 0 0 -8372573.3768234253 12434491.00300312 0 12434491.00300312 -3078896.7523269653 0 0 0 0 -8947547.8761901855 13117908.848487854 0 13117908.848487854 -2492420.1232204437 0 0 0 0 -9384118.3977966309 13772876.740629196 0 13772876.740629196 -797132.17137908936 0 0 0 0 -9804795.3423156738 14175090.696750641 0 14175090.696750641 273164.97111344337 0 0 0 0 -14443555.775238037 10162020.953990936 0 10162020.953990936 -3613047.4529314041 0 0 0 0 1635425.2333374023 7187957.469871521 0 7187957.469871521 5628742.8437232971 0 0 0 0 -15597784.399963379 10561229.337963104 0 10561229.337963104 -726887.56086158752 0 0 0 0 -15060243.027572632 10013857.786594391 0 10013857.786594391 -541597.87526702881 0 0 0 0 -13271503.263443924 3378650.483550746 0 3378650.483550746 -3239167.0177799854 0 0 0 0 -18381364.231369019 8400439.0043811798 0 8400439.0043811798 -1047101.3876905441 0 0 0 0 455810.54810333252 8352512.9312582016 0 8352512.9312582016 8012249.4296722412 0 0 0 0 -15728071.17390202 7989242.5052696038 0 7989242.5052696038 -4816102.6977581438 0 0 0 0 -8924549.9824066162 31480626.890550613 0 31480626.890550613 12600518.076378584 0 0 0 0 -8118499.7366418391 15595994.10419469 0 15595994.10419469 -5165564.8927399479 0 0 0 0 -32456491.105705261 -32730906.48371315 0 -32730906.48371315 -13253841.101799965 0 0 0 0 -10559059.077774048 18103692.649656296 0 18103692.649656296 -2582304.1504325867 0 0 0 0 -19626824.199386597 13950916.143539429 0 13950916.143539429 23442.864414215088 0 0 0 0 -75075561.877502441 -17665752.931091309 0 -17665752.931091309 -27689068.77355957 0 0 0 0 -27879782.486051038 4186722.3247186132 0 4186722.3247186132 2640339.8777012359 0 0 0 0 -77004891.479574203 16482216.211131096 0 16482216.211131096 -587246.12718582153 0 0 0 0 -6898578.201938726 -5263913.3435201291 0 -5263913.3435201291 -2150582.3482249323 0 0 0 0 -25726764.423370361 3477773.8251533508 0 3477773.8251533508 3421001.3861656189 0 0 0 0 18692432.644851685 -55460626.921104431 0 -55460626.921104431 -16191565.472211838 0 0 0 0 -9438914.224861145 -1444552.9821546078 0 -1444552.9821546078 -2801199.6279029846 0 0 0 0 -12164077.653686523 -10598852.847459793 0 -10598852.847459793 -11167713.724615097 0 0 0 0 -5502943.1371986233 -202885.22412676737 0 -202885.22412676737 3277857.0057224166 0 0 0 0 -4463814.218536377 4564289.6976528168 0 4564289.6976528168 -11785596.305870295 0 0 0 0 -9804136.1717300415 -4113354.7692546844 0 -4113354.7692546844 10195082.560630798 0 0 0 0 -2814001.9749603271 -2353363.0035543442 0 -2353363.0035543442 -2701661.1298494339 0 0 0 0 -6601352.5690194489 -79087.492763731629 0 -79087.492763731629 -3626280.2526962701 0 0 0 0 -5979979.5802536011 -3300072.4327692986 0 -3300072.4327692986 -1570758.8886871338 0 0 0 0 -33232225.821731567 15242045.666697979 0 15242045.666697979 -9279923.912322998 0 0 0 0 -23588512.41619873 -5661682.544921875 0 -5661682.544921875 -2048747.1383018494 0 0 0 0 -330948.26446533203 995492.20534515381 0 995492.20534515381 -7255274.5066299438 0 0 0 0 547080.02975463867 -2487838.7790374756 0 -2487838.7790374756 1033060.4442488551 0 0 0 0 -1289995.3695547134 -4057054.5970456284 0 -4057054.5970456284 -4816613.8111915644 0 0 0 0 -265538960.03970337 -466815471.24808955 0 -466815471.24808955 334282749.75860023 0 0 0 0 517817.37523169816 -2152682.5830509327 0 -2152682.5830509327 -8713032.4778653346 0 0 0 0 391328178.24295044 -476673015.41781998 0 -476673015.41781998 73715576.350998878 0 0 0 0 -135148241.23468018 42785524.718532324 0 42785524.718532324 150126455.09647322 0 0 0 0 -6601418.9127439447 -1010216.5528763086 0 -1010216.5528763086 -740455.0394884441 0 0 0 0 -4352577.9630428292 -3852267.5752675887 0 -3852267.5752675887 -5735617.5274694515 0 0 0 0 -4106111.6918487549 -1461548.7427692413 0 -1461548.7427692413 -7280325.73777771 0 0 0 0 -4435277.8208678514 -2598899.07259773 0 -2598899.07259773 -5417144.1332543185 0 0 0 0 -2070645.7501831055 -1779212.188205719 0 -1779212.188205719 -2713791.6490921974 0 0 0 0 -3937737.2454833984 -1997498.7185707092 0 -1997498.7185707092 -2585701.5609207153 0 0 0 0 -360786098.2794342 105253891.61663008 0 105253891.61663008 20773248.897861481 0 0 0 0 -351658013.29092407 49784953.35068512 0 49784953.35068512 350247348.21802139 0 0 0 0 -271531088.37747955 268932645.25646877 0 268932645.25646877 -256278430.30220795 0 0 0 0 -57452183.361038208 46184283.229128838 0 46184283.229128838 -46400281.518314362 0 0 0 0 -21337136.322692871 141390509.34962845 0 141390509.34962845 -24753377.425488472 0 0 0 0 -20986110.084396362 101961516.59585857 0 101961516.59585857 144322271.68821716 0 0 0 0 49032560.740890503 61793323.773571014 0 61793323.773571014 14783750.494033813 0 0 0 0 25419388.331558228 112659339.05832291 0 112659339.05832291 28254712.773075581 0 0 0 0 -2333142.2585449219 119355254.7384119 0 119355254.7384119 -49687385.478797913 0 0 0 0 -16333735.150584366 16684397.961987447 0 16684397.961987447 -8168787.6067583598 0 0 0 0 94320427.981170654 98124039.750102997 0 98124039.750102997 -14288427.06385994 0 0 0 0 72691694.000379562 34778414.656933546 0 34778414.656933546 -6831723.7768173218 0 0 0 0 4559201.1428184509 24690429.379086018 0 24690429.379086018 307522.62497329712 0 0 0 0 -20359859.075582203 15206127.597764257 0 15206127.597764257 -3083945.854655847 0 0 0 0 -4606398.7001190186 16144788.552539825 0 16144788.552539825 -542575.15527963638 0 0 0 0 2202039.4107666016 23579428.236078262 0 23579428.236078262 -391862.27730941772 0 0 0 0 -1443184.5418319702 19687103.221599579 0 19687103.221599579 -9848087.2763595581 0 0 0 0 -11106505.535784706 17118840.637947593 0 17118840.637947593 -4348954.330819306 0 0 0 0 -27175974.20072937 5593588.5321540833 0 5593588.5321540833 11641059.735563755 0 0 0 0 2774891.0276107788 61826257.168972015 0 61826257.168972015 -23835245.603485107 0 0 0 0 -28829206.032074042 14367163.098650992 0 14367163.098650992 -1905802.4085861482 0 0 0 0 -1798061.601168707 15564863.027018566 0 15564863.027018566 -1329528.425981133 0 0 0 0 -386935.37665091455 2920936.5993325701 0 2920936.5993325701 -628210.64513355028 0 0 0 0 -34684312.555953979 16986147.597938061 0 16986147.597938061 -11451457.617385864 0 0 0 0 -112922636.42941284 96120056.987482071 0 96120056.987482071 7859420.0381858349 0 0 0 0 -425221042.68251038 85645488.187004089 0 85645488.187004089 92825236.191738129 0 0 0 0 -307852908.50968933 52910656.118345261 0 52910656.118345261 94093085.761089325 0 0 0 0 -332766985.39421082 82427384.151515961 0 82427384.151515961 67719748.955776215 0 0 0 0 -257883584.36164856 200376599.63491058 0 200376599.63491058 -116200352.16893387 0 0 0 0 -122740761.3338089 970487.56298589706 0 970487.56298589706 -62604790.1926651 0 0 0 0 -267067400.91271973 -80063050.626102448 0 -80063050.626102448 -91521034.478872299 0 0 0 0 -366707799.33435059 -98743090.42401886 0 -98743090.42401886 -30466002.29044342 0 0 0 0 -365473247.28439713 -93155527.116257906 0 -93155527.116257906 -24978264.05279541 0 0 0 0 -190636264.29452515 -43894494.053112984 0 -43894494.053112984 45232703.32264328 0 0 0 0 -8706247.6347768977 624641.39871218055 0 624641.39871218055 621900.77877799049 0 0 0 0 -286701924.36032867 7899749.6500947475 0 7899749.6500947475 65798456.200054169 0 0 0 0 -281483547.9354248 -39321723.920701981 0 -39321723.920701981 7194164.4357147217 0 0 0 0 -388870453.99970245 -33820095.078493118 0 -33820095.078493118 72560455.690036774 0 0 0 0 -242219520.76729584 -16636704.365006924 0 -16636704.365006924 60301606.892913818 0 0 0 0 -311061338.3664856 -11607859.049589157 0 -11607859.049589157 78824937.088447571 0 0 0 0 -315439747.22814941 -18364614.675587177 0 -18364614.675587177 74748033.339309692 0 0 0 0 -414427426.21594238 33121411.590557098 0 33121411.590557098 106581929.17649841 0 0 0 0 -15821552.201797485 -319256.93308353424 0 -319256.93308353424 16104079.15259552 0 0 0 0 -34211664.180390045 13301333.824944593 0 13301333.824944593 1049739.3097526915 0 0 0 0 -20777989.331606377 16512186.177667936 0 16512186.177667936 -5174811.1507790964 0 0 0 0 -47032597.211984776 11918204.707113974 0 11918204.707113974 6270076.603850143 0 0 0 0 -7077849.1453857422 33261092.552613258 0 33261092.552613258 20321162.628067017 0 0 0 0 -118222032.67802048 368415620.83356476 0 368415620.83356476 135056746.67527294 0 0 0 0 -655465885.75738144 -285941878.09220219 0 -285941878.09220219 -80259005.391100645 0 0 0 0 283198678.95159149 13057040.189925194 0 13057040.189925194 160561896.78495932 0 0 0 0 -274330587.01244354 -344143812.9349041 0 -344143812.9349041 115100040.77691269 0 0 0 0 250322811.81934738 -57866978.27402401 0 -57866978.27402401 -202443792.7339797 0 0 0 0 -12097040.095550537 38865125.187137604 0 38865125.187137604 15793644.742749929 0 0 0 0 -313162036.30934143 156983982.20055389 0 156983982.20055389 222253640.19133377 0 0 0 0 -27824086.346117955 10051544.433473673 0 10051544.433473673 1699664.1926227994 0 0 0 0 -842028.66619950533 -2186198.6793256854 0 -2186198.6793256854 74927.969150392106 0 0 0 0 9801161.2169952393 -136987557.48395061 0 -136987557.48395061 -3414213.3828005493 0 0 0 0 -12164565.840988159 -7490797.0674362183 0 -7490797.0674362183 -103952753.38220215 0 0 0 0 -80380216.991210938 3794670.0394287109 0 3794670.0394287109 8995111.3723907471 0 0 0 0 -3411912.5568069145 -5767682.5788139328 0 -5767682.5788139328 1644266.5664515281 0 0 0 0 78979630.242418289 18284515.339790821 0 18284515.339790821 140384400.1403656 0 0 0 0 109935780.11394501 384682293.55034447 0 384682293.55034447 327636116.11365509 0 0 0 0 -9442992.9184243549 -1450306.6323355064 0 -1450306.6323355064 3906743.1076044403 0 0 0 0 -374653855.73243713 -91058851.341090202 0 -91058851.341090202 -17028592.162097931 0 0 0 0 -691892748.23472977 -136946559.32853991 0 -136946559.32853991 -98009193.951950669 0 0 0 0 -120147804.74531937 -180820893.51777744 0 -180820893.51777744 -222038209.076828 0 0 0 0 -263680302.45288944 213920442.30580604 0 213920442.30580604 143311622.55602074 0 0 0 0 -325899912.17728043 -222055263.2149193 0 -222055263.2149193 -591014018.92986071 0 0 0 0 -1116194550.5475655 -712507653.00838327 0 -712507653.00838327 -415025179.27834302 0 0 0 0 -382738846.81207657 -293084406.83841014 0 -293084406.83841014 -327063204.87416482 0 0 0 0 -426532966.32523441 47765788.464972973 0 47765788.464972973 -2551959.723007679 0 0 0 0 -208436829.19198418 310833594.06292939 0 310833594.06292939 227267418.11742592 0 0 0 0 67633232.590126038 93950744.448608398 0 93950744.448608398 -151591429.35654259 0 0 0 0 271617280.46957797 579027647.59152889 0 579027647.59152889 144411166.54108047 0 0 0 0 -3596371.1676529162 -339458.45173962694 0 -339458.45173962694 1821977.2543644425 0 0 0 0 -112586088.86668396 59931954.057769775 0 59931954.057769775 218525942.81791973 0 0 0 0 -367754609.39508438 312202744.32988381 0 312202744.32988381 21430082.613336563 0 0 0 0 361619225.16530991 49251937.399350166 0 49251937.399350166 -58050391.569612503 0 0 0 0 56599718.443393707 14653557.262854338 0 14653557.262854338 22932870.570365906 0 0 0 0 3609996.4806175232 129881018.64523244 0 129881018.64523244 -168467469.13704777 0 0 0 0 -127161920.72525024 34760039.196304321 0 34760039.196304321 -37971744.830635667 0 0 0 0 -250023207.21735001 179815312.46098876 0 179815312.46098876 -161202730.67360973 0 0 0 0 -55996924.101829529 36241386.764198065 0 36241386.764198065 -340512303.83142734 0 0 0 0 -1495512.0844942573 70350.781448693946 0 70350.781448693946 917845.68110023742 0 0 0 0 -183918453.64181519 -224540339.11608112 0 -224540339.11608112 -159340589.8512913 0 0 0 0 89418902.40411377 -74079168.549054772 0 -74079168.549054772 -94512867.140920445 0 0 0 0 -160125867.32080841 -47275572.229028821 0 -47275572.229028821 10761285.911511421 0 0 0 0 55012464.944871902 60172044.70317471 0 60172044.70317471 -52101519.407800674 0 0 0 0 -28580789.473140717 -62254247.410653114 0 -62254247.410653114 -74988371.113883972 0 0 0 0 128732702.34380341 14583991.630692482 0 14583991.630692482 -63223211.591264009 0 0 0 0 298331820.61382675 136815869.62914658 0 136815869.62914658 -12703838.836433411 0 0 0 0 164408346.11153793 -77212573.323176622 0 -77212573.323176622 -56247434.930617094 0 0 0 0 70892088.662984848 4666110.7930616438 0 4666110.7930616438 111202839.7898612 0 0 0 0 223530987.88129425 143494024.37386572 0 143494024.37386572 45314823.148470879 0 0 0 0 -1759746.5280690528 2254996.4629746727 0 2254996.4629746727 559747.39663202292 0 0 0 0 -14545481.197441101 -866545.09542560577 0 -866545.09542560577 1144801.8574676514 0 0 0 0 -30286549.087239247 9843518.298700694 0 9843518.298700694 -7005214.1733919661 0 0 0 0 -26825489.20931479 4243605.9877196047 0 4243605.9877196047 -3659890.166129611 0 0 0 0 -20427148.544847853 -4165449.7980557084 0 -4165449.7980557084 697190.43179073557 0 0 0 0 305483042.21749878 81165691.777254105 0 81165691.777254105 -66350135.637682915 0 0 0 0 419711444.39550018 1768767.7339890003 0 1768767.7339890003 -13360558.783037186 0 0 0 0 -4949638.5765361786 9127784.6512463093 0 9127784.6512463093 7187589.5901985168 0 0 0 0 254149705.47103119 118126089.11248016 0 118126089.11248016 -105293404.31653857 0 0 0 0 265178540.19153595 73063154.658942699 0 73063154.658942699 46328328.380653381 0 0 0 0 -2320660.1173706055 7394258.4183235168 0 7394258.4183235168 5549224.1641082764 0 0 0 0 408293849.90756989 239775904.61505508 0 239775904.61505508 -1733563.7527828217 0 0 0 0 -32352452.667586774 12043073.117038947 0 12043073.117038947 -3738408.8390300358 0 0 0 0 -33559578.903872572 12164489.302614253 0 12164489.302614253 475489.53971649893 0 0 0 0 -320941609.75891113 -156189814.95710278 0 -156189814.95710278 -198739000.46784973 0 0 0 0 -35035358.651275486 1476283.2818857506 0 1476283.2818857506 3377502.6609209087 0 0 0 0 -175329772.98829651 -870909288.18834496 0 -870909288.18834496 -1043816824.4883976 0 0 0 0 -17507806.272777557 -836290188.71477699 0 -836290188.71477699 -1348708179.6018963 0 0 0 0 -699425394.58898163 -2203590541.9605899 0 -2203590541.9605899 -3366822360.8761578 0 0 0 0 -3725412618.5865326 -704527071.1598525 0 -704527071.1598525 -1099653765.1131287 0 0 0 0 305628474.1566391 161487951.25645065 0 161487951.25645065 -1525569014.8731403 0 0 0 0 204976.66580279451 -171947.03269227967 0 -171947.03269227967 -5095677.8133089459 0 0 0 0 -4069066961.4872551 -745621383.95705891 0 -745621383.95705891 -143471922.32963181 0 0 0 0 312280.16189040989 -818925.55690272339 0 -818925.55690272339 -352475.49860078027 0 0 0 0 -6411495.5526097491 -7711352.1964284405 0 -7711352.1964284405 235423.57368639647 0 0 0 0 -5540719.5608673096 373013.90325832367 0 373013.90325832367 3225412.3062458038 0 0 0 0 -429366897.93824387 68061557.204884529 0 68061557.204884529 456194191.80196381 0 0 0 0 -301311299.86368561 -275221433.5175333 0 -275221433.5175333 229036299.34383607 0 0 0 0 -11251480.993587218 -6415837.9035359984 0 -6415837.9035359984 1653319.5782192205 0 0 0 0 -11123781.068710327 9046519.5749664307 0 9046519.5749664307 20122845.297514915 0 0 0 0 -14812393.750710577 -5622632.3222165201 0 -5622632.3222165201 2882378.8351644343 0 0 0 0 -81940667.910812378 917396.80379104614 0 917396.80379104614 13174903.649442673 0 0 0 0 -234382370.98962402 129931093.22385216 0 129931093.22385216 505413043.85848331 0 0 0 0 -21854213.518783569 -23276070.507781982 0 -23276070.507781982 11963533.315490723 0 0 0 0 -11545500.778121948 -25185185.231462479 0 -25185185.231462479 11423509.925008774 0 0 0 0 -1964819.6263173744 -10498.52589203231 0 -10498.52589203231 1302060.4164535953 0 0 0 0 10469442.664108276 -3443818.357509613 0 -3443818.357509613 4287433.9079856873 0 0 0 0 16651162.645622253 128719333.67051744 0 128719333.67051744 -10551574.390468597 0 0 0 0 -319445395.32459259 -344279967.89998674 0 -344279967.89998674 -186249339.02239537 0 0 0 0 -282942230.11466217 95161640.707147598 0 95161640.707147598 160309895.69769573 0 0 0 0 25643802.912431955 -238852980.17043138 0 -238852980.17043138 -337034328.7259655 0 0 0 0 -771323733.26470947 -1077985216.592896 0 -1077985216.592896 -772274112.69999409 0 0 0 0 -570299915.66277313 -663529980.9599086 0 -663529980.9599086 -616356728.49491239 0 0 0 0 -549791668.10335827 -223851055.92036629 0 -223851055.92036629 -237194879.75702286 0 0 0 0 -1321911963.308609 -272179659.96902049 0 -272179659.96902049 -795487820.72079575 0 0 0 0 -1877078580.5423546 -1629644601.2309897 0 -1629644601.2309897 -601053670.24316287 0 0 0 0 -512022168.52922821 -1880821480.8669446 0 -1880821480.8669446 -1250529127.7518263 0 0 0 0 -684744474.94599152 -1746195199.8344116 0 -1746195199.8344116 -1376378757.4875059 0 0 0 0 -512954163.3334198 -1325482963.6485844 0 -1325482963.6485844 -536439290.02136874 0 0 0 0 -1462043531.6233711 -1500232892.875603 0 -1500232892.875603 -569509794.05220747 0 0 0 0 -1003631044.2116776 -1301091079.135735 0 -1301091079.135735 -982216924.56020331 0 0 0 0 -919246049.07901764 -338340189.81041503 0 -338340189.81041503 1022921412.4026718 0 0 0 0 278737932.12450409 -673104871.73301792 0 -673104871.73301792 -505390839.19877011 0 0 0 0 -7997854.5235634595 -3113760.7203431902 0 -3113760.7203431902 -1240134.2499949732 0 0 0 0 150123464.63675308 6451363.2333427668 0 6451363.2333427668 -27268570.136752605 0 0 0 0 -126091344.05545044 -853913938.27236176 0 -853913938.27236176 1240364659.9593148 0 0 0 0 70726165.203769684 141050253.07240558 0 141050253.07240558 154077571.12818432 0 0 0 0 -18993696.911246348 200316.5162990297 0 200316.5162990297 1754056.5443601424 0 0 0 0 48202936.616821289 -302433435.31873202 0 -302433435.31873202 845223330.07068551 0 0 0 0 -794723737.58797646 -267078263.66009831 0 -267078263.66009831 171211090.24851513 0 0 0 0 166773277.16286469 210336181.01992893 0 210336181.01992893 -219056034.15943813 0 0 0 0 122934992.44211006 -73001420.698461413 0 -73001420.698461413 -252726808.16543484 0 0 0 0 -1001739971.0848694 179035470.89007854 0 179035470.89007854 -10281050.942633152 0 0 0 0 -2582485.8796804212 -2577400.1415330442 0 -2577400.1415330442 -1284175.4981877781 0 0 0 0 -2238662371.9179077 -1178763352.5509691 0 -1178763352.5509691 -295487689.25544405 0 0 0 0 -1209135765.0521736 -1477368833.264662 0 -1477368833.264662 -1455370671.5556824 0 0 0 0 -930232249.18981743 -946148635.56553626 0 -946148635.56553626 -444474421.03923988 0 0 0 0 -1806160038.6837654 -1395067164.0374358 0 -1395067164.0374358 -613910721.17913938 0 0 0 0 -1002023851.3992195 -1412962171.0935044 0 -1412962171.0935044 -1184809340.8358884 0 0 0 0 -531294974.72693634 -317426019.35182762 0 -317426019.35182762 -161696430.66768932 0 0 0 0 -13926116.788360689 415.85816940362565 0 415.85816940362565 1265144.1423338386 0 0 0 0 -457171965.90847778 109849600.72927952 0 109849600.72927952 1463068576.975071 0 0 0 0 -5528234.3007301353 -270318.88117129402 0 -270318.88117129402 461531.72924065636 0 0 0 0 42978329.31427002 808444891.45136225 0 808444891.45136225 622645982.85790062 0 0 0 0 -1787854240.3956947 -2087170680.9103436 0 -2087170680.9103436 -1723043285.2112207 0 0 0 0 -995939059.86101532 765776780.17961407 0 765776780.17961407 750209977.86006546 0 0 0 0 -436694950.5750351 282417994.07759142 0 282417994.07759142 854309049.41445184 0 0 0 0 -100657224.3622942 -57326935.734785676 0 -57326935.734785676 640775572.79562807 0 0 0 0 91279286.299922943 173215137.38527799 0 173215137.38527799 877054314.52669644 0 0 0 0 -181098072.01875448 -55689059.385232031 0 -55689059.385232031 1167682088.7344298 0 0 0 0 -104003989.97107315 142042441.94165468 0 142042441.94165468 890441799.99392223 0 0 0 0 -1884500.0342787802 -1253719.8767339094 0 -1253719.8767339094 559749.30286233407 0 0 0 0 -2168921.6510575712 20018470.792038877 0 20018470.792038877 56500206.944438934 0 0 0 0 159264686.43457699 35759515.202862263 0 35759515.202862263 -93833522.639315128 0 0 0 0 -4614817.3681077659 -111165914.95573835 0 -111165914.95573835 -106618529.12893867 0 0 0 0 -24756192.270443276 5683475.4091382353 0 5683475.4091382353 -5553887.3481337205 0 0 0 0 60359567.088294983 8946012.2107528448 0 8946012.2107528448 -82359433.972843409 0 0 0 0 114561307.33160782 232092401.26965237 0 232092401.26965237 102879852.88619423 0 0 0 0 142638041.62475586 -83006567.962260008 0 -83006567.962260008 -712607247.78939533 0 0 0 0 -1955203330.2065773 23163298.457755566 0 23163298.457755566 -557098003.5116539 0 0 0 0 -550118816.8441658 -86522681.975967765 0 -86522681.975967765 -734701268.22606182 0 0 0 0 3506867.3365383148 496344838.78266716 0 496344838.78266716 46235897.949021816 0 0 0 0 -454781265.62328911 -359535225.09063661 0 -359535225.09063661 41699255.139772415 0 0 0 0 -1424116883.7854042 -672972863.87253332 0 -672972863.87253332 -196975316.41519773 0 0 0 0 -630393140.66930389 -185935598.37304759 0 -185935598.37304759 -113812024.25991631 0 0 0 0 -2899551675.3183784 -1243447428.9708991 0 -1243447428.9708991 -530565244.05092871 0 0 0 0 -1279467643.6554432 -699020189.50811577 0 -699020189.50811577 -408461216.90172005 0 0 0 0 -1428153726.2657471 -1321613527.9433525 0 -1321613527.9433525 -693760736.30495071 0 0 0 0 -2056588249.9807315 -103774909.44161576 0 -103774909.44161576 459016925.40737247 0 0 0 0 -756975567.70685959 -634428969.01432133 0 -634428969.01432133 -1088912.5792951584 0 0 0 0 -714674463.9304657 -1035545307.068306 0 -1035545307.068306 -196816309.89043784 0 0 0 0 -598368056.88402557 -439814023.76981688 0 -439814023.76981688 -1454448716.1720843 0 0 0 0 -659536835.17459774 -460705295.70342827 0 -460705295.70342827 -226342280.32780647 0 0 0 0 -319270183.44729614 -584289751.72014332 0 -584289751.72014332 -580959253.18426085 0 0 0 0 -284485973.41016006 -392711166.5794307 0 -392711166.5794307 -116716745.81533909 0 0 0 0 -852401902.64498138 -616400856.98788977 0 -616400856.98788977 62822589.520817757 0 0 0 0 -279151648.67596817 -433320336.06116724 0 -433320336.06116724 -177646475.13381481 0 0 0 0 -354357637.6760931 -172966937.63113075 0 -172966937.63113075 2200771.2336492538 0 0 0 0 -137092849.98148155 -132579342.92572951 0 -132579342.92572951 -58196994.183265686 0 0 0 0 162382937.92761326 63308312.320558488 0 63308312.320558488 -114567360.81600189 0 0 0 0 41113800.411598206 -343772697.29842186 0 -343772697.29842186 -499267070.00150156 0 0 0 0 1100541.7307605166 -5070940.919813266 0 -5070940.919813266 -3209730.5070882933 0 0 0 0 -3710182.1940951347 -44935.54389186902 0 -44935.54389186902 818820.63389859721 0 0 0 0 -8403729.2755283806 -9062232.8473947793 0 -9062232.8473947793 -18833777.206612483 0 0 0 0 -45054392.884746552 -32199911.957881927 0 -32199911.957881927 -108142463.25112915 0 0 0 0 -29662782.861778259 1754681.9336624146 0 1754681.9336624146 2181647.379196167 0 0 0 0 -953214381.26873207 9688108.648388505 0 9688108.648388505 -219820468.40954971 0 0 0 0 -98640850.468184471 134523543.56383324 0 134523543.56383324 422472087.1669426 0 0 0 0 349404.81480259588 4315702.0203711772 0 4315702.0203711772 4424886.4612848293 0 0 0 0 -2733906683.1033077 173434918.61588335 0 173434918.61588335 435934484.92845774 0 0 0 0 -2513883639.1800137 -193667277.75175714 0 -193667277.75175714 510060844.50616837 0 0 0 0 -1063093192.0319061 1342731049.353106 0 1342731049.353106 -1901328716.5230427 0 0 0 0 -1291721261.3354039 103321366.10804391 0 103321366.10804391 257451051.17578506 0 0 0 0 -3424287.4832465569 1291816.7816243055 0 1291816.7816243055 11058149.684004435 0 0 0 0 -787428251.76698256 33099854.283457994 0 33099854.283457994 258653362.70167351 0 0 0 0 -736912408.98688602 -458336760.44677687 0 -458336760.44677687 277309725.32154655 0 0 0 0 -1230568494.7108753 -423491622.06243467 0 -423491622.06243467 295071100.5751152 0 0 0 0 -1525439824.634552 -379222894.36649418 0 -379222894.36649418 388519046.88830757 0 0 0 0 -1179265834.7362671 -1046960066.4455156 0 -1046960066.4455156 399570934.78534889 0 0 0 0 -787755167.51944923 -810399831.38525534 0 -810399831.38525534 205245948.1327858 0 0 0 0 -730851710.26820374 -858086308.97281778 0 -858086308.97281778 211958889.74054909 0 0 0 0 -4373697.9650347764 -118513.50595946377 0 -118513.50595946377 555841.62319773482 0 0 0 0 -2421894395.0713425 745055932.08999467 0 745055932.08999467 1357024114.6098778 0 0 0 0 -1044014093.3810921 -1129357796.9055276 0 -1129357796.9055276 527291407.09322262 0 0 0 0 -1996177285.2891006 -818057598.49147224 0 -818057598.49147224 493603453.00499821 0 0 0 0 -153859939.9707489 -1081190189.2435012 0 -1081190189.2435012 109729689.17124748 0 0 0 0 70988069.937448025 15368968.797474831 0 15368968.797474831 706597626.70468903 0 0 0 0 -702390996.73121262 406870242.02436197 0 406870242.02436197 634946767.26930189 0 0 0 0 -1081254226.9692039 -753945449.74950838 0 -753945449.74950838 272880136.67470217 0 0 0 0 -641744712.02309608 5207706.4114131927 0 5207706.4114131927 1509261912.9232485 0 0 0 0 -7683168.8537043724 -734244.22426105244 0 -734244.22426105244 883636.80974674143 0 0 0 0 -515307727.50172281 -919374413.31054127 0 -919374413.31054127 1453342448.4848876 0 0 0 0 -117215699.30258942 -172734001.01941621 0 -172734001.01941621 443095792.72815436 0 0 0 0 85430242.390247345 -796686821.25899208 0 -796686821.25899208 -686360052.70039988 0 0 0 0 -576228676.76173973 -231383462.10967946 0 -231383462.10967946 -798665748.19893575 0 0 0 0 -1066466462.4135075 225159035.15054101 0 225159035.15054101 -233601965.94436884 0 0 0 0 -1677585213.0604029 218105118.15525419 0 218105118.15525419 -1086061986.7500596 0 0 0 0 -1966901582.7999983 -362753669.76947641 0 -362753669.76947641 -604242988.75548398 0 0 0 0 574152140.86597347 -394828102.74698508 0 -394828102.74698508 -66333637.878143787 0 0 0 0 -1413442604.7972507 1095119065.3960166 0 1095119065.3960166 871696394.77044582 0 0 0 0 -2364280129.5692959 406829380.71970296 0 406829380.71970296 -168837289.33138561 0 0 0 0 -2562049932.1723213 364940708.28008866 0 364940708.28008866 408240679.32755804 0 0 0 0 -2427875628.5598373 1201212458.0783756 0 1201212458.0783756 -348741332.08540636 0 0 0 0 -1562456.0860251586 -1405096.7235593935 0 -1405096.7235593935 -4992518.7961273268 0 0 0 0 -4291526613.6494727 798929574.25041389 0 798929574.25041389 -460296925.29586387 0 0 0 0 -2471457607.9604645 889988025.04827178 0 889988025.04827178 242034877.15581656 0 0 0 0 -2264254714.5618038 1281731371.4816499 0 1281731371.4816499 -861333523.4847914 0 0 0 0 -2296785529.06003 793590207.85225725 0 793590207.85225725 -813906306.04157341 0 0 0 0 -442251401.32752442 544903171.76614535 0 544903171.76614535 -732418135.45322609 0 0 0 0 -310940501.68096304 686309130.13127136 0 686309130.13127136 423072863.57414198 0 0 0 0 -1006340.3641596136 2194003.8214050648 0 2194003.8214050648 -1695515.2493148539 0 0 0 0 -321120882.90989947 527962590.47330928 0 527962590.47330928 -1142363446.2915525 0 0 0 0 -161829215.14990997 264794096.31021118 0 264794096.31021118 -463206348.70571899 0 0 0 0 -235945348.20085621 464769164.51337719 0 464769164.51337719 -786938200.25795364 0 0 0 0 -311075930.39039612 385374698.58065414 0 385374698.58065414 -603380636.62597656 0 0 0 0 -410854209.6995697 493021757.90421295 0 493021757.90421295 -472525097.43013 0 0 0 0 -399374821.44283485 348735911.34386444 0 348735911.34386444 -125339255.13541412 0 0 0 0 -499164791.07586288 451613683.94594193 0 451613683.94594193 -69574384.325740814 0 0 0 0 -454127720.77172184 524875131.18055534 0 524875131.18055534 -224361535.40990448 0 0 0 0 -2452116.063198939 5161612.4185923673 0 5161612.4185923673 1534140.0166297611 0 0 0 0 166033455.40790081 -244012088.08944511 0 -244012088.08944511 -240867443.40571594 0 0 0 0 -20430011.801063538 -10357856.126652241 0 -10357856.126652241 10922688.272569656 0 0 0 0 -2388687578.0786514 527121980.6990732 0 527121980.6990732 797186885.30694294 0 0 0 0 -5035945.3840281032 -5586771.042964749 0 -5586771.042964749 -13263219.445081664 0 0 0 0 -430173719.73758316 -535029578.17131805 0 -535029578.17131805 23629469.478872776 0 0 0 0 -1388271695.3833847 -180729350.87465966 0 -180729350.87465966 361792823.52934289 0 0 0 0 -393853056.68239975 -337862832.76824188 0 -337862832.76824188 -703467752.08115411 0 0 0 0 -332710793.58270931 -99180161.41414237 0 -99180161.41414237 60866039.945148468 0 0 0 0 -39820173.377563477 -174970665.00905621 0 -174970665.00905621 60823922.356078148 0 0 0 0 -572226333.59779167 -27069409.595989466 0 -27069409.595989466 640636114.6132164 0 0 0 0 -370068008.47987652 188188149.55690849 0 188188149.55690849 455368282.65194654 0 0 0 0 -531651426.47083473 130464521.25860333 0 130464521.25860333 709791087.32151461 0 0 0 0 -381858756.79492474 649881033.34487677 0 649881033.34487677 415384155.18159294 0 0 0 0 -335371364.32720947 633543125.27150047 0 633543125.27150047 376117479.70965862 0 0 0 0 -144770561.85756874 122528190.21911585 0 122528190.21911585 777982124.79762375 0 0 0 0 -916759157.59326744 795886516.42427266 0 795886516.42427266 512257732.52084088 0 0 0 0 -3353456.9431155752 -401497.20119602617 0 -401497.20119602617 319046.82035193732 0 0 0 0 -336637872.90788269 -931964964.12424397 0 -931964964.12424397 -414528634.01000881 0 0 0 0 184782927.25378942 -503952787.68479449 0 -503952787.68479449 -567359108.77528119 0 0 0 0 7673891.8086242676 -577282944.15257931 0 -577282944.15257931 -594613306.42754495 0 0 0 0 -1162905775.0296593 -129183513.36451405 0 -129183513.36451405 -210086077.08752024 0 0 0 0 -584927271.28655434 380057093.68839896 0 380057093.68839896 -558913627.00087523 0 0 0 0 -397749811.60002422 86562222.986923695 0 86562222.986923695 -109324916.53004646 0 0 0 0 -200434541.98662758 -204697788.72380531 0 -204697788.72380531 120943923.84186471 0 0 0 0 -648171965.04833412 86714377.756016731 0 86714377.756016731 86276170.775275022 0 0 0 0 -153775055.07742596 -243751793.08701396 0 -243751793.08701396 -66141743.613724947 0 0 0 0 -399311787.94646835 58823770.225599527 0 58823770.225599527 -197831797.9279902 0 0 0 0 -116887594.91492319 -218845998.49348223 0 -218845998.49348223 49697755.555980682 0 0 0 0 -97148300.140836716 -287632782.70133042 0 -287632782.70133042 -195565126.66240522 0 0 0 0 -50348424.695527554 -341219560.38099271 0 -341219560.38099271 -36491935.395596504 0 0 0 0 -49162513.182467461 -333738678.22306615 0 -333738678.22306615 446552186.91456318 0 0 0 0 75497497.789588928 -265984205.56886053 0 -265984205.56886053 55096745.046211064 0 0 0 0 -107262784.41719723 -256602903.8504591 0 -256602903.8504591 447713850.14705086 0 0 0 0 -502459698.76445675 -554524684.40667105 0 -554524684.40667105 46611970.3820858 0 0 0 0 -146020345.01786041 -255753713.54790103 0 -255753713.54790103 -58954768.2833395 0 0 0 0 -269761445.48492622 -240920728.14436358 0 -240920728.14436358 -103432449.43137348 0 0 0 0 -148392804.71260834 -289972443.38692141 0 -289972443.38692141 333631969.51122999 0 0 0 0 -14636000.384756088 -282418178.7934221 0 -282418178.7934221 56573941.313002713 0 0 0 0 -146581337.01233864 -363957096.61242867 0 -363957096.61242867 57160461.373041511 0 0 0 0 -153057957.45794106 -342156993.81581235 0 -342156993.81581235 -12575642.001373768 0 0 0 0 -380678319.26589775 -368331810.91144705 0 -368331810.91144705 55059889.025709033 0 0 0 0 -469094570.41126728 -123315972.69302607 0 -123315972.69302607 221229614.96468973 0 0 0 0 -264416866.71773243 -367873316.41870201 0 -367873316.41870201 15586863.949596882 0 0 0 0 -159552410.17564964 -261015901.58230448 0 -261015901.58230448 123155195.01749837 0 0 0 0 61460628.391986847 -319702785.76109254 0 -319702785.76109254 132947789.79363 0 0 0 0 -69648365.835625648 58366364.062512875 0 58366364.062512875 318489345.35469854 0 0 0 0 -1284332682.7963562 579430452.4052763 0 579430452.4052763 355603220.99837422 0 0 0 0 -1318005793.6963634 534921351.29398155 0 534921351.29398155 664293154.19380856 0 0 0 0 -981935794.10037422 402909365.87476563 0 402909365.87476563 456189880.81553483 0 0 0 0 -1584650016.6568565 402920672.19412112 0 402920672.19412112 935737741.33275843 0 0 0 0 -1479948369.8566017 116420694.47908658 0 116420694.47908658 632160125.95240831 0 0 0 0 -503265213.189785 -161546426.84325433 0 -161546426.84325433 220797608.41097569 0 0 0 0 -528859953.26598358 -132751225.73327303 0 -132751225.73327303 239095590.3492465 0 0 0 0 -561252555.1021204 -169204232.0051614 0 -169204232.0051614 240751469.89148569 0 0 0 0 -5664679317.5992012 -754746846.10092092 0 -754746846.10092092 -153596277.18592507 0 0 0 0 -1818644783.4928951 -29973360.423222303 0 -29973360.423222303 269550812.09902358 0 0 0 0 -534189692.55523682 424565829.97666609 0 424565829.97666609 402766180.87425286 0 0 0 0 -1504687422.1660538 701190537.59604287 0 701190537.59604287 520490581.54802084 0 0 0 0 -1588043093.6258087 565951918.02917254 0 565951918.02917254 695234146.47508669 0 0 0 0 -1493180590.7102623 564345524.41497195 0 564345524.41497195 952848349.16243398 0 0 0 0 -1575649087.2831798 777366315.42855024 0 777366315.42855024 1126454976.5204554 0 0 0 0 -7624830958.1289635 -860509067.75497508 0 -860509067.75497508 -95010172.038216993 0 0 0 0 541873329.42314625 1633617991.493618 0 1633617991.493618 416726872.74117005 0 0 0 0 -5987697697.1473513 2028089440.8487656 0 2028089440.8487656 382843994.2775411 0 0 0 0 -2704587.7455096981 1515265.6690560244 0 1515265.6690560244 423445.18530770292 0 0 0 0 -1492326671.2789421 2176798778.6791139 0 2176798778.6791139 1515902937.1271923 0 0 0 0 -4492068396.2390327 1389327296.6971033 0 1389327296.6971033 1350469626.1212337 0 0 0 0 -5163293665.7097416 1115872354.3435664 0 1115872354.3435664 1368536611.7520487 0 0 0 0 -4141824751.8583679 1947916874.8836863 0 1947916874.8836863 1532154745.3447754 0 0 0 0 -4430868184.6306877 732773612.78744578 0 732773612.78744578 1059960582.3548784 0 0 0 0 -2349980603.8178673 648134476.89750516 0 648134476.89750516 1058926306.2100643 0 0 0 0 -2190496235.7371655 763067637.74097502 0 763067637.74097502 1116437208.0798702 0 0 0 0 -2097637595.2728729 136004370.31210184 0 136004370.31210184 797964872.8576715 0 0 0 0 -2814360398.9413376 69993670.148826003 0 69993670.148826003 663021475.04549909 0 0 0 0 -2919697521.7528954 -44237370.299823016 0 -44237370.299823016 788001196.64828134 0 0 0 0 -4083300856.3487778 233314959.62838864 0 233314959.62838864 796726939.73922491 0 0 0 0 -5983152698.1626225 451122361.52220964 0 451122361.52220964 1641347671.0686316 0 0 0 0 -1144994031.6306572 -278975271.28492355 0 -278975271.28492355 231492176.02729797 0 0 0 0 -839626080.19854736 -249597198.42747235 0 -249597198.42747235 166235393.46297097 0 0 0 0 -1166562779.342082 -299572712.13463038 0 -299572712.13463038 316081339.2296052 0 0 0 0 -1737042997.1625481 53873707.036051273 0 53873707.036051273 661325609.28992999 0 0 0 0 -1731475401.8008537 62639953.772780657 0 62639953.772780657 651426786.17141294 0 0 0 0 -1613758953.9456329 -244932088.98196697 0 -244932088.98196697 320558744.11600792 0 0 0 0 -1635141154.1996841 -447378633.48221648 0 -447378633.48221648 289805788.46899343 0 0 0 0 -1866586842.7934551 -563702825.93306804 0 -563702825.93306804 316581135.25456572 0 0 0 0 -1634667301.9470482 -506542213.19418466 0 -506542213.19418466 258041676.14613667 0 0 0 0 -1143548034.2007275 -584031185.92869174 0 -584031185.92869174 238442931.97878647 0 0 0 0 -703877132.89241791 -833173961.2830739 0 -833173961.2830739 -263727169.9501164 0 0 0 0 -1077064752.0086651 -1912357055.0731487 0 -1912357055.0731487 -605058021.01490557 0 0 0 0 -3267571.1041891277 -1178775.1941529424 0 -1178775.1941529424 -342112.39932554885 0 0 0 0 -171701143.58434582 59133513.72932376 0 59133513.72932376 173201805.38051569 0 0 0 0 -280914316.49391937 -309693754.28190625 0 -309693754.28190625 991331581.29060555 0 0 0 0 -4720582122.837656 -128339683.98111671 0 -128339683.98111671 794035460.87900424 0 0 0 0 -2642644380.0266571 -896195424.25534081 0 -896195424.25534081 595429904.09718132 0 0 0 0 -4684702140.5295563 -926537301.59439802 0 -926537301.59439802 642260299.61718512 0 0 0 0 -4259079310.9640846 62878786.889574237 0 62878786.889574237 751433459.688568 0 0 0 0 -5982771297.8050537 -1021973615.8973539 0 -1021973615.8973539 70193239.448705032 0 0 0 0 -4826415308.9450722 -1424441616.8134241 0 -1424441616.8134241 189753265.79736 0 0 0 0 -4883038903.5721102 -1273561504.8510332 0 -1273561504.8510332 317687442.64546418 0 0 0 0 -4061343782.812439 -2401646840.5900497 0 -2401646840.5900497 -912313102.57200778 0 0 0 0 -4910749.2410757132 -41256.59176015202 0 -41256.59176015202 317882.23479611985 0 0 0 0 -5765099657.1300793 -1119969161.7787869 0 -1119969161.7787869 515529492.1057719 0 0 0 0 -5986262709.3314934 -1687468853.0178952 0 -1687468853.0178952 -873372031.56632912 0 0 0 0 -7747910.2590432595 -1142190.5176593908 0 -1142190.5176593908 122024.06754462118 0 0 0 0 88868324.505016327 -19469870.390866145 0 -19469870.390866145 -46225401.079893634 0 0 0 0 316906554.84087944 -195971718.40220731 0 -195971718.40220731 43317547.241783947 0 0 0 0 -2221846939.8820953 573975395.8349247 0 573975395.8349247 21222647.735182256 0 0 0 0 472724153.19668961 -15763444.363399118 0 -15763444.363399118 -657341678.53647733 0 0 0 0 -719296564.63095474 -841845781.05221856 0 -841845781.05221856 -464505280.34303558 0 0 0 0 -303729221.19311142 711951777.539904 0 711951777.539904 -298782425.17413747 0 0 0 0 122938760.48003387 -120957015.05719227 0 -120957015.05719227 126386446.7189849 0 0 0 0 25699329.267696381 249898337.49264988 0 249898337.49264988 312327088.47706735 0 0 0 0 26310245.201507568 2054782.3946437836 0 2054782.3946437836 -25441084.537235498 0 0 0 0 -10281163.704545483 942036.28213089425 0 942036.28213089425 780436.89744868339 0 0 0 0 -32616920.939014435 -17908054.928390831 0 -17908054.928390831 50655907.336738467 0 0 0 0 -11744601.138611883 1544442.1699188035 0 1544442.1699188035 1603136.5398666405 0 0 0 0 16829565.059906006 335918214.16574454 0 335918214.16574454 775520083.08688974 0 0 0 0 18985565.978954315 43975315.252887174 0 43975315.252887174 37467843.074844688 0 0 0 0 -100050083.78131104 29657362.520150781 0 29657362.520150781 756000265.79968929 0 0 0 0 3739495.8574829102 7147782.0444067717 0 7147782.0444067717 9768797.6562958956 0 0 0 0 -11550460.24440361 3999859.964765884 0 3999859.964765884 3053447.2020461392 0 0 0 0 22502436.448450089 92402446.418492854 0 92402446.418492854 671887334.65875721 0 0 0 0 315204526.96502686 52912075.749324799 0 52912075.749324799 477355196.47557259 0 0 0 0 -22153214.954818144 -1499536.3777174493 0 -1499536.3777174493 6590811.5674281055 0 0 0 0 -4342730.230682373 3555923.1942062378 0 3555923.1942062378 29320809.833726883 0 0 0 0 -20657132.702696484 -9902517.2571124602 0 -9902517.2571124602 7466124.820429137 0 0 0 0 -41349596.976898193 493880045.32282019 0 493880045.32282019 789785512.09640813 0 0 0 0 309686847.13572693 281359686.2672627 0 281359686.2672627 704584320.09857178 0 0 0 0 92313800.258178711 234428508.91901779 0 234428508.91901779 762867780.77643394 0 0 0 0 72243826.97366333 510360396.47671223 0 510360396.47671223 761020716.42907524 0 0 0 0 276677329.55978394 188899852.84024525 0 188899852.84024525 694462368.56282043 0 0 0 0 -22488766.702154186 -3779811.0703050811 0 -3779811.0703050811 5323911.5687791314 0 0 0 0 219329017.80352783 281888192.49873161 0 281888192.49873161 765571662.30493546 0 0 0 0 15859200.281311035 313920421.52146244 0 313920421.52146244 695466084.42894912 0 0 0 0 -51991015.887481689 364924962.65618372 0 364924962.65618372 743259567.85571003 0 0 0 0 68393864.350982666 441627220.6425612 0 441627220.6425612 643455215.57971191 0 0 0 0 -206281616.84298706 322101826.73837376 0 322101826.73837376 703635125.37806702 0 0 0 0 -235850490.52581787 -193684871.07196236 0 -193684871.07196236 1385737471.4157825 0 0 0 0 -221668841.97941589 400756071.31365299 0 400756071.31365299 679965524.67763996 0 0 0 0 -407150934.23121643 33800743.757000923 0 33800743.757000923 1407566873.700983 0 0 0 0 -14601026.50606763 4385468.7980823554 0 4385468.7980823554 2810570.7946360488 0 0 0 0 -91829137.95526123 118046572.40458679 0 118046572.40458679 913291201.473526 0 0 0 0 -376711747.17160797 190671605.77036786 0 190671605.77036786 1032111226.1316414 0 0 0 0 -123620027.44390869 -54075108.386956215 0 -54075108.386956215 1085948336.2429001 0 0 0 0 349652662.18743896 -53070196.633138657 0 -53070196.633138657 734560294.80045319 0 0 0 0 23294852.163757324 94925436.797725677 0 94925436.797725677 865722136.57078552 0 0 0 0 145484935.51422119 -58835973.351324081 0 -58835973.351324081 1000759400.379426 0 0 0 0 294805475.09735107 -186257959.12039185 0 -186257959.12039185 906658719.8971262 0 0 0 0 -149834853.77786064 112887127.83362919 0 112887127.83362919 932654465.12439346 0 0 0 0 -84316659.549591064 330405567.5939126 0 330405567.5939126 1091717417.2907495 0 0 0 0 -192031316.25698853 19839634.930681229 0 19839634.930681229 679896293.93319058 0 0 0 0 -20078253.542224884 45786668.208245695 0 45786668.208245695 35009937.481601238 0 0 0 0 33418948.6326828 -160372547.9252677 0 -160372547.9252677 -80477020.558962107 0 0 0 0 8860928.0577392578 -37933209.868242264 0 -37933209.868242264 12256192.253147602 0 0 0 0 -101599890.30158615 -17076512.259033203 0 -17076512.259033203 97126100.177879333 0 0 0 0 -23967397.861907907 -1702024.3330836641 0 -1702024.3330836641 3176784.2924640458 0 0 0 0 15473746.685340881 -16402307.371955872 0 -16402307.371955872 8661843.0293381214 0 0 0 0 -21231234.072409235 9083124.826184554 0 9083124.826184554 3755713.9462068677 0 0 0 0 -10169407.046193376 -8272307.0692621963 0 -8272307.0692621963 6922504.7607469959 0 0 0 0 2777982.5820007324 145413130.04216141 0 145413130.04216141 686877785.29399467 0 0 0 0 -46500714.562330246 122945605.04969794 0 122945605.04969794 726796799.04481745 0 0 0 0 -45968527.040740967 137930320.98533797 0 137930320.98533797 685767855.39712536 0 0 0 0 83132611.971326351 491870748.42822033 0 491870748.42822033 1592528944.5693011 0 0 0 0 -30971268.010456085 -370046037.46310186 0 -370046037.46310186 1279359507.9183326 0 0 0 0 -2306836.5013846327 -2304188.3546636691 0 -2304188.3546636691 1547931.1510097366 0 0 0 0 -46111959.875068665 -134365947.8416456 0 -134365947.8416456 1001102659.408155 0 0 0 0 239900185.34835958 -358318940.04819643 0 -358318940.04819643 802396480.50062466 0 0 0 0 221716164.02636337 -139809452.89066839 0 -139809452.89066839 454434307.85752118 0 0 0 0 -108261395.68118668 -168395249.29070061 0 -168395249.29070061 755945988.67104387 0 0 0 0 21743899.622276306 -148694551.93347746 0 -148694551.93347746 448900875.85032606 0 0 0 0 -152162811.58038902 -117255927.95749968 0 -117255927.95749968 568530496.8404038 0 0 0 0 -87666148.427297592 -119752945.67873949 0 -119752945.67873949 323785689.1027621 0 0 0 0 -112752916.57551003 -224534013.65513942 0 -224534013.65513942 179247838.26464558 0 0 0 0 -295203002.05549049 -246957596.51933467 0 -246957596.51933467 338563972.81276333 0 0 0 0 -68588491.074336052 56350591.5329898 0 56350591.5329898 506661029.68081868 0 0 0 0 -131159633.58252335 92051523.918430924 0 92051523.918430924 706158748.90002465 0 0 0 0 -70295998.694553375 40055403.038204432 0 40055403.038204432 494401412.05491173 0 0 0 0 -104865911.84565735 59626927.334166884 0 59626927.334166884 675116185.30651033 0 0 0 0 -178844516.96801758 169895087.32604408 0 169895087.32604408 1910333294.174305 0 0 0 0 154883687.39024353 -70993058.616912842 0 -70993058.616912842 670270189.43375587 0 0 0 0 -6709805.0494400561 3560347.0488738734 0 3560347.0488738734 -1097328.8658298543 0 0 0 0 1450993662.1046982 784574626.47720051 0 784574626.47720051 773109554.82344484 0 0 0 0 837226154.54164124 2055123284.4803839 0 2055123284.4803839 1690770820.0407181 0 0 0 0 -325493288.90270233 426939475.36121368 0 426939475.36121368 1028365375.4241982 0 0 0 0 -21281167.843551636 338733570.59143066 0 338733570.59143066 733591329.49734879 0 0 0 0 57000487.540169239 1070282549.1722218 0 1070282549.1722218 896044767.71569061 0 0 0 0 -590783681.22798157 952858451.58171082 0 952858451.58171082 1445237761.2437038 0 0 0 0 -604928369.51824951 584588555.62934875 0 584588555.62934875 656602977.98701477 0 0 0 0 -154792911.14748383 599793980.26677132 0 599793980.26677132 358377631.02131653 0 0 0 0 -405521578.78033447 159212893.234272 0 159212893.234272 77546981.302886963 0 0 0 0 -33479108.354774475 147605563.87952948 0 147605563.87952948 -305535839.82382584 0 0 0 0 -310717960.89965057 519364623.88719749 0 519364623.88719749 835986286.14449692 0 0 0 0 -30355661.126993179 84924071.168990135 0 84924071.168990135 148594386.06285906 0 0 0 0 -1494694971.9207344 -303663220.01742172 0 -303663220.01742172 428457572.48355389 0 0 0 0 -152153972.92736816 -460919447.5823698 0 -460919447.5823698 -289684523.48169708 0 0 0 0 -425049741.5640986 -242934868.76968956 0 -242934868.76968956 780208845.42612839 0 0 0 0 -518851065.04326439 -628111874.20707893 0 -628111874.20707893 173292178.94330025 0 0 0 0 459167.06295589171 -2475736.948478533 0 -2475736.948478533 -1501709.493008323 0 0 0 0 -1342226537.6515179 140880484.84382057 0 140880484.84382057 1082980496.9969158 0 0 0 0 -172897950.26852798 30301366.473918915 0 30301366.473918915 781418462.71155453 0 0 0 0 547657616.55812836 953846768.83657455 0 953846768.83657455 855333955.76286697 0 0 0 0 -269513067.09318161 36284496.908889771 0 36284496.908889771 814962681.2533493 0 0 0 0 -12820718.842792511 374467652.90341282 0 374467652.90341282 920001813.45983601 0 0 0 0 -22265962.295012668 11398520.839457141 0 11398520.839457141 -3248121.683772603 0 0 0 0 -3435624.6060331464 631889.92100420967 0 631889.92100420967 476577.5978092514 0 0 0 0 -16638145.7967453 -407661722.87526131 0 -407661722.87526131 -9671852.8740275204 0 0 0 0 -1397902158.0443497 573850717.03639984 0 573850717.03639984 -15766631.147193909 0 0 0 0 -17397175.724408224 8870947.7208156083 0 8870947.7208156083 -2057571.5629162248 0 0 0 0 180069128.19958305 1190429086.2992706 0 1190429086.2992706 1807909851.8390141 0 0 0 0 -965187634.46292877 -1336588403.6942253 0 -1336588403.6942253 -830797976.45309639 0 0 0 0 -1565637934.3082352 -1961971395.2637615 0 -1961971395.2637615 -1450022776.8256454 0 0 0 0 -1283073481.3593445 -1183623462.9421597 0 -1183623462.9421597 -853222073.73213959 0 0 0 0 -2804958790.1952896 -1521544028.7336121 0 -1521544028.7336121 -927281314.379673 0 0 0 0 -588974869.692276 -537471342.84134674 0 -537471342.84134674 -411400610.8155942 0 0 0 0 -428790627.904953 -318293131.60352707 0 -318293131.60352707 -435442679.3475132 0 0 0 0 275544949.51705503 91068583.386426449 0 91068583.386426449 67396191.263431549 0 0 0 0 -509931451.37817383 -90669837.154647827 0 -90669837.154647827 -102641085.20368576 0 0 0 0 422516236.90001678 267238287.87151432 0 267238287.87151432 -353838356.72923279 0 0 0 0 -1248854.0193593577 -606950.75653106719 0 -606950.75653106719 1898423.4501305614 0 0 0 0 293757466.72358704 -78425193.705219269 0 -78425193.705219269 19775239.622081757 0 0 0 0 -912764010.23677063 -350220312.25573349 0 -350220312.25573349 160301215.31906509 0 0 0 0 670432981.97120667 -487645992.72633171 0 -487645992.72633171 601978851.72735596 0 0 0 0 840397904.79457092 -512274094.58724213 0 -512274094.58724213 -199122199.00909996 0 0 0 0 -703742568.10739326 232507236.13178211 0 232507236.13178211 -493849941.56272507 0 0 0 0 -765806300.30847168 -901231724.23958969 0 -901231724.23958969 -22513997.446367264 0 0 0 0 -1108026659.4404144 -881630077.09548283 0 -881630077.09548283 -552904563.76205444 0 0 0 0 -1461387107.4481201 -430953579.74155617 0 -430953579.74155617 192446454.00992584 0 0 0 0 -1833603755.1072235 -1204363503.3212013 0 -1204363503.3212013 505466043.01997852 0 0 0 0 -5703392.6540051326 460128.65829834342 0 460128.65829834342 3387511.8846341297 0 0 0 0 -2322176985.4828033 -1442848065.6904793 0 -1442848065.6904793 -31998183.813156128 0 0 0 0 -33123568.609554075 -34447310.373374082 0 -34447310.373374082 -8404048.449828431 0 0 0 0 -38732614.017421722 -36565499.484473228 0 -36565499.484473228 -2771157.2421607971 0 0 0 0 -47340148.680141449 -22911829.020952225 0 -22911829.020952225 24464505.433753967 0 0 0 0 -58787076.386657715 -35296128.47244072 0 -35296128.47244072 67045961.290988922 0 0 0 0 -43741503.153610229 -187647368.22747803 0 -187647368.22747803 28448700.023780823 0 0 0 0 -14864488.260185242 -70285260.607063293 0 -70285260.607063293 17313114.534317017 0 0 0 0 -8944926.168388322 -1413471.4598720819 0 -1413471.4598720819 -15827.042549798265 0 0 0 0 -107283096.52521896 -1549744.7051954269 0 -1549744.7051954269 -19028148.79133606 0 0 0 0 -194327062.31079865 -148885643.82793427 0 -148885643.82793427 40241604.355106354 0 0 0 0 -188247496.04187012 -70176126.004589081 0 -70176126.004589081 19192278.60321188 0 0 0 0 269689446.56076813 -205487150.28285408 0 -205487150.28285408 -44626405.40839386 0 0 0 0 -31940406.874238245 -36257484.762083694 0 -36257484.762083694 -8991544.9818652868 0 0 0 0 246938306.53218651 -131994305.9543457 0 -131994305.9543457 -72474311.344306946 0 0 0 0 230570113.65198517 -189219276.44827461 0 -189219276.44827461 -99407978.859634399 0 0 0 0 252896043.27325439 -107057483.81967163 0 -107057483.81967163 57121052.517642975 0 0 0 0 -29596930.051794875 -5122062.7628375329 0 -5122062.7628375329 328819.41687401012 0 0 0 0 -1233641537.0238037 387489912.67191887 0 387489912.67191887 488846312.97442627 0 0 0 0 -94166269.680152893 -34095354.827651978 0 -34095354.827651978 -38747060.74312973 0 0 0 0 -109319148.02231979 -38401289.653860092 0 -38401289.653860092 11151841.915603638 0 0 0 0 -28375881.021279898 -41672710.150973767 0 -41672710.150973767 -4561727.5576111488 0 0 0 0 65521104.437805176 -176189280.52638626 0 -176189280.52638626 541650667.11846685 0 0 0 0 -138915565.48636627 -571702209.91786003 0 -571702209.91786003 -166344366.77720928 0 0 0 0 -32566575.78310658 -4811692.6054498814 0 -4811692.6054498814 5699322.9474594221 0 0 0 0 481301846.22673798 4642542.07762146 0 4642542.07762146 -49959632.453874588 0 0 0 0 353130265.59114075 -158737296.74325657 0 -158737296.74325657 -56164602.010856628 0 0 0 0 48390140.682769775 -148129176.99510574 0 -148129176.99510574 13966702.270370483 0 0 0 0 -2979142995.1815948 -2753720474.2077866 0 -2753720474.2077866 -833559235.18268013 0 0 0 0 -327538943.01628113 2377086256.3763809 0 2377086256.3763809 2776036162.6377792 0 0 0 0 -4821566985.8144836 -1725206604.0032845 0 -1725206604.0032845 501934268.33846283 0 0 0 0 -4561915902.811615 -244502051.27825546 0 -244502051.27825546 -83543294.253959656 0 0 0 0 -2415531166.518219 -316309534.83239174 0 -316309534.83239174 -684724177.40582275 0 0 0 0 -4751799900.1881714 1952885650.6361618 0 1952885650.6361618 -1272444386.8348541 0 0 0 0 -6098677161.844574 408145967.06206894 0 408145967.06206894 255679488.76802063 0 0 0 0 -1740909068.1884384 -554142904.42252922 0 -554142904.42252922 -113864473.03680038 0 0 0 0 -3876985866.3622131 -1861755450.7203197 0 -1861755450.7203197 -25393745.355541229 0 0 0 0 -1898456532.3939056 -985851540.96764469 0 -985851540.96764469 39194598.319526672 0 0 0 0 655959270.89913368 611712959.35183668 0 611712959.35183668 -779543330.28108978 0 0 0 0 -651486567.46569061 -1045361147.2236509 0 -1045361147.2236509 -611142160.0986557 0 0 0 0 248003303.92478943 978689659.62158585 0 978689659.62158585 7502073.9081878662 0 0 0 0 -2386728.5549273342 345945.74069847353 0 345945.74069847353 1131948.5462640505 0 0 0 0 -1797868067.0345917 -475016691.66220093 0 -475016691.66220093 -143818213.40269852 0 0 0 0 276041917.58023071 -683700615.90806961 0 -683700615.90806961 -343618510.41996002 0 0 0 0 -151453252.74406433 238791859.6026001 0 238791859.6026001 765955429.10425186 0 0 0 0 -365541803.93559265 78238103.960361481 0 78238103.960361481 -524110185.12711525 0 0 0 0 -683093208.60803223 878291554.11976242 0 878291554.11976242 -389865917.23572922 0 0 0 0 -975070302.78135395 462988077.21261489 0 462988077.21261489 -326709241.75222778 0 0 0 0 -972154157.08026123 481717750.57987213 0 481717750.57987213 -1526460319.2442932 0 0 0 0 -13866414.089696115 -7091199.1260442026 0 -7091199.1260442026 2449854.9668507352 0 0 0 0 -1633896405.1853027 -255919999.56699371 0 -255919999.56699371 670550287.85391998 0 0 0 0 68337368.116828918 -115542533.09681034 0 -115542533.09681034 327433474.29678285 0 0 0 0 -1732191475.9963436 -473343864.37258053 0 -473343864.37258053 304191386.55437469 0 0 0 0 -226235766.80621338 250576336.44353104 0 250576336.44353104 593512287.74644899 0 0 0 0 -237227616.18193054 420219548.27634621 0 420219548.27634621 385434948.65438843 0 0 0 0 -1896544320.8682709 -858097.50817298889 0 -858097.50817298889 1030233321.1018753 0 0 0 0 -1918770464.9668503 509573926.27026701 0 509573926.27026701 1437029145.1508484 0 0 0 0 -1900571589.8519325 95034297.266224027 0 95034297.266224027 1608081567.5101013 0 0 0 0 -1412068145.2508545 960741606.45555115 0 960741606.45555115 1834838363.454895 0 0 0 0 -2663686913.1505203 260707459.03624535 0 260707459.03624535 2311315760.0652313 0 0 0 0 -1199563975.295105 661036864.52809143 0 661036864.52809143 -4281959804.9650879 0 0 0 0 -3697339320.4484558 -1703135291.6398392 0 -1703135291.6398392 -126610212.45069885 0 0 0 0 -1748211182.4986877 -1139732009.4986572 0 -1139732009.4986572 -677652910.19532776 0 0 0 0 -638546714.90010071 1297439915.0156479 0 1297439915.0156479 1811318330.7874985 0 0 0 0 -1969548318.2979736 1127552990.6947021 0 1127552990.6947021 3149592683.7989788 0 0 0 0 -1252000208.437439 625765132.50595856 0 625765132.50595856 1176456068.7517014 0 0 0 0 -515734417.04443359 671150360.77725792 0 671150360.77725792 479555405.47722626 0 0 0 0 -923590002.78942871 846173407.96324158 0 846173407.96324158 1137430147.7819662 0 0 0 0 -1196509235.4294434 387072934.74142838 0 387072934.74142838 474691287.91864014 0 0 0 0 -813275302.33449554 488079820.24999332 0 488079820.24999332 369742762.83570862 0 0 0 0 -863250461.8377533 635022241.77367401 0 635022241.77367401 576277976.57317543 0 0 0 0 -651945849.12690258 563543529.13587141 0 563543529.13587141 51398872.836357117 0 0 0 0 -663607814.84346008 507112846.75307846 0 507112846.75307846 -35710832.452735901 0 0 0 0 -865062575.15692902 417934834.83016396 0 417934834.83016396 241360809.97209549 0 0 0 0 -1091191448.6166611 276965956.14070892 0 276965956.14070892 154563919.41374969 0 0 0 0 -1031558323.9949856 -78585123.160090446 0 -78585123.160090446 -225257563.45440674 0 0 0 0 -418542125.70238495 137237244.64820862 0 137237244.64820862 -149281952.28783417 0 0 0 0 -15994448.944848213 -37649194.421061911 0 -37649194.421061911 -23373370.036286082 0 0 0 0 -30069930.93032074 -96494506.504642487 0 -96494506.504642487 -25812794.291412354 0 0 0 0 -553926328.12341309 459243441.28674412 0 459243441.28674412 -213457762.14562225 0 0 0 0 -433226904.76300049 304068727.55410004 0 304068727.55410004 -58690353.031898499 0 0 0 0 52106819.264633179 59469710.782218933 0 59469710.782218933 36500433.485209703 0 0 0 0 -9591601.9797638692 -1366098.4902240857 0 -1366098.4902240857 1782908.978910625 0 0 0 0 11513380.258972168 -181758279.55360794 0 -181758279.55360794 45722796.444992065 0 0 0 0 -192641807.07814026 -56506479.935504913 0 -56506479.935504913 7481804.4673776627 0 0 0 0 -30879354.9022789 -90357935.601325989 0 -90357935.601325989 -58259682.588562012 0 0 0 0 -19348171.420571588 -32631015.511384048 0 -32631015.511384048 26855948.331334818 0 0 0 0 -157266765.97657013 29041017.589221954 0 29041017.589221954 63240964.131469727 0 0 0 0 989086421.43523407 -114304292.2492094 0 -114304292.2492094 -206690783.8626709 0 0 0 0 712859897.60585022 -377688308.58866882 0 -377688308.58866882 -67457041.610013962 0 0 0 0 692060187.41517639 190335664.21635056 0 190335664.21635056 -107086566.10945129 0 0 0 0 212094808.77192688 392142391.42679977 0 392142391.42679977 193968211.07328796 0 0 0 0 -69282193.573272705 98766986.527656555 0 98766986.527656555 330611895.3647213 0 0 0 0 -225371285.99346924 -169080346.66717529 0 -169080346.66717529 -62852625.886230469 0 0 0 0 243406577.68629456 -251692242.42100525 0 -251692242.42100525 -54681338.460861206 0 0 0 0 -133775957.7188797 -202850048.2387352 0 -202850048.2387352 -150769318.35159302 0 0 0 0 -9205141.8382682241 -24313798.620835811 0 -24313798.620835811 27836297.218818635 0 0 0 0 -275952603.5617981 -371136009.24697876 0 -371136009.24697876 -453908423.1987915 0 0 0 0 -644740.51440855861 -256730.1169051677 0 -256730.1169051677 1196352.5912989527 0 0 0 0 79613738.683700562 142325126.95272732 0 142325126.95272732 42431811.80871582 0 0 0 0 82389451.280151367 186465406.00763321 0 186465406.00763321 -11474056.273963928 0 0 0 0 95221164.763435364 161446271.69979286 0 161446271.69979286 -26639414.682983398 0 0 0 0 103582170.70965576 191220009.6249218 0 191220009.6249218 -104306585.6391449 0 0 0 0 -53851871.366973877 -98901471.216064453 0 -98901471.216064453 -171046719.52741432 0 0 0 0 -95559313.2140522 -69841444.624849319 0 -69841444.624849319 -30728049.234527588 0 0 0 0 -8042166.5795898438 -87989191.317756653 0 -87989191.317756653 -112289023.871315 0 0 0 0 -7822881.1131019592 838639.1662902832 0 838639.1662902832 31126453.673210144 0 0 0 0 56754781.928321838 -22448569.430301666 0 -22448569.430301666 -59259328.396179199 0 0 0 0 24593834.092433453 -1521019.9800958633 0 -1521019.9800958633 -72834698.399887085 0 0 0 0 1325223.3837327957 -109179201.86913681 0 -109179201.86913681 -189319060.9957428 0 0 0 0 3943262.3846893311 -176599860.7168541 0 -176599860.7168541 -160247144.80230713 0 0 0 0 127269499.99742126 57904751.733528137 0 57904751.733528137 -108905708.35374451 0 0 0 0 -129503675.33432007 -127641151.60814667 0 -127641151.60814667 -44489519.698799133 0 0 0 0 -92256291.860725403 -253229022.77436066 0 -253229022.77436066 -499432929.60534668 0 0 0 0 -226172175.61820984 -123409024.10955811 0 -123409024.10955811 -150988528.26298523 0 0 0 0 -280617635.00559998 -343839179.80795288 0 -343839179.80795288 -366739408.3270874 0 0 0 0 -368920608.89562988 -530176520.82321167 0 -530176520.82321167 -513912326.93255615 0 0 0 0 2399493.5754526109 -1241508.1021608775 0 -1241508.1021608775 -3348803.7366716117 0 0 0 0 -14371289.131549299 -23414038.207077175 0 -23414038.207077175 -16850622.528878696 0 0 0 0 -140182548.79341888 66024268.69178772 0 66024268.69178772 -264418984.55822945 0 0 0 0 32202553.707492828 -17198888.133399963 0 -17198888.133399963 -39293920.660017014 0 0 0 0 53039463.86554718 -35821453.139251709 0 -35821453.139251709 -44279500.778411865 0 0 0 0 -6982568.9489928167 -15433767.609952167 0 -15433767.609952167 -94008.886983849108 0 0 0 0 42140810.898033142 15816238.5701828 0 15816238.5701828 -10238483.47832489 0 0 0 0 -181806731.80196285 136972692.42715454 0 136972692.42715454 68943744.050022125 0 0 0 0 -2040473.3157623373 -8151680.1041565295 0 -8151680.1041565295 -16194591.24434156 0 0 0 0 -949655329.75616455 -478737185.77248383 0 -478737185.77248383 -320013950.06747055 0 0 0 0 -1381537068.6787186 -983316836.12234497 0 -983316836.12234497 -279548533.93226814 0 0 0 0 -17187063.45003622 -3106559.5858896375 0 -3106559.5858896375 -2376028.0474884287 0 0 0 0 -1289436513.003067 -148017571.95855331 0 -148017571.95855331 -48776246.370212555 0 0 0 0 -3815000582.5378113 -564225239.52646255 0 -564225239.52646255 -937179517.55440903 0 0 0 0 -3454070001.4017296 -1146757783.7407265 0 -1146757783.7407265 -10463517.558738708 0 0 0 0 70037.668171223253 -2443993.5146697666 0 -2443993.5146697666 -2242980.5332021266 0 0 0 0 -3273966362.6624632 -2016340521.0522804 0 -2016340521.0522804 -809150614.99713135 0 0 0 0 -1936587513.7911682 622298588.28712845 0 622298588.28712845 -3802969258.2734451 0 0 0 0 -5171792.3390210904 -63857.421872515231 0 -63857.421872515231 -1811595.3998654559 0 0 0 0 -295988803.79262924 1235884270.3302765 0 1235884270.3302765 -2507843674.9340191 0 0 0 0 -292628193.59871674 234191016.37516212 0 234191016.37516212 -321114768.20095825 0 0 0 0 -230367135.91695404 281103007.9305706 0 281103007.9305706 -288882084.80905914 0 0 0 0 -350602397.7877388 508121088.13958311 0 508121088.13958311 -695462620.30352783 0 0 0 0 -856750277.19717407 830522774.46115875 0 830522774.46115875 -258080006.96340561 0 0 0 0 -1073485321.3825722 439137070.20073318 0 439137070.20073318 203951596.64312744 0 0 0 0 -2993492783.8645401 1736573131.8441544 0 1736573131.8441544 43450429.438835144 0 0 0 0 -3527389098.2532959 452101443.312253 0 452101443.312253 1108437951.0469513 0 0 0 0 -2029494011.0769224 -515788509.08221436 0 -515788509.08221436 1341160624.560791 0 0 0 0 -1639772895.5855026 820525284.49745178 0 820525284.49745178 228462996.47195435 0 0 0 0 -818977313.94445801 -550136079.7226181 0 -550136079.7226181 -124174157.58199024 0 0 0 0 -1184801565.9818554 -675033663.92505074 0 -675033663.92505074 432380068.23051834 0 0 0 0 -772097047.02669907 204477606.81406224 0 204477606.81406224 212359013.6418457 0 0 0 0 -608768592.25275421 636319204.81266403 0 636319204.81266403 121534398.77402496 0 0 0 0 -743103872.65045166 389157498.25192642 0 389157498.25192642 183833144.07807541 0 0 0 0 -224374538.84844398 597356110.64148235 0 597356110.64148235 265094551.74417877 0 0 0 0 -609984832.63505554 284427683.48973465 0 284427683.48973465 187003911.34844971 0 0 0 0 -988425957.61131525 -1439156910.9148476 0 -1439156910.9148476 -1174898812.1932068 0 0 0 0 84711360.751569748 57193869.693662643 0 57193869.693662643 -1980195446.3096781 0 0 0 0 -712311948.0971756 -818398548.79653549 0 -818398548.79653549 -1526821544.4762974 0 0 0 0 708671.80512141529 -4840837.2246656232 0 -4840837.2246656232 -3720854.8641887642 0 0 0 0 -630109582.55155182 -1494908024.0531693 0 -1494908024.0531693 -241260326.1869812 0 0 0 0 -3044325.2467748495 -1369601.8733836161 0 -1369601.8733836161 -2200011.6563627832 0 0 0 0 -647310054.93960655 -1727751288.6441336 0 -1727751288.6441336 872600821.29924393 0 0 0 0 1189912422.395155 -433861411.02137184 0 -433861411.02137184 -582446499.87151909 0 0 0 0 -1048015137.6564345 -591983673.26711321 0 -591983673.26711321 1222276067.7584572 0 0 0 0 -2846384147.9139552 -1499934596.0037527 0 -1499934596.0037527 -240982912.23934937 0 0 0 0 -1056354052.1943665 -325031726.91603851 0 -325031726.91603851 34263311.263152599 0 0 0 0 -374290139.91217995 -513038826.77041245 0 -513038826.77041245 -1404945544.455513 0 0 0 0 -858079787.04649353 -23706820.399570465 0 -23706820.399570465 -1631094772.8968468 0 0 0 0 -201402163.52590179 72331880.1453228 0 72331880.1453228 -185012992.54782677 0 0 0 0 558156139.19327545 -297170611.90014553 0 -297170611.90014553 -652082706.31254578 0 0 0 0 12958791.584606171 -28468893.85483551 0 -28468893.85483551 -164486717.29936409 0 0 0 0 449532334.5185585 -387012609.93753815 0 -387012609.93753815 406515830.3116045 0 0 0 0 -6367038.5829292117 -1184477.1690688417 0 -1184477.1690688417 -7084146.8269852735 0 0 0 0 1327318762.5461655 -1387595790.3756638 0 -1387595790.3756638 265337531.17540693 0 0 0 0 -13007538.813597232 3799607.8860238437 0 3799607.8860238437 -8860178.6123917997 0 0 0 0 -33308228.882957458 7542013.4431610107 0 7542013.4431610107 23431127.848836899 0 0 0 0 -109767935.96324921 -232916411.29131413 0 -232916411.29131413 -311995091.67885303 0 0 0 0 -592126570.51086426 -471078311.18867207 0 -471078311.18867207 -418230615.50406361 0 0 0 0 -22254671.36715433 15155016.596684359 0 15155016.596684359 -4598625.0383908637 0 0 0 0 -7267711.038107872 81567797.145670891 0 81567797.145670891 -20295126.100208282 0 0 0 0 -113268221.62724113 -6913592.7302627563 0 -6913592.7302627563 21349442.018391132 0 0 0 0 -38419347.781999588 -69529405.638671875 0 -69529405.638671875 -101332895.04092789 0 0 0 0 -213736551.69904327 -117997082.61003208 0 -117997082.61003208 -15033833.446807861 0 0 0 0 -115022328.23183441 -7783008.4777193069 0 -7783008.4777193069 151293.02727508545 0 0 0 0 -5031436.711750051 3249521.884250999 0 3249521.884250999 291466.78006793559 0 0 0 0 -82160137.8627491 -249884888.24947166 0 -249884888.24947166 -565379521.05116653 0 0 0 0 85042902.952035904 -280148796.4806881 0 -280148796.4806881 -565714194.95813656 0 0 0 0 86519114.312814713 -339175647.62081051 0 -339175647.62081051 -975175452.01414108 0 0 0 0 -95924784.188434601 -89143976.38237381 0 -89143976.38237381 -161660316.1643486 0 0 0 0 81884521.107048035 76443990.005663872 0 76443990.005663872 -640171490.94942188 0 0 0 0 -22560011.013237 11989294.259916306 0 11989294.259916306 5093895.7816252708 0 0 0 0 -11024695.291015703 -6245276.3849337567 0 -6245276.3849337567 -3121708.0435351273 0 0 0 0 -296672211.90675354 57920107.134431839 0 57920107.134431839 74203704.688911438 0 0 0 0 19039962.981591702 206243584.07667089 0 206243584.07667089 -466042758.10962677 0 0 0 0 -2035578.9550743103 90409813.324437141 0 90409813.324437141 -307395911.47265053 0 0 0 0 -166704386.32228053 351096168.10262984 0 351096168.10262984 -513888111.49077988 0 0 0 0 -22229410.14383316 168245937.80715466 0 168245937.80715466 -704982335.32669067 0 0 0 0 36196900.948507309 245642356.32119846 0 245642356.32119846 -771241925.13257408 0 0 0 0 78646484.831287384 120864774.90797806 0 120864774.90797806 -508611427.88397074 0 0 0 0 116058837.40729904 75735625.845065117 0 75735625.845065117 -500538531.86517525 0 0 0 0 114933684.55077362 153275588.50379467 0 153275588.50379467 -625817926.18944168 0 0 0 0 7092649.0826339722 158790682.39593983 0 158790682.39593983 -265232921.23750687 0 0 0 0 -24727389.919147491 24634559.679851532 0 24634559.679851532 -187678346.36223984 0 0 0 0 -17738524.438655358 -8888010.5227507763 0 -8888010.5227507763 -4353248.1406563595 0 0 0 0 -20479815.728252411 57570733.118772507 0 57570733.118772507 -170778569.61967468 0 0 0 0 -16015284.332733154 -68532601.81320858 0 -68532601.81320858 -322300157.73310471 0 0 0 0 114133558.59827816 29843702.529073924 0 29843702.529073924 -469467161.35223007 0 0 0 0 232454421.38597488 -12773325.145452023 0 -12773325.145452023 -590143459.30754852 0 0 0 0 200858863.1130867 -106641948.9680562 0 -106641948.9680562 -550159421.46660995 0 0 0 0 -99304034.774909973 -205043633.27012157 0 -205043633.27012157 -375726260.54101276 0 0 0 0 -13221215.071527481 -39532989.767253518 0 -39532989.767253518 -145695815.98441696 0 0 0 0 88205745.487796783 70601550.228525162 0 70601550.228525162 -44858507.96030426 0 0 0 0 -23741988.130457778 9638937.3452828601 0 9638937.3452828601 -774825.70719622448 0 0 0 0 -49564086.769702911 -28517185.403087616 0 -28517185.403087616 -145693884.55268094 0 0 0 0 -15246088.658315659 -18140156.894158363 0 -18140156.894158363 -280015147.9967308 0 0 0 0 -38078883.603645325 -95812673.726894379 0 -95812673.726894379 -531381283.15428543 0 0 0 0 -11842788.720771374 -1517168.1434483826 0 -1517168.1434483826 -4541268.2994978437 0 0 0 0 24343607.650356293 -5224268.5050382614 0 -5224268.5050382614 -22306545.583698273 0 0 0 0 -7417777.9124526978 -36260664.498884201 0 -36260664.498884201 8561532.854722023 0 0 0 0 -27270621.558615178 -9445989.230096858 0 -9445989.230096858 -2362087.8586584944 0 0 0 0 -59431307.327163696 -28725611.466403961 0 -28725611.466403961 -63276764.07857132 0 0 0 0 -10861365.664388657 -15392685.959362984 0 -15392685.959362984 10556344.890471458 0 0 0 0 -33283822.411569595 -27496214.829034805 0 -27496214.829034805 37464363.378569603 0 0 0 0 -69729740.743719101 -45812518.578660011 0 -45812518.578660011 1289206.4436454773 0 0 0 0 -9765941.5024662018 14240643.247970581 0 14240643.247970581 -36481106.88681221 0 0 0 0 -2926167.8647521609 -1289374.7316049547 0 -1289374.7316049547 -952171.58283178136 0 0 0 0 -22070474.196711183 -838318.44895762205 0 -838318.44895762205 128118.16329956055 0 0 0 0 -73059837.930855036 21445843.716671318 0 21445843.716671318 5082061.7245521545 0 0 0 0 -22715571.480957031 9988405.7428264618 0 9988405.7428264618 -2609289.0792541504 0 0 0 0 -30060618.97492218 166981.87882804871 0 166981.87882804871 14984625.646636009 0 0 0 0 -13896677.497205734 511072.38721656799 0 511072.38721656799 6909136.5702171326 0 0 0 0 -37732678.976459503 10591970.911912918 0 10591970.911912918 14429212.165145874 0 0 0 0 -8972947.5196266174 -28874261.850670815 0 -28874261.850670815 -1778398.2616710663 0 0 0 0 -149552008.0029068 -77938341.026479721 0 -77938341.026479721 -41152680.939574957 0 0 0 0 -168985847.82112122 -11826743.67776823 0 -11826743.67776823 -1023744.164068222 0 0 0 0 280445.61098715942 1311469.142413144 0 1311469.142413144 -895314.33461310063 0 0 0 0 -20716795.925712585 14391054.158060074 0 14391054.158060074 2732483.7691268921 0 0 0 0 32707694.344398499 54421211.017980576 0 54421211.017980576 -13369891.201217651 0 0 0 0 -10025936.151046682 -749982.99102547951 0 -749982.99102547951 -12743046.948387694 0 0 0 0 -2474030.4386367798 -2516446.5773634911 0 -2516446.5773634911 990354.20155334473 0 0 0 0 -6571637.4795810413 -4593742.9548686771 0 -4593742.9548686771 -7537485.405377984 0 0 0 0 -1313666.335899353 -4449244.3352890015 0 -4449244.3352890015 -1735673.9348144531 0 0 0 0 -3888657.9863603162 -4925881.8714413289 0 -4925881.8714413289 -10329469.656135002 0 0 0 0 -8567449.6097574271 -3038974.7931473143 0 -3038974.7931473143 -886513.64941490628 0 0 0 0 -5555658.6344254902 -649372.38015607093 0 -649372.38015607093 327513.25052343309 0 0 0 0 -3572210.2119674683 -7459421.8694877625 0 -7459421.8694877625 1439118.4095230103 0 0 0 0 1306793.0163886882 -772741.12152725644 0 -772741.12152725644 -1916323.5676862532 0 0 0 0 46217927.06811142 46428309.568731308 0 46428309.568731308 -48544959.863044739 0 0 0 0 -51062780.054538727 24049701.497611046 0 24049701.497611046 -78102685.737249374 0 0 0 0 -25393334.267828941 -27669809.818114758 0 -27669809.818114758 16878294.519968033 0 0 0 0 -146380390.72028351 -71077821.506389618 0 -71077821.506389618 4600235.8826751709 0 0 0 0 -29587439.46097374 -101356736.34387589 0 -101356736.34387589 982969.41641807556 0 0 0 0 -178320708.82369232 49658382.755150795 0 49658382.755150795 38918400.385113239 0 0 0 0 -7680427.5359053211 -1782244.2691605147 0 -1782244.2691605147 -6219528.9589271005 0 0 0 0 -317192398.29848099 -212144953.5712471 0 -212144953.5712471 -140228677.9433651 0 0 0 0 -254899058.41317749 -233777858.68209839 0 -233777858.68209839 -132716313.81283379 0 0 0 0 -287392869.02330208 -299835788.46617842 0 -299835788.46617842 -85773227.735015869 0 0 0 0 -139359215.62017059 -272648814.56975746 0 -272648814.56975746 -116901086.76926804 0 0 0 0 -319182489.1755352 -357821103.04824448 0 -357821103.04824448 -14282967.109315872 0 0 0 0 -373325536.33308601 -271037019.10507393 0 -271037019.10507393 -95421681.802914619 0 0 0 0 -1814211.5338548236 437526.95718766423 0 437526.95718766423 62391.924139223062 0 0 0 0 -121321429.87353516 34984301.660066605 0 34984301.660066605 -46125381.170479774 0 0 0 0 -694531676.98189926 98600173.725742102 0 98600173.725742102 -44334771.281202316 0 0 0 0 -430216653.80065155 -215139187.42676926 0 -215139187.42676926 -39138462.176963806 0 0 0 0 -374666385.95587921 -192463013.90048409 0 -192463013.90048409 -36078255.092864275 0 0 0 0 -384763586.17219925 -258319058.6475811 0 -258319058.6475811 -167172058.64269352 0 0 0 0 -534769452.10660076 -296448212.3613956 0 -296448212.3613956 -92245216.901687622 0 0 0 0 32640206.093484879 75028185.04841423 0 75028185.04841423 -87720669.339752197 0 0 0 0 -10221957.67530572 -2409552.1794669013 0 -2409552.1794669013 -5541022.1635068133 0 0 0 0 -358583420.39227676 -210500707.61659241 0 -210500707.61659241 -123238784.47428513 0 0 0 0 -404130185.23914337 -222159135.17727661 0 -222159135.17727661 -64121069.152248383 0 0 0 0 -402253466.97247601 -254685740.92138863 0 -254685740.92138863 -100807700.62665939 0 0 0 0 -96188671.309890747 -53510.969168663025 0 -53510.969168663025 41777580.232925415 0 0 0 0 -22112098.487501115 -2924857.5823966572 0 -2924857.5823966572 -1106659.7894132026 0 0 0 0 -60279715.246749878 24107162.823858261 0 24107162.823858261 31725892.541305542 0 0 0 0 -340487887.45087051 -130828425.11992455 0 -130828425.11992455 -13160263.846656799 0 0 0 0 -90424754.120113373 23165045.28073597 0 23165045.28073597 63294841.430124283 0 0 0 0 61163909.387042999 3103424.9198453426 0 3103424.9198453426 -72378144.821250439 0 0 0 0 -48141564.328155518 -47771165.011381626 0 -47771165.011381626 -72173662.435119629 0 0 0 0 -14350118.825622628 1797566.5012519406 0 1797566.5012519406 -10559740.34586158 0 0 0 0 -82350364.234477997 -73063227.135280609 0 -73063227.135280609 33199286.337735653 0 0 0 0 1009258.9863608032 2128731.0900955033 0 2128731.0900955033 -994700.74570293259 0 0 0 0 -222253846.67629242 -416105889.53844738 0 -416105889.53844738 38625532.423546791 0 0 0 0 -456521670.74425077 -479575999.36184061 0 -479575999.36184061 463671015.60525322 0 0 0 0 -148866046.2951107 -314454902.41194439 0 -314454902.41194439 -176422978.18220139 0 0 0 0 -293954686.43983459 -680479373.18256998 0 -680479373.18256998 -320256388.75795174 0 0 0 0 -165037032.57952499 -154262778.04102802 0 -154262778.04102802 -359970742.94788742 0 0 0 0 -137333075.68441963 -500299483.63350582 0 -500299483.63350582 -195045275.09999084 0 0 0 0 -145026968.14366913 -341013747.46531296 0 -341013747.46531296 -474650853.43102598 0 0 0 0 -46293193.499328613 -148004465.45355701 0 -148004465.45355701 146684244.94460869 0 0 0 0 205200417.34689713 -553676775.36145496 0 -553676775.36145496 58665587.373194695 0 0 0 0 -111645398.88780499 -143337308.14342737 0 -143337308.14342737 360273943.70574188 0 0 0 0 -5631537.3543450404 2042279.2319671791 0 2042279.2319671791 281265.8885905249 0 0 0 0 15611137.50043869 -327541518.21243095 0 -327541518.21243095 437946427.63388395 0 0 0 0 -32106965.765487671 -119201742.76809216 0 -119201742.76809216 371570584.99328899 0 0 0 0 -235600176.21219826 -197007171.8491497 0 -197007171.8491497 348209214.97107887 0 0 0 0 -242739837.59160042 -32505852.783238411 0 -32505852.783238411 577018084.03066254 0 0 0 0 -219982188.71898079 -188946974.90698934 0 -188946974.90698934 377250383.69034195 0 0 0 0 -94744063.16012001 44032993.562786102 0 44032993.562786102 387528778.6486578 0 0 0 0 -49110123.518344402 28963519.771887183 0 28963519.771887183 364647594.31186676 0 0 0 0 -23239220.562198393 13065127.25019804 0 13065127.25019804 -6056464.3107776064 0 0 0 0 28956423.310516357 78384209.96011734 0 78384209.96011734 59125836.007488251 0 0 0 0 43662019.952888489 85896326.935773849 0 85896326.935773849 32411663.238495827 0 0 0 0 12971371.949615479 1312217.0331802368 0 1312217.0331802368 -13082200.239608765 0 0 0 0 -21554318.184104919 22723518.23859787 0 22723518.23859787 22954136.056884766 0 0 0 0 38195720.02696991 31105960.178695679 0 31105960.178695679 -5687343.6623535156 0 0 0 0 32552670.78125 50591120.331031799 0 50591120.331031799 11216567.809589386 0 0 0 0 -32472763.268157959 59414980.758628845 0 59414980.758628845 104492585.82687378 0 0 0 0 -1483968.6550082639 626780.45459486917 0 626780.45459486917 545101.53401361406 0 0 0 0 -42483810.156543255 -32386148.194629431 0 -32386148.194629431 277659225.56078339 0 0 0 0 -14117437.518082129 5791498.8339738958 0 5791498.8339738958 3331903.5217900006 0 0 0 0 -38219508.23960495 46373069.648462296 0 46373069.648462296 -39648514.498523712 0 0 0 0 -134637968.9787426 52931783.73913765 0 52931783.73913765 -39856895.479906082 0 0 0 0 -78201715.359119415 5663119.495388031 0 5663119.495388031 111914951.07460976 0 0 0 0 -76795102.458410263 74928703.630058289 0 74928703.630058289 54558979.118543625 0 0 0 0 -44932538.159633636 14468201.420462608 0 14468201.420462608 21829402.807282209 0 0 0 0 -59502465.437080383 42475429.858515739 0 42475429.858515739 7814221.7152233124 0 0 0 0 -49006813.807350159 25476930.488595009 0 25476930.488595009 8111242.0359650999 0 0 0 0 -59479490.825740814 32291487.339238167 0 32291487.339238167 24783157.675811768 0 0 0 0 -26081011.641134232 1712872.7365900353 0 1712872.7365900353 -2438336.1506940098 0 0 0 0 -16128335.490493774 20257306.824371338 0 20257306.824371338 10098538.451097488 0 0 0 0 27113387.767120361 -171093323.46680069 0 -171093323.46680069 116511283.55562401 0 0 0 0 -6541139.2965087891 -82220351.580257416 0 -82220351.580257416 93615638.336730003 0 0 0 0 -53044327.696370244 -9787466.7409816608 0 -9787466.7409816608 -4585114.2242746865 0 0 0 0 -11368764.067832172 -5357543.1993050538 0 -5357543.1993050538 5914469.7557320576 0 0 0 0 -4137644.6410827637 -82753829.935293198 0 -82753829.935293198 294653336.60294914 0 0 0 0 -62194302.419143677 -27808371.822854996 0 -27808371.822854996 353871064.92783928 0 0 0 0 -64675244.48928833 -52756104.882491112 0 -52756104.882491112 127783280.96152496 0 0 0 0 -16226047.600265503 -212155686.68428707 0 -212155686.68428707 355254318.76132202 0 0 0 0 94275021.645004272 -60652239.663881302 0 -60652239.663881302 13835688.27882576 0 0 0 0 -18882397.659644552 -4068754.5163411722 0 -4068754.5163411722 -5691516.6150477473 0 0 0 0 -4657845.8893168122 -1561169.4600168802 0 -1561169.4600168802 2203357.4977102056 0 0 0 0 -210983356.69368935 -333669826.96442246 0 -333669826.96442246 -34920470.405445099 0 0 0 0 -12848043.75030873 -4571186.3933292143 0 -4571186.3933292143 -1520256.9580049021 0 0 0 0 52567217.555755615 -10051853.505048752 0 -10051853.505048752 -73938646.762020111 0 0 0 0 -25333226.460569382 -39353143.405896187 0 -39353143.405896187 -44149585.551784515 0 0 0 0 -6064756.6212709248 -2723865.6640977487 0 -2723865.6640977487 -1544813.1414428055 0 0 0 0 -12503724.461624146 -6113191.2440910339 0 -6113191.2440910339 -8276404.07762146 0 0 0 0 -5122957.7819786072 20253156.447088242 0 20253156.447088242 -10695214.645950317 0 0 0 0 -41988335.827640645 3237704.8501468413 0 3237704.8501468413 -1273230.0144664701 0 0 0 0 -15426229.602783203 23800803.003471375 0 23800803.003471375 6883305.864151001 0 0 0 0 13838555.403259277 16430344.668640137 0 16430344.668640137 -13223931.026943207 0 0 0 0 -1031654.1802368164 32217168.708175659 0 32217168.708175659 2130394.7143974304 0 0 0 0 -915717.00576782227 32588975.971195221 0 32588975.971195221 -1713447.1626434326 0 0 0 0 -16355138.60144043 16198556.178794861 0 16198556.178794861 -4785246.6310806274 0 0 0 0 -5257987.4403171539 11461879.429392338 0 11461879.429392338 -27027392.677764893 0 0 0 0 -3097489.1319274902 9983709.0811843872 0 9983709.0811843872 -26030312.021659851 0 0 0 0 -469924774.51318359 -296887221.24129677 0 -296887221.24129677 -183471839.70671582 0 0 0 0 -34797564.174148843 13722398.266173031 0 13722398.266173031 2826421.7555156136 0 0 0 0 -583741670.94190788 -149276594.89305484 0 -149276594.89305484 3906782.7970275879 0 0 0 0 -434635332.91717529 -134420545.59512711 0 -134420545.59512711 -50021444.855971336 0 0 0 0 -570912510.48262024 -244165670.77712631 0 -244165670.77712631 -66102460.67279923 0 0 0 0 -9862628.9265518188 9710152.14047575 0 9710152.14047575 7681263.5277614594 0 0 0 0 -583500391.00160599 -142653501.33794975 0 -142653501.33794975 18308554.141759872 0 0 0 0 -40040084.470936365 16590943.717715926 0 16590943.717715926 -2852425.2289754893 0 0 0 0 -39597682.744895935 -22182699.530509949 0 -22182699.530509949 -36344768.671478271 0 0 0 0 -367973880.98384666 -195480889.44715214 0 -195480889.44715214 -8188969.5866661072 0 0 0 0 -380462504.82009888 -226209513.88761902 0 -226209513.88761902 -80865178.491584778 0 0 0 0 -409825823.16302872 -239171734.60388756 0 -239171734.60388756 -27060295.443992615 0 0 0 0 -62870683.471485183 -12279135.26794512 0 -12279135.26794512 -850015.97988721635 0 0 0 0 -380149431.07300568 -166629531.12539673 0 -166629531.12539673 28281408.320158005 0 0 0 0 -444449771.28433228 -72070387.279592514 0 -72070387.279592514 -110420047.91256332 0 0 0 0 -57735674.495079197 -12339759.39977069 0 -12339759.39977069 -2823215.391418091 0 0 0 0 -248856810.3061924 -202674411.06001949 0 -202674411.06001949 56128288.702612877 0 0 0 0 -310300360.89297485 -41460707.061489105 0 -41460707.061489105 149862665.04083538 0 0 0 0 -387723437.50297546 -172172793.62836075 0 -172172793.62836075 56260974.67914772 0 0 0 0 -364863998.33917272 -218013824.31742018 0 -218013824.31742018 -946699.17388534546 0 0 0 0 -368496773.56503052 -45876831.075801417 0 -45876831.075801417 -4473992.5710678101 0 0 0 0 -11472891.307025909 -40535991.678412437 0 -40535991.678412437 -12796188.235204935 0 0 0 0 -98283791.58266449 -13539398.440215588 0 -13539398.440215588 149901141.37034225 0 0 0 0 -5027231.2675552368 -74320396.806781054 0 -74320396.806781054 119094309.78656197 0 0 0 0 -62463671.487503052 -74168082.916145325 0 -74168082.916145325 245515065.80969048 0 0 0 0 -33314477.271759033 -22736490.773077011 0 -22736490.773077011 223115196.52889156 0 0 0 0 -292686626.77323914 -102605023.87823296 0 -102605023.87823296 208519333.32954741 0 0 0 0 -68022304.699279785 -98205125.934120178 0 -98205125.934120178 293265787.18602371 0 0 0 0 -94716385.229553223 -50917917.789806366 0 -50917917.789806366 216862373.62947655 0 0 0 0 -426081633.37861633 -191736863.13865757 0 -191736863.13865757 420297915.43941498 0 0 0 0 -432154002.57629395 -74326588.074026108 0 -74326588.074026108 196779439.48593521 0 0 0 0 -447395804.49461365 -128192707.37594795 0 -128192707.37594795 94672586.394088745 0 0 0 0 -458790321.00177002 -85895842.731349945 0 -85895842.731349945 12548578.357235193 0 0 0 0 -479943194.8004303 -40296506.527925491 0 -40296506.527925491 199424452.2606163 0 0 0 0 -302861147.83189011 -60696803.083972931 0 -60696803.083972931 159475202.82552338 0 0 0 0 -427777929.29957581 -95069721.516183853 0 -95069721.516183853 236599390.01531219 0 0 0 0 -499309893.23135376 2677179.5868663788 0 2677179.5868663788 245002002.20883942 0 0 0 0 -510790406.7903595 27806239.363479614 0 27806239.363479614 176525462.12691975 0 0 0 0 -471484601.6388855 -14747512.486692429 0 -14747512.486692429 196263402.78546906 0 0 0 0 -427449171.41821289 13759223.005378723 0 13759223.005378723 146813560.05677605 0 0 0 0 -471299204.64859009 -20085039.58234787 0 -20085039.58234787 126635253.84729004 0 0 0 0 -389943670.09754181 -36805035.895100117 0 -36805035.895100117 81723382.726238251 0 0 0 0 -453498643.07318115 -84656030.548751831 0 -84656030.548751831 59983147.72550869 0 0 0 0 -490579672.70944214 -67241781.796047211 0 -67241781.796047211 133690877.24305916 0 0 0 0 -442566399.10394287 -60378277.198446274 0 -60378277.198446274 86183689.532054901 0 0 0 0 -501601126.23448181 -142356512.36986923 0 -142356512.36986923 40627665.452503204 0 0 0 0 -444966358.68481445 -161923874.05633163 0 -161923874.05633163 -39171637.496124268 0 0 0 0 -533682942.99685669 79242818.797861099 0 79242818.797861099 125724385.938797 0 0 0 0 -525193349.89152527 111573115.10462952 0 111573115.10462952 111421977.36049843 0 0 0 0 -573659655.69007874 5278657.9986190796 0 5278657.9986190796 67625274.693284988 0 0 0 0 -450518357.91954803 34887620.753937721 0 34887620.753937721 119709043.91509628 0 0 0 0 -471354243.83424377 47989476.466064453 0 47989476.466064453 132888106.50294495 0 0 0 0 -499630692.17408752 -14935878.168429136 0 -14935878.168429136 202077085.3217659 0 0 0 0 -705648895.86810303 54812672.300323486 0 54812672.300323486 184098844.84720707 0 0 0 0 -608687766.35778809 21651740.370573044 0 21651740.370573044 74024527.650373459 0 0 0 0 -555713747.49206543 20601129.726133347 0 20601129.726133347 40085305.870948792 0 0 0 0 -4500386.7694702148 10996389.406227112 0 10996389.406227112 58954513.448274612 0 0 0 0 -3642667.7537018061 3753175.3461111933 0 3753175.3461111933 4473346.3673305213 0 0 0 0 -569335690.97309875 68215168.170713425 0 68215168.170713425 7913485.9670944214 0 0 0 0 -711979841.10971451 211671383.59688151 0 211671383.59688151 -51049053.051902771 0 0 0 0 114700.92812301219 94734.145724989474 0 94734.145724989474 -747149.78148819134 0 0 0 0 41469356.9425354 -384601733.64832115 0 -384601733.64832115 487526681.38252068 0 0 0 0 95717729.172203064 -104791341.70951223 0 -104791341.70951223 266077954.5287323 0 0 0 0 -36011569.469036102 -7889895.3967351913 0 -7889895.3967351913 243297878.55686951 0 0 0 0 8316051.0620269775 -62604930.263612747 0 -62604930.263612747 278524457.5831337 0 0 0 0 20062269.338935852 -55162895.057647705 0 -55162895.057647705 254204778.81099319 0 0 0 0 -116944.29917871952 -4347240.9319220744 0 -4347240.9319220744 -3347670.4635032155 0 0 0 0 70736014.657470703 -99561045.367346764 0 -99561045.367346764 195498249.36829376 0 0 0 0 43173978.646347046 -126666485.49764633 0 -126666485.49764633 275415404.93561602 0 0 0 0 -86694562.021198273 48449567.117451668 0 48449567.117451668 41975806.144802094 0 0 0 0 -93972257.699966431 136562341.99815178 0 136562341.99815178 -9173848.4663391113 0 0 0 0 -3437542.687952321 5084631.507396929 0 5084631.507396929 3773508.0933955461 0 0 0 0 105115229.62864685 59639501.911905289 0 59639501.911905289 -5673957.5059986115 0 0 0 0 -571178581.99440002 12740621.921722412 0 12740621.921722412 31293504.62959671 0 0 0 0 -829718297.0459137 -37580217.717157364 0 -37580217.717157364 41168142.279306412 0 0 0 0 -604260038.40986633 22205565.174105167 0 22205565.174105167 -99141233.473209381 0 0 0 0 -652511059.50636292 50047923.862401962 0 50047923.862401962 60429057.393572807 0 0 0 0 -408592504.9769516 -589250647.03484249 0 -589250647.03484249 -348709358.39881897 0 0 0 0 -334992807.01124573 -320223996.83299065 0 -320223996.83299065 2392938.3606548309 0 0 0 0 -266556868.40747166 -713476838.9481293 0 -713476838.9481293 -529501232.75175095 0 0 0 0 -111255237.0385704 3141691.902261734 0 3141691.902261734 528163314.0483551 0 0 0 0 -185654179.73973083 55447528.724090576 0 55447528.724090576 386684096.5898819 0 0 0 0 82097408.616119385 -385831343.5880394 0 -385831343.5880394 -27071859.710067749 0 0 0 0 -110238475.2901001 74080867.014980316 0 74080867.014980316 192699034.0462532 0 0 0 0 -175067570.10174561 -82926319.018291473 0 -82926319.018291473 479594768.04482269 0 0 0 0 -98609921.1980896 -59174722.515106201 0 -59174722.515106201 312394523.03250122 0 0 0 0 -115318664.78582001 -26423065.693379402 0 -26423065.693379402 267049722.90391922 0 0 0 0 -27523510.056976318 -36987200.022640228 0 -36987200.022640228 228351117.79629135 0 0 0 0 -19739413.47064209 -18566059.414865494 0 -18566059.414865494 221524618.66413879 0 0 0 0 19989283.699050903 -21614812.555500031 0 -21614812.555500031 76750623.374088287 0 0 0 0 -96733777.014205933 9507073.25258255 0 9507073.25258255 201507555.27786064 0 0 0 0 -453020274.92596436 -37146292.918714523 0 -37146292.918714523 114671131.22835541 0 0 0 0 -98491350.935409546 -50258829.664325714 0 -50258829.664325714 80807707.002885818 0 0 0 0 -1144196237.8209686 -184838213.50731277 0 -184838213.50731277 64669450.35735321 0 0 0 0 -72339966.501476288 11517361.648667336 0 11517361.648667336 -15236941.600986481 0 0 0 0 -33096283.913482666 -91517131.812738419 0 -91517131.812738419 90982484.065052509 0 0 0 0 1211147.1083289236 -3313296.7210551891 0 -3313296.7210551891 -4405293.8518837411 0 0 0 0 -830473.55422973633 -102995901.95051003 0 -102995901.95051003 88105837.472408295 0 0 0 0 -298752202.12828064 -76677200.297700882 0 -76677200.297700882 93623361.164060593 0 0 0 0 -78957371.426589966 -154213421.79768753 0 -154213421.79768753 -255559260.55677795 0 0 0 0 1001437.9538207501 -1420405.4691525884 0 -1420405.4691525884 -2447010.9534587525 0 0 0 0 -315449705.18977356 -911870965.442173 0 -911870965.442173 -881384593.75551224 0 0 0 0 -713933727.68147278 -980669011.04207897 0 -980669011.04207897 -796931388.75064468 0 0 0 0 -449110270.7032547 -610430494.65606499 0 -610430494.65606499 -326469328.00868988 0 0 0 0 -440635426.05466843 -734044290.10100853 0 -734044290.10100853 -458749574.38690948 0 0 0 0 -703921281.97743225 -590752380.81773758 0 -590752380.81773758 -516014880.70119286 0 0 0 0 -738062836.2334671 -571697061.07365036 0 -571697061.07365036 -290736415.10354233 0 0 0 0 1531511.1027632281 201781.66585227847 0 201781.66585227847 -2312692.2731742226 0 0 0 0 -1167014485.6047096 -6447365.538485527 0 -6447365.538485527 -70905660.175373077 0 0 0 0 -1142153056.759819 -652513782.08217335 0 -652513782.08217335 177810322.60120392 0 0 0 0 -1397582889.1459198 -269299624.45785522 0 -269299624.45785522 200651829.60547256 0 0 0 0 -1074235614.1899872 -612182998.0648365 0 -612182998.0648365 -291622312.76086783 0 0 0 0 -853180854.82659912 -825630239.13816833 0 -825630239.13816833 -357134872.49945831 0 0 0 0 -303046810.73368073 108940225.13252449 0 108940225.13252449 -85881497.515914917 0 0 0 0 -296422962.4745636 168558323.14824486 0 168558323.14824486 171597658.34042358 0 0 0 0 20408195.238365173 -270112151.18010902 0 -270112151.18010902 -57539224.018020153 0 0 0 0 -822759490.08125305 -314426534.7334919 0 -314426534.7334919 -56540309.156562805 0 0 0 0 -291143629.14128113 48519180.650455475 0 48519180.650455475 -111775405.36914062 0 0 0 0 -240897380.5748558 147786304.4499836 0 147786304.4499836 -61956649.207584381 0 0 0 0 -5713237.6619508984 -1751299.709689226 0 -1751299.709689226 -1370290.44427168 0 0 0 0 -357998010.85015106 280798240.66868639 0 280798240.66868639 -211661074.56287384 0 0 0 0 5674957.8831270933 -3595085.9502123669 0 -3595085.9502123669 -509830.21101813298 0 0 0 0 -6416891.4958904386 -5419145.9146741126 0 -5419145.9146741126 -761736.09635701356 0 0 0 0 -931547.6372756958 -3472815.4200692177 0 -3472815.4200692177 1084006.0163383484 0 0 0 0 -483776006.04444885 299570554.46853638 0 299570554.46853638 -211414333.32965279 0 0 0 0 -3913053.1923527382 -2926489.3834190201 0 -2926489.3834190201 -534414.07651363313 0 0 0 0 19958.335006713867 4293722.9408807755 0 4293722.9408807755 10220377.512756348 0 0 0 0 -1007111249.4623108 697608867.61952972 0 697608867.61952972 334838512.91816902 0 0 0 0 -970038984.28921509 120485667.66516876 0 120485667.66516876 -116748780.14745522 0 0 0 0 -941837554.17513275 4122820.1797027588 0 4122820.1797027588 363205373.76360321 0 0 0 0 -789644997.67430878 -95856865.573338032 0 -95856865.573338032 -71572738.018051147 0 0 0 0 -2207260654.5952148 -37653107.51997757 0 -37653107.51997757 567969614.43633652 0 0 0 0 -1176425489.1293736 4594499.0398216248 0 4594499.0398216248 310135318.60424042 0 0 0 0 -1515086617.5122375 -1235988576.7066193 0 -1235988576.7066193 -2558853368.30163 0 0 0 0 -2681868008.2415771 759746729.82687569 0 759746729.82687569 -364897829.26366425 0 0 0 0 341837313.4371109 -451561582.87766647 0 -451561582.87766647 -616613127.05147934 0 0 0 0 -8163769.9036903381 -4466936.1009178162 0 -4466936.1009178162 -2252743.7563934326 0 0 0 0 387598.97964621801 -5823432.1258266345 0 -5823432.1258266345 -5516837.5287022591 0 0 0 0 -1734784701.1575317 -851045186.35437012 0 -851045186.35437012 117313072.63832474 0 0 0 0 -3012080724.1308594 -952896103.65392113 0 -952896103.65392113 330311413.39348412 0 0 0 0 -4551353.4577039555 -2083571.2555489088 0 -2083571.2555489088 -954132.18733669911 0 0 0 0 -873745002.32138062 -1623809553.0989232 0 -1623809553.0989232 -1728815419.678566 0 0 0 0 -277706372.26765442 -284608180.64836979 0 -284608180.64836979 -70641275.616219521 0 0 0 0 160284464.37382507 -105825859.38017654 0 -105825859.38017654 -368032393.02198792 0 0 0 0 157989808.78695679 -10583356.333660126 0 -10583356.333660126 -3843690.5219259262 0 0 0 0 -1333454147.4419422 -894207401.90132928 0 -894207401.90132928 54588892.554698944 0 0 0 0 -2255744527.1503754 -1058090645.6037369 0 -1058090645.6037369 -133255961.78447723 0 0 0 0 -1361953372.6565266 -691283414.01452446 0 -691283414.01452446 -77765449.403656006 0 0 0 0 -2432537878.699173 -828320026.06552887 0 -828320026.06552887 562235690.58727264 0 0 0 0 -2397722680.5958862 411673259.9829998 0 411673259.9829998 329331487.81373405 0 0 0 0 -3230682188.8468781 -1159188025.1034069 0 -1159188025.1034069 432862763.67254639 0 0 0 0 -1735028014.7262268 -1146677667.5545654 0 -1146677667.5545654 -100420578.42717171 0 0 0 0 -2373131510.0162659 -722435687.29570961 0 -722435687.29570961 374465412.76711273 0 0 0 0 -3647117.3752288818 -3380095.0854673386 0 -3380095.0854673386 1799201.2409210205 0 0 0 0 -246572275.40093994 129480183.97778511 0 129480183.97778511 -78765853.13494873 0 0 0 0 3913235.5220184326 -7436175.2365264893 0 -7436175.2365264893 -4406407.6899414062 0 0 0 0 -1286888.921801338 -6225048.5372551251 0 -6225048.5372551251 -2292940.9462454654 0 0 0 0 273546.44923400879 -8701525.0399646759 0 -8701525.0399646759 215775.15335845947 0 0 0 0 10029730.376152039 -7784096.3076095581 0 -7784096.3076095581 -454969.51637172699 0 0 0 0 12226179.755683899 -11074925.274560928 0 -11074925.274560928 -932170.95016479492 0 0 0 0 5094866.9390563965 -3189043.7867660522 0 -3189043.7867660522 -2116875.5739974976 0 0 0 0 -5486907207.5296478 -343880442.40875053 0 -343880442.40875053 258679024.16738129 0 0 0 0 -3691050877.1256104 -789973751.5232811 0 -789973751.5232811 389194771.7684288 0 0 0 0 -3574741854.9145813 -739602989.30712509 0 -739602989.30712509 -322339909.36864471 0 0 0 0 -1613330.4579565562 -9449.2448978200555 0 -9449.2448978200555 651657.49081738293 0 0 0 0 -2272877988.5782318 -965335677.19274139 0 -965335677.19274139 -379989358.34992218 0 0 0 0 495685.9663277138 -1671820.8221118227 0 -1671820.8221118227 -2545513.3224324435 0 0 0 0 -2902007867.2171116 -100155754.50249767 0 -100155754.50249767 -1277239997.6972351 0 0 0 0 -2496253619.0571136 -2026814694.8617859 0 -2026814694.8617859 -1128881829.7404404 0 0 0 0 -4795204374.4260406 -1536975876.840229 0 -1536975876.840229 -65433127.831874847 0 0 0 0 -9423116.3430843353 -116161097.64566326 0 -116161097.64566326 -854088777.34733963 0 0 0 0 -1472326.3039854206 -4900486.7555472665 0 -4900486.7555472665 4646476.7249390334 0 0 0 0 -2420366185.7523575 -1619565611.9552283 0 -1619565611.9552283 -486859128.35618591 0 0 0 0 -3652157.1164169721 85559.714524645358 0 85559.714524645358 2501933.9767046273 0 0 0 0 -557963487.51707458 -197417172.79780197 0 -197417172.79780197 98431403.165794373 0 0 0 0 -705821751.31292725 -496707300.92132568 0 -496707300.92132568 246014948.92622185 0 0 0 0 -2967170503.9656534 -646934643.4889195 0 -646934643.4889195 -37398775.248081207 0 0 0 0 -1058478865.6858978 -1576976110.5969849 0 -1576976110.5969849 -100526420.49748588 0 0 0 0 85360301.332614422 275878240.20762324 0 275878240.20762324 29439220.48554039 0 0 0 0 -4433005.8925094604 -115455124.45693207 0 -115455124.45693207 -86425253.806710243 0 0 0 0 68096563.163028717 65635255.937034607 0 65635255.937034607 -51629211.17117691 0 0 0 0 -302700530.29130554 886661378.54269218 0 886661378.54269218 -595959463.81406784 0 0 0 0 -1447561800.3867188 -345295198.52803421 0 -345295198.52803421 389751006.78098106 0 0 0 0 -5307829.5163748562 512952.64344204962 0 512952.64344204962 -1047956.2138119675 0 0 0 0 -1106604134.7415771 -334011291.13307571 0 -334011291.13307571 -740698455.51296425 0 0 0 0 5774468.0619812012 -40975286.28030777 0 -40975286.28030777 1574265.3600234985 0 0 0 0 69574943.962532043 -63103061.11658287 0 -63103061.11658287 4521427.917514801 0 0 0 0 10883158.652565002 -54109688.461244583 0 -54109688.461244583 -3030600.9455451965 0 0 0 0 -36715830.274158478 -78047341.475790977 0 -78047341.475790977 29594670.949890137 0 0 0 0 -28915572.684341431 -66270436.715690613 0 -66270436.715690613 11590409.195747375 0 0 0 0 -35219023.658287048 -64514445.787145615 0 -64514445.787145615 31072988.389053345 0 0 0 0 -21292968.994194031 -57177864.191063404 0 -57177864.191063404 9160422.6722145081 0 0 0 0 -9465683.1333770752 -71835634.631917953 0 -71835634.631917953 27232446.504302979 0 0 0 0 -27516912.755470276 -60212878.712044716 0 -60212878.712044716 49741355.616821289 0 0 0 0 3294221.4247436523 -85729659.08807373 0 -85729659.08807373 53399411.571828842 0 0 0 0 5582772.578918457 -68409088.816452026 0 -68409088.816452026 29846919.951473236 0 0 0 0 6505940.7774906158 -75824282.226093054 0 -75824282.226093054 45003117.912712097 0 0 0 0 60640277.284301758 -104880890.91662216 0 -104880890.91662216 67585969.360151291 0 0 0 0 27314261.249137878 -61408031.261678696 0 -61408031.261678696 43975111.71875 0 0 0 0 167110599.45308304 41335781.305153847 0 41335781.305153847 93880705.055778503 0 0 0 0 65531579.265258789 -35983958.684070587 0 -35983958.684070587 48461402.335306168 0 0 0 0 -2018705.1522818916 -2329434.2345998213 0 -2329434.2345998213 3899592.1601366103 0 0 0 0 88142008.201728821 -2370450.3385848999 0 -2370450.3385848999 976943.70114135742 0 0 0 0 -702556463.37887573 -594579462.57682037 0 -594579462.57682037 -105410581.16090393 0 0 0 0 -531401942.07830811 -276789228.72832417 0 -276789228.72832417 -252340734.38011169 0 0 0 0 28623508.712982178 3010705.2694396973 0 3010705.2694396973 1182089.3273808956 0 0 0 0 9952380.984457016 -7275561.6424856186 0 -7275561.6424856186 1488664.0333633423 0 0 0 0 53752275.962394714 -35619704.128255844 0 -35619704.128255844 -13927175.614864349 0 0 0 0 69330048.991717994 -15091332.000152141 0 -15091332.000152141 1621726.8597183228 0 0 0 0 59339989.023308754 -7030627.0623846054 0 -7030627.0623846054 -13352030.918067932 0 0 0 0 47796956.882240295 -24772241.195196152 0 -24772241.195196152 -32116690.729194641 0 0 0 0 29894146.918441772 -44919430.409643173 0 -44919430.409643173 -25095473.073535919 0 0 0 0 28565195.949363708 -16941660.682472229 0 -16941660.682472229 -13967363.983083725 0 0 0 0 18459408.994506836 -5099083.7493667603 0 -5099083.7493667603 -1349377.4069709778 0 0 0 0 26608603.227149963 -24762124.619565964 0 -24762124.619565964 -6268532.4309978485 0 0 0 0 3728825.3820648193 -19973454.290857315 0 -19973454.290857315 10022581.980739594 0 0 0 0 35160856.615478516 -67478033.425357819 0 -67478033.425357819 17704896.949068069 0 0 0 0 30706170.926548004 -38137755.516138554 0 -38137755.516138554 -13041784.416030884 0 0 0 0 66403883.88494873 -31114078.839893341 0 -31114078.839893341 -32852683.86954546 0 0 0 0 -101489615.34327698 -70185883.820121765 0 -70185883.820121765 -17047990.462222099 0 0 0 0 -9098317.2738227844 -3544891.6439199448 0 -3544891.6439199448 -27240391.033180237 0 0 0 0 -41367860.252975464 -32687627.334217072 0 -32687627.334217072 -4862472.2611923218 0 0 0 0 -37581708.841688156 -91130339.916030049 0 -91130339.916030049 -22165738.900093079 0 0 0 0 -35504296.312683105 -65713053.817428589 0 -65713053.817428589 -43863511.648479462 0 0 0 0 -54794275.495651245 -90681212.643566132 0 -90681212.643566132 -4648336.1881103516 0 0 0 0 -77568970.619796753 -130264092.11948013 0 -130264092.11948013 -87244226.34098053 0 0 0 0 -231817633.24778748 20398586.828994751 0 20398586.828994751 358598552.5532608 0 0 0 0 -429467.22713601589 -949981.5625389535 0 -949981.5625389535 322724.42992956005 0 0 0 0 -230431.90222835541 -5574458.1571547482 0 -5574458.1571547482 -404677.83560416673 0 0 0 0 99385368.790596008 -80231685.210021973 0 -80231685.210021973 155638872.8073616 0 0 0 0 12427662.74646759 -88258319.577821732 0 -88258319.577821732 -192811972.11904526 0 0 0 0 -40979775.470307827 -124920827.05726576 0 -124920827.05726576 -37314690.74118042 0 0 0 0 -37872747.905865669 -154453808.14499187 0 -154453808.14499187 42457348.145584106 0 0 0 0 -52995811.462398529 -96268267.490235329 0 -96268267.490235329 -33143733.689273834 0 0 0 0 -23301236.238300323 -124299067.98293877 0 -124299067.98293877 -48704913.62374115 0 0 0 0 -23557449.985275269 -66466031.840286255 0 -66466031.840286255 -124506100.62153053 0 0 0 0 -70433073.224052429 -164283479.75614166 0 -164283479.75614166 -158198972.34241486 0 0 0 0 -79483262.243484497 -156310771.33529282 0 -156310771.33529282 -92942853.704788208 0 0 0 0 -34805498.632545471 -141460265.73729324 0 -141460265.73729324 -241765314.5455246 0 0 0 0 -362773546.75192261 -12917097.271514893 0 -12917097.271514893 531064164.7471962 0 0 0 0 299017.43070856482 -1336569.0839363802 0 -1336569.0839363802 -541400.02952757105 0 0 0 0 -106230612.44538116 -95690024.822839737 0 -95690024.822839737 188059085.02468109 0 0 0 0 20820118.043151855 -31275362.708465576 0 -31275362.708465576 -288888685.32099533 0 0 0 0 -40695.500576019287 -86577365.180381775 0 -86577365.180381775 -137395000.63380432 0 0 0 0 1570794.8756256104 13942962.618846893 0 13942962.618846893 -131820541.10425568 0 0 0 0 -1854404.0969733223 -5991411.0447806343 0 -5991411.0447806343 1295165.586567604 0 0 0 0 -838270.40871810913 -9026729.5680332184 0 -9026729.5680332184 -6456607.8966026306 0 0 0 0 29781947.106063843 649550.07991027832 0 649550.07991027832 6614889.0692253113 0 0 0 0 -7537328.2458724976 -7253062.7078590393 0 -7253062.7078590393 893894.7691078186 0 0 0 0 -503903.3472366333 -30329077.914449692 0 -30329077.914449692 55583593.095155716 0 0 0 0 -755092.0192332156 -2670804.1942534558 0 -2670804.1942534558 539796.48253351636 0 0 0 0 -139278278.2616272 48127592.14183569 0 48127592.14183569 35475168.520015717 0 0 0 0 55274685.91027832 -108866043.69344711 0 -108866043.69344711 -95197291.439596653 0 0 0 0 45765331.435241699 15301583.112001419 0 15301583.112001419 -110153816.30086517 0 0 0 0 15738920.193641663 -65647078.607448578 0 -65647078.607448578 38911674.86545372 0 0 0 0 22786516.137649536 -5965012.2832260132 0 -5965012.2832260132 7032521.8329696655 0 0 0 0 48888806.612617493 -6059140.0190644264 0 -6059140.0190644264 1312293.4589538574 0 0 0 0 15196211.576728821 629616.85125732422 0 629616.85125732422 5697539.1388168335 0 0 0 0 3545189.4428100586 1298195.987569809 0 1298195.987569809 19476986.82390213 0 0 0 0 -1751799.8522227108 -5801351.8951824056 0 -5801351.8951824056 -1359667.5687373076 0 0 0 0 -2038656.5852737427 10498576.05903244 0 10498576.05903244 13751443.181331635 0 0 0 0 9673658.7762756348 729092.97756958008 0 729092.97756958008 -21213689.060260773 0 0 0 0 -27353357.050575256 -42406689.021072388 0 -42406689.021072388 -33829406.763652802 0 0 0 0 -12699736.293502808 -6897367.2663459778 0 -6897367.2663459778 1842866.0511550903 0 0 0 0 13251988.151634216 6261844.4001369476 0 6261844.4001369476 -10599881.698280334 0 0 0 0 -45960973.757080078 147205535.33148575 0 147205535.33148575 -167783785.83175898 0 0 0 0 121148666.64275742 -434348608.63378334 0 -434348608.63378334 -95319295.30506897 0 0 0 0 -397164811.81893921 198328247.40361881 0 198328247.40361881 463878110.43347931 0 0 0 0 -187316117.87249756 152843631.70668793 0 152843631.70668793 100507819.32060623 0 0 0 0 -807803.9998492375 -1681640.413970992 0 -1681640.413970992 -408141.47794444393 0 0 0 0 -73567361.644264221 -88204905.141284943 0 -88204905.141284943 -72646427.001542091 0 0 0 0 -290413170.10690308 -88577487.963909149 0 -88577487.963909149 27457380.795921326 0 0 0 0 -116292684.19522095 -36710249.397144318 0 -36710249.397144318 38790983.837087631 0 0 0 0 -377617269.85016251 96792686.749445915 0 96792686.749445915 130527201.37445831 0 0 0 0 -69537064.293930054 132098719.09944916 0 132098719.09944916 84982437.791419983 0 0 0 0 -74859340.106445312 41595647.274585724 0 41595647.274585724 8721737.1118240356 0 0 0 0 -184947883.92223358 44928690.817453384 0 44928690.817453384 29109202.164978027 0 0 0 0 -67503789.868247986 -20976722.830589294 0 -20976722.830589294 5598693.225315094 0 0 0 0 -91873896.862205505 -15167571.678333282 0 -15167571.678333282 7122832.9788360596 0 0 0 0 -86538046.782615662 -5197649.0788154602 0 -5197649.0788154602 3901678.1745223999 0 0 0 0 -65488805.13407135 -16463370.293697357 0 -16463370.293697357 -12520673.428264618 0 0 0 0 -81022198.846153259 -18521012.425815582 0 -18521012.425815582 -15742552.145305634 0 0 0 0 -84547563.57047081 -1605600.6741042137 0 -1605600.6741042137 -35567483.260635376 0 0 0 0 -80905624.880195618 -24991976.647041321 0 -24991976.647041321 -28165421.750930786 0 0 0 0 -82660056.689220428 -25755029.889990807 0 -25755029.889990807 -3013906.5597839355 0 0 0 0 -66611267.262893677 -27482153.106906891 0 -27482153.106906891 -17441404.051765442 0 0 0 0 -93567632.387671471 -33221985.98796463 0 -33221985.98796463 -2528674.1760101318 0 0 0 0 -73467547.599975586 -29851545.8177948 0 -29851545.8177948 -19376293.557942629 0 0 0 0 -66773650.042602539 17764663.490682602 0 17764663.490682602 79007574.817359924 0 0 0 0 -92216115.996658325 -49736196.736881256 0 -49736196.736881256 -25059650.074352264 0 0 0 0 -40440813.915179484 5445932.6261291057 0 5445932.6261291057 30178309.783392731 0 0 0 0 -655452787.31665039 164170603.51031494 0 164170603.51031494 227490321.5321312 0 0 0 0 -176562853.91381836 -116990767.18296051 0 -116990767.18296051 64670922.090576172 0 0 0 0 -220304662.95462036 -132740823.44869995 0 -132740823.44869995 128600649.35720825 0 0 0 0 -552321976.64394379 -254160498.18216324 0 -254160498.18216324 86455676.955993652 0 0 0 0 -207624527.16091919 -90413062.150695801 0 -90413062.150695801 60188007.918973923 0 0 0 0 -219715044.20291138 201705141.41999054 0 201705141.41999054 206911613.3025322 0 0 0 0 -199722388.25198364 7884138.4790725708 0 7884138.4790725708 139325101.52829742 0 0 0 0 -416567912.56861877 -56350278.707862854 0 -56350278.707862854 130668589.44544983 0 0 0 0 -78042457.534423828 -24701189.749443054 0 -24701189.749443054 6303948.4902420044 0 0 0 0 -43655947.715942383 -6273915.2279968262 0 -6273915.2279968262 -2336693.1353740692 0 0 0 0 -67755906.594779968 -18368936.340629578 0 -18368936.340629578 2286757.4301834106 0 0 0 0 -28612612.919677734 -12446550.229305267 0 -12446550.229305267 -11992071.702362061 0 0 0 0 -44831727.990875244 -26825027.07793808 0 -26825027.07793808 -4945499.5579299927 0 0 0 0 -23113057.184335709 -24970298.133955956 0 -24970298.133955956 -6663286.637802124 0 0 0 0 -11113973.547781903 -1469690.2161883861 0 -1469690.2161883861 1839595.5402517244 0 0 0 0 -667220349.17061758 246726512.10701942 0 246726512.10701942 -77271022.189224243 0 0 0 0 1579175.2679667883 239776.45354707725 0 239776.45354707725 -2260826.0459451191 0 0 0 0 -695277899.96682739 -73669150.480428696 0 -73669150.480428696 -178424701.81099319 0 0 0 0 -26840131.533653259 -311062023.78788948 0 -311062023.78788948 89577963.865751266 0 0 0 0 -41934665.142562866 -7496518.8057975769 0 -7496518.8057975769 -996583.9881939888 0 0 0 0 -42116680.654151917 -325647.61545562744 0 -325647.61545562744 16028931.102455914 0 0 0 0 -45325224.833404541 -14216839.590602875 0 -14216839.590602875 -5201174.2147945166 0 0 0 0 -62776825.457828522 -22746390.959363937 0 -22746390.959363937 1887377.259513855 0 0 0 0 -41725169.590629578 -22909547.638721466 0 -22909547.638721466 15420310.165306091 0 0 0 0 -483971182.16149139 149497169.83510208 0 149497169.83510208 105479691.37236023 0 0 0 0 -5952540.6176603884 -662359.09077057987 0 -662359.09077057987 -235171.82614062726 0 0 0 0 10256833.09029007 -14435038.1874547 0 -14435038.1874547 -16539393.073287964 0 0 0 0 -240880640.08634949 -41073427.629776001 0 -41073427.629776001 33822333.807373047 0 0 0 0 2401298.4047828466 230296.0220253244 0 230296.0220253244 -3830451.3506198861 0 0 0 0 -220673329.44819736 29231766.848626971 0 29231766.848626971 5881727.8499145508 0 0 0 0 -354841041.54589844 135550169.87533188 0 135550169.87533188 78915027.942718506 0 0 0 0 -224042217.25301933 -4138771.4799513817 0 -4138771.4799513817 109345708.82893372 0 0 0 0 -221337845.00811768 174982755.13994217 0 174982755.13994217 -66873982.818878174 0 0 0 0 -208664291.94514465 90649957.975269318 0 90649957.975269318 129378232.18998814 0 0 0 0 -316640994.40246582 -288060711.43478394 0 -288060711.43478394 -379822398.59823036 0 0 0 0 -727312783.38626099 -203333983.73967552 0 -203333983.73967552 -77819206.45318222 0 0 0 0 -396585424.13952637 147895384.11421967 0 147895384.11421967 -43727234.760166168 0 0 0 0 -435397910.33174896 108291469.14416885 0 108291469.14416885 193574002.9498291 0 0 0 0 -369292931.22744751 9144925.0954265594 0 9144925.0954265594 141601804.55332184 0 0 0 0 -295020437.85148621 39059393.267288208 0 39059393.267288208 -4064358.6725206375 0 0 0 0 107991163.09663391 -36517404.069900513 0 -36517404.069900513 112212945.39511585 0 0 0 0 -420612129.98358154 88524917.779579163 0 88524917.779579163 198919915.65824127 0 0 0 0 -467485335.35110474 185698398.98988724 0 185698398.98988724 162609993.04473877 0 0 0 0 -1322022779.3332062 -48654803.728034973 0 -48654803.728034973 144841147.28880215 0 0 0 0 -249287652.49332428 83281165.424915314 0 83281165.424915314 134848384.94641876 0 0 0 0 -244730667.48526764 111601607.98502827 0 111601607.98502827 253812165.16580963 0 0 0 0 65100154.4429245 -184235088.53222084 0 -184235088.53222084 -18081065.204925537 0 0 0 0 18857690.800762177 16556296.632681847 0 16556296.632681847 43386859.298919678 0 0 0 0 -266460713.43496704 -168007080.78023529 0 -168007080.78023529 43838970.221168518 0 0 0 0 -274910734.31639099 33449052.197170258 0 33449052.197170258 163524826.47979736 0 0 0 0 -393539305.17854691 42116608.091035843 0 42116608.091035843 211226884.75738525 0 0 0 0 -359624532.10768127 52445087.529327393 0 52445087.529327393 166007267.40299463 0 0 0 0 -415938496.07385254 -333533001.93959808 0 -333533001.93959808 -47929980.014984131 0 0 0 0 -797912341.5824585 -21793056.015419006 0 -21793056.015419006 204621501.75820827 0 0 0 0 -8550729.7075500488 -231193804.16095734 0 -231193804.16095734 -81918319.62817955 0 0 0 0 -87490824.314376831 -68225249.122261047 0 -68225249.122261047 41933452.995437622 0 0 0 0 -123393877.78262329 -141172968.3833313 0 -141172968.3833313 18688546.412189484 0 0 0 0 -113695568.71065521 -154258693.59492302 0 -154258693.59492302 -18381145.152450562 0 0 0 0 -135035690.40158081 -159882419.2037735 0 -159882419.2037735 26242892.255203247 0 0 0 0 -94661667.062164307 -91814195.045532227 0 -91814195.045532227 -10813385.963224411 0 0 0 0 -142265533.06912231 -76181654.443136215 0 -76181654.443136215 52594428.375427246 0 0 0 0 -73120789.911712646 -49740488.076324463 0 -49740488.076324463 62591508.854042053 0 0 0 0 -112055583.64958191 -23846586.59211731 0 -23846586.59211731 78941099.03956604 0 0 0 0 -4844808.6505432129 -60549011.640327454 0 -60549011.640327454 53940790.41192627 0 0 0 0 -87674795.195850372 -93235015.965326309 0 -93235015.965326309 57272719.324172974 0 0 0 0 -3521994.9387518186 -840459.34956750274 0 -840459.34956750274 -13619.420525997877 0 0 0 0 -1000660429.1167679 -381775792.43870163 0 -381775792.43870163 -144208859.57499695 0 0 0 0 199689451.1330719 -130758275.57765961 0 -130758275.57765961 -52570342.936027527 0 0 0 0 -3412348.2181264013 470655.48669820186 0 470655.48669820186 2040774.3542839289 0 0 0 0 -4603709.0881500244 -56598452.588256836 0 -56598452.588256836 91169605.442062378 0 0 0 0 -1031169025.5734863 551309204.90232849 0 551309204.90232849 349008427.26195526 0 0 0 0 -619921607.99690247 -390558016.00768471 0 -390558016.00768471 -992538047.52761841 0 0 0 0 -33729085.016723633 -5518576.8651237488 0 -5518576.8651237488 21243239.379688263 0 0 0 0 -11660135.931875795 5479466.5988006629 0 5479466.5988006629 10443720.782856598 0 0 0 0 -59376088.127716064 -37947296.941055298 0 -37947296.941055298 59584930.16116333 0 0 0 0 -31555079.981769055 -13646964.900091041 0 -13646964.900091041 10404256.116103534 0 0 0 0 -44819774.529430389 -31678419.294670105 0 -31678419.294670105 58434245.317230225 0 0 0 0 -13196314.451828003 -90525309.737541199 0 -90525309.737541199 92043133.988564253 0 0 0 0 -18264062.031069905 -11780635.003102969 0 -11780635.003102969 3262977.7872971147 0 0 0 0 -12941008.338745117 -93139367.398094177 0 -93139367.398094177 73029638.836177826 0 0 0 0 663636.71237357706 -3593299.4014894832 0 -3593299.4014894832 -4952432.1031419002 0 0 0 0 158182418.83036995 -329259624.66367388 0 -329259624.66367388 293721910.53411102 0 0 0 0 134350413.20355988 -240895482.05418968 0 -240895482.05418968 388345094.61187744 0 0 0 0 -148607244.58731079 377401612.85676193 0 377401612.85676193 -107903470.10939789 0 0 0 0 101700314.60688782 -400308694.9205513 0 -400308694.9205513 -218819485.51778412 0 0 0 0 -1296074470.1942482 -62635002.71754837 0 -62635002.71754837 248355958.45786285 0 0 0 0 566241.54928764701 -1653806.9512469061 0 -1653806.9512469061 -2514738.3273235261 0 0 0 0 208857452.73612213 -84055152.418992996 0 -84055152.418992996 -40587911.541381836 0 0 0 0 128236010.2294693 -65611773.282622337 0 -65611773.282622337 15307035.738327026 0 0 0 0 -78817522.871002197 -189110811.58580399 0 -189110811.58580399 -20401783.000236511 0 0 0 0 177010616.59048462 -186017048.31903076 0 -186017048.31903076 -138606139.61540985 0 0 0 0 -82531439.653330803 -355760341.79512817 0 -355760341.79512817 37190082.242019653 0 0 0 0 -548361859.41162109 -644862558.62135315 0 -644862558.62135315 -138500019.74824142 0 0 0 0 -507238082.64372253 -217270822.16936493 0 -217270822.16936493 75333895.516769409 0 0 0 0 -168827995.1371727 -135040092.31610394 0 -135040092.31610394 -17457994.089126587 0 0 0 0 -195188096.52163696 -182058835.74859047 0 -182058835.74859047 78870696.147766113 0 0 0 0 24811200.95716095 -77080417.600011826 0 -77080417.600011826 -30303384.821243286 0 0 0 0 -24439824.738739014 -197401597.80390167 0 -197401597.80390167 -30777391.309268951 0 0 0 0 -31467101.17829895 3499058.8384418488 0 3499058.8384418488 10507601.314876556 0 0 0 0 -22709953.264107339 164628.13077758253 0 164628.13077758253 12316812.442019312 0 0 0 0 -27157483.919052124 -3643110.4311676025 0 -3643110.4311676025 13014547.372421265 0 0 0 0 -15017789.829097748 -15641150.599018574 0 -15641150.599018574 15819518.928581238 0 0 0 0 -16390666.824102402 -4962913.0889062881 0 -4962913.0889062881 2404048.7859039307 0 0 0 0 -19387039.124736741 1331357.701616969 0 1331357.701616969 19091213.425733399 0 0 0 0 -206126612.9103775 30573217.109668732 0 30573217.109668732 103174848.33364105 0 0 0 0 -1414813029.0902863 -202023066.40514755 0 -202023066.40514755 642355636.22858429 0 0 0 0 -413204868.35148621 46199781.309890747 0 46199781.309890747 437651880.63763809 0 0 0 0 -268561000.77442932 -96844350.088058472 0 -96844350.088058472 -19724306.980827332 0 0 0 0 -48976567.384262085 14580853.27870369 0 14580853.27870369 34198309.741964877 0 0 0 0 -27956136.136352539 7473449.961145401 0 7473449.961145401 34336650.231779158 0 0 0 0 -52194592.76685524 -19097625.39151597 0 -19097625.39151597 60849282.119869232 0 0 0 0 -171659734.93588257 -46772415.148859024 0 -46772415.148859024 37029630.395641327 0 0 0 0 -31203224.756378174 -11630869.998710632 0 -11630869.998710632 42501309.950456619 0 0 0 0 -29881003.518049948 -6621916.3412193581 0 -6621916.3412193581 13720099.193127796 0 0 0 0 -19555919.996109009 -8055553.4525966644 0 -8055553.4525966644 21002783.344384193 0 0 0 0 -60022459.03755188 7120868.2904119492 0 7120868.2904119492 14629451.470483303 0 0 0 0 -35437675.522979736 7404581.1620635986 0 7404581.1620635986 15635658.665401459 0 0 0 0 -17920213.855621338 3708736.7239646912 0 3708736.7239646912 -971320.7367515564 0 0 0 0 -21343243.113223389 -7149773.687649332 0 -7149773.687649332 8779103.3339975961 0 0 0 0 -13207751.551448461 7032469.9111863151 0 7032469.9111863151 7953046.7205284238 0 0 0 0 -37160103.251663208 -1203285.3243837357 0 -1203285.3243837357 20857347.287475586 0 0 0 0 -29519712.509389639 -96035673.100998953 0 -96035673.100998953 39731430.815292358 0 0 0 0 30222439.61706543 11258494.223537445 0 11258494.223537445 -20029968.452560425 0 0 0 0 23051542.999053955 24642952.515645027 0 24642952.515645027 -29723593.897490501 0 0 0 0 45390455.836959839 20274694.883716583 0 20274694.883716583 -36492504.76789093 0 0 0 0 -26904619.075180054 60796256.194842577 0 60796256.194842577 33096054.396062851 0 0 0 0 37263284.531890869 1744693.6856646538 0 1744693.6856646538 -7751921.2890834808 0 0 0 0 33284651.34866333 40112519.264090538 0 40112519.264090538 -63254717.148101807 0 0 0 0 445189.17764311284 74989.605898618698 0 74989.605898618698 -414995.2454203004 0 0 0 0 -329875455.17288208 -127564904.06023812 0 -127564904.06023812 71742798.765066147 0 0 0 0 -17586881.006469727 -48971066.060240746 0 -48971066.060240746 -2750693.4946422577 0 0 0 0 -252836607.41546631 76987184.668488503 0 76987184.668488503 80864249.455270767 0 0 0 0 -120349571.63043213 -66148130.864279747 0 -66148130.864279747 110254402.80761719 0 0 0 0 -63779040.879180908 -146142819.47198868 0 -146142819.47198868 -165661653.64048004 0 0 0 0 -10563451.853525594 9320819.8948355354 0 9320819.8948355354 13084815.235941255 0 0 0 0 -35754912.715766907 54421345.320767879 0 54421345.320767879 96490536.456705093 0 0 0 0 61889527.88483429 94284458.390490532 0 94284458.390490532 -38458616.102165222 0 0 0 0 -17807342.94140625 34325368.044897079 0 34325368.044897079 60477815.541894913 0 0 0 0 -21384732.212305024 16481908.795532329 0 16481908.795532329 28230027.018831499 0 0 0 0 -10212436.1902771 29422242.696921349 0 29422242.696921349 14561428.711675644 0 0 0 0 -21342988.10521698 30863651.532150745 0 30863651.532150745 58552231.735527039 0 0 0 0 -24222932.541534424 46059696.896808624 0 46059696.896808624 79709791.742027283 0 0 0 0 -43630684.140919276 3488998.0878575444 0 3488998.0878575444 37411430.049791589 0 0 0 0 -17122973.703224182 38621841.061335206 0 38621841.061335206 56832151.909416199 0 0 0 0 -17388426.107421875 38855092.233646631 0 38855092.233646631 64799642.782218933 0 0 0 0 -81721482.529037476 -36749753.769756317 0 -36749753.769756317 -9639393.0121307373 0 0 0 0 -92251953.907592773 61397087.706607819 0 61397087.706607819 68333306.365348816 0 0 0 0 -28571301.244628202 -12265240.636165392 0 -12265240.636165392 9322672.6414196342 0 0 0 0 -77772637.647445679 -42594619.494651794 0 -42594619.494651794 -19996198.308958769 0 0 0 0 -133455905.58020353 15546750.346703053 0 15546750.346703053 71507168.102645874 0 0 0 0 -133825283.63400698 23375092.343145132 0 23375092.343145132 101437418.05381775 0 0 0 0 -136918741.51885986 9887808.9562530518 0 9887808.9562530518 87539110.052780151 0 0 0 0 -106504226.65359497 -19164361.332107544 0 -19164361.332107544 78506905.147605896 0 0 0 0 -129473475.47163391 -43274366.915252686 0 -43274366.915252686 84268726.295791626 0 0 0 0 -167018296.07998657 -29486819.696731567 0 -29486819.696731567 79205592.365592957 0 0 0 0 -129782241.31702423 10752736.570765495 0 10752736.570765495 50298602.699417114 0 0 0 0 -134139335.55656433 5673242.2679595947 0 5673242.2679595947 71639077.388427734 0 0 0 0 -130210517.73245239 13153569.19140625 0 13153569.19140625 84213465.060218811 0 0 0 0 -105078934.77890015 -3288673.9890899658 0 -3288673.9890899658 72380104.952178955 0 0 0 0 -124114957.05755615 12738832.569602966 0 12738832.569602966 62259034.774749756 0 0 0 0 -25960131.933959961 4776460.711971283 0 4776460.711971283 13559288.101772308 0 0 0 0 -103171698.34005737 7583980.7982788086 0 7583980.7982788086 44784070.134613037 0 0 0 0 -28985692.825423449 594051.66470571235 0 594051.66470571235 23072614.812677749 0 0 0 0 -88990709.066513062 898565.2297668457 0 898565.2297668457 47538980.052337646 0 0 0 0 -58637275.829688787 -14676039.424376249 0 -14676039.424376249 52716172.940505981 0 0 0 0 -72999033.711273193 -45240895.201477051 0 -45240895.201477051 74527839.007325172 0 0 0 0 -76236567.175918579 -11058882.807342529 0 -11058882.807342529 52848343.377380371 0 0 0 0 -18889253.691223145 -4431296.3028182983 0 -4431296.3028182983 -253463.84381103516 0 0 0 0 10004501.973388672 15887831.475593567 0 15887831.475593567 66980966.442085266 0 0 0 0 -19391340.181097165 6229670.6135820001 0 6229670.6135820001 11054676.507016383 0 0 0 0 -139586946.93545532 -12604139.531860352 0 -12604139.531860352 23107685.007354736 0 0 0 0 -28528843.360322595 -5881191.1775354445 0 -5881191.1775354445 15299798.137510408 0 0 0 0 -5526279.4878799766 3678240.2278346047 0 3678240.2278346047 6764116.0582480617 0 0 0 0 -44979144.324829102 -35021652.61416626 0 -35021652.61416626 10452875.195159912 0 0 0 0 -48587899.205779329 4534307.8572769277 0 4534307.8572769277 37993156.22657451 0 0 0 0 -21655838.300994873 -2922061.3359527588 0 -2922061.3359527588 15870542.377746582 0 0 0 0 -30328130.403137468 6350235.8788276063 0 6350235.8788276063 31350641.133624684 0 0 0 0 -254122036.7999382 691570815.72170353 0 691570815.72170353 13658667.429458618 0 0 0 0 -1418109010.2736359 290360087.1073761 0 290360087.1073761 170731465.64622498 0 0 0 0 -584291850.7013092 357633876.86182213 0 357633876.86182213 -43356370.088989258 0 0 0 0 -176611829.50015259 63348782.524871826 0 63348782.524871826 130709992.16198158 0 0 0 0 -1277087.1936468035 2117280.4069308117 0 2117280.4069308117 1017302.475795798 0 0 0 0 -1924608533.0765991 -198817523.66857147 0 -198817523.66857147 101256129.31542206 0 0 0 0 282179251.35742188 297233851.95075703 0 297233851.95075703 41397914.926574707 0 0 0 0 -1108413553.1913452 584398075.64392281 0 584398075.64392281 215949550.77288818 0 0 0 0 -742757860.9058342 81753866.978609562 0 81753866.978609562 -110185615.44504547 0 0 0 0 -2752220.0745680928 4457479.8996383548 0 4457479.8996383548 2512418.8459821232 0 0 0 0 -1258084558.0631256 150042719.9323082 0 150042719.9323082 183443928.1181922 0 0 0 0 69783675.655647278 92794683.032502174 0 92794683.032502174 -7142379.7032051086 0 0 0 0 -403865445.59539795 -257147771.6828537 0 -257147771.6828537 -90664824.773910522 0 0 0 0 -648370066.65119171 -477090780.82024574 0 -477090780.82024574 182379705.63563538 0 0 0 0 -1830910999.1090012 -1022403998.6011581 0 -1022403998.6011581 -63675483.044130325 0 0 0 0 -2077108114.694046 227204860.01512909 0 227204860.01512909 319460785.44634247 0 0 0 0 -641751758.43432617 -407077698.66571045 0 -407077698.66571045 -59832719.097845078 0 0 0 0 -670650866.97834778 -469300355.4693222 0 -469300355.4693222 94869572.880439758 0 0 0 0 69502373.073616028 -79154673.756626129 0 -79154673.756626129 -135393796.43221664 0 0 0 0 759949.26543938369 -1876746.6602496598 0 -1876746.6602496598 -2861563.3325661123 0 0 0 0 -981838422.57880783 -103178149.99377847 0 -103178149.99377847 512181178.06012726 0 0 0 0 -827504835.05134964 -877933083.01114511 0 -877933083.01114511 -430250789.67229843 0 0 0 0 -1130080120.5545349 -834701543.28687096 0 -834701543.28687096 -40745816.458711624 0 0 0 0 -397701436.37296295 -193483334.26570702 0 -193483334.26570702 -421869643.95414734 0 0 0 0 -1047175204.5166016 -623132573.9029541 0 -623132573.9029541 -355657220.3314662 0 0 0 0 -903112815.24333954 -900321980.6498661 0 -900321980.6498661 -282814796.37852859 0 0 0 0 92807476.051422119 -860886525.01934242 0 -860886525.01934242 -675088669.85106277 0 0 0 0 -950323268.03886032 -979226054.03510332 0 -979226054.03510332 -351372976.8755188 0 0 0 0 -486318428.68739319 -333228509.11005402 0 -333228509.11005402 -815164913.38681638 0 0 0 0 -484967830.0139122 -458627095.4390583 0 -458627095.4390583 -392070937.34272003 0 0 0 0 -23573596.202865601 -239889060.54844666 0 -239889060.54844666 -428998088.96306229 0 0 0 0 -12874765.035766602 -431436713.20337105 0 -431436713.20337105 508994175.23640251 0 0 0 0 -24636953.717605591 -4452391.032989502 0 -4452391.032989502 89306827.67634201 0 0 0 0 81644439.496009827 -342014822.59130096 0 -342014822.59130096 367108700.471035 0 0 0 0 730626.91536124796 -3774847.0568018984 0 -3774847.0568018984 -5182566.7462244928 0 0 0 0 201057518.19566345 -228373748.67743492 0 -228373748.67743492 40221111.879356384 0 0 0 0 140128100.74616241 -24800678.560436249 0 -24800678.560436249 3025004.6420593262 0 0 0 0 -33559413.20526123 -110721772.45428467 0 -110721772.45428467 -7320813.0206069946 0 0 0 0 -6939420.9065308906 -989825.45334643871 0 -989825.45334643871 -142038.73359538615 0 0 0 0 210567029.88233185 -28384812.46616745 0 -28384812.46616745 -50543561.68572998 0 0 0 0 12685993.930282593 -73757211.739021301 0 -73757211.739021301 -3211045.5990982056 0 0 0 0 73078396.795677185 -44662543.899665833 0 -44662543.899665833 -39818137.200126648 0 0 0 0 -21117321.401094198 -7686615.6198425815 0 -7686615.6198425815 -2733876.0924834982 0 0 0 0 -84385042.705093384 -36878669.223674774 0 -36878669.223674774 4936849.3679695129 0 0 0 0 -15192922.983189344 -974216.5193548277 0 -974216.5193548277 11420814.891769603 0 0 0 0 -148306260.0837326 19149669.598810196 0 19149669.598810196 36282910.54335022 0 0 0 0 -134959883.09609604 -45849137.925097466 0 -45849137.925097466 -40131815.496055603 0 0 0 0 -128254587.23152161 -22290972.017326355 0 -22290972.017326355 89889.859725952148 0 0 0 0 -132656587.46264648 -5125068.158531189 0 -5125068.158531189 -3854100.428604126 0 0 0 0 -127000512.11682129 -26260327.754394531 0 -26260327.754394531 43548716.834884644 0 0 0 0 -149528822.40542603 -2679636.7884902954 0 -2679636.7884902954 25971125.089027405 0 0 0 0 -127421153.55200195 -39223581.207443237 0 -39223581.207443237 82971047.673439026 0 0 0 0 -118532786.50655365 -47974382.914493561 0 -47974382.914493561 14197694.139221191 0 0 0 0 -219103626.73664856 -30426093.261886597 0 -30426093.261886597 16074034.630167961 0 0 0 0 -92860967.690307617 -54818971.782705307 0 -54818971.782705307 -172410273.33580017 0 0 0 0 -409096869.26774597 -194695611.34551239 0 -194695611.34551239 -132058641.16876984 0 0 0 0 -56526693.933599472 -12462399.989897251 0 -12462399.989897251 -139037691.63034058 0 0 0 0 -181178033.51907349 39141285.455867767 0 39141285.455867767 -42153877.904090881 0 0 0 0 -351729444.72947693 -103019857.85782623 0 -103019857.85782623 97510135.209003448 0 0 0 0 -293618787.90019989 -300502185.65609837 0 -300502185.65609837 -387883703.98072815 0 0 0 0 -922253822.71056747 -1242707088.7017756 0 -1242707088.7017756 -786736547.70834351 0 0 0 0 -1285442.1742831217 -1617242.9192032814 0 -1617242.9192032814 -3950088.1705394462 0 0 0 0 627662717.10003662 12876407.152435303 0 12876407.152435303 -609024872.38028336 0 0 0 0 -6198617248.3678093 -519945892.44424725 0 -519945892.44424725 -22991040.977020264 0 0 0 0 60577286.191040039 -615419983.89293289 0 -615419983.89293289 -1115377730.5033112 0 0 0 0 38739759.677085876 -213254586.60084915 0 -213254586.60084915 73168341.147689819 0 0 0 0 -203435907.46180725 -85255034.013973236 0 -85255034.013973236 96991078.588218689 0 0 0 0 313299407.65800476 -104929564.44687271 0 -104929564.44687271 -12537232.77689743 0 0 0 0 -2878481.3498917511 -6371998.4823065028 0 -6371998.4823065028 -12581251.205288325 0 0 0 0 -5441140632.4185715 640603658.95532131 0 640603658.95532131 689289837.99372864 0 0 0 0 -3129907950.3524475 404576169.00094223 0 404576169.00094223 -712887965.82236481 0 0 0 0 -2473498095.4051971 246259077.16378021 0 246259077.16378021 -693004177.11209297 0 0 0 0 -3880996113.7745667 -502596246.1843605 0 -502596246.1843605 16212913.087726593 0 0 0 0 -1725617366.0626221 120551907.32894135 0 120551907.32894135 -71499482.375244141 0 0 0 0 -3144269599.1738586 -747271684.97819138 0 -747271684.97819138 838158461.39684296 0 0 0 0 -1534161870.0713348 625598303.03488922 0 625598303.03488922 896826644.53227997 0 0 0 0 361308291.41188049 -362653853.59601593 0 -362653853.59601593 -250787990.51785588 0 0 0 0 -2176947468.1568146 -701593816.00669098 0 -701593816.00669098 -358622030.46089172 0 0 0 0 -645382132.1706543 211028589.4282074 0 211028589.4282074 -294751282.58148193 0 0 0 0 -472207591.66296387 -136372041.32303619 0 -136372041.32303619 -426140064.32640076 0 0 0 0 226756529.22766113 474848406.21176147 0 474848406.21176147 -660690295.54607582 0 0 0 0 -507631080.17564011 32347931.07724762 0 32347931.07724762 -1229364936.0591049 0 0 0 0 -2069084366.7485046 -814588314.68069077 0 -814588314.68069077 -1473648151.5786057 0 0 0 0 -1392055627.4365234 477836394.87643051 0 477836394.87643051 -554368426.12212753 0 0 0 0 -1437719338.0799789 475811477.78518295 0 475811477.78518295 -791178777.38663483 0 0 0 0 -578024420.89457703 634171473.86188507 0 634171473.86188507 -451947583.38394165 0 0 0 0 -631902083.23356628 -72117506.108135223 0 -72117506.108135223 -491256972.90841675 0 0 0 0 -30772354.455837637 -6457684.6472720653 0 -6457684.6472720653 5215881.43023213 0 0 0 0 98345220.841018677 -510461159.6823895 0 -510461159.6823895 571496230.09575415 0 0 0 0 -345726875.57769775 345185678.30020714 0 345185678.30020714 -553770008.00828624 0 0 0 0 524680540.00280762 -131033717.39785385 0 -131033717.39785385 -193356288.00836372 0 0 0 0 372621101.03170776 -599365117.89116263 0 -599365117.89116263 -456465027.0386647 0 0 0 0 -105617408.59353638 944976682.29420424 0 944976682.29420424 -1052381723.1284342 0 0 0 0 -3485787710.6035767 2166222884.7572174 0 2166222884.7572174 -691113655.87212515 0 0 0 0 -6980315911.7454834 1120020936.0134163 0 1120020936.0134163 622619323.81226683 0 0 0 0 -5941254439.3560181 -432716516.3999157 0 -432716516.3999157 624799321.99427414 0 0 0 0 -3651490833.9945679 1231156021.0357075 0 1231156021.0357075 624944103.83859539 0 0 0 0 -3029841123.728653 257839839.32899809 0 257839839.32899809 -55813251.558948517 0 0 0 0 -1617859533.984436 534235368.5247097 0 534235368.5247097 -280072531.08850956 0 0 0 0 -3107036048.0527344 131469285.79821396 0 131469285.79821396 276463426.06423187 0 0 0 0 -1415100960.0913086 219660748.06171703 0 219660748.06171703 -107753458.8578186 0 0 0 0 -3104340466.448277 -223918496.04911721 0 -223918496.04911721 190259065.32505417 0 0 0 0 -4553812417.762207 165726639.54814148 0 165726639.54814148 617194787.85377884 0 0 0 0 -3116344385.1565552 -392272729.04719543 0 -392272729.04719543 423419068.79632568 0 0 0 0 -3687968651.8064575 -146498520.9145565 0 -146498520.9145565 529752051.07396317 0 0 0 0 -3259123479.8924789 -40188137.62424612 0 -40188137.62424612 336276210.74790192 0 0 0 0 -1618892200.3264771 -341694727.38671112 0 -341694727.38671112 74630713.891204834 0 0 0 0 -547254460.91595459 -379398124.632164 0 -379398124.632164 -236358523.34200573 0 0 0 0 -1210345737.7949982 -201005956.99977493 0 -201005956.99977493 -144163608.08688354 0 0 0 0 -61599374.302688599 338217785.3956852 0 338217785.3956852 -229950045.49837875 0 0 0 0 316260846.96328735 -101534532.28991699 0 -101534532.28991699 -132762972.36237717 0 0 0 0 201131726.47290039 -296895994.02866745 0 -296895994.02866745 -349581494.29299545 0 0 0 0 434720264.27316284 -290621392.29821014 0 -290621392.29821014 -3994406.9190063477 0 0 0 0 472364362.84490967 200005144.58589172 0 200005144.58589172 41164466.993490219 0 0 0 0 426937155.83239746 47404690.639530182 0 47404690.639530182 -255421591.62485504 0 0 0 0 385364179.35948181 265946065.32013702 0 265946065.32013702 206575388.6726532 0 0 0 0 308451191.87258911 443337566.52684402 0 443337566.52684402 -110824326.4672308 0 0 0 0 343803286.18856812 -49682112.64484024 0 -49682112.64484024 -414106383.73742294 0 0 0 0 236782709.56138611 -397680614.59062529 0 -397680614.59062529 -465561047.98917389 0 0 0 0 233186020.6335144 -447368655.89680862 0 -447368655.89680862 -15073097.333328247 0 0 0 0 306478241.88858032 -41681171.959037781 0 -41681171.959037781 -328123313.09535789 0 0 0 0 340740580.06679535 -37885699.933172226 0 -37885699.933172226 -671666864.82205963 0 0 0 0 403278.3797018677 1720886.3036581948 0 1720886.3036581948 -1247917.2855765158 0 0 0 0 -1233563302.303833 -557666550.02622223 0 -557666550.02622223 -559261851.6949091 0 0 0 0 -2403241120.8521729 40518404.907577515 0 40518404.907577515 1634939721.3068504 0 0 0 0 -3542728099.9184265 -179481935.48227692 0 -179481935.48227692 293762472.21144104 0 0 0 0 -1471780556.147049 -738182615.74010468 0 -738182615.74010468 -51389170.779464722 0 0 0 0 -1011301.2502913028 1166772.5718697105 0 1166772.5718697105 -970039.85083996225 0 0 0 0 -3029850467.6434937 -594834672.91931725 0 -594834672.91931725 283862972.6799469 0 0 0 0 -1595432489.3184662 438378687.78663349 0 438378687.78663349 581758793.20600891 0 0 0 0 -3131531339.6565247 -49980996.214988708 0 -49980996.214988708 78357881.482343674 0 0 0 0 -3561407973.0237427 35146832.30373764 0 35146832.30373764 62413866.983181953 0 0 0 0 -2824593211.8660126 -223730528.69809437 0 -223730528.69809437 99199026.403152466 0 0 0 0 134521079.76046753 -79734609.108201981 0 -79734609.108201981 -31208455.677429199 0 0 0 0 -4487566385.0659142 -122240529.6828804 0 -122240529.6828804 468084017.27477264 0 0 0 0 -3083568.5976814497 -12274121.539208151 0 -12274121.539208151 -24042866.089168578 0 0 0 0 -3736778862.257843 -613915447.58261108 0 -613915447.58261108 118225479.5320282 0 0 0 0 9063615.735458374 -62673852.33638382 0 -62673852.33638382 15797292.732803345 0 0 0 0 33662562.046966553 -102472111.43796539 0 -102472111.43796539 13334147.024032593 0 0 0 0 -5701945.3984222412 -80396079.610450745 0 -80396079.610450745 17796799.681915283 0 0 0 0 54640573.75112915 -20563420.819156647 0 -20563420.819156647 -21441780.250259399 0 0 0 0 -6890669.7270507812 -43995037.350074768 0 -43995037.350074768 -14346713.536697388 0 0 0 0 -7526865.4184417725 -32156876.341201782 0 -32156876.341201782 -64386336.33782959 0 0 0 0 5580930.9658050537 -61863943.460147858 0 -61863943.460147858 -54265717.457122803 0 0 0 0 -1698527424.1283569 1367618989.9415789 0 1367618989.9415789 -230010345.91045833 0 0 0 0 -20270000.620155409 -9425232.4388870001 0 -9425232.4388870001 16769731.623208359 0 0 0 0 8775276.4498443604 -60519036.466362 0 -60519036.466362 -73865706.92137146 0 0 0 0 -2386780371.2611542 -809791376.27413034 0 -809791376.27413034 -426348961.19132996 0 0 0 0 -2225938.4955038046 -20446562.493782356 0 -20446562.493782356 -37158144.122895241 0 0 0 0 -3507026019.1291199 -616955526.39167404 0 -616955526.39167404 -8419352.645942688 0 0 0 0 -3832625185.9588013 -767043199.94980431 0 -767043199.94980431 278320115.69638634 0 0 0 0 -4032262681.4224854 -1105672029.8673878 0 -1105672029.8673878 -223600932.02523041 0 0 0 0 -3310466847.0867767 -1519280813.8169456 0 -1519280813.8169456 -891291682.86516953 0 0 0 0 2097436971.447937 -2012191701.759593 0 -2012191701.759593 -1148860751.0413713 0 0 0 0 -2049574.7739608511 -3275229.0632839054 0 -3275229.0632839054 580025.42158891074 0 0 0 0 176900368.04003906 521654233.81245804 0 521654233.81245804 1406804507.7009068 0 0 0 0 -1832721774.7592773 -207929055.38476419 0 -207929055.38476419 2283808025.2683015 0 0 0 0 -5805753704.8217163 -1478524683.214653 0 -1478524683.214653 228007625.31069183 0 0 0 0 -3293250.589637816 -3382331.9133208506 0 -3382331.9133208506 -5446180.346706843 0 0 0 0 -4541636630.5371704 -2242550018.7817516 0 -2242550018.7817516 -783630321.30161285 0 0 0 0 -8656736253.9060364 -1391650484.5072217 0 -1391650484.5072217 2110971587.9195991 0 0 0 0 -964240.05820770562 517020.67593747377 0 517020.67593747377 -4141982.398802001 0 0 0 0 -772358190.79598999 625780961.47359991 0 625780961.47359991 -318450485.52492523 0 0 0 0 2186188709.3828125 -1099092642.1242747 0 -1099092642.1242747 -310733451.44566989 0 0 0 0 -853975691.47132111 177671084.76049376 0 177671084.76049376 -74361567.905045509 0 0 0 0 2364715301.3723145 -1451385751.9064312 0 -1451385751.9064312 -27745686.941740394 0 0 0 0 164369423.64532471 40898511.620306015 0 40898511.620306015 -315159662.65617752 0 0 0 0 19716781.772247314 668595032.57770538 0 668595032.57770538 -1214751779.4084797 0 0 0 0 -323679211.31256104 384427465.32159281 0 384427465.32159281 -292719646.11519337 0 0 0 0 -52489566.139648438 250286362.88408375 0 250286362.88408375 -481389284.96018696 0 0 0 0 -6593302.4319992065 80829174.273151875 0 80829174.273151875 -148447949.08244705 0 0 0 0 -111759769.43817139 298194384.94172382 0 298194384.94172382 -315743422.00023842 0 0 0 0 -90658510.852844238 158440096.91461849 0 158440096.91461849 -3938721.1810238063 0 0 0 0 112291236.43167114 -138365531.89908791 0 -138365531.89908791 -9537969.4950237274 0 0 0 0 8379926.6013183594 30338858.951509476 0 30338858.951509476 -257455447.09225464 0 0 0 0 113119098.56536865 -165630209.81152439 0 -165630209.81152439 -128515218.91924 0 0 0 0 102388270.28230286 -134703502.73728561 0 -134703502.73728561 48944780.501192093 0 0 0 0 321992554.40359497 -628246112.00883007 0 -628246112.00883007 104799732.75644875 0 0 0 0 67642935.860610962 -53114510.079381466 0 -53114510.079381466 -405463410.90365791 0 0 0 0 603266781.84936523 -123064770.72006226 0 -123064770.72006226 -952226589.8899684 0 0 0 0 -79474131.417297363 -66900383.35243988 0 -66900383.35243988 -5623077.2072601318 0 0 0 0 -63517911.215301514 -90198279.093523026 0 -90198279.093523026 -11857420.84513855 0 0 0 0 -31076786.611663669 -7027041.1572494507 0 -7027041.1572494507 19721675.2187488 0 0 0 0 -21801855.852203369 -99354536.3984375 0 -99354536.3984375 44794203.10087204 0 0 0 0 -75227446.303421021 -77444044.601160049 0 -77444044.601160049 40227791.567703247 0 0 0 0 -85154448.694480896 -53408062.06949234 0 -53408062.06949234 -5764231.3826599121 0 0 0 0 -14533544.314575195 -63308945.175796509 0 -63308945.175796509 -10276019.394550323 0 0 0 0 -76669800.077224731 -35523851.751800537 0 -35523851.751800537 31931362.964672089 0 0 0 0 -99582634.867248535 4100064.8870010376 0 4100064.8870010376 31299731.299163818 0 0 0 0 -67164258.251228333 -34344541.437549233 0 -34344541.437549233 9196725.5018386841 0 0 0 0 -48120991.813201904 -122831876.92039204 0 -122831876.92039204 349441776.64603043 0 0 0 0 -49956166.951629639 -52510364.929127216 0 -52510364.929127216 -34605450.527560234 0 0 0 0 -96715577.965194702 -68471588.691262245 0 -68471588.691262245 -38949958.287521362 0 0 0 0 -19336948.676008083 -16155483.492559984 0 -16155483.492559984 -13858201.72110441 0 0 0 0 -35863915.364315003 -3798401.175131157 0 -3798401.175131157 16510512.453880997 0 0 0 0 -58653643.623123169 -91857013.407859802 0 -91857013.407859802 -26909226.409910202 0 0 0 0 -31777158.902466595 -32963212.405197103 0 -32963212.405197103 -15852827.432341997 0 0 0 0 -32138714.591461182 -123868740.68820953 0 -123868740.68820953 -42663722.790128708 0 0 0 0 -11931503.153945923 -33915595.079742432 0 -33915595.079742432 -10481953.063568115 0 0 0 0 -47526102.648017883 -116507335.87531376 0 -116507335.87531376 -91862884.548187256 0 0 0 0 -74703314.985157013 -56130755.990824819 0 -56130755.990824819 -60680722.676494598 0 0 0 0 -88879399.4622612 -155862238.10018897 0 -155862238.10018897 -120366347.80528641 0 0 0 0 -41819975.231616907 -40036915.599417165 0 -40036915.599417165 -12163335.184290353 0 0 0 0 -74674326.499237061 -133367087.66971588 0 -133367087.66971588 -109382314.62697601 0 0 0 0 -205116620.8583374 -203278600.87480736 0 -203278600.87480736 -206530571.18787289 0 0 0 0 -234811869.77108765 -111768903.37591743 0 -111768903.37591743 -69086549.758625031 0 0 0 0 -65171401.681427002 -124530846.48112249 0 -124530846.48112249 -168677903.4736557 0 0 0 0 -8076291.0366365314 -6590634.6632028967 0 -6590634.6632028967 -7775620.6938126273 0 0 0 0 168573678.27828979 -119530957.61142397 0 -119530957.61142397 -76096848.441020012 0 0 0 0 -269314810.8699646 -143418238.85531998 0 -143418238.85531998 -97980131.978496552 0 0 0 0 -329000422.17572784 -260725692.88888454 0 -260725692.88888454 -114972977.02074432 0 0 0 0 -708126127.87469482 1861167.7722902298 0 1861167.7722902298 -1662309.1291866302 0 0 0 0 -149836373.97589111 -204118205.87799835 0 -204118205.87799835 -185595335.88211823 0 0 0 0 -5013585.5164017379 -3491305.9679249153 0 -3491305.9679249153 -945207.1853115363 0 0 0 0 -139569628.05853271 -96429221.00856781 0 -96429221.00856781 -19007087.071331024 0 0 0 0 -4810862.1215731204 -4709771.2038664892 0 -4709771.2038664892 454129.39574918337 0 0 0 0 -157946316.56213379 49330435.705879211 0 49330435.705879211 -142138082.2075386 0 0 0 0 -56650597.357971191 -91617406.278237343 0 -91617406.278237343 -35458531.881729126 0 0 0 0 -10261608.633084863 -10380166.285740286 0 -10380166.285740286 -487482.21800496522 0 0 0 0 -61674617.877075195 -73160323.997256279 0 -73160323.997256279 119655572.61528683 0 0 0 0 -7347695.625869751 286237659.87012076 0 286237659.87012076 227659140.19807339 0 0 0 0 4527014.277130127 -85499144.469544888 0 -85499144.469544888 -34105827.083906174 0 0 0 0 -16026240.372070312 -95319769.718371391 0 -95319769.718371391 -35758474.774844408 0 0 0 0 -63543623.882930756 -126358969.899216 0 -126358969.899216 49488107.813474655 0 0 0 0 -246884782.16409302 -343347999.9633913 0 -343347999.9633913 -27743436.817074895 0 0 0 0 -438260154.61132812 -131790017.21764517 0 -131790017.21764517 2583238.8990249634 0 0 0 0 -917656311.69818115 31615448.269339561 0 31615448.269339561 388946885.7264266 0 0 0 0 -1213035.2186984569 -3197988.0063308701 0 -3197988.0063308701 -1517706.2239824575 0 0 0 0 -576568178.34913635 -557082865.35151052 0 -557082865.35151052 225310639.60875225 0 0 0 0 -47818749.61315918 -220188541.05159187 0 -220188541.05159187 120317683.22764707 0 0 0 0 109930728.83405304 535761133.40429926 0 535761133.40429926 -764725538.41161633 0 0 0 0 -235338254.08499146 7783962.1449797153 0 7783962.1449797153 -156833471.55952835 0 0 0 0 -441036380.16012192 -586678455.57990742 0 -586678455.57990742 200727160.4756822 0 0 0 0 3854351.3948974609 53764903.430484056 0 53764903.430484056 -197485844.18824148 0 0 0 0 -818647.35597041249 -540596.53836299479 0 -540596.53836299479 238805.84854622209 0 0 0 0 66496739.008911133 -124971163.88454843 0 -124971163.88454843 -259960633.02135563 0 0 0 0 -1008630790.2914467 -332477334.96483344 0 -332477334.96483344 426630321.73532885 0 0 0 0 -1128328899.8263092 170371285.01903605 0 170371285.01903605 555841.57756103936 0 0 0 0 -18618568.469665527 404009725.0557059 0 404009725.0557059 -493108618.12772703 0 0 0 0 -482052266.55522156 -314163459.57412744 0 -314163459.57412744 80930808.696573108 0 0 0 0 -1197916572.3156128 216694953.46398872 0 216694953.46398872 160973596.26445705 0 0 0 0 -1996124.4244121909 55045.602701637894 0 55045.602701637894 266033.10444359697 0 0 0 0 -547173424.14584351 726231760.77730381 0 726231760.77730381 -667543743.42247653 0 0 0 0 -297228836.10275269 114143103.13262677 0 114143103.13262677 -122390097.82967758 0 0 0 0 -282086440.62765503 369623841.56194353 0 369623841.56194353 -187968568.6520009 0 0 0 0 -281302491.27096558 145654858.37217951 0 145654858.37217951 -63510559.187420368 0 0 0 0 -5076739.1925841123 -392318.76139346138 0 -392318.76139346138 504959.57935883221 0 0 0 0 -46928911.77180481 121513005.12165681 0 121513005.12165681 -409448.5252237012 0 0 0 0 49416229.586364746 44168169.189690851 0 44168169.189690851 35945597.466470957 0 0 0 0 -5093686.3683932796 -56787.507761754096 0 -56787.507761754096 298631.3835234351 0 0 0 0 31917635.804107666 -24262117.463118609 0 -24262117.463118609 1884603.2048253864 0 0 0 0 -8183829.9304935187 640629.36431321874 0 640629.36431321874 -14235.25296166756 0 0 0 0 -3798414.8146629333 11266834.897865772 0 11266834.897865772 16737823.266281366 0 0 0 0 -278218134.64852905 163730780.90474653 0 163730780.90474653 -17714414.655744553 0 0 0 0 -3057417.6005884409 -1446631.2852754667 0 -1446631.2852754667 210520.43725827988 0 0 0 0 2659244.1604766846 66218196.823536217 0 66218196.823536217 -206728395.23895264 0 0 0 0 -652033520.56454468 179331671.38446426 0 179331671.38446426 -78553114.353135109 0 0 0 0 -607592946.1289978 471764022.82058764 0 471764022.82058764 -190940449.42605311 0 0 0 0 -281891967.10626221 125624417.0303688 0 125624417.0303688 -343386020.83485985 0 0 0 0 -110065995.76831055 231747885.01378059 0 231747885.01378059 -290741280.9031868 0 0 0 0 -77172325.787651062 282822211.78398347 0 282822211.78398347 -220921866.06918335 0 0 0 0 -1992425.7617062181 -2547762.7676967084 0 -2547762.7676967084 -2767216.4119102322 0 0 0 0 -847099274.71451569 -341980230.4379673 0 -341980230.4379673 209867020.74166203 0 0 0 0 -174374466.6081543 287555002.09022284 0 287555002.09022284 -271491390.85468674 0 0 0 0 -325705259.08253002 310581529.21763903 0 310581529.21763903 -117302756.77215195 0 0 0 0 52153213.104091644 21447583.723606944 0 21447583.723606944 -10567686.985699654 0 0 0 0 -1047596.4751401693 -687695.29204020649 0 -687695.29204020649 80915.772533136886 0 0 0 0 -454651170.89907837 348244713.08264542 0 348244713.08264542 -194874022.1447196 0 0 0 0 -212529365.53822327 370348250.21436954 0 370348250.21436954 -296288753.47289848 0 0 0 0 -302351547.59832764 274643527.60180116 0 274643527.60180116 -185981823.06373692 0 0 0 0 -155228637.11334229 -117454058.32529092 0 -117454058.32529092 41295747.044055939 0 0 0 0 28098067.628707886 -4217695.1209212542 0 -4217695.1209212542 -22525383.009504318 0 0 0 0 2221065347.0079498 849558628.4648037 0 849558628.4648037 -1461127597.9127908 0 0 0 0 -1273817829.0526123 -4094297793.1509304 0 -4094297793.1509304 -1218182760.2173252 0 0 0 0 -6002977871.3308411 3392341877.8960276 0 3392341877.8960276 -1021438901.6481261 0 0 0 0 -5538797.5357893631 1367693.214227654 0 1367693.214227654 -3435246.7815911127 0 0 0 0 -9868398.2001657933 227165.71519963071 0 227165.71519963071 -66583.385770756184 0 0 0 0 -24304412.135284424 -28379652.377519846 0 -28379652.377519846 17033205.510327935 0 0 0 0 -32011611.019470215 27027946.144793749 0 27027946.144793749 8137578.2345956564 0 0 0 0 -14899301.097564697 -19404910.96056214 0 -19404910.96056214 27293770.967988845 0 0 0 0 -9365135.7275924683 -7525029.2257573456 0 -7525029.2257573456 29829061.348699093 0 0 0 0 -66438708.389022827 -18109252.85067559 0 -18109252.85067559 31675220.961268589 0 0 0 0 -12062197.041442871 -44217624.633706629 0 -44217624.633706629 -48510.651728736077 0 0 0 0 18074443.432556152 47888205.853039481 0 47888205.853039481 -5828263.5666853888 0 0 0 0 -56007899.372894287 26167407.458781272 0 26167407.458781272 27068096.050761402 0 0 0 0 -4695057.5224238187 537797.47070880979 0 537797.47070880979 -313704.01793935028 0 0 0 0 -3343611.4545898438 22086185.044440597 0 22086185.044440597 27381631.460046381 0 0 0 0 -23763524.022399902 1607714.876797393 0 1607714.876797393 28975967.786405317 0 0 0 0 -1283147464.1266785 775802247.14096653 0 775802247.14096653 -414079389.71799129 0 0 0 0 -2674079240.4610291 -852521835.6879915 0 -852521835.6879915 325317463.68283695 0 0 0 0 -2428252160.545105 -626850097.07949746 0 -626850097.07949746 498858693.82682645 0 0 0 0 -3140073578.5606689 -822790917.19967532 0 -822790917.19967532 463044545.95393419 0 0 0 0 -1690357.1310470849 282694.561618343 0 282694.561618343 -208853.42021915317 0 0 0 0 -2983243130.5068054 -568767605.13703275 0 -568767605.13703275 323662988.52829224 0 0 0 0 -1912911657.1356201 -329664005.32506025 0 -329664005.32506025 18117069.888321463 0 0 0 0 -2335247793.0309753 -422603732.38962853 0 -422603732.38962853 333539414.09961784 0 0 0 0 -2009367489.2738953 -970654568.98291087 0 -970654568.98291087 28990179.624330208 0 0 0 0 -1178794673.1885986 -303444051.68553114 0 -303444051.68553114 254032846.65426826 0 0 0 0 -1840884392.3798676 -1991869748.0931625 0 -1991869748.0931625 -2751151770.2976618 0 0 0 0 -2809805793.1098938 1061167251.2145557 0 1061167251.2145557 -389668368.87744856 0 0 0 0 -4941037.3640777469 -1029309.2641461082 0 -1029309.2641461082 -487324.43263086269 0 0 0 0 -4482140216.1939697 -380004351.75894505 0 -380004351.75894505 488175423.98932183 0 0 0 0 -3348959815.5041504 -2727883669.4184532 0 -2727883669.4184532 -74494150.977367759 0 0 0 0 -2659200330.0813141 -2742911603.1044998 0 -2742911603.1044998 -147041531.49853182 0 0 0 0 -12160163.586018264 -1612558.3863508105 0 -1612558.3863508105 1713284.4026222189 0 0 0 0 -2424168017.358551 -3445727346.841855 0 -3445727346.841855 -1671970084.0263844 0 0 0 0 -948603480.81561279 620435568.12702274 0 620435568.12702274 -166692367.3263998 0 0 0 0 -668045608.96131897 71671818.221578121 0 71671818.221578121 859837744.35453129 0 0 0 0 -17247832.682617188 7119326.356836319 0 7119326.356836319 14168321.254137993 0 0 0 0 -56758918.536529541 2255196.4459781647 0 2255196.4459781647 13734869.906422138 0 0 0 0 -1098254.065032959 5441809.2309799194 0 5441809.2309799194 10402433.83965683 0 0 0 0 -2443765.9867858887 -38247913.917254925 0 -38247913.917254925 19688881.838695526 0 0 0 0 -30585538.704498291 13511888.069405794 0 13511888.069405794 54318858.682600021 0 0 0 0 -9003234.5992431641 -38025647.989200592 0 -38025647.989200592 56489576.28957653 0 0 0 0 -24682697.678924561 -45592257.074981689 0 -45592257.074981689 58191774.539232254 0 0 0 0 -22152143.13168335 7497620.4812045097 0 7497620.4812045097 28540739.563423157 0 0 0 0 -10069466.298248291 -21381001.414596558 0 -21381001.414596558 4394955.576675415 0 0 0 0 -5541189.1769020483 2875418.2768409997 0 2875418.2768409997 4736404.2736378741 0 0 0 0 14289310.274551392 14668587.147287071 0 14668587.147287071 -1468211.9492769241 0 0 0 0 -179609780.95043945 -23598488.558062553 0 -23598488.558062553 81536732.115999222 0 0 0 0 -187664028.52484131 17067869.676625252 0 17067869.676625252 16841525.175186157 0 0 0 0 5980962.2663574219 13417267.925251007 0 13417267.925251007 6924498.1100006104 0 0 0 0 -15697910.099480629 3344789.3947003111 0 3344789.3947003111 7686632.2222321928 0 0 0 0 40701163.028213501 38583554.92132473 0 38583554.92132473 33340464.298358917 0 0 0 0 11264473.68951416 5261357.6968815327 0 5261357.6968815327 -9668236.0378446579 0 0 0 0 8673771.643942982 5392351.2455160134 0 5392351.2455160134 -2538807.5983333746 0 0 0 0 14837247.303955078 14174208.883518696 0 14174208.883518696 -10770474.08362484 0 0 0 0 12631543.629364014 10061330.739491701 0 10061330.739491701 5881972.9981789589 0 0 0 0 18945711.504241943 26124907.749655247 0 26124907.749655247 21352625.349614382 0 0 0 0 20820791.798816681 593718.10817794502 0 593718.10817794502 10230258.061752319 0 0 0 0 -2517884.2583477572 -237449.86652220041 0 -237449.86652220041 2263038.599468736 0 0 0 0 -16173921.663528442 9257445.2567925453 0 9257445.2567925453 9800627.3582344055 0 0 0 0 -97836748.389953613 -53588972.654495239 0 -53588972.654495239 -30891769.563800812 0 0 0 0 -368012904.62918091 -30327869.516988754 0 -30327869.516988754 77119419.810884476 0 0 0 0 -537077.5799597688 -213758.23382900655 0 -213758.23382900655 57205.045353623107 0 0 0 0 -8348071.8603466451 -498169.9517288208 0 -498169.9517288208 4472453.8435776113 0 0 0 0 12495156.058807373 14759066.418106794 0 14759066.418106794 -2814593.227273941 0 0 0 0 39879106.693740845 -837317.79045772552 0 -837317.79045772552 -18665192.893352509 0 0 0 0 -271831769.18460083 -33819750.619700432 0 -33819750.619700432 49965103.395355225 0 0 0 0 1193655.5318125263 1134008.0076326728 0 1134008.0076326728 -1027081.1130018961 0 0 0 0 -37934127.011627197 -99703920.125531197 0 -99703920.125531197 -57823913.289489746 0 0 0 0 72422745.958770752 16116385.650888592 0 16116385.650888592 13777844.228616923 0 0 0 0 -29923155.222997189 90942828.03053993 0 90942828.03053993 -8126438.8756866455 0 0 0 0 -5910355.4378335327 2748495.2794955298 0 2748495.2794955298 6034858.3132255953 0 0 0 0 85025046.954376221 -20165650.053351998 0 -20165650.053351998 18043245.263292313 0 0 0 0 -165269679.04481506 42178248.383795738 0 42178248.383795738 124195656.85773468 0 0 0 0 -173955403.91896057 81805910.939586639 0 81805910.939586639 -21100315.266117096 0 0 0 0 -81926824.397003174 -116964376.58831882 0 -116964376.58831882 -116173382.87516785 0 0 0 0 -149029240.47724915 -151660227.43859506 0 -151660227.43859506 -84580916.999233246 0 0 0 0 33152216.648468018 -146417481.09895039 0 -146417481.09895039 35632618.243000031 0 0 0 0 -62760672.551330566 -35212085.435949326 0 -35212085.435949326 -69589253.157867432 0 0 0 0 -183427275.98913574 -44528949.323226929 0 -44528949.323226929 19872692.566717148 0 0 0 0 -25223638.732467651 13340442.252373219 0 13340442.252373219 23625494.129325867 0 0 0 0 -12550341.935721502 -1276643.6830387264 0 -1276643.6830387264 4851337.9780420531 0 0 0 0 -11120394.807678223 -3276249.7875709534 0 -3276249.7875709534 30967134.977865219 0 0 0 0 17560418.307983398 1757406.1161117554 0 1757406.1161117554 28368123.635391235 0 0 0 0 22763099.230895996 16860595.496244431 0 16860595.496244431 -17500391.558996201 0 0 0 0 -3524748.341106832 780071.98976077512 0 780071.98976077512 2774937.7005543839 0 0 0 0 -78402669.344741821 58137909.807676315 0 58137909.807676315 -43262426.170272827 0 0 0 0 7371566.4924316406 -6726513.5350570679 0 -6726513.5350570679 23570137.6604774 0 0 0 0 73208036.619049072 -38630218.764703274 0 -38630218.764703274 -45972977.461215973 0 0 0 0 -20741158.077789307 -67297684.256023407 0 -67297684.256023407 -104846594.41034317 0 0 0 0 -17215877.492416382 -11212309.61171627 0 -11212309.61171627 -15948507.018131256 0 0 0 0 -976273.04788208008 20679012.799377441 0 20679012.799377441 26343595.690660477 0 0 0 0 -16699449.275909424 32182078.797268867 0 32182078.797268867 -5662154.8814353943 0 0 0 0 -158284287.91662598 -55242139.362107277 0 -55242139.362107277 -24765136.610982418 0 0 0 0 -83497886.501312256 -46729344.954648972 0 -46729344.954648972 -9663193.2691345215 0 0 0 0 -44271534.770248413 2924419.8990268707 0 2924419.8990268707 -6817336.8745861053 0 0 0 0 -90477354.592552185 52209125.605203152 0 52209125.605203152 11847488.291614532 0 0 0 0 -12817131.182830811 27788264.452388763 0 27788264.452388763 3505613.3736748695 0 0 0 0 -19835773.358908936 -5493302.7279629707 0 -5493302.7279629707 7903037.205589924 0 0 0 0 -85703915.967483521 -97895042.274236679 0 -97895042.274236679 -94625810.450452805 0 0 0 0 1590202.0410726368 2084774.0317229033 0 2084774.0317229033 246121.45779050793 0 0 0 0 10418063.833526611 8227130.3573627472 0 8227130.3573627472 -1734046.3593177795 0 0 0 0 -24803297.189481735 -24393212.20486474 0 -24393212.20486474 -11876670.569446564 0 0 0 0 -27944408.652840823 -1924827.3471605554 0 -1924827.3471605554 22696853.949309386 0 0 0 0 -205451188.70848083 -147222626.8572464 0 -147222626.8572464 -1577002.8108100891 0 0 0 0 -39008898.200927734 13557386.103942871 0 13557386.103942871 -3736490.9692192078 0 0 0 0 -8901556.0869560242 -6384596.0624876544 0 -6384596.0624876544 4652529.5824177433 0 0 0 0 -22004489.199462891 -21268327.117855072 0 -21268327.117855072 3218277.8624343872 0 0 0 0 -16047566.963745117 -43535430.373918533 0 -43535430.373918533 14793071.796504974 0 0 0 0 -68139648.900268555 -79603433.426202774 0 -79603433.426202774 1757232.7176113129 0 0 0 0 -78692839.95324707 -28681565.650482178 0 -28681565.650482178 -18225548.858566284 0 0 0 0 -49509625.304138184 -50410850.500356674 0 -50410850.500356674 -82652613.952404976 0 0 0 0 -80641384.034118652 -63586341.683128357 0 -63586341.683128357 -76542720.498587608 0 0 0 0 -2247413.2301635742 -13069790.660175323 0 -13069790.660175323 -83253371.211925507 0 0 0 0 -791662.96740235947 -912072.78059785813 0 -912072.78059785813 250813.03860897571 0 0 0 0 -106431276.35134888 -92443638.856586456 0 -92443638.856586456 -36023869.939910889 0 0 0 0 -110829114.19055176 -171379058.66144943 0 -171379058.66144943 -24755342.290950775 0 0 0 0 -186804952.29611206 -93463092.968284607 0 -93463092.968284607 -104640957.20874786 0 0 0 0 -21728164.100456238 -30517656.219810486 0 -30517656.219810486 -31990648.68050766 0 0 0 0 -40064591.930971146 -41572851.901360869 0 -41572851.901360869 23123612.392883301 0 0 0 0 -2991862.1055806428 -1689882.7249501422 0 -1689882.7249501422 -476025.60299198702 0 0 0 0 -176379585.07063293 -117543240.62630463 0 -117543240.62630463 -68140410.729866028 0 0 0 0 -37163045.998483017 -10140512.795238182 0 -10140512.795238182 15840089.332455821 0 0 0 0 -156430743.96890259 -201756437.81339645 0 -201756437.81339645 -99849973.113344908 0 0 0 0 -30419263.495483398 -20300126.734306335 0 -20300126.734306335 -15187179.612960815 0 0 0 0 -15249792.999267578 -4599901.5137443542 0 -4599901.5137443542 14653138.304168701 0 0 0 0 -9131187.0408992618 -21773078.632902369 0 -21773078.632902369 -5648195.1366892345 0 0 0 0 -26858813.675657749 -2322482.524952542 0 -2322482.524952542 12918822.870998554 0 0 0 0 -41694260.319580078 1122322.6642608643 0 1122322.6642608643 789474.09051513672 0 0 0 0 -38606694.068087503 -3392581.85962018 0 -3392581.85962018 20196116.856740221 0 0 0 0 -18917103.294833645 -12842295.578812249 0 -12842295.578812249 10851490.011936609 0 0 0 0 329153539.41174316 -37306953.121831894 0 -37306953.121831894 22903774.902759552 0 0 0 0 -7115809.6634908617 -10315809.992363062 0 -10315809.992363062 6644051.0282419045 0 0 0 0 -79736347.06463623 -243582202.74084949 0 -243582202.74084949 34507813.125086606 0 0 0 0 -272431076.02264404 122535742.37326622 0 122535742.37326622 87617524.064399719 0 0 0 0 18887735.556121826 -15345865.105649948 0 -15345865.105649948 -49039153.126942635 0 0 0 0 81203088.627258301 -46476734.731236458 0 -46476734.731236458 -44355147.272186279 0 0 0 0 -17083004.009399414 -54419341.80402565 0 -54419341.80402565 15780877.286385804 0 0 0 0 -83100683.066794515 148817544.40319163 0 148817544.40319163 7654537.3204364777 0 0 0 0 -2188332.4113548696 249114.01634773239 0 249114.01634773239 755897.18873196654 0 0 0 0 -38237319.827758789 -11323763.365995407 0 -11323763.365995407 36355991.234793663 0 0 0 0 -23449642.108754814 -14225096.228660956 0 -14225096.228660956 6972707.2903313264 0 0 0 0 -40093013.384094238 -6164355.2867007256 0 -6164355.2867007256 99303985.778540611 0 0 0 0 -26556758.523681641 -54383055.789254189 0 -54383055.789254189 42279705.075144172 0 0 0 0 -39485032.33480835 -68945293.010621548 0 -68945293.010621548 28088462.681270599 0 0 0 0 -29949809.07635498 -46938531.15854454 0 -46938531.15854454 22374155.463176727 0 0 0 0 -48386660.094070435 -39600367.102537155 0 -39600367.102537155 77468856.51424408 0 0 0 0 -60322629.997833252 -16958560.092374802 0 -16958560.092374802 11948421.288869858 0 0 0 0 -43243009.085159302 -64873684.659549236 0 -64873684.659549236 -3686927.2812004089 0 0 0 0 -53046628.996704102 -57932823.572123528 0 -57932823.572123528 24745471.051109314 0 0 0 0 3630870.6294555664 -47280182.512685776 0 -47280182.512685776 -510425.88604784012 0 0 0 0 -7583272.1428833008 -67428613.291633606 0 -67428613.291633606 -7326709.4054603577 0 0 0 0 -13545792.713256836 -77991826.848024368 0 -77991826.848024368 -4959786.1728115082 0 0 0 0 34415959.19442749 -100067903.04901505 0 -100067903.04901505 6005518.6577575207 0 0 0 0 -20417341.436294556 -33182407.041891098 0 -33182407.041891098 41973217.067726135 0 0 0 0 -3047055.9729555026 -948585.07190911472 0 -948585.07190911472 36107.831948964857 0 0 0 0 -19668230.730148315 -2874484.5657215118 0 -2874484.5657215118 23028164.746655464 0 0 0 0 -16298251.146240234 11619526.058409691 0 11619526.058409691 68113646.250321269 0 0 0 0 -11504885.215793446 -4235272.4517560378 0 -4235272.4517560378 -963183.91023371089 0 0 0 0 -25768516.937316895 -4660450.335852623 0 -4660450.335852623 9426279.2817026079 0 0 0 0 -8109221.2463979721 965019.84725011885 0 965019.84725011885 3357279.5409698701 0 0 0 0 -58397497.283462524 22999232.702269077 0 22999232.702269077 8567476.7304172516 0 0 0 0 19986388.396459103 -28056489.790320374 0 -28056489.790320374 2700988.575381279 0 0 0 0 -15977339.062016979 -12204143.320285954 0 -12204143.320285954 464713.06359586399 0 0 0 0 12708397.473022461 -11879101.222071409 0 -11879101.222071409 -7840727.6098873615 0 0 0 0 -8221349.5629806519 -3262059.2672579288 0 -3262059.2672579288 3393915.2808346748 0 0 0 0 -6616119.0501861572 -1391385.2015244961 0 -1391385.2015244961 2871193.4376583099 0 0 0 0 -7882786.9403234646 -718973.85703955591 0 -718973.85703955591 1738268.7271445985 0 0 0 0 -15451038.775975734 -2350761.89029935 0 -2350761.89029935 -1015491.3319057892 0 0 0 0 -16886100.482269287 -80606697.016792774 0 -80606697.016792774 29772359.34422493 0 0 0 0 -9632539.1044616699 -72506597.769955158 0 -72506597.769955158 -15999017.065163612 0 0 0 0 -18314984.556216031 -12756558.544816095 0 -12756558.544816095 1841383.5444119736 0 0 0 0 -2201812.7905883789 -55410663.641060352 0 -55410663.641060352 19427462.220300674 0 0 0 0 -2255031.2730407715 -54175251.923262119 0 -54175251.923262119 14971714.753715515 0 0 0 0 12808463.191833496 -29483330.033517361 0 -29483330.033517361 6715086.4347019196 0 0 0 0 20061896.523800373 -25282374.656328328 0 -25282374.656328328 -21915703.639259338 0 0 0 0 15650040.497680664 -11522416.681725025 0 -11522416.681725025 -8476413.8790912628 0 0 0 0 8949713.8666992188 -2826951.407387495 0 -2826951.407387495 -43795637.749604106 0 0 0 0 11262092.884338379 -38177852.125383735 0 -38177852.125383735 -39674920.369565964 0 0 0 0 -17303062.650756836 22533609.250441074 0 22533609.250441074 -65571644.546562552 0 0 0 0 8750025.6499328613 -43451311.316295624 0 -43451311.316295624 -18998166.551455796 0 0 0 0 11727431.385955811 -62611697.904233217 0 -62611697.904233217 -113371494.44045448 0 0 0 0 282107.38861083984 -2597423.3063790798 0 -2597423.3063790798 -11214442.548276424 0 0 0 0 -4739976.3415985107 -3849155.8394978046 0 -3849155.8394978046 -10469774.80218935 0 0 0 0 2858345.6127319336 1796533.1980781555 0 1796533.1980781555 -4850609.9629998207 0 0 0 0 13260954.791625977 -14984562.297333241 0 -14984562.297333241 -9589729.1954107285 0 0 0 0 25991973.623596191 -13453703.668984413 0 -13453703.668984413 -10605856.002970695 0 0 0 0 12823212.149047852 -7284955.5552654266 0 -7284955.5552654266 -15913607.585704803 0 0 0 0 15615905.533081055 -15830475.589079261 0 -15830475.589079261 117309.66834259033 0 0 0 0 4172458.0867996216 -3373849.9826695323 0 -3373849.9826695323 1125732.0789728165 0 0 0 0 16363888.161254883 -9626110.9872364998 0 -9626110.9872364998 -709832.10950469971 0 0 0 0 1333049.8409423828 2114364.9536973238 0 2114364.9536973238 -7182943.4815957546 0 0 0 0 2370602.4126358032 -2958813.1910321116 0 -2958813.1910321116 -3185517.6108970642 0 0 0 0 2152638.6723632812 -2930678.0298111439 0 -2930678.0298111439 2313753.0579566956 0 0 0 0 -292865752.61657715 545610075.96383166 0 545610075.96383166 -1027475907.3705345 0 0 0 0 763486.70435166359 -910293.24713202985 0 -910293.24713202985 405961.95080351917 0 0 0 0 -10861024.688730448 -7472110.4741405025 0 -7472110.4741405025 -4776974.9142592056 0 0 0 0 282410693.83333969 -334101287.09164685 0 -334101287.09164685 17144935.736128323 0 0 0 0 -186257.71433441341 -690647.34331546724 0 -690647.34331546724 23192.106483640411 0 0 0 0 -7805019.1735229492 -4652176.6729698181 0 -4652176.6729698181 136676.27132236958 0 0 0 0 -6250240.1421369612 -4382138.5848844694 0 -4382138.5848844694 1377588.0643179207 0 0 0 0 -10972476.841918945 -3682355.9374709129 0 -3682355.9374709129 1620676.6387276649 0 0 0 0 -7735220.9671020508 -5681149.0065767765 0 -5681149.0065767765 2770913.9329929352 0 0 0 0 -1031925.7126431763 -51997.749581463635 0 -51997.749581463635 755853.77875560103 0 0 0 0 -8979273.5368487835 -10250984.232235551 0 -10250984.232235551 -1054897.5643682922 0 0 0 0 -6847806.6577301025 -3282612.8756433725 0 -3282612.8756433725 3572786.3245339394 0 0 0 0 21630233.31539917 43004.108211994171 0 43004.108211994171 -3979659.9479122162 0 0 0 0 -389362.22062253952 -1736046.6114249295 0 -1736046.6114249295 154196.35111816693 0 0 0 0 -7103207.5627746582 -4012831.8157138824 0 -4012831.8157138824 -1284915.7273925543 0 0 0 0 -1695385.1267547607 -1692176.3087642277 0 -1692176.3087642277 -739.32935425281426 0 0 0 0 -4492708.3857196271 -2354872.0379457385 0 -2354872.0379457385 308156.57194144744 0 0 0 0 -2780989.6788330078 -904249.2656965995 0 -904249.2656965995 126207.04954681851 0 0 0 0 -7809320.1053619385 -4807285.8841159344 0 -4807285.8841159344 -76329.637613773346 0 0 0 0 -8491033.1202886254 -7551266.3771217689 0 -7551266.3771217689 -2795180.7069183346 0 0 0 0 -2848816.83543396 -813951.44302314043 0 -813951.44302314043 6379.1305539053283 0 0 0 0 -5515551.835044682 -546343.24889722327 0 -546343.24889722327 893288.08121619141 0 0 0 0 -9138817.7453918457 -1492105.3631367683 0 -1492105.3631367683 1552205.0843477249 0 0 0 0 -7056563.5618143082 -2560492.8266298808 0 -2560492.8266298808 1940403.2738218307 0 0 0 0 -3364172.3969726562 1342858.0424136422 0 1342858.0424136422 664613.8675659959 0 0 0 0 -9010682.0173034668 -1127446.8232705593 0 -1127446.8232705593 4428506.3985948563 0 0 0 0 -9814898.9487809092 -4205098.8615774438 0 -4205098.8615774438 500340.24140337203 0 0 0 0 -258160654.93969727 645756328.49028015 0 645756328.49028015 970971.34017985757 0 0 0 0 -9228617.4057006836 -102784.30313897133 0 -102784.30313897133 3541307.3678357601 0 0 0 0 -17366360.014335632 -63803587.495512113 0 -63803587.495512113 33934462.554258466 0 0 0 0 -14213269.899902344 -6079655.1323429346 0 -6079655.1323429346 -11013165.614620924 0 0 0 0 -3230785.2914323956 -1953622.8963776529 0 -1953622.8963776529 233684.87039547222 0 0 0 0 -4989905.0036315918 876697.98957244842 0 876697.98957244842 8851.4869920530946 0 0 0 0 -11118380.295354277 -2253241.2164946496 0 -2253241.2164946496 585876.43443998322 0 0 0 0 -10090077.988557428 1529290.1849729568 0 1529290.1849729568 2450508.4900015551 0 0 0 0 -6248400.8661499023 -878711.52527570724 0 -878711.52527570724 3983538.6621594429 0 0 0 0 -13706673.78772229 4883828.6334243156 0 4883828.6334243156 6038604.5447727069 0 0 0 0 -4381309.0036315918 3432524.6551020145 0 3432524.6551020145 8055581.5375449657 0 0 0 0 -294053425.61929321 66431896.407266617 0 66431896.407266617 231685100.40725899 0 0 0 0 -15381934.94427897 2614465.9425306581 0 2614465.9425306581 5967056.0440248027 0 0 0 0 -7313075.5904900432 -2312694.5325619727 0 -2312694.5325619727 485187.43146004679 0 0 0 0 -5742261.9957275391 1885728.3667475265 0 1885728.3667475265 4831673.8082190044 0 0 0 0 -10583822.596725464 -595278.43125677109 0 -595278.43125677109 6730689.7537459135 0 0 0 0 -9479955.3182983398 63580.249745368958 0 63580.249745368958 6140995.3387227058 0 0 0 0 -6462151.0910317004 -715485.4722738266 0 -715485.4722738266 840723.83406693279 0 0 0 0 -10730533.86954689 -1897604.1328536272 0 -1897604.1328536272 5427998.0789613724 0 0 0 0 -7568087.1868591309 -2006251.3331627846 0 -2006251.3331627846 6145235.3788392544 0 0 0 0 -27119949.135467529 8578222.6455821991 0 8578222.6455821991 -16180278.597096443 0 0 0 0 -10122954.427520752 -9203304.3621006012 0 -9203304.3621006012 -11569914.138895035 0 0 0 0 -17365580.376933753 -3130815.6290673763 0 -3130815.6290673763 3067720.766260663 0 0 0 0 1135582.1846015453 1212569.7665925622 0 1212569.7665925622 172337.68139656074 0 0 0 0 -221753391.7841568 -461549408.29793972 0 -461549408.29793972 320826630.93644333 0 0 0 0 45337263.701080322 6920537.1755552292 0 6920537.1755552292 23216972.266098022 0 0 0 0 40769033.693969727 74699419.614372253 0 74699419.614372253 -292093713.64200401 0 0 0 0 115163709.55578613 46734429.757183075 0 46734429.757183075 -31722519.089315414 0 0 0 0 -259510957.88964844 107810432.21392727 0 107810432.21392727 29696601.516527176 0 0 0 0 -638503.39258227497 -241492.87079861015 0 -241492.87079861015 623185.24358177092 0 0 0 0 -52773656.796463013 -67040799.38582325 0 -67040799.38582325 163681560.71589088 0 0 0 0 39510478.212059021 -47484473.618582726 0 -47484473.618582726 17173304.202682495 0 0 0 0 -57027638.410965919 4898911.3944203854 0 4898911.3944203854 13897309.997692108 0 0 0 0 -17866694.629669189 -24785725.192440033 0 -24785725.192440033 -188241.82271575928 0 0 0 0 -27101891.550262451 7943330.1992740631 0 7943330.1992740631 -2397477.6514282227 0 0 0 0 13843917.144134521 13616457.324712291 0 13616457.324712291 10250939.482839465 0 0 0 0 39510568.159515381 44806044.709715307 0 44806044.709715307 11834426.710599899 0 0 0 0 37309752.617967606 20287098.173847854 0 20287098.173847854 -4462824.4003853798 0 0 0 0 30816799.8565979 26575575.377091408 0 26575575.377091408 31062015.874658585 0 0 0 0 -93408881.553009033 -17989907.687212467 0 -17989907.687212467 -128719411.72315216 0 0 0 0 51710372.755462646 45262478.904700279 0 45262478.904700279 20651822.125956535 0 0 0 0 8722422.9082995057 2797465.8337946236 0 2797465.8337946236 -2360451.2917525247 0 0 0 0 13753073.178833008 4846720.533205986 0 4846720.533205986 9348286.386326313 0 0 0 0 -5555379.1464921758 2590236.8482242227 0 2590236.8482242227 3800858.6714617824 0 0 0 0 -350105446.24078369 151820430.35822678 0 151820430.35822678 -195557202.06464386 0 0 0 0 -15476055.524054289 2885268.5726100281 0 2885268.5726100281 4981305.5788478134 0 0 0 0 15941249.567382812 12334314.662822843 0 12334314.662822843 -9094416.9106688499 0 0 0 0 34780780.623291016 43143893.894865751 0 43143893.894865751 28790270.126482964 0 0 0 0 1379693.0231754333 382816.6921139583 0 382816.6921139583 -424521.55468630709 0 0 0 0 42388034.153198242 38981279.515403271 0 38981279.515403271 39195112.706047058 0 0 0 0 -16278756.465468861 2555559.6432410181 0 2555559.6432410181 3515883.7367145987 0 0 0 0 110481843.15411377 97720780.461778641 0 97720780.461778641 50479898.598181009 0 0 0 0 16535468.626098633 27260308.667497396 0 27260308.667497396 3684308.5975115299 0 0 0 0 3831730.4787902832 22776435.232382357 0 22776435.232382357 15531173.820072889 0 0 0 0 6239103.4551048279 -1629872.5661342219 0 -1629872.5661342219 -2381864.4321075678 0 0 0 0 1480908.4589920044 5698999.444118835 0 5698999.444118835 1913223.3017070293 0 0 0 0 -647904.90674591064 428105.06104454771 0 428105.06104454771 4740305.6424835473 0 0 0 0 1204700.3196105957 732788.16498518968 0 732788.16498518968 497930.86570912413 0 0 0 0 -2527395.5509033203 4667289.7257689238 0 4667289.7257689238 4855409.154600488 0 0 0 0 -2007403.8428807408 1818835.0872912966 0 1818835.0872912966 -1049731.66635494 0 0 0 0 -1333840.3475952148 3527070.1605732441 0 3527070.1605732441 790804.68381730095 0 0 0 0 -1967984.5494384766 6622034.3918653801 0 6622034.3918653801 3948567.6667960281 0 0 0 0 3406528.9310531467 5144073.9914171305 0 5144073.9914171305 594710.59682283306 0 0 0 0 -4302123.2028808594 4998481.4613997862 0 4998481.4613997862 3390196.0460781083 0 0 0 0 -1412943.0360717773 4160336.8145138025 0 4160336.8145138025 3615897.11512357 0 0 0 0 -2419157.5410766602 1292616.4975677729 0 1292616.4975677729 4836247.8843333842 0 0 0 0 -4572666.2496948242 2721658.2697982127 0 2721658.2697982127 6184716.6311801597 0 0 0 0 -530718.85432733595 150204.108035855 0 150204.108035855 294590.30460796191 0 0 0 0 -4368164.7637634277 2234867.4413974448 0 2234867.4413974448 2748283.2814400434 0 0 0 0 -8350595.7509460449 2669621.2738699983 0 2669621.2738699983 2311149.614295613 0 0 0 0 -2595309.9373779297 3463599.0079047037 0 3463599.0079047037 -2789.2894081649874 0 0 0 0 -588656.34811401367 6736123.2357466854 0 6736123.2357466854 2671907.4387863083 0 0 0 0 -9293204.0481262207 -4050172.8104309412 0 -4050172.8104309412 -3940700.6118495138 0 0 0 0 -45808283.50869751 -2617203.1012196257 0 -2617203.1012196257 5759423.8407250959 0 0 0 0 -23410466.71836853 3093828.2164689125 0 3093828.2164689125 -6664.0592374974194 0 0 0 0 -16912805.594512939 -10775811.452846864 0 -10775811.452846864 -5719540.8396735564 0 0 0 0 -15718985.37701416 -1390151.3076841794 0 -1390151.3076841794 -3527544.0648190901 0 0 0 0 -5774919.6882019043 7742076.770600684 0 7742076.770600684 8587195.5319521427 0 0 0 0 2944463.8487548828 3496302.1917925328 0 3496302.1917925328 -3729017.2663152665 0 0 0 0 -7187259.7444152832 -8029620.5075321756 0 -8029620.5075321756 1279340.4041467458 0 0 0 0 -2055983.78712596 809928.56003133208 0 809928.56003133208 -420825.07820250222 0 0 0 0 -14451006.603885651 3104491.0416933494 0 3104491.0416933494 2676167.0952168498 0 0 0 0 -41474392.750198364 23411104.015411362 0 23411104.015411362 2746045.2774098925 0 0 0 0 -47446966.910972595 -5620824.2808059454 0 -5620824.2808059454 7622016.9142583292 0 0 0 0 -61389330.462905884 8981102.1578849927 0 8981102.1578849927 25676.98850621028 0 0 0 0 -94925582.55078125 -1521806.995724339 0 -1521806.995724339 9897424.199776724 0 0 0 0 -81762256.804023743 22786295.090079404 0 22786295.090079404 3238528.0009276159 0 0 0 0 -24534089.601898193 50862735.043725163 0 50862735.043725163 -26808560.381683446 0 0 0 0 -90133389.739318848 9504426.3016141541 0 9504426.3016141541 -25929289.276421905 0 0 0 0 -75850334.304016113 14007636.170153908 0 14007636.170153908 1416454.602982156 0 0 0 0 -160004164.5642395 39704560.762258507 0 39704560.762258507 -6176529.7199260741 0 0 0 0 -132343878.41437531 -47744933.437931672 0 -47744933.437931672 -13147018.637518257 0 0 0 0 102155.37003344297 357604.13239031285 0 357604.13239031285 -54702.497782919003 0 0 0 0 -92565944.607543945 -11886406.676934969 0 -11886406.676934969 -168475371.8180027 0 0 0 0 -104564891.18726349 86017502.92534256 0 86017502.92534256 -75981605.064513162 0 0 0 0 -179397029.35179138 -25276269.335903101 0 -25276269.335903101 -12044565.486025736 0 0 0 0 -103796813.36151123 12533197.79343383 0 12533197.79343383 1632968.8632676378 0 0 0 0 -13640419.12902832 -7526480.9691247977 0 -7526480.9691247977 -42936228.958727926 0 0 0 0 -45889434.475280762 -43501106.91810292 0 -43501106.91810292 -42754693.306071825 0 0 0 0 -71625.397585436702 -15122.123168535531 0 -15122.123168535531 6018.8014268998904 0 0 0 0 17794835.817382812 3077963.5771766901 0 3077963.5771766901 -29854247.901646018 0 0 0 0 2416592.0093234926 2610812.2569974847 0 2610812.2569974847 402871.8889345763 0 0 0 0 -6027887.4689941406 -4375695.9040640593 0 -4375695.9040640593 -20063800.593888365 0 0 0 0 -20609355.191253662 -4255593.6128485352 0 -4255593.6128485352 7938196.2072664797 0 0 0 0 460035.60365925729 1160904.5335704684 0 1160904.5335704684 -195597.89128207709 0 0 0 0 -25002592.879943848 443830.01194039732 0 443830.01194039732 4854607.4112226889 0 0 0 0 -27654032.202819824 -22781824.499473818 0 -22781824.499473818 -14380759.450875551 0 0 0 0 5424159.172088623 -13546889.488409072 0 -13546889.488409072 -48397842.25473392 0 0 0 0 1026571.4594116211 7145412.5951343998 0 7145412.5951343998 -38971184.577970877 0 0 0 0 -740319.61584472656 -8044474.247372672 0 -8044474.247372672 -147992345.63545847 0 0 0 0 1124595.5643310547 21181761.72842741 0 21181761.72842741 -39257932.069149002 0 0 0 0 -15008620.91595459 49981652.488160029 0 49981652.488160029 13821113.440311462 0 0 0 0 16174874.53918457 48138561.771535039 0 48138561.771535039 22611481.132571682 0 0 0 0 25275736.089324951 32784169.585575432 0 32784169.585575432 -34844323.623778105 0 0 0 0 495218.92468261719 2841895.2462878972 0 2841895.2462878972 -28888368.007456422 0 0 0 0 22392527.384277344 21425589.785462141 0 21425589.785462141 -19290025.894794755 0 0 0 0 18423965.983978271 46585746.76577878 0 46585746.76577878 23503956.488052309 0 0 0 0 -27089134.912353516 25934384.868699849 0 25934384.868699849 50290709.396420062 0 0 0 0 398151.79318237305 44728447.13845028 0 44728447.13845028 56250263.802517891 0 0 0 0 -4418265.1215209961 11907497.918179512 0 11907497.918179512 10058463.192006588 0 0 0 0 -21233894.921264648 -9745912.9345684052 0 -9745912.9345684052 19429014.898469925 0 0 0 0 -3584167.6263122559 -16281934.062527895 0 -16281934.062527895 11956945.772450447 0 0 0 0 -4270209.7525901347 524081.55956155807 0 524081.55956155807 2121384.0497946534 0 0 0 0 -7058311.8225982785 8134338.0163652822 0 8134338.0163652822 4009572.7273782706 0 0 0 0 11037534.73248291 -2820731.4130425453 0 -2820731.4130425453 5726938.2996765375 0 0 0 0 31714671.239746094 9626717.0534031391 0 9626717.0534031391 16403186.172920704 0 0 0 0 -44433370.595855713 -17475412.806462556 0 -17475412.806462556 11638065.315019161 0 0 0 0 -3365091.2683947086 -328932.45185812563 0 -328932.45185812563 622954.95387469814 0 0 0 0 58765155.008644104 102277417.35690217 0 102277417.35690217 49278950.153601885 0 0 0 0 -9131382.0903320312 44272011.354997635 0 44272011.354997635 2800412.1757347584 0 0 0 0 -9217809.3400653303 8083260.7457479313 0 8083260.7457479313 3566211.0989709827 0 0 0 0 -21645767.698204041 99934769.158611566 0 99934769.158611566 100342047.9012447 0 0 0 0 59129614.57635498 47202725.306647494 0 47202725.306647494 13899663.30580467 0 0 0 0 -39354003.298522949 37576789.071347356 0 37576789.071347356 103506637.44908611 0 0 0 0 -25559942.146484375 42574780.119049966 0 42574780.119049966 28386246.84518677 0 0 0 0 -107764166.24462128 -3514791.3701209724 0 -3514791.3701209724 34056744.187354386 0 0 0 0 -54303664.216674805 16912036.119487226 0 16912036.119487226 32652239.176212322 0 0 0 0 -82487389.272460938 61263780.164423704 0 61263780.164423704 22349180.766642153 0 0 0 0 -81094906.657562256 17079371.156271338 0 17079371.156271338 58255873.912039816 0 0 0 0 -82453216.128173828 38501786.758819252 0 38501786.758819252 69013118.386927485 0 0 0 0 -5488203.9249267578 48924855.953843765 0 48924855.953843765 49058135.758680344 0 0 0 0 -56300278.781494141 -18305865.912096888 0 -18305865.912096888 13615168.770685486 0 0 0 0 -111699492.05350685 -43520358.987077132 0 -43520358.987077132 15337359.029208362 0 0 0 0 -70828972.353820801 -19604044.924945533 0 -19604044.924945533 28298373.876678467 0 0 0 0 -45960301.840885162 -22399010.928484417 0 -22399010.928484417 521830.22574955225 0 0 0 0 -49206694.609344482 -9837756.4588882625 0 -9837756.4588882625 23669848.084133804 0 0 0 0 -42202144.720062256 6996023.0309339166 0 6996023.0309339166 34429216.369495153 0 0 0 0 -62730975.901855469 -10415379.463514358 0 -10415379.463514358 38583119.609711885 0 0 0 0 -43149248.801483154 6283990.4783846736 0 6283990.4783846736 33964736.850416005 0 0 0 0 -31788026.747375488 50018916.067436039 0 50018916.067436039 67887851.38131088 0 0 0 0 -29433429.814239502 18626751.027001858 0 18626751.027001858 40350304.302660912 0 0 0 0 -19545065.026733398 33973567.518439174 0 33973567.518439174 37847483.940848589 0 0 0 0 -47725405.913398743 16824595.453506239 0 16824595.453506239 54478801.067821741 0 0 0 0 -10841986.297424316 29782697.949324012 0 29782697.949324012 25447960.071534634 0 0 0 0 -16596237.7109375 25648501.096641302 0 25648501.096641302 61831421.796422124 0 0 0 0 47064981.053936005 25479754.301954094 0 25479754.301954094 31792572.346773505 0 0 0 0 1505875.171512574 738973.66302030534 0 738973.66302030534 -849365.66667220928 0 0 0 0 -12698575.355524212 7943452.3392727226 0 7943452.3392727226 2010003.390816045 0 0 0 0 -9071757.8450927734 106399752.11181617 0 106399752.11181617 -36824930.105144739 0 0 0 0 -7757262.8912658691 20566107.635202825 0 20566107.635202825 2803479.8544456959 0 0 0 0 -17211799.138000488 20121131.635059059 0 20121131.635059059 17882109.693345606 0 0 0 0 -24396954.396240234 25299729.573519766 0 25299729.573519766 31926454.542553425 0 0 0 0 -8862369.6003723145 21737721.137667954 0 21737721.137667954 14135540.135573566 0 0 0 0 -30427732.663978577 13659612.885724179 0 13659612.885724179 19904788.17138809 0 0 0 0 -26943811.67477417 14277946.987329364 0 14277946.987329364 20008100.366659895 0 0 0 0 -29673691.439544678 9074146.7112286985 0 9074146.7112286985 10088419.710673332 0 0 0 0 -23048193.036193848 9185432.0106601119 0 9185432.0106601119 -1994025.2779676914 0 0 0 0 -24456751.58013916 8898686.9438186884 0 8898686.9438186884 10074383.332437631 0 0 0 0 64353802.959796906 -1274458.5677941889 0 -1274458.5677941889 2053800.5382499695 0 0 0 0 -14497822.195965126 9207634.7793272659 0 9207634.7793272659 2031406.0448615109 0 0 0 0 -24632278.481811523 9174700.6863918006 0 9174700.6863918006 6423985.5024578869 0 0 0 0 9627552.5096740723 -24194630.568174362 0 -24194630.568174362 30756991.864326119 0 0 0 0 63329453.106933594 -10319777.924429297 0 -10319777.924429297 -20755151.188871026 0 0 0 0 -18298412.584838867 11858376.420812786 0 11858376.420812786 4597212.8223663568 0 0 0 0 52475428.219818115 -3722299.5752011538 0 -3722299.5752011538 16053054.285873652 0 0 0 0 46084650.041152954 -10505239.110612854 0 -10505239.110612854 -12840176.504889309 0 0 0 0 43741369.144836426 -11538081.869199038 0 -11538081.869199038 11125264.282521248 0 0 0 0 6863615.5406799316 23162682.014945209 0 23162682.014945209 -32541986.465063334 0 0 0 0 5518511.8840332031 57775961.521783829 0 57775961.521783829 -105891385.40871668 0 0 0 0 60710272.495605469 -16643929.229099512 0 -16643929.229099512 -12694684.119116545 0 0 0 0 -11870233.305053711 51698417.073958993 0 51698417.073958993 -12142122.666370511 0 0 0 0 -49738482.431396484 69738148.225417852 0 69738148.225417852 -19317352.946438193 0 0 0 0 -45575746.829681396 20028162.263403416 0 20028162.263403416 11996844.647154272 0 0 0 0 -38528000.72479248 84875375.697654665 0 84875375.697654665 604870.13467311859 0 0 0 0 -7374623.7798461914 81614552.695329368 0 81614552.695329368 -52111741.6077438 0 0 0 0 -49856181.182434082 106928569.19388781 0 106928569.19388781 -34731996.829153657 0 0 0 0 -35836588.631072998 130174964.21192557 0 130174964.21192557 -109270541.5264675 0 0 0 0 -129639546.48199463 118807779.05424452 0 118807779.05424452 -172815458.98755074 0 0 0 0 -249593713.49768066 6249692.467194438 0 6249692.467194438 276219444.51521325 0 0 0 0 -32542807.471923828 -121036401.06993198 0 -121036401.06993198 159152514.4531219 0 0 0 0 -231730727.4671669 160283676.23331657 0 160283676.23331657 69884208.129875302 0 0 0 0 -110536872.08398438 178515022.44094175 0 178515022.44094175 -68195190.591020763 0 0 0 0 -84250315.290710449 16136773.237286806 0 16136773.237286806 139175934.54811835 0 0 0 0 -55807147.754928589 95833451.60864301 0 95833451.60864301 25216510.637807965 0 0 0 0 -29713178.341552734 33126028.456077576 0 33126028.456077576 62766864.55585289 0 0 0 0 -95444987.681274414 85738627.185651302 0 85738627.185651302 25010598.056379795 0 0 0 0 -13118839.54119873 -26297712.229308367 0 -26297712.229308367 79349884.27179265 0 0 0 0 -33394018.390518188 15083945.727578342 0 15083945.727578342 41370871.847695827 0 0 0 0 75414564.090423584 -74099406.569510937 0 -74099406.569510937 55904449.902988434 0 0 0 0 -59755570.639404297 -2331318.3730072975 0 -2331318.3730072975 73620196.632212162 0 0 0 0 19515310.286376953 -16663252.347324967 0 -16663252.347324967 28244328.547963142 0 0 0 0 11167932.328521729 -9666036.5268601179 0 -9666036.5268601179 28940672.109803677 0 0 0 0 -6421437.078918457 7796885.421141386 0 7796885.421141386 38400868.298688173 0 0 0 0 -1390365.2593356296 195605.22898793221 0 195605.22898793221 758805.1786708557 0 0 0 0 -43060494.183319092 -44370667.8021034 0 -44370667.8021034 26827191.070433363 0 0 0 0 -11879526.33291626 46658418.206108809 0 46658418.206108809 23238786.14909935 0 0 0 0 -48414854.756652832 78470907.910984039 0 78470907.910984039 -294840.14964553714 0 0 0 0 -8710519.4719848633 13911132.010502815 0 13911132.010502815 -1294715.6573019028 0 0 0 0 -17860541.407958984 -14088135.561128139 0 -14088135.561128139 6395908.0134143829 0 0 0 0 -1472346.6790297627 3254181.9048310462 0 3254181.9048310462 1110634.3332800181 0 0 0 0 12276183.095306396 69238089.534235001 0 69238089.534235001 -29944856.240842342 0 0 0 0 -15781150.317825317 16552265.118225574 0 16552265.118225574 20500655.859100342 0 0 0 0 -4407962.2320520729 2096043.4725676179 0 2096043.4725676179 1420132.8865128104 0 0 0 0 -37385335.63747406 10308984.929996729 0 10308984.929996729 11671043.694099426 0 0 0 0 -26934769.989578247 3344372.9186935127 0 3344372.9186935127 12459072.10639675 0 0 0 0 -11163915.972677007 1399500.5476389285 0 1399500.5476389285 6786994.2737546796 0 0 0 0 -10036174.885681346 3840560.9208844006 0 3840560.9208844006 7425662.0149436053 0 0 0 0 -25641227.339294434 6815382.9406604767 0 6815382.9406604767 6422457.4230376482 0 0 0 0 -27691746.490814209 4946488.8975222409 0 4946488.8975222409 9585610.4289966226 0 0 0 0 -30314147.626403809 1831171.21980986 0 1831171.21980986 18723422.518968225 0 0 0 0 -28902148.87046814 7053622.9502147138 0 7053622.9502147138 15379086.402132809 0 0 0 0 -30133971.326202393 859745.48713536561 0 859745.48713536561 11122318.176221505 0 0 0 0 -20346614.042358398 -1507902.813107729 0 -1507902.813107729 9896831.7969722301 0 0 0 0 -31999162.437988281 -6591893.6366656721 0 -6591893.6366656721 18264266.075892985 0 0 0 0 -39307383.891422272 -3431043.9098522104 0 -3431043.9098522104 16952324.409470499 0 0 0 0 -17671046.878723145 -1093523.1306747869 0 -1093523.1306747869 722017.01450880989 0 0 0 0 -29447298.629829407 -10567347.371112917 0 -10567347.371112917 3070394.2710659504 0 0 0 0 -27633678.05632019 -13980989.386979759 0 -13980989.386979759 -206637.69219079614 0 0 0 0 -7925189.1442565918 4962387.1872545406 0 4962387.1872545406 5291696.6725420542 0 0 0 0 -81125618.472839355 25769682.0650177 0 25769682.0650177 44452147.639129639 0 0 0 0 -4808849.3129097819 2415035.0200461671 0 2415035.0200461671 6742067.4176133107 0 0 0 0 -18933326.75403595 -4053965.8728834875 0 -4053965.8728834875 7791351.7555215061 0 0 0 0 4402356.4619445801 -41730254.867227554 0 -41730254.867227554 77145010.368736267 0 0 0 0 -643376.20670187473 804152.25240982324 0 804152.25240982324 -133120.92340962961 0 0 0 0 -9025975.4965057373 53289737.689399719 0 53289737.689399719 110658183.07613754 0 0 0 0 -17943144.909637451 11889133.67647934 0 11889133.67647934 -5905245.7855205536 0 0 0 0 15800921.728240967 58418619.822205544 0 58418619.822205544 -12891437.894993663 0 0 0 0 22197463.353507996 18462760.647726774 0 18462760.647726774 -69279169.28468895 0 0 0 0 -6199310.4069671631 10974474.945168018 0 10974474.945168018 -12675004.184782028 0 0 0 0 -28110626.143249512 37471147.342148781 0 37471147.342148781 -21608971.463639259 0 0 0 0 11594.830362200737 -53754.491931241006 0 -53754.491931241006 187172.50158902936 0 0 0 0 -2795198.7926483154 -2632346.215581134 0 -2632346.215581134 3274556.3206835687 0 0 0 0 -1468478.3026733398 196604.43268629164 0 196604.43268629164 6667969.0275374055 0 0 0 0 -2957668.4123685807 1711031.4585182816 0 1711031.4585182816 5843728.9250449305 0 0 0 0 -8815390.8021697998 -52068.066393125802 0 -52068.066393125802 6008291.682301715 0 0 0 0 -10382769.561752319 4243311.0783345867 0 4243311.0783345867 770574.42925271392 0 0 0 0 -9812300.5338745117 599724.32461412251 0 599724.32461412251 11743860.021321371 0 0 0 0 2249190.9918212891 4805792.7102859989 0 4805792.7102859989 10823510.680145297 0 0 0 0 -10440681.238830566 5903109.8861129005 0 5903109.8861129005 15531239.279344842 0 0 0 0 -9809705.1021118164 5814537.7077195868 0 5814537.7077195868 5994618.6960708052 0 0 0 0 532714.07464599609 6520695.7806487903 0 6520695.7806487903 5250379.6617958024 0 0 0 0 -18196227.399475098 11412877.132817097 0 11412877.132817097 6717394.9801062047 0 0 0 0 -12987158.239105225 6201501.5048296563 0 6201501.5048296563 3491773.3467830718 0 0 0 0 -13949177.024658203 6811446.6722919047 0 6811446.6722919047 11010879.184067644 0 0 0 0 -16853691.14654541 6343195.7734737732 0 6343195.7734737732 8299199.2664304022 0 0 0 0 -7971357.1731567383 6743433.347152872 0 6743433.347152872 23473.103983942419 0 0 0 0 -9790387.7432861328 5818057.9346043747 0 5818057.9346043747 6072218.9747847095 0 0 0 0 -2109280.3085720688 2173726.3665914722 0 2173726.3665914722 2328252.9768063617 0 0 0 0 1693557.3259353638 920055.11483718827 0 920055.11483718827 3108790.697900489 0 0 0 0 -1649725.9639282227 6554352.7547699064 0 6554352.7547699064 1503102.5576152299 0 0 0 0 -4904442.1613769531 -1373822.0358436871 0 -1373822.0358436871 3445512.1248936933 0 0 0 0 -1125559.9840240479 -65080.999210179085 0 -65080.999210179085 11364675.733191613 0 0 0 0 -4817065.7389221191 -3942010.6900133071 0 -3942010.6900133071 9103848.0201527476 0 0 0 0 3617457.1777496338 -5282416.4991258718 0 -5282416.4991258718 13750962.152384728 0 0 0 0 5107771.3935546875 -8413674.8143458068 0 -8413674.8143458068 18266482.014562778 0 0 0 0 84365.458951041102 274071.16951943934 0 274071.16951943934 -214962.38698911914 0 0 0 0 -1476116.5117797852 7016398.1494396478 0 7016398.1494396478 19240462.227841601 0 0 0 0 -9721658.2583312988 10614794.716583943 0 10614794.716583943 -11929921.153130757 0 0 0 0 -19744271.676818848 -9697431.538126424 0 -9697431.538126424 -25876309.0070066 0 0 0 0 -15913275.692382812 232490.47696244717 0 232490.47696244717 5127809.3245071024 0 0 0 0 -16032089.94229126 -789752.58677362651 0 -789752.58677362651 -3298115.5374901295 0 0 0 0 -18517781.82901001 10684594.030262053 0 10684594.030262053 -2830633.4561700672 0 0 0 0 -16569420.427612305 7616035.6771657839 0 7616035.6771657839 5109283.1868459359 0 0 0 0 -16618552.884460449 7180048.0722920951 0 7180048.0722920951 3215094.8465243503 0 0 0 0 -15456937.363189697 11588734.799504817 0 11588734.799504817 -1486943.4014446959 0 0 0 0 -21148717.180236816 15130420.654835664 0 15130420.654835664 -2313885.798549613 0 0 0 0 -16176346.669754028 12582278.144449772 0 12582278.144449772 -2162841.773433663 0 0 0 0 -22073117.699736595 11128323.070464015 0 11128323.070464015 -9622103.1369937751 0 0 0 0 -101550.11702358723 -19194.954832404852 0 -19194.954832404852 7030.2684379477341 0 0 0 0 -21507663.528656006 9574666.5932869967 0 9574666.5932869967 -2088002.2511502653 0 0 0 0 -10731187.791992188 13818873.168629263 0 13818873.168629263 -10090093.631348711 0 0 0 0 -40213.932227939367 -1534.7408997789025 0 -1534.7408997789025 6939.0670318603734 0 0 0 0 -16429176.828384399 4251815.4934074655 0 4251815.4934074655 4281241.0346861724 0 0 0 0 -36488572.78603363 10260679.793734096 0 10260679.793734096 -8987.8045483642309 0 0 0 0 -9914945.9866027832 451216.69553601893 0 451216.69553601893 -1613674.6482674172 0 0 0 0 -16416661.889251709 7093918.733990673 0 7093918.733990673 -1410039.4912077121 0 0 0 0 -3874893.6005096436 -19456.284485873766 0 -19456.284485873766 -3229017.5108144064 0 0 0 0 -6228735.2128601074 4819852.1477171462 0 4819852.1477171462 -4391367.4536437895 0 0 0 0 -12515455.571777344 3607416.0630659033 0 3607416.0630659033 1600139.6720965935 0 0 0 0 -7963066.7186584473 3656266.8359382777 0 3656266.8359382777 2189094.8199225366 0 0 0 0 -20358794.6512146 8108680.889432597 0 8108680.889432597 -182621.35778572038 0 0 0 0 -16193306.720703125 17874955.929102447 0 17874955.929102447 -19072148.347830199 0 0 0 0 -11441016.511047363 11530619.22855196 0 11530619.22855196 -339184.85116914671 0 0 0 0 -13164726.796539307 11325562.838944651 0 11325562.838944651 -11417562.230667749 0 0 0 0 -36515587.559673309 11711937.981781619 0 11711937.981781619 -2437997.4643594008 0 0 0 0 -32276584.740722656 31644937.286799554 0 31644937.286799554 -14929211.443097813 0 0 0 0 -30259890.106933594 16818428.093869764 0 16818428.093869764 -975.19396514749133 0 0 0 0 -17101521.019042969 3956362.3342557205 0 3956362.3342557205 -5033554.4235129114 0 0 0 0 -13427496.687599182 8202182.4618424876 0 8202182.4618424876 -4902733.6777799893 0 0 0 0 -4322650.9890899658 753915.55180631916 0 753915.55180631916 -11443.712608076303 0 0 0 0 -3248328.1842803955 2871252.0481661959 0 2871252.0481661959 4034979.3360475497 0 0 0 0 -449046.79907226562 -2398667.7110786824 0 -2398667.7110786824 2624671.2578546279 0 0 0 0 -2894865.163138032 1954925.3664503582 0 1954925.3664503582 1869852.5620041722 0 0 0 0 -1418002.5415802002 2109917.1082504336 0 2109917.1082504336 -341232.56767199759 0 0 0 0 119339.69871520996 493736.2114802539 0 493736.2114802539 2700.0996907297481 0 0 0 0 -2169194.922262013 2401239.9102857262 0 2401239.9102857262 -2126202.528857389 0 0 0 0 -4520334.2665023804 2840866.3419888159 0 2840866.3419888159 -9782116.2002912611 0 0 0 0 -1379734.5661717355 1922203.2279553376 0 1922203.2279553376 -2269188.41152588 0 0 0 0 -7062129.7121582031 9683177.6114894003 0 9683177.6114894003 297.92093745780585 0 0 0 0 -3705697.9562683105 5267014.7310213558 0 5267014.7310213558 -6670011.1161843734 0 0 0 0 -7073846.5544433594 16069412.51005258 0 16069412.51005258 -8735116.6620716937 0 0 0 0 -575534.19310269877 569726.39772514999 0 569726.39772514999 284743.65722586116 0 0 0 0 -4301833.1546630859 2398438.6456420533 0 2398438.6456420533 -14265307.796774216 0 0 0 0 421158160.52534485 -9470578.9705748856 0 -9470578.9705748856 -238017555.02094555 0 0 0 0 -2832612.308596164 5008046.1860929281 0 5008046.1860929281 -3524844.9687263742 0 0 0 0 -8619293.7202339172 4597880.609403139 0 4597880.609403139 -1658255.0721205398 0 0 0 0 -3491192.1372327954 1015506.6150352024 0 1015506.6150352024 609719.19344173302 0 0 0 0 -6283334.4497375488 4532900.0221467018 0 4532900.0221467018 -2671394.7978701591 0 0 0 0 -5245980.3449401855 5685344.9206981659 0 5685344.9206981659 -2395364.1149578094 0 0 0 0 -737293.18562316895 5501679.2760806084 0 5501679.2760806084 -7890426.8287982941 0 0 0 0 -3480232.650845401 4475228.2702223361 0 4475228.2702223361 -2249905.1911033001 0 0 0 0 -4443022.1259765625 3599780.6906967163 0 3599780.6906967163 -2104635.372420907 0 0 0 0 -6287931.5547027588 6431157.8906536102 0 6431157.8906536102 -6404406.2103328705 0 0 0 0 -9983622.2326965332 12371382.096912384 0 12371382.096912384 -14194458.388573766 0 0 0 0 -7256630.1368484497 5042785.4045197964 0 5042785.4045197964 -1975944.5124511719 0 0 0 0 -83665.460946768522 623447.43710939586 0 623447.43710939586 -969320.79398855567 0 0 0 0 -2577182.3597717285 -2022874.6297121048 0 -2022874.6297121048 -46583431.362468719 0 0 0 0 -9908275.8803682327 11363493.051676959 0 11363493.051676959 -33639146.447799683 0 0 0 0 -3530348.9579772949 -1778549.7845277786 0 -1778549.7845277786 -14047904.077209949 0 0 0 0 -9386555.4149169922 4905431.946141243 0 4905431.946141243 -8947250.8644061089 0 0 0 0 -6067406.7536468506 9426237.391685009 0 9426237.391685009 -6885517.8134880066 0 0 0 0 -6774467.8026504517 5132155.1334869862 0 5132155.1334869862 -1959412.5046672821 0 0 0 0 -3409122.9197387695 9324519.4980764389 0 9324519.4980764389 -9817023.4404592514 0 0 0 0 -643823.49958260357 2054910.7612618878 0 2054910.7612618878 -2958241.026005466 0 0 0 0 6297995.9846496582 -505005091.228809 0 -505005091.228809 -63132007.584981687 0 0 0 0 -264775188.60903931 -128448371.2392509 0 -128448371.2392509 -141169076.54926181 0 0 0 0 -1539173767.5086365 -311253793.4620868 0 -311253793.4620868 33837534.680936813 0 0 0 0 -2002378.2806415707 -71455.682658677455 0 -71455.682658677455 107697.38607936093 0 0 0 0 -1236231751.8917847 310046323.53410721 0 310046323.53410721 129590451.64034212 0 0 0 0 -1124077311.0222473 -555570574.23505473 0 -555570574.23505473 92206327.512872726 0 0 0 0 -2366826203.0741882 -246268049.27828726 0 -246268049.27828726 1024715.6924721557 0 0 0 0 -2290758939.8313446 267380500.78845417 0 267380500.78845417 11837382.982305299 0 0 0 0 -2607386207.190033 -84424847.715421855 0 -84424847.715421855 401924406.52647191 0 0 0 0 -1480167295.2723694 -69375891.804170489 0 -69375891.804170489 355901448.13112199 0 0 0 0 -2476489644.3818665 201509402.77825654 0 201509402.77825654 313522868.99025178 0 0 0 0 -2404217048.0810242 -208768553.65180409 0 -208768553.65180409 359001479.41870439 0 0 0 0 -1257881848.4650192 331685214.62392116 0 331685214.62392116 205299955.43124747 0 0 0 0 -1520803061.6451111 -181264344.82597548 0 -181264344.82597548 236388912.62369466 0 0 0 0 -1641332020.526062 -208045538.75216281 0 -208045538.75216281 -279276006.202479 0 0 0 0 -1669503878.8315449 -63944418.12420778 0 -63944418.12420778 414777371.2177459 0 0 0 0 -1072855.7720855176 1201094.5641500689 0 1201094.5641500689 -1900095.5271080057 0 0 0 0 -4214627.5247192383 3909929.4881838053 0 3909929.4881838053 -10300.564107756578 0 0 0 0 -4483565.8296508789 5271937.830614605 0 5271937.830614605 -6647867.7973615946 0 0 0 0 -91744717.790740967 -201215414.58031648 0 -201215414.58031648 223795944.50469288 0 0 0 0 -91241734.324737549 -209668698.13111931 0 -209668698.13111931 -139408519.00549126 0 0 0 0 -752098299.53283691 109182174.21249771 0 109182174.21249771 -104494385.31422079 0 0 0 0 -9146512.6059417725 -357680544.71123385 0 -357680544.71123385 -215180964.84833288 0 0 0 0 117137109.47557068 146752901.84050941 0 146752901.84050941 164133031.49933624 0 0 0 0 -169007187.09132385 393267675.08549476 0 393267675.08549476 -48091424.394210458 0 0 0 0 -1645926.5215545148 -937928.36582660303 0 -937928.36582660303 -796293.56363343075 0 0 0 0 -1548132511.4738922 -1160777417.5193963 0 -1160777417.5193963 584967735.91788197 0 0 0 0 -11364771.118988037 -263833703.3035574 0 -263833703.3035574 -719030405.85080242 0 0 0 0 -1550224339.6808891 -294382599.63183123 0 -294382599.63183123 -1257954468.0252585 0 0 0 0 -1544067564.7546082 -174774165.66965199 0 -174774165.66965199 -139894908.09114933 0 0 0 0 -1264582638.6890106 -600636005.69831896 0 -600636005.69831896 -361601859.2628684 0 0 0 0 -1785668769.3838654 -205357208.9588713 0 -205357208.9588713 253643408.33984423 0 0 0 0 -1069754163.9019165 235832445.23336744 0 235832445.23336744 61304561.318087935 0 0 0 0 -3080709166.2844715 775174472.45887947 0 775174472.45887947 29291953.300688028 0 0 0 0 -2767206538.8856201 -939485804.55053759 0 -939485804.55053759 -295337806.2776227 0 0 0 0 -3640691024.3042603 190130901.24811745 0 190130901.24811745 35552454.61087513 0 0 0 0 -1886115614.7480469 -1233023470.5770884 0 -1233023470.5770884 -510481752.55876267 0 0 0 0 -3609758.3000382781 1631595.6889173537 0 1631595.6889173537 -14884.206332819536 0 0 0 0 -3813927591.2430115 -499794695.30125415 0 -499794695.30125415 -603068814.58230877 0 0 0 0 -123906890.03521729 -166297120.73838127 0 -166297120.73838127 147555478.85453415 0 0 0 0 -58018430.022460938 -198080478.96355164 0 -198080478.96355164 -70929060.281752825 0 0 0 0 -159650711.50308228 557972734.31252372 0 557972734.31252372 -167516862.82985353 0 0 0 0 17359137.397827148 -126467995.98753703 0 -126467995.98753703 -307921316.56406784 0 0 0 0 -135754742.78057861 156786990.69627261 0 156786990.69627261 -352881247.64247441 0 0 0 0 -857944575.44298553 -73950047.042604327 0 -73950047.042604327 -130683878.90680766 0 0 0 0 -1245466235.5518761 -227399576.6060279 0 -227399576.6060279 388213290.54598618 0 0 0 0 -1245722243.8369293 -223334357.40495968 0 -223334357.40495968 331314639.35429764 0 0 0 0 -696237118.51445961 -227017373.97938812 0 -227017373.97938812 21981240.06850338 0 0 0 0 -802683053.44082642 -760717775.39127207 0 -760717775.39127207 -494246442.2617588 0 0 0 0 -2006955964.7354889 -256437748.60116434 0 -256437748.60116434 361994832.59373474 0 0 0 0 -3195221407.3703461 -704087115.16520119 0 -704087115.16520119 334640201.52958488 0 0 0 0 -1510853255.2098083 -337818572.26405239 0 -337818572.26405239 374695963.90995169 0 0 0 0 -1700037422.5277557 3236522.7399053574 0 3236522.7399053574 285913413.93956184 0 0 0 0 -1014259746.4196472 381976312.28891277 0 381976312.28891277 -17025680.3285923 0 0 0 0 -2580531780.9192238 1293351647.5306344 0 1293351647.5306344 -491006619.34873104 0 0 0 0 -494646288.95889282 205058859.5974493 0 205058859.5974493 -78553716.557992935 0 0 0 0 -541335182.01342773 130582552.46134663 0 130582552.46134663 -9968821.525932312 0 0 0 0 -4207073.2883099169 -1406149.8221813887 0 -1406149.8221813887 -1382357.8316119062 0 0 0 0 -2523640.1636776105 2090699.17602963 0 2090699.17602963 -304983.53146794531 0 0 0 0 -158996210.34619141 138192188.88641262 0 138192188.88641262 -136030387.02755833 0 0 0 0 -592964273.09460449 -82734607.818151474 0 -82734607.818151474 60745175.502937317 0 0 0 0 -720277333.99975586 119386016.86245632 0 119386016.86245632 8588482.4267704487 0 0 0 0 -953765.78901252896 964700.18487297744 0 964700.18487297744 -75362.998694093898 0 0 0 0 -69161804.673690796 -77560284.976433516 0 -77560284.976433516 -82553459.937618256 0 0 0 0 -451797162.26707458 -535955012.33455944 0 -535955012.33455944 -78244071.837283134 0 0 0 0 -229508143.28382874 -50207334.562823296 0 -50207334.562823296 -168320860.55868149 0 0 0 0 -947355590.61102295 -92302483.313248158 0 -92302483.313248158 297242417.73996353 0 0 0 0 -908148802.39505005 -83877871.048183441 0 -83877871.048183441 -167805524.66292381 0 0 0 0 -1477040616.3354034 -323705192.63692784 0 -323705192.63692784 416555726.26721191 0 0 0 0 -1439360969.4529572 -463542737.33061409 0 -463542737.33061409 89744297.543050766 0 0 0 0 -1107657222.0665588 -136587973.31158543 0 -136587973.31158543 -224315581.24474716 0 0 0 0 -1850692631.2262878 -339864579.63610744 0 -339864579.63610744 449077219.48451424 0 0 0 0 -1314770054.1981506 -190783785.49209785 0 -190783785.49209785 483886491.97335291 0 0 0 0 -1136839956.5159302 -273492098.96622658 0 -273492098.96622658 348494735.48960304 0 0 0 0 -42556997.612586975 37388059.327476025 0 37388059.327476025 -23659194.729324341 0 0 0 0 94185.57109951973 -349520.94145800173 0 -349520.94145800173 -819852.73185144784 0 0 0 0 23857471.225769043 31622825.736758232 0 31622825.736758232 -49207172.354061127 0 0 0 0 63515169.387451172 102685137.48164368 0 102685137.48164368 -99684879.277095795 0 0 0 0 -73970075.464324951 8052259.5220403671 0 8052259.5220403671 156810730.19542503 0 0 0 0 47794084.503356934 -83475472.177574754 0 -83475472.177574754 8750059.131986618 0 0 0 0 74237685.350006104 86742621.764742851 0 86742621.764742851 -5394006.4775886536 0 0 0 0 -6013914.8936157227 -10809458.722858429 0 -10809458.722858429 -50675784.911849022 0 0 0 0 -6011280.4921264648 -10075391.188349724 0 -10075391.188349724 -17279599.889003038 0 0 0 0 -8337476.1351013184 -1316474.9968695641 0 -1316474.9968695641 590345.07837963104 0 0 0 0 -9073071.4338378906 1086003.9534072876 0 1086003.9534072876 -7113712.6494998932 0 0 0 0 -663165.33895516396 -9303.8237140476704 0 -9303.8237140476704 -1767495.8443323374 0 0 0 0 -5623024.0370483398 5455748.2479200363 0 5455748.2479200363 -4897093.6219091415 0 0 0 0 7672606.9118347168 -15430598.441448212 0 -15430598.441448212 -32716633.228569508 0 0 0 0 -8978331.316444397 -10150181.877845168 0 -10150181.877845168 -34384464.465629578 0 0 0 0 73448159.435424805 32113268.136889458 0 32113268.136889458 -89424008.863339424 0 0 0 0 3186083.7262115479 -470893.63903331757 0 -470893.63903331757 -70982364.26968956 0 0 0 0 55596205.105270386 131340886.01093769 0 131340886.01093769 49141982.687970161 0 0 0 0 58624958.06072998 93055904.63693428 0 93055904.63693428 -193725746.04153061 0 0 0 0 5517815.9625549316 75127905.934872627 0 75127905.934872627 11521959.587731361 0 0 0 0 22174862.732421875 37160138.575959206 0 37160138.575959206 42694184.444524765 0 0 0 0 42465299.965179443 85499457.603243828 0 85499457.603243828 -6760868.2532291412 0 0 0 0 -17595200.266174316 36250413.122578621 0 36250413.122578621 -43013594.412546158 0 0 0 0 -17797464.416992188 69374916.183576584 0 69374916.183576584 13681160.548295975 0 0 0 0 82739603.336853027 6819595.378991127 0 6819595.378991127 -22903253.400787354 0 0 0 0 -25536395.054473877 37562157.580014229 0 37562157.580014229 -11815855.02104187 0 0 0 0 -45743815.686447144 87407696.604972363 0 87407696.604972363 2076699.5369796753 0 0 0 0 -72854296.321807861 20732631.573627472 0 20732631.573627472 157677585.8146019 0 0 0 0 -20532856.3850182 1992411.7571617411 0 1992411.7571617411 1850734.898496941 0 0 0 0 -239066847.78790283 223961957.98054314 0 223961957.98054314 148843670.78379059 0 0 0 0 377293.33896808326 499091.65335770324 0 499091.65335770324 -1229542.8708488513 0 0 0 0 46439922.325439453 42022975.252996445 0 42022975.252996445 -57262456.443324566 0 0 0 0 -331920411.74612427 -86589642.767993927 0 -86589642.767993927 -16108774.104290009 0 0 0 0 49570118.128112793 58268885.047477722 0 58268885.047477722 -64625398.104045868 0 0 0 0 25987450.61353302 45140776.483852863 0 45140776.483852863 -31047063.783945084 0 0 0 0 -16802817.162055969 70678105.157038689 0 70678105.157038689 274841042.25592232 0 0 0 0 -15889313.081375033 1614124.8705987385 0 1614124.8705987385 805778.27654508059 0 0 0 0 -61180320.16481781 30044893.494092464 0 30044893.494092464 403470.13753890991 0 0 0 0 25866167.55859375 70512800.764456749 0 70512800.764456749 -107916124.30266845 0 0 0 0 136780.1296043396 59857425.103828192 0 59857425.103828192 33265684.329647064 0 0 0 0 11466685.356964111 58133978.243075371 0 58133978.243075371 5700683.5509002209 0 0 0 0 -3997133.7228315473 2221255.866936218 0 2221255.866936218 1218219.6648165891 0 0 0 0 -10592203.607982635 19068176.692718506 0 19068176.692718506 92033900.376806259 0 0 0 0 -120297466.91110229 -26832806.162408829 0 -26832806.162408829 21749114.189110279 0 0 0 0 -455060989.26251221 -177362036.19548416 0 -177362036.19548416 66445333.101146698 0 0 0 0 -172052.96595583856 236722.96124027297 0 236722.96124027297 90619.49672400672 0 0 0 0 -92689490.605422974 165232.37487411499 0 165232.37487411499 78180591.555316925 0 0 0 0 -93418912.899200439 5575616.8642034531 0 5575616.8642034531 75839499.716907501 0 0 0 0 -28562654.62322998 -15809111.022086143 0 -15809111.022086143 -13084607.117694378 0 0 0 0 65447.261295564473 1700913.6946891285 0 1700913.6946891285 -2389809.6683674511 0 0 0 0 -90421167.887985229 -10765421.949906826 0 -10765421.949906826 25665046.672914505 0 0 0 0 -159845978.45622253 18327628.392202377 0 18327628.392202377 168206760.17964935 0 0 0 0 -149010171.47338867 -100339585.12290382 0 -100339585.12290382 -24661667.101147652 0 0 0 0 51856304.270141602 12568567.471745491 0 12568567.471745491 -10796446.433722496 0 0 0 0 -2066244858.2431068 -935604473.91893327 0 -935604473.91893327 -750419146.27928162 0 0 0 0 -1275514734.416626 -227426733.87836552 0 -227426733.87836552 -408038681.0651226 0 0 0 0 -1642366893.6626816 386502766.87807083 0 386502766.87807083 -725119776.20042801 0 0 0 0 -2121611811.8979797 -115295186.01873589 0 -115295186.01873589 269132649.01048851 0 0 0 0 -1412695922.9263229 -1058533104.1180902 0 -1058533104.1180902 -188522203.50417709 0 0 0 0 -4142686.8998421431 -82654.053942464292 0 -82654.053942464292 25890.026805388508 0 0 0 0 -2337478088.5561829 137020447.27453136 0 137020447.27453136 323663557.36973381 0 0 0 0 -436415064.80979919 348958013.15430546 0 348958013.15430546 -642841375.96957588 0 0 0 0 13121612.72946167 -60818754.505578041 0 -60818754.505578041 -271174385.43408585 0 0 0 0 -10875975.320149586 709996.99273375096 0 709996.99273375096 303857.89957453537 0 0 0 0 -387948281.11611938 44528908.037958145 0 44528908.037958145 460802873.82058907 0 0 0 0 137108756.69506836 30354373.838165283 0 30354373.838165283 -267559772.21316183 0 0 0 0 -3984668.5261343569 1872941.9130887613 0 1872941.9130887613 1396175.4318997734 0 0 0 0 -49090381.492660522 25723255.171187878 0 25723255.171187878 354843943.94217491 0 0 0 0 -120432737.39659119 388185752.58178902 0 388185752.58178902 -320335376.21222305 0 0 0 0 -176541526.37435913 264014017.01400185 0 264014017.01400185 -36054005.179206848 0 0 0 0 -211017294.35058594 271229377.25946665 0 271229377.25946665 -420855546.4098177 0 0 0 0 220201149.18963623 271676400.98026562 0 271676400.98026562 -165858524.64511538 0 0 0 0 -694339137.70484924 -546515379.29541779 0 -546515379.29541779 598542131.1778717 0 0 0 0 -1888375.8250092119 815204.45899416879 0 815204.45899416879 644381.85564439977 0 0 0 0 -656297956.53756714 737236781.95397282 0 737236781.95397282 -908202675.14235687 0 0 0 0 -1763280664.4172363 -248825079.05922699 0 -248825079.05922699 -319840726.21928692 0 0 0 0 -213989358.51837158 6029656.0211410522 0 6029656.0211410522 -278284872.95028925 0 0 0 0 -1360787724.3161392 -655025599.70103741 0 -655025599.70103741 -286320686.62053108 0 0 0 0 109162982.76003647 -339241342.93070889 0 -339241342.93070889 -272353404.52676964 0 0 0 0 -1347145183.7375641 -768625331.01050568 0 -768625331.01050568 -258683734.27260971 0 0 0 0 -312239905.0894928 548070477.56394362 0 548070477.56394362 843256572.48674393 0 0 0 0 -510336785.70812225 -83537304.492713451 0 -83537304.492713451 280467178.88427162 0 0 0 0 -4441454.0331311524 951788.46195550309 0 951788.46195550309 146267.93064677366 0 0 0 0 67109607.643600464 -62060266.002282143 0 -62060266.002282143 286377520.44370127 0 0 0 0 -89179170.040252686 -195413646.83175373 0 -195413646.83175373 4916444.0353536606 0 0 0 0 247918705.99462891 422244651.81231976 0 422244651.81231976 -371181529.94059944 0 0 0 0 -1823732.8112450242 757665.16796353925 0 757665.16796353925 -39348.414623889141 0 0 0 0 -213416819.94763184 663575201.16857862 0 663575201.16857862 -184807551.07345772 0 0 0 0 -924015207.43225098 497187758.64073181 0 497187758.64073181 -36170436.919113263 0 0 0 0 -932204396.17819214 275657329.88154411 0 275657329.88154411 -5767213.6234550476 0 0 0 0 -415017055.02697754 -56457100.126127243 0 -56457100.126127243 181958101.72176838 0 0 0 0 -556006698.76705933 -81789187.767473221 0 -81789187.767473221 34483242.96049881 0 0 0 0 -451042846.13766479 13310506.629984856 0 13310506.629984856 189971036.99027252 0 0 0 0 -212203963.24911499 115089507.68366528 0 115089507.68366528 80034334.799730301 0 0 0 0 -45546259.082134247 123476354.26756024 0 123476354.26756024 186826810.58233643 0 0 0 0 -132558231.54975891 4386372.4414253235 0 4386372.4414253235 316507848.3093195 0 0 0 0 86901547.836009979 -212177249.01551843 0 -212177249.01551843 121566474.37009048 0 0 0 0 75124200.534324646 -37596931.369748592 0 -37596931.369748592 81951825.868543625 0 0 0 0 -18071201.141281128 -159508294.60377598 0 -159508294.60377598 177380115.42145348 0 0 0 0 97192964.410606384 -99603406.439017773 0 -99603406.439017773 139966464.58905602 0 0 0 0 68796708.798736572 -115394877.58186388 0 -115394877.58186388 370746450.54916573 0 0 0 0 -137638681.84661865 -265532457.53286362 0 -265532457.53286362 331860911.34704208 0 0 0 0 -611761977.08137512 157749637.56547928 0 157749637.56547928 171243631.16323662 0 0 0 0 12427686.226621628 -8683534.2471721172 0 -8683534.2471721172 157684994.62530327 0 0 0 0 -65437182.983398438 66165856.443193436 0 66165856.443193436 -19334902.741384506 0 0 0 0 -124768464.05270386 56611894.373685837 0 56611894.373685837 30485354.565216064 0 0 0 0 -134945353.89910889 -162851.09303665161 0 -162851.09303665161 55215616.860883236 0 0 0 0 -120128584.37478638 2126965.9407539368 0 2126965.9407539368 33248935.469388962 0 0 0 0 -135667831.74870682 24314074.991514683 0 24314074.991514683 69062506.650156021 0 0 0 0 -99581354.049407959 3659752.4900836945 0 3659752.4900836945 77542924.719670296 0 0 0 0 -100647677.37225342 8340509.3940258026 0 8340509.3940258026 76466518.092200756 0 0 0 0 50712698.698944092 14547435.187698364 0 14547435.187698364 115394226.88693619 0 0 0 0 -66738225.784698486 10903461.868009567 0 10903461.868009567 66484767.973398209 0 0 0 0 -1431799.4793701172 65708668.210584641 0 65708668.210584641 85724229.29189682 0 0 0 0 -1031913.2247027159 80174.677574742585 0 80174.677574742585 -322320.23879630491 0 0 0 0 219295654.84436035 74232058.965501785 0 74232058.965501785 -11406910.874043941 0 0 0 0 15271351.820922852 135784593.5801971 0 135784593.5801971 150435657.89028549 0 0 0 0 -28523444.369934082 50246201.392717361 0 50246201.392717361 199272580.21519566 0 0 0 0 -2843596.9626464844 45712870.285516739 0 45712870.285516739 -5654536.9676132202 0 0 0 0 81726407.419830322 -163252586.45466232 0 -163252586.45466232 -2340611.0538425446 0 0 0 0 -804936097.00689697 773789983.41586304 0 773789983.41586304 -382314238.82550716 0 0 0 0 -551902948.30426025 -346861855.85173035 0 -346861855.85173035 157967873.58633423 0 0 0 0 -262576.01885527372 179319.23948220536 0 179319.23948220536 -482913.63857174851 0 0 0 0 108271679.73657227 235813324.98381615 0 235813324.98381615 -346276301.61659241 0 0 0 0 -280600306.66836548 580722265.92812729 0 580722265.92812729 -386950039.91358972 0 0 0 0 -119015333.12307739 281714341.73840141 0 281714341.73840141 -69836731.627166748 0 0 0 0 -888222772.19750977 334028141.02393866 0 334028141.02393866 110279093.21511841 0 0 0 0 -56223633.598632812 52439650.949769974 0 52439650.949769974 712377.52449989319 0 0 0 0 106078315.90510488 -6635597.9721413553 0 -6635597.9721413553 -17298783.128059387 0 0 0 0 -6516210.8896179199 185275502.02003479 0 185275502.02003479 -260353872.52282143 0 0 0 0 -171323447.00025558 263294954.53211069 0 263294954.53211069 -45132870.344783783 0 0 0 0 -213621713.56671524 134902473.41258323 0 134902473.41258323 9887722.476398468 0 0 0 0 -321581066.81155396 334737306.30619717 0 334737306.30619717 128502904.84028816 0 0 0 0 -243606893.26763916 217257916.79229832 0 217257916.79229832 99230184.577163696 0 0 0 0 -380552758.95495605 165880399.3504591 0 165880399.3504591 200943155.84939051 0 0 0 0 -420213389.13632202 78785.126936912537 0 78785.126936912537 15383387.826119423 0 0 0 0 -211064193.3343811 100405801.27507973 0 100405801.27507973 58324099.653130531 0 0 0 0 -196455991.54108334 -25285541.354082346 0 -25285541.354082346 -11964251.971471786 0 0 0 0 -117366368.2676239 36293527.748446465 0 36293527.748446465 27763435.441617966 0 0 0 0 -181936448.94650269 72068120.379880905 0 72068120.379880905 -19138607.040851772 0 0 0 0 -6692629.4586791992 68278212.550161362 0 68278212.550161362 -18390871.085392952 0 0 0 0 16532694.119277954 43506164.96353054 0 43506164.96353054 -2680483.6896514893 0 0 0 0 -23391638.195285797 16826278.302727461 0 16826278.302727461 124409241.52715111 0 0 0 0 -21253725.210739136 14296380.067294121 0 14296380.067294121 18898362.768457413 0 0 0 0 -88534070.166244507 -8149164.5979595184 0 -8149164.5979595184 36473565.408689499 0 0 0 0 -60070336.212051392 29754556.338732719 0 29754556.338732719 18666323.229919434 0 0 0 0 -17059672.220306396 -19869604.247680664 0 -19869604.247680664 34626506.062972069 0 0 0 0 -3868367.9228591919 -11401781.337043285 0 -11401781.337043285 13399953.489192963 0 0 0 0 -355939.98639041185 1067862.0227464326 0 1067862.0227464326 799035.68845200352 0 0 0 0 -120893826.37631989 55983878.88160634 0 55983878.88160634 7529280.461391449 0 0 0 0 -295629.59321127832 487619.16837815195 0 487619.16837815195 386693.0567172626 0 0 0 0 -59146541.024749756 17230183.66194725 0 17230183.66194725 65364997.08177948 0 0 0 0 -31335006.601242065 42423400.550109863 0 42423400.550109863 77786834.621353149 0 0 0 0 889655.25991821289 -42903649.602203369 0 -42903649.602203369 150279690.08600807 0 0 0 0 17706401.917800903 15320507.028240204 0 15320507.028240204 54662857.832874298 0 0 0 0 -7418733.3770294189 -37960900.86254406 0 -37960900.86254406 45229492.764801979 0 0 0 0 503581247.35296631 32809779.169200897 0 32809779.169200897 32926299.988895416 0 0 0 0 -120543.59688802063 1376073.735527616 0 1376073.735527616 956585.521883904 0 0 0 0 -67329831.631988525 -5147770.6823596954 0 -5147770.6823596954 89971222.775409222 0 0 0 0 -2746180.5939524174 138883467.00143236 0 138883467.00143236 247600414.7344017 0 0 0 0 351301182.54829407 187752313.19133472 0 187752313.19133472 79365020.707959175 0 0 0 0 -3970158.5624087267 -1582057.4386672527 0 -1582057.4386672527 277782.42225566693 0 0 0 0 25013486.024246216 70134304.633759499 0 70134304.633759499 63623459.114707947 0 0 0 0 103135285.52357483 81843431.16032505 0 81843431.16032505 43509350.685083389 0 0 0 0 -14555995.905247856 -4813927.1806461513 0 -4813927.1806461513 815458.46313334629 0 0 0 0 207260973.18637085 104982148.85385132 0 104982148.85385132 11357075.07859993 0 0 0 0 103382430.21518135 86054722.227486968 0 86054722.227486968 84769893.978696823 0 0 0 0 -116202445.68936157 -26255369.764034748 0 -26255369.764034748 -4027281.6764326096 0 0 0 0 -127100742.95179749 4112968.5091133118 0 4112968.5091133118 -81711644.486283302 0 0 0 0 -78841259.748106003 42714427.596873343 0 42714427.596873343 115496899.52862358 0 0 0 0 -13438393.905212402 146002632.9271946 0 146002632.9271946 164572160.9982276 0 0 0 0 -255994128.15657043 -45936900.17035675 0 -45936900.17035675 346282525.0129385 0 0 0 0 -192627559.88917542 -133821506.15910244 0 -133821506.15910244 153813341.94425106 0 0 0 0 -73768696.483106613 45947533.170639992 0 45947533.170639992 -18105907.750648499 0 0 0 0 -1468486.2612190247 28932936.808153152 0 28932936.808153152 -82006347.652751923 0 0 0 0 -109484421.68006897 -197244015.06755638 0 -197244015.06755638 -151652184.3384583 0 0 0 0 -53519718.743394852 -106298726.98517698 0 -106298726.98517698 -25301184.868412018 0 0 0 0 -43823416.012546428 10037203.271491695 0 10037203.271491695 24749624.878297463 0 0 0 0 -150198041.58309174 55327247.213526309 0 55327247.213526309 188311493.79463577 0 0 0 0 184728622.83621216 26279620.799570084 0 26279620.799570084 -85273809.896949768 0 0 0 0 -81407787.589176655 -58798200.464652032 0 -58798200.464652032 -106223850.44934845 0 0 0 0 -139980895.0536499 -74055166.257819176 0 -74055166.257819176 51313289.564512253 0 0 0 0 -12141181.80355835 8571390.3419628143 0 8571390.3419628143 17275437.087414265 0 0 0 0 -41618456.037839994 7533016.6272427104 0 7533016.6272427104 27202295.270417541 0 0 0 0 -47311138.782104492 76239780.987609863 0 76239780.987609863 81777951.539648056 0 0 0 0 3856159.1944274902 100563066.61693192 0 100563066.61693192 83299720.625068665 0 0 0 0 -16146084.280227661 153034604.38083744 0 153034604.38083744 65820292.641265869 0 0 0 0 64823179.460464478 126045634.98639059 0 126045634.98639059 101031581.60630608 0 0 0 0 280165.861328125 51842797.069875717 0 51842797.069875717 152026566.73527908 0 0 0 0 95537043.131790161 73996592.120197773 0 73996592.120197773 70948395.218566895 0 0 0 0 -17303374.679779053 23882878.291023254 0 23882878.291023254 133819992.21167612 0 0 0 0 -38023375.505943298 59745624.34952116 0 59745624.34952116 76330378.266086578 0 0 0 0 -313931787.44863892 -191010349.89182091 0 -191010349.89182091 319789036.67102051 0 0 0 0 -100049866.61663818 -4000417.796749115 0 -4000417.796749115 -63403822.952261925 0 0 0 0 -82897292.227966309 -38655530.223424911 0 -38655530.223424911 4547691.7662734985 0 0 0 0 -82774589.841918945 -34908697.709711075 0 -34908697.709711075 49760232.303627014 0 0 0 0 104952859.16760254 129930937.02568054 0 129930937.02568054 -95998458.916419983 0 0 0 0 -106552.2553987354 864234.81665242836 0 864234.81665242836 589582.44805513415 0 0 0 0 60664263.01184082 221165987.49585056 0 221165987.49585056 16934333.178684235 0 0 0 0 166769330.4145813 201343893.6156044 0 201343893.6156044 19810700.168112755 0 0 0 0 -158476363.07040405 -18318522.834639549 0 -18318522.834639549 19715605.376903534 0 0 0 0 -1177277.0577144325 102861.56189253926 0 102861.56189253926 452528.33954761177 0 0 0 0 111336692.87844849 121723005.4597683 0 121723005.4597683 72012483.206819534 0 0 0 0 -63083177.978363037 1899296.3303852081 0 1899296.3303852081 10148749.244375706 0 0 0 0 -65137175.186737061 32031418.903867722 0 32031418.903867722 33897743.473387718 0 0 0 0 -123278031.81713867 -23762890.341545105 0 -23762890.341545105 10875737.563118279 0 0 0 0 -90323537.770812988 16621728.552623749 0 16621728.552623749 12410262.329040527 0 0 0 0 -90420154.168701172 7331181.0637359619 0 7331181.0637359619 62113705.581733704 0 0 0 0 -48383230.239761353 28353502.16130352 0 28353502.16130352 4371908.3915405273 0 0 0 0 -59709296.920806885 32146995.331922531 0 32146995.331922531 27116925.968784332 0 0 0 0 -86788308.427886963 13829445.312395096 0 13829445.312395096 29114341.643232346 0 0 0 0 -61241766.519126892 41701801.238525867 0 41701801.238525867 10312155.783729553 0 0 0 0 -45666065.983612061 6694264.4714946747 0 6694264.4714946747 5419175.1363334656 0 0 0 0 -59335251.33921814 4373955.6877679825 0 4373955.6877679825 6749024.3508529663 0 0 0 0 -4854300.3145722449 1175447.1974921525 0 1175447.1974921525 2495533.1873240098 0 0 0 0 -11492635.66618064 1027404.5596308187 0 1027404.5596308187 3148729.3638301427 0 0 0 0 -16995324.40737915 6154629.7140445709 0 6154629.7140445709 5598613.9811141491 0 0 0 0 -14471110.719619751 7409424.5059127808 0 7409424.5059127808 4694915.709048748 0 0 0 0 -11362727.363136292 -337264.51029741764 0 -337264.51029741764 8680973.9843540192 0 0 0 0 -11372328.902526855 -560790.68869972229 0 -560790.68869972229 6427621.274813652 0 0 0 0 -12132521.952789955 3275910.8629751801 0 3275910.8629751801 4893087.1204073681 0 0 0 0 -35501356.772735596 23245261.620044708 0 23245261.620044708 -12244228.260560989 0 0 0 0 -52583484.307830811 34560285.464265823 0 34560285.464265823 -13507763.187141418 0 0 0 0 -31004496.490478516 34255603.401052475 0 34255603.401052475 -37054737.316905975 0 0 0 0 -55222025.868499756 45501335.161840439 0 45501335.161840439 -14656653.875648499 0 0 0 0 -48165442.942962646 34025882.247127533 0 34025882.247127533 3607442.8314876556 0 0 0 0 -46726176.954864502 34425886.885290146 0 34425886.885290146 -10931781.508388519 0 0 0 0 15314642.499969482 104730517.13879776 0 104730517.13879776 120645980.13151717 0 0 0 0 -21667314.677093506 52949138.343618393 0 52949138.343618393 49895681.247270584 0 0 0 0 110609589.84886169 50803534.770409584 0 50803534.770409584 -11511806.172229767 0 0 0 0 -1707778.0221803859 762141.44260092825 0 762141.44260092825 362943.62834906951 0 0 0 0 -4719943.4623605832 9228661.9823656306 0 9228661.9823656306 -2925135.1257836921 0 0 0 0 7649110.3706512451 25752617.032668114 0 25752617.032668114 15671979.188024521 0 0 0 0 26019221.914459229 38040075.363472939 0 38040075.363472939 2017883.6459941864 0 0 0 0 -1901424.6307983398 49967971.90851593 0 49967971.90851593 50317891.048049927 0 0 0 0 -15053933.035919189 14792424.979741096 0 14792424.979741096 2127269.826855436 0 0 0 0 -2435714.7167663574 35281217.879691124 0 35281217.879691124 9766796.0940885544 0 0 0 0 -6457657.3949212581 12975045.157050587 0 12975045.157050587 -2471557.3607788626 0 0 0 0 -15897561.716880798 9460015.3771361113 0 9460015.3771361113 9065097.6334524155 0 0 0 0 -7284110.4971923828 22750046.257699907 0 22750046.257699907 4354958.9597039223 0 0 0 0 -46089573.642852783 9496346.9020490646 0 9496346.9020490646 15128312.508905411 0 0 0 0 81984873.946289062 -46441344.538218021 0 -46441344.538218021 -33339036.404912472 0 0 0 0 33617850.880493164 -65713037.225349903 0 -65713037.225349903 -46649371.401822567 0 0 0 0 -960896.28167644143 73223.29109210521 0 73223.29109210521 1284469.4870618749 0 0 0 0 -47299980.594482422 35705713.099535704 0 35705713.099535704 18986619.566069603 0 0 0 0 -29168926.838928223 24198228.441105366 0 24198228.441105366 14490690.340509415 0 0 0 0 -32018286.297431946 39724031.305426002 0 39724031.305426002 15515625.845842361 0 0 0 0 -64080950.052062988 24030984.974255085 0 24030984.974255085 18861087.958440781 0 0 0 0 11469958.837768555 21580630.728351355 0 21580630.728351355 3768274.1177358627 0 0 0 0 -1940273.8853879571 1533763.9708568007 0 1533763.9708568007 1602992.7413206249 0 0 0 0 -14892275.178924561 -84073360.857716084 0 -84073360.857716084 48545743.116502762 0 0 0 0 -8951846.9783685505 3198318.7684323937 0 3198318.7684323937 9910399.8986391276 0 0 0 0 123179578.04364014 73696728.207256794 0 73696728.207256794 -55580204.092300415 0 0 0 0 -60537470.256813049 109161818.62492168 0 109161818.62492168 43835368.761112213 0 0 0 0 -11274963.621948242 -6858565.5793504715 0 -6858565.5793504715 2746906.7175102234 0 0 0 0 -5937807.0904541016 710600.0022354126 0 710600.0022354126 2880744.1967611313 0 0 0 0 -5455944.8406093121 609796.4087513797 0 609796.4087513797 5220557.7671850063 0 0 0 0 -5054759.0622558594 969926.97549247742 0 969926.97549247742 4663669.3366394043 0 0 0 0 -9682287.2616548687 1387214.7173550427 0 1387214.7173550427 6350256.5493028574 0 0 0 0 -8418690.7548522949 -4319007.7084522247 0 -4319007.7084522247 10023193.085552216 0 0 0 0 -11590861.172355324 2127042.3382179588 0 2127042.3382179588 3407850.7176058907 0 0 0 0 -2899127.2680974603 1405238.4703146964 0 1405238.4703146964 1962199.8260420188 0 0 0 0 -66134032.819641113 17070474.279935837 0 17070474.279935837 3221621.423789978 0 0 0 0 6919401.3312072754 4649957.16959548 0 4649957.16959548 7188725.4749221802 0 0 0 0 -19820650.662353516 1393566.1057138443 0 1393566.1057138443 8328112.9127969742 0 0 0 0 -27267790.903503418 -7834861.2334718704 0 -7834861.2334718704 3105261.8204803467 0 0 0 0 -33071716.727844238 12016616.677847385 0 12016616.677847385 15488481.327364922 0 0 0 0 -27475462.71786499 -3608082.5497202873 0 -3608082.5497202873 7185405.1404533386 0 0 0 0 6145324.4987792969 7037058.0559508801 0 7037058.0559508801 27607226.444808006 0 0 0 0 334303.82064971328 2531847.0186247351 0 2531847.0186247351 492333.14445328939 0 0 0 0 -1958814.1708483398 1235227.6631542407 0 1235227.6631542407 3324243.0690190364 0 0 0 0 -16536252.576965332 15047053.024894238 0 15047053.024894238 49109219.406006336 0 0 0 0 30863824.437835693 -13493173.446940899 0 -13493173.446940899 27722256.280944705 0 0 0 0 -65268090.320934296 6894042.8530741632 0 6894042.8530741632 20235501.641885757 0 0 0 0 -46682285.349121094 -3990230.6135950089 0 -3990230.6135950089 11751950.416879654 0 0 0 0 -130831802.25946045 78966536.591719627 0 78966536.591719627 20257836.069752455 0 0 0 0 16797502.961914062 -550233.8910741806 0 -550233.8910741806 12141048.255264282 0 0 0 0 -420117.19584243 1051206.4670497067 0 1051206.4670497067 597698.7626153013 0 0 0 0 -12911250.616039187 4236703.5942977555 0 4236703.5942977555 6194124.9227058627 0 0 0 0 -4545171.7038048953 3740795.1758656483 0 3740795.1758656483 4427583.1439548321 0 0 0 0 -1306827.0137329102 2667138.783182621 0 2667138.783182621 8709792.7728948593 0 0 0 0 -13717483.852996863 3160475.7732557431 0 3160475.7732557431 7214050.5022609998 0 0 0 0 -13043943.15625196 312565.37284851819 0 312565.37284851819 6474578.6479066666 0 0 0 0 -8062842.3708953857 1379808.5799055099 0 1379808.5799055099 7859694.1942653656 0 0 0 0 -1764029.6147460938 13234871.149013281 0 13234871.149013281 22933982.808170795 0 0 0 0 -6650913.0482788086 -183268.36958503723 0 -183268.36958503723 9025799.142993927 0 0 0 0 -6929975.8676135242 3398802.0292550698 0 3398802.0292550698 703397.62057728134 0 0 0 0 -7097218.0460548401 912983.95462656021 0 912983.95462656021 7834031.5197629929 0 0 0 0 -2019599.3596191406 -2423161.8893966675 0 -2423161.8893966675 16916984.789241314 0 0 0 0 -6665702.8473205566 3284056.2257633209 0 3284056.2257633209 295096.79487609863 0 0 0 0 -2780668.0758056641 -541272.82389640808 0 -541272.82389640808 17065104.85909462 0 0 0 0 -5903213.3054141998 176637.69195994735 0 176637.69195994735 7015145.4761552811 0 0 0 0 -12652371.9299988 2106134.5863944404 0 2106134.5863944404 6306851.0486190077 0 0 0 0 -3403996.0674919188 -2151793.557338492 0 -2151793.557338492 5427486.4393310882 0 0 0 0 -34941.1274754107 42692.654641471803 0 42692.654641471803 -46520.733666213229 0 0 0 0 -66423648.406967163 -6313381.1184587479 0 -6313381.1184587479 -18433157.271333694 0 0 0 0 -12986271.853195801 -781273.06472747773 0 -781273.06472747773 5078782.8029246023 0 0 0 0 -6691555.779876709 3321993.836230278 0 3321993.836230278 1210916.2330217361 0 0 0 0 -111290796.38238525 54926895.69821167 0 54926895.69821167 -13163828.614250183 0 0 0 0 -94774686.913146973 98148778.559814453 0 98148778.559814453 46680760.896095276 0 0 0 0 -1024311.7039273679 -722900.36249155365 0 -722900.36249155365 979614.59735513758 0 0 0 0 -36953461.533996582 26793779.847167969 0 26793779.847167969 -1120877.9731140137 0 0 0 0 -10079800.158109054 7748370.6726517677 0 7748370.6726517677 3598401.4951235764 0 0 0 0 -6342549.1758767217 2043232.0038520992 0 2043232.0038520992 270605.3844114691 0 0 0 0 19615752.135681152 -15193895.681335449 0 -15193895.681335449 -11725252.902805328 0 0 0 0 -18508564.475524902 -15888304.411586761 0 -15888304.411586761 -8959449.4408721924 0 0 0 0 30936619.076599121 -5298123.2761001587 0 -5298123.2761001587 -36702825.781532288 0 0 0 0 -87887782.19342041 3513171.3481369019 0 3513171.3481369019 -13301020.803581238 0 0 0 0 -7337902.4198608398 -162092.10255050659 0 -162092.10255050659 9885439.3659229279 0 0 0 0 -59531445.735216141 35403892.291516423 0 35403892.291516423 -8555073.5956459045 0 0 0 0 1240642.6700439453 8304969.9773769379 0 8304969.9773769379 -3910947.7894859314 0 0 0 0 -2643798.436527282 5646191.4675540701 0 5646191.4675540701 3755688.0412707953 0 0 0 0 -21172462.381304935 3945748.026883617 0 3945748.026883617 4154130.1068428466 0 0 0 0 -7761361.7539672852 -2982521.5483255386 0 -2982521.5483255386 16610748.063005447 0 0 0 0 -3645969.6866760254 492671.14863538742 0 492671.14863538742 8149248.6999168396 0 0 0 0 -15424486.406756341 3096549.6444284869 0 3096549.6444284869 6147817.7590331724 0 0 0 0 -24221381.806244478 1836678.5840041232 0 1836678.5840041232 4144715.3538646232 0 0 0 0 -12956282.759817809 10037586.363014869 0 10037586.363014869 5984463.0857762303 0 0 0 0 20792776.282562256 13464197.181745529 0 13464197.181745529 31344045.045560837 0 0 0 0 -70694097.898132324 -99549930.806516647 0 -99549930.806516647 204270972.49585152 0 0 0 0 -31566006.500854492 10731040.338033199 0 10731040.338033199 41283601.131826401 0 0 0 0 12810560.41986084 -251494204.11138153 0 -251494204.11138153 25161998.300003052 0 0 0 0 105196180.46000671 -215602018.7382164 0 -215602018.7382164 -227613796.19446564 0 0 0 0 84756487.702972412 3550795.6072158813 0 3550795.6072158813 -380650931.40390205 0 0 0 0 9498989.4846801758 -34037701.327259064 0 -34037701.327259064 -50894242.970261574 0 0 0 0 -27134764.918212891 55655466.16268158 0 55655466.16268158 -63206194.377464294 0 0 0 0 -258329199.57510376 174472606.89292336 0 174472606.89292336 -176947609.76463509 0 0 0 0 27258134.228881836 -28741928.832080841 0 -28741928.832080841 -18657288.939889908 0 0 0 0 42664941.175918579 -22644983.184951782 0 -22644983.184951782 -144639921.00001144 0 0 0 0 31814088.000488281 3547426.1709136963 0 3547426.1709136963 -63565720.438568115 0 0 0 0 19181650.34564209 23451447.957464218 0 23451447.957464218 -58828978.851416111 0 0 0 0 7738432.2912902832 22802318.913913727 0 22802318.913913727 -34631972.559249878 0 0 0 0 6947510.0216369629 43642460.405179977 0 43642460.405179977 -33816663.518847823 0 0 0 0 -44251831.090835571 16627565.848670959 0 16627565.848670959 -72138222.869943619 0 0 0 0 -20812702.921844482 -6589366.1650562286 0 -6589366.1650562286 30952215.724060059 0 0 0 0 -171511487.77224159 68158491.043241143 0 68158491.043241143 -6061963.0169143677 0 0 0 0 -67844921.457550049 -91450409.857192993 0 -91450409.857192993 245039558.55693913 0 0 0 0 45000963.980438232 -30661605.48811245 0 -30661605.48811245 77578034.341625214 0 0 0 0 -43637506.224822998 31954857.531888485 0 31954857.531888485 48802012.02141571 0 0 0 0 25653776.913097382 32402304.591878653 0 32402304.591878653 42895822.697128296 0 0 0 0 -14605785.412612915 23521908.788469315 0 23521908.788469315 109847216.93426514 0 0 0 0 -4957443.0029296875 26511131.796215057 0 26511131.796215057 42907523.216190338 0 0 0 0 -3973133.5585327148 6421248.3884983063 0 6421248.3884983063 22140239.170667648 0 0 0 0 -21447338.548782349 42740260.33023262 0 42740260.33023262 31707890.646331787 0 0 0 0 -38182214.916229248 20745607.383623123 0 20745607.383623123 66301650.494646072 0 0 0 0 -38660899.852935791 38761453.425580978 0 38761453.425580978 28935672.760211945 0 0 0 0 -63306704.887695312 47033621.710710526 0 47033621.710710526 34275582.305549622 0 0 0 0 -60910464.162994385 40548641.369035244 0 40548641.369035244 8705375.4189453125 0 0 0 0 -37939291.409942627 23338311.906938553 0 23338311.906938553 8982171.1745491028 0 0 0 0 -62476439.838886261 25955516.422789156 0 25955516.422789156 -31529561.647758484 0 0 0 0 -57864859.557373047 46029254.220535278 0 46029254.220535278 3896818.3657641411 0 0 0 0 -63249781.134063721 57726205.152620316 0 57726205.152620316 -18243271.806518555 0 0 0 0 -63651956.172744751 42912874.17709446 0 42912874.17709446 9124450.2896728516 0 0 0 0 -49221539.255187988 35767175.014551163 0 35767175.014551163 -46838931.955223083 0 0 0 0 -22130494.41104126 26507026.772855759 0 26507026.772855759 -43693764.225761414 0 0 0 0 -3691462.8185424805 419203.23455429077 0 419203.23455429077 -6817366.6786227226 0 0 0 0 -85102756.397033691 80912664.762348175 0 80912664.762348175 -49946543.528263092 0 0 0 0 -101949970.63644409 70046644.801921844 0 70046644.801921844 -53148218.115602493 0 0 0 0 -1402175.9767144024 616362.1870156005 0 616362.1870156005 -294994.31370099634 0 0 0 0 -66254820.394317627 38333089.896287918 0 38333089.896287918 -7109258.2140731812 0 0 0 0 -68184080.790039062 32631371.606939316 0 32631371.606939316 -19648170.365196228 0 0 0 0 -11401812.349060059 10190443.851520538 0 10190443.851520538 -22317149.121166229 0 0 0 0 -12465814.166687012 3877483.9099082947 0 3877483.9099082947 -37296288.749468565 0 0 0 0 15356305.434509277 22125794.055103302 0 22125794.055103302 -27316559.791919708 0 0 0 0 2282741.6339569092 10977422.963121414 0 10977422.963121414 -23742225.998867035 0 0 0 0 -16333421.793792725 32705432.197763443 0 32705432.197763443 7149937.8705692291 0 0 0 0 -28056185.807647705 13980220.875818253 0 13980220.875818253 -22720536.643505096 0 0 0 0 -5987773297.3363647 -761771982.09399426 0 -761771982.09399426 253431358.96062365 0 0 0 0 -5039892516.0647583 -183049125.86490873 0 -183049125.86490873 -87544626.167572141 0 0 0 0 -2849643.1831991039 1160190.8881544024 0 1160190.8881544024 -599859.87036050833 0 0 0 0 -5734589598.6204681 -440619283.77936304 0 -440619283.77936304 1493576.6531486884 0 0 0 0 112135114.86090088 63675351.820096195 0 63675351.820096195 -118199123.6809409 0 0 0 0 -117360074.36746979 -34003849.700152516 0 -34003849.700152516 62271104.416908622 0 0 0 0 -5494160052.3488617 -504926581.60984766 0 -504926581.60984766 17328047.242678478 0 0 0 0 -5102352397.8507042 -177003538.78431198 0 -177003538.78431198 262069548.21344739 0 0 0 0 -62187678.361068726 -29619213.114190459 0 -29619213.114190459 10785092.100169003 0 0 0 0 -7807284.9412115514 3257982.6640739515 0 3257982.6640739515 -1766617.2625168257 0 0 0 0 27925366.10247612 15410066.950667039 0 15410066.950667039 3484894.9668390751 0 0 0 0 -2770972106.5113068 613017380.65572286 0 613017380.65572286 -568462553.51133633 0 0 0 0 -13780132.893505683 4004032.6153057963 0 4004032.6153057963 -1978659.0068872278 0 0 0 0 66248513.180145264 38588085.500941515 0 38588085.500941515 -35733577.811680317 0 0 0 0 45906624.391647339 42350722.561915398 0 42350722.561915398 -10818356.618753433 0 0 0 0 -5438599047.631012 -483930176.57844764 0 -483930176.57844764 490026401.32751721 0 0 0 0 -5848022986.4345551 -725752512.20422482 0 -725752512.20422482 150918106.64119083 0 0 0 0 -5704081792.0897675 -239294602.12654334 0 -239294602.12654334 508536427.28094745 0 0 0 0 -5534394121.5030174 -438522285.86259413 0 -438522285.86259413 247501415.27188081 0 0 0 0 -5804278707.4452972 -377157210.95001793 0 -377157210.95001793 -357017498.32152277 0 0 0 0 -5981123646.1088095 -270640100.81407994 0 -270640100.81407994 128081053.97044659 0 0 0 0 -5790703446.7586308 -227004008.33878708 0 -227004008.33878708 -1386871882.4511297 0 0 0 0 -5399117697.8673096 -67359043.155172497 0 -67359043.155172497 235645.95520328725 0 0 0 0 -4653374479.6896973 -127054100.16987701 0 -127054100.16987701 224799454.71344241 0 0 0 0 -4054439351.5202484 -583221873.1883167 0 -583221873.1883167 120299690.91548534 0 0 0 0 -59792513.155410767 -7529966.173294859 0 -7529966.173294859 9574168.052323319 0 0 0 0 -9117433.6953196358 -1812455.8189658523 0 -1812455.8189658523 -222496.4075161739 0 0 0 0 -1986842408.0974121 -948675354.32866061 0 -948675354.32866061 -1225474993.3353629 0 0 0 0 -12621162.501824167 -1111752.1604245603 0 -1111752.1604245603 1146214.6637307997 0 0 0 0 -40868790.000312805 -677444.89354032278 0 -677444.89354032278 8987221.7752264738 0 0 0 0 -27397090.91519165 -5608067.6688454971 0 -5608067.6688454971 551219.99460395647 0 0 0 0 -6605825445.7483826 -565369537.54557276 0 -565369537.54557276 561649613.2815702 0 0 0 0 -3884528982.4853973 -2722740914.4360723 0 -2722740914.4360723 -1120871759.9936986 0 0 0 0 -3868788.9105152935 358268.78482743946 0 358268.78482743946 -380941.8992415542 0 0 0 0 -6012854806.5176411 1947112857.644505 0 1947112857.644505 -78693545.458094358 0 0 0 0 -6352521218.5509949 -1033413013.7436297 0 -1033413013.7436297 86429899.780139983 0 0 0 0 -57495243.192443848 -10119200.640238762 0 -10119200.640238762 27771570.033984661 0 0 0 0 -29061887.74279362 -2018901.3395739524 0 -2018901.3395739524 2124021.6716431603 0 0 0 0 106268794.09552002 112869752.14262676 0 112869752.14262676 102044002.85653591 0 0 0 0 -875516901.86993408 -1881908.2853937149 0 -1881908.2853937149 239616233.22930408 0 0 0 0 -28718045.623687208 3958148.0059282868 0 3958148.0059282868 473711.15664220863 0 0 0 0 138521350.62130737 -336015047.98335123 0 -336015047.98335123 -99233886.567032337 0 0 0 0 182527751.55527496 -32325748.940336347 0 -32325748.940336347 -113306726.76548767 0 0 0 0 526897544.90704346 250973441.67494583 0 250973441.67494583 99392491.515817642 0 0 0 0 -2945431.2476797849 -174325.88857401907 0 -174325.88857401907 1557872.6316325818 0 0 0 0 -13738977.228256226 296179002.96461511 0 296179002.96461511 -35850945.51336956 0 0 0 0 -19223611.029853821 1332703.493117827 0 1332703.493117827 7111904.8374855183 0 0 0 0 -11506061.636978105 -2242114.4297843724 0 -2242114.4297843724 3355187.9694938986 0 0 0 0 -40273555.842163086 -17006959.966743633 0 -17006959.966743633 26086026.692946132 0 0 0 0 -26807266.77456665 7547195.2532972023 0 7547195.2532972023 3709293.483324483 0 0 0 0 -28234517.839065552 2659221.3025467386 0 2659221.3025467386 -6499934.8829210885 0 0 0 0 -24623239.701904297 -4886653.0982747506 0 -4886653.0982747506 8946292.2721109837 0 0 0 0 -74806277.053329468 -36678838.706654444 0 -36678838.706654444 1235806.1480813697 0 0 0 0 -4831265.2953029573 -1826488.4692843035 0 -1826488.4692843035 -2670.4050460406324 0 0 0 0 -10903984.892166138 12405509.72962749 0 12405509.72962749 1801168.5801651441 0 0 0 0 2006503.1214141846 8430110.2980401758 0 8430110.2980401758 5736.8958117185393 0 0 0 0 -13767963.344085693 -4863645.0322448984 0 -4863645.0322448984 3813596.3889372465 0 0 0 0 -29436050.793579102 10479524.070750378 0 10479524.070750378 -15912.804126513811 0 0 0 0 -67513184.453186035 -10769992.167649223 0 -10769992.167649223 37778415.623860687 0 0 0 0 -67388899.587982178 -41334774.8856344 0 -41334774.8856344 -522700.68007989158 0 0 0 0 -105123648.59127808 -66798415.521260396 0 -66798415.521260396 -12969568.857313678 0 0 0 0 -2784849.0877436697 -1492133.019032836 0 -1492133.019032836 -652027.69864545797 0 0 0 0 -45179228.051116943 2324016.7634355947 0 2324016.7634355947 12871029.965166137 0 0 0 0 -101711897.56307983 -18758750.477111265 0 -18758750.477111265 94958583.10295862 0 0 0 0 -49862221.689800262 880231.05645871721 0 880231.05645871721 19933612.304921754 0 0 0 0 -41058785.013526917 26279888.926311471 0 26279888.926311471 27702610.139329739 0 0 0 0 -47281593.508987427 -1558371.208099246 0 -1558371.208099246 51645066.33792688 0 0 0 0 -22663661.524810791 14048979.222862378 0 14048979.222862378 24057137.849468876 0 0 0 0 -11680566.264801025 -7247650.0292425156 0 -7247650.0292425156 152948831.37577239 0 0 0 0 -27724398.252744272 1086693.1636888757 0 1086693.1636888757 -222716.96957071096 0 0 0 0 96933532.973991394 -7782039.6669597626 0 -7782039.6669597626 8502707.7090063095 0 0 0 0 36927199.73645401 -192086107.4526467 0 -192086107.4526467 -34247100.471317291 0 0 0 0 -26000042.653219968 648682.96218138537 0 648682.96218138537 -1083033.1931586007 0 0 0 0 -801731639.57958984 184815070.6403389 0 184815070.6403389 5192975.3532211781 0 0 0 0 -85936002.483276367 -196723889.07064152 0 -196723889.07064152 9188122.5892219543 0 0 0 0 -33272789.31161499 18280108.771027472 0 18280108.771027472 29165804.968264572 0 0 0 0 7719597.7855261862 -107508335.11199342 0 -107508335.11199342 18141844.423460007 0 0 0 0 -2749044.7488970757 303591.11090364307 0 303591.11090364307 494578.58105050027 0 0 0 0 72497899.991470337 56861537.56088829 0 56861537.56088829 -29620896.08747673 0 0 0 0 -3462379.93894675 1240070.0382898673 0 1240070.0382898673 564569.90924182162 0 0 0 0 -2058254.2261962891 81927736.550383091 0 81927736.550383091 23557276.188816071 0 0 0 0 -60270254.276916504 -67266367.519395828 0 -67266367.519395828 -28329418.86730957 0 0 0 0 19161359.141662598 23551146.867603302 0 23551146.867603302 -7903947.2270355225 0 0 0 0 33432651.341064453 109021.28677940369 0 109021.28677940369 -24769541.041679382 0 0 0 0 -57459481.138767242 -11283737.101019382 0 -11283737.101019382 3097265.1701164246 0 0 0 0 -8006223.0262091309 393975.41308853775 0 393975.41308853775 27454.436775964685 0 0 0 0 -61532148.940109253 31249048.309328079 0 31249048.309328079 21000121.607668877 0 0 0 0 38018557.244430542 15286526.311311245 0 15286526.311311245 -90933739.608783722 0 0 0 0 -122764780.32332611 -25211089.689350545 0 -25211089.689350545 29193425.392867088 0 0 0 0 67812245.292144775 -42199910.339454651 0 -42199910.339454651 -10186365.714498043 0 0 0 0 -1421587.3188474998 349814.210884206 0 349814.210884206 -1192223.2032975215 0 0 0 0 -487320110.40231323 -67594281.954332709 0 -67594281.954332709 103548909.63982129 0 0 0 0 -137145245.39053345 32305142.206428051 0 32305142.206428051 -28035014.726598263 0 0 0 0 -78304099.736053467 -90360979.363348961 0 -90360979.363348961 -74574101.555861712 0 0 0 0 -61390094.141784668 -23399352.043003917 0 -23399352.043003917 -35340812.015158832 0 0 0 0 -18431624.384552002 -6081963.6804976463 0 -6081963.6804976463 -88375052.982151151 0 0 0 0 -113703783.35539246 -6686220.2439146936 0 -6686220.2439146936 -2346942.1463865042 0 0 0 0 -4991111.5013883635 980050.11577363312 0 980050.11577363312 -3561769.4402661109 0 0 0 0 -11917799.917187326 7591321.7427898832 0 7591321.7427898832 -7368369.5193781443 0 0 0 0 -62300688.025878906 -34546663.833240047 0 -34546663.833240047 -7576622.4114603736 0 0 0 0 -71225175.989982605 -57771130.774057999 0 -57771130.774057999 -60606016.662631661 0 0 0 0 -28476513.398864746 12964932.879012585 0 12964932.879012585 -2555802.11743927 0 0 0 0 -18954676.02230835 376801.51926231384 0 376801.51926231384 -7797244.2839317322 0 0 0 0 -14437961.246078491 -2070988.6760120392 0 -2070988.6760120392 -12796836.286907196 0 0 0 0 -10031837.040981125 -3793652.5626167357 0 -3793652.5626167357 -4898863.8572074547 0 0 0 0 -14021501.207561493 31549312.845799685 0 31549312.845799685 -15680371.530704498 0 0 0 0 -21950085.913421631 -2541935.4605007172 0 -2541935.4605007172 -10426236.153087616 0 0 0 0 -11094449.434371665 5990091.8892342746 0 5990091.8892342746 -22027030.123468995 0 0 0 0 -312859529.76435852 892385718.67963791 0 892385718.67963791 -1219495453.6524658 0 0 0 0 -43731881.145614624 -15850959.020273209 0 -15850959.020273209 -20495564.338111877 0 0 0 0 -17674414.553497314 -34611.394220352173 0 -34611.394220352173 -13808077.648946762 0 0 0 0 -106435752.44158936 64631219.152786255 0 64631219.152786255 -14363365.368049622 0 0 0 0 8164811.5911865234 -8502830.7818470001 0 -8502830.7818470001 -24721074.227993011 0 0 0 0 -17531572.005554199 14309223.738548279 0 14309223.738548279 -9103525.7105884552 0 0 0 0 -16870295.852172852 -2242958.6669807434 0 -2242958.6669807434 -11537423.437356949 0 0 0 0 -25693805.084350586 1740793.4550094604 0 1740793.4550094604 -10030245.725129128 0 0 0 0 -413168675.48339844 -391789056.30731201 0 -391789056.30731201 -351865172.5723877 0 0 0 0 -15423900.682403564 -49704536.354362488 0 -49704536.354362488 351620631.81694221 0 0 0 0 -26478461.244289368 9444477.1170136519 0 9444477.1170136519 13240540.155193239 0 0 0 0 -1322215301.7541351 -840522594.97310066 0 -840522594.97310066 -1145082584.4552917 0 0 0 0 -1064578307.4335327 -249362345.23068237 0 -249362345.23068237 -32948347.436645508 0 0 0 0 -116174401.44036865 -119805556.63352966 0 -119805556.63352966 368933151.26872826 0 0 0 0 -674793799.83203125 -424214692.00437164 0 -424214692.00437164 51507927.8542099 0 0 0 0 -302601481.30728149 118748202.90970612 0 118748202.90970612 169351715.94898987 0 0 0 0 -1334471308.8566895 -599336865.57422638 0 -599336865.57422638 57713095.836624146 0 0 0 0 -1669069088.6337891 -393223613.17230988 0 -393223613.17230988 321280896.94544983 0 0 0 0 -2299507135.6625977 -662598064.60928345 0 -662598064.60928345 565937389.96581888 0 0 0 0 -2376703090.6510925 -822082678.58134079 0 -822082678.58134079 289577210.93310547 0 0 0 0 -1934136427.3302002 -724561342.99481201 0 -724561342.99481201 89456601.851364136 0 0 0 0 -2474351937.1264648 -766037785.09793091 0 -766037785.09793091 1013209798.8986282 0 0 0 0 -2243285870.7121582 -1373730903.3649521 0 -1373730903.3649521 345471569.95218658 0 0 0 0 -2125176234.6124268 -1404176765.8137817 0 -1404176765.8137817 -727749883.33111572 0 0 0 0 -2253236084.3414307 -1044451689.4582214 0 -1044451689.4582214 39635098.303514481 0 0 0 0 -2251787927.520813 -938506064.77163696 0 -938506064.77163696 385423318.73747253 0 0 0 0 -2593506052.8189697 -2471121638.1452026 0 -2471121638.1452026 -1405858193.2088051 0 0 0 0 -2955744471.7197876 921011265.47941589 0 921011265.47941589 152543637.56604099 0 0 0 0 -208515331.73101807 728635237.65835571 0 728635237.65835571 105528359.28453064 0 0 0 0 -8445779.7539899051 3083260.8840382379 0 3083260.8840382379 3517621.9068013728 0 0 0 0 -3657081510.0579224 -1816339049.5882416 0 -1816339049.5882416 26393927.991394043 0 0 0 0 -4372601277.6025696 2895853671.8547516 0 2895853671.8547516 -533608259.56616211 0 0 0 0 -18370976.952545166 -244734079.71982574 0 -244734079.71982574 8426713.2600708008 0 0 0 0 -199089232.73957038 -246602421.53320831 0 -246602421.53320831 195258290.74395752 0 0 0 0 -59410962.497833252 37252164.859754562 0 37252164.859754562 177047152.69759333 0 0 0 0 13343013.443740845 -170744725.89802551 0 -170744725.89802551 98103084.749511719 0 0 0 0 -202950.70988219976 -150091.32659160346 0 -150091.32659160346 784605.94375495426 0 0 0 0 57800170.372650146 -305248522.21742201 0 -305248522.21742201 -82097425.404163361 0 0 0 0 -242748335.2265625 -156929963.25636292 0 -156929963.25636292 -101754424.32954407 0 0 0 0 -389873154.22883606 141075254.86324692 0 141075254.86324692 -537496103.35066223 0 0 0 0 -10197772.562698364 -34904552.439718246 0 -34904552.439718246 -6451064.8425064087 0 0 0 0 -456044483.90881348 -6687294.8716583252 0 -6687294.8716583252 98620716.828954697 0 0 0 0 -74333134.822509766 21588009.909017563 0 21588009.909017563 -3030409.4092941284 0 0 0 0 -255906402.43746948 -19506031.176470757 0 -19506031.176470757 26430109.176250458 0 0 0 0 -11946306.768152619 -4727466.1468908191 0 -4727466.1468908191 30901775.944069125 0 0 0 0 -2624035.6788688898 -2334919.5407113284 0 -2334919.5407113284 4692410.6452369951 0 0 0 0 -5591312.1397705078 -7795199.8213615417 0 -7795199.8213615417 -7321305.9344940186 0 0 0 0 10035361.546707153 34668040.895227432 0 34668040.895227432 93227988.160984039 0 0 0 0 48758906.334243774 -98043545.565061569 0 -98043545.565061569 201609397.38719177 0 0 0 0 -29202190.020996094 51628129.228500366 0 51628129.228500366 -85096884.336181641 0 0 0 0 -114569.34625896811 362424.86789263412 0 362424.86789263412 2261090.8862228319 0 0 0 0 -312991797.64727783 111206602.81204987 0 111206602.81204987 264482882.68457031 0 0 0 0 -258005647.68493652 34300905.0128479 0 34300905.0128479 237524804.52984619 0 0 0 0 202904320.1027832 142891727.9125824 0 142891727.9125824 167769758.6282196 0 0 0 0 -419151788.74365234 135449995.06293488 0 135449995.06293488 262182440.85343933 0 0 0 0 -236906665.83789062 268932407.94836426 0 268932407.94836426 419929215.21782684 0 0 0 0 -277277974.82163239 -36397311.617545128 0 -36397311.617545128 32348353.000671387 0 0 0 0 294263727.7623291 408456228.16448975 0 408456228.16448975 280380404.88369751 0 0 0 0 -18594655.531001151 7891910.0759194046 0 7891910.0759194046 14712602.123481113 0 0 0 0 607334843.328125 274914006.23324585 0 274914006.23324585 107124855.17352295 0 0 0 0 -24708321.176361084 3331779.4451694489 0 3331779.4451694489 5928860.6618041992 0 0 0 0 -24101040.231497735 1057836.0724211335 0 1057836.0724211335 35411762.57980042 0 0 0 0 223588399.97897339 262374884.81656075 0 262374884.81656075 176362973.69161987 0 0 0 0 -40379793.735627428 13776271.840896647 0 13776271.840896647 27689518.539225802 0 0 0 0 -6897393.6223223805 -5638790.8277686983 0 -5638790.8277686983 18321474.393593729 0 0 0 0 -17184184.446016058 8400027.6838196851 0 8400027.6838196851 7388350.9115245193 0 0 0 0 -58586171.48526001 24431005.957431912 0 24431005.957431912 45880278.444595337 0 0 0 0 -25472195.854553223 -13030038.52808547 0 -13030038.52808547 -24951780.070425034 0 0 0 0 -446752521.46594238 -741168.81237792969 0 -741168.81237792969 267239049.15072632 0 0 0 0 -583019200.84338379 -257471437.57827377 0 -257471437.57827377 109825925.88302612 0 0 0 0 -7677325.6633300781 9928744.1600952148 0 9928744.1600952148 44015075.593795776 0 0 0 0 -43328574.725158691 39810642.240093231 0 39810642.240093231 21952618.581582546 0 0 0 0 -8768548.4820059389 -507995.93488820642 0 -507995.93488820642 16176437.52910259 0 0 0 0 3017846.8972167969 17850272.579055786 0 17850272.579055786 27232707.790550232 0 0 0 0 -171489235.28070068 -47677939.620182037 0 -47677939.620182037 1854725.5175151825 0 0 0 0 -61341644.515480042 -37697651.983170509 0 -37697651.983170509 -10799847.451004028 0 0 0 0 -76895654.668029785 3869274.555147171 0 3869274.555147171 31733310.981206894 0 0 0 0 26102313.73286438 -85636989.045433998 0 -85636989.045433998 -34572178.804538727 0 0 0 0 -322186.54613231868 -118757.40531625599 0 -118757.40531625599 30002.610237647779 0 0 0 0 13330813.279998779 29364482.12405014 0 29364482.12405014 63983981.513084412 0 0 0 0 -1001848.2811355591 55049788.555284202 0 55049788.555284202 57794606.955621719 0 0 0 0 692052.89306640625 39947821.295731783 0 39947821.295731783 16955635.072739601 0 0 0 0 5748755.2500610352 11766656.681279182 0 11766656.681279182 29487203.255336285 0 0 0 0 -6925609.4933465868 6673839.5665010996 0 6673839.5665010996 1205996.3358451528 0 0 0 0 -47902738.93145752 7553953.5458035469 0 7553953.5458035469 44174586.505805194 0 0 0 0 -42100355.003051758 63229898.348933697 0 63229898.348933697 30760178.256421566 0 0 0 0 38568461.01763916 47220523.34794426 0 47220523.34794426 38084725.60165906 0 0 0 0 -11176986.254500059 4112425.0108221769 0 4112425.0108221769 26047465.88441921 0 0 0 0 -91074452.925506592 51281245.328266978 0 51281245.328266978 52458500.536174297 0 0 0 0 -308394888.46102905 -183977947.1374855 0 -183977947.1374855 -300265507.62288666 0 0 0 0 -106611641.17800903 18236346.878124952 0 18236346.878124952 64144341.447888851 0 0 0 0 -4633456.7274063304 -4054110.7695393413 0 -4054110.7695393413 -1651333.83793962 0 0 0 0 -71978472.159004211 -39857038.405513763 0 -39857038.405513763 218316464.5559082 0 0 0 0 -782849846.35821533 604423866.4520874 0 604423866.4520874 -332731490.59643555 0 0 0 0 -3663468863.1741333 219964332.99070358 0 219964332.99070358 102417370.53896236 0 0 0 0 -3425824343.9956055 -241515313.19556808 0 -241515313.19556808 224111384.57482147 0 0 0 0 -2074039673.4213867 460115450.90929413 0 460115450.90929413 138006329.72180176 0 0 0 0 -1917196916.8048401 -66300938.447963715 0 -66300938.447963715 -205422524.13752747 0 0 0 0 -1875236432.996582 -117427533.01483154 0 -117427533.01483154 -222360527.57595825 0 0 0 0 -2602619259.4552612 -272425336.13752747 0 -272425336.13752747 -46246225.068778992 0 0 0 0 -224613436.03103638 37702404.126101494 0 37702404.126101494 -598657866.85934448 0 0 0 0 -1039756335.2557983 88597818.434341431 0 88597818.434341431 -279783734.55805779 0 0 0 0 -1010731012.1140747 -129937575.55588531 0 -129937575.55588531 -182106114.02102661 0 0 0 0 -725436801.64599609 -23954446.488243103 0 -23954446.488243103 -184792279.37704897 0 0 0 0 -1159279136.0482788 -278001778.42593384 0 -278001778.42593384 133309755.52464294 0 0 0 0 -1833333658.088501 -135630100.67346954 0 -135630100.67346954 5345592.9110794067 0 0 0 0 -1784284516.497345 -172639544.61437416 0 -172639544.61437416 -358966901.75500488 0 0 0 0 -1197336623.3243408 -166456627.63968658 0 -166456627.63968658 -37894640.300727844 0 0 0 0 -1806803306.2422333 -132602684.51737022 0 -132602684.51737022 203169714.78050232 0 0 0 0 -1140578011.1323242 -326410624.65777588 0 -326410624.65777588 196845584.99796295 0 0 0 0 -1943597889.0806885 -416552371.96661568 0 -416552371.96661568 348727835.87615967 0 0 0 0 -2056852016.3284912 -297238458.40576935 0 -297238458.40576935 355208062.70065308 0 0 0 0 -1672695501.8903809 -499343809.89916992 0 -499343809.89916992 311370227.9306879 0 0 0 0 -1584538868.5769043 -262386958.93909645 0 -262386958.93909645 316517118.24510193 0 0 0 0 -661460798.10699463 -226542120.57105255 0 -226542120.57105255 76807109.619462967 0 0 0 0 -994034277.38037109 -43656763.126289368 0 -43656763.126289368 167538637.409729 0 0 0 0 -50561015.32144928 -1232753.365381062 0 -1232753.365381062 -10048372.115739822 0 0 0 0 -11136749.964433089 6697859.3090480044 0 6697859.3090480044 -13855021.418559911 0 0 0 0 -2403061950.8796082 -375547050.97236633 0 -375547050.97236633 438471846.80257416 0 0 0 0 -2363538593.1367798 -503125895.1754303 0 -503125895.1754303 698795265.21513367 0 0 0 0 -2419451536.6052856 -342539487.73869324 0 -342539487.73869324 502650541.96969604 0 0 0 0 -2177713080.8117065 -528648558.31586456 0 -528648558.31586456 561454431.51298571 0 0 0 0 -2352277768.6213379 -257090633.1236496 0 -257090633.1236496 282669712.59792328 0 0 0 0 -2286674270.9987946 -170583595.8225174 0 -170583595.8225174 -330214859.62562561 0 0 0 0 -2049870306.0140991 -318632119.57870483 0 -318632119.57870483 269843012.4805603 0 0 0 0 -11177417.246686742 2082991.4436843246 0 2082991.4436843246 1259389.1255061938 0 0 0 0 -36238463.71937561 -5095472.6143487692 0 -5095472.6143487692 -10191883.092994034 0 0 0 0 -13390710.145212688 5870806.2333905622 0 5870806.2333905622 -5513480.6921894401 0 0 0 0 -3733877624.7260742 -1152700455.1845741 0 -1152700455.1845741 85527586.288352966 0 0 0 0 -3124934134.0643997 -1274599977.8871307 0 -1274599977.8871307 -410408376.51190948 0 0 0 0 -2191228540.487915 -730580851.32515717 0 -730580851.32515717 -865862497.6223259 0 0 0 0 -34624072.76083374 -40619.718448340893 0 -40619.718448340893 -1586250.8722906113 0 0 0 0 6665318.5849373341 531864476.54009026 0 531864476.54009026 -129447226.73981953 0 0 0 0 -3712626782.9469604 -1083630758.2705326 0 -1083630758.2705326 -223845537.61824799 0 0 0 0 -23597911.769120246 733999.32422330324 0 733999.32422330324 -3603043.2453888156 0 0 0 0 -47291200.696594238 -2240084.1730821729 0 -2240084.1730821729 1935300.9390370036 0 0 0 0 269554280.2311554 -601357082.13899326 0 -601357082.13899326 -147949985.30534363 0 0 0 0 337231.43319110572 559831.22999076545 0 559831.22999076545 -3235734.2737937272 0 0 0 0 -5551679832.1964111 -718795632.51060677 0 -718795632.51060677 69260243.571392059 0 0 0 0 -4640761523.5123901 -117788138.34622765 0 -117788138.34622765 50822565.881958008 0 0 0 0 -4166665530.7798309 -2496246100.4562778 0 -2496246100.4562778 -1099727279.9235077 0 0 0 0 -126709.40952253342 58664.515794247389 0 58664.515794247389 -338461.99131857423 0 0 0 0 -5324329549.46698 -1099892509.3332176 0 -1099892509.3332176 510965608.58773232 0 0 0 0 -4618052711.2015381 -1194712266.0642495 0 -1194712266.0642495 -574853471.18305016 0 0 0 0 -11900248.432269365 5855087.6297371164 0 5855087.6297371164 -6254913.4491394321 0 0 0 0 -12566946.523864746 16956179.716322497 0 16956179.716322497 -1845614.1526039243 0 0 0 0 -4472855211.8201294 -1677201760.5253735 0 -1677201760.5253735 426491422.72672319 0 0 0 0 -1679152140.4588013 -1373714511.4672852 0 -1373714511.4672852 -431369850.19498062 0 0 0 0 -42465727.697784424 28701848.240350015 0 28701848.240350015 9536586.6928833723 0 0 0 0 -12026691.853668213 26589777.264524382 0 26589777.264524382 24177390.500116229 0 0 0 0 -10895198.269396186 2030413.5999863148 0 2030413.5999863148 1607771.5284012551 0 0 0 0 -59296855.202026367 -795247.0559604764 0 -795247.0559604764 15813696.278249979 0 0 0 0 15820739.666473389 67247065.391448259 0 67247065.391448259 57143893.011693083 0 0 0 0 -99280984.85849762 -36474794.255615398 0 -36474794.255615398 66285867.765982091 0 0 0 0 -3239525.07461752 360399.05354108661 0 360399.05354108661 401208.51562565623 0 0 0 0 -4314921.7191940993 2156862.8018197939 0 2156862.8018197939 -949311.51075003459 0 0 0 0 145321837.06902313 285450415.28435177 0 285450415.28435177 143284329.13284343 0 0 0 0 79296788.007751465 69102226.651551902 0 69102226.651551902 117721223.54261172 0 0 0 0 -183282811.97192383 7942248.0024379492 0 7942248.0024379492 167059754.71700621 0 0 0 0 -406732886.71032715 -75513218.693764836 0 -75513218.693764836 1215094.1970194513 0 0 0 0 -93679096.055419922 316921406.91657877 0 316921406.91657877 312993189.92657185 0 0 0 0 -2801821481.3945312 395510158.30058426 0 395510158.30058426 448493257.21437037 0 0 0 0 -94623194.820526123 -44750663.596979246 0 -44750663.596979246 68921133.444819465 0 0 0 0 -51646736.971099854 24876363.928692639 0 24876363.928692639 5515591.4441110427 0 0 0 0 -341097512.64408875 214017147.56116349 0 214017147.56116349 258774888.87460178 0 0 0 0 -374193819.40821838 347631652.53602457 0 347631652.53602457 -166846225.00325561 0 0 0 0 -144852264.40777588 242138260.49555257 0 242138260.49555257 -1571970.7117398742 0 0 0 0 -1974537956.8573303 -1484604357.5045159 0 -1484604357.5045159 -1305173965.0284338 0 0 0 0 -1596996.2142254394 1335988.8970037177 0 1335988.8970037177 4094448.3666541707 0 0 0 0 -5060508431.0024185 -1054276552.7389244 0 -1054276552.7389244 1528249429.6123104 0 0 0 0 -758496703.62075806 -498825599.21297169 0 -498825599.21297169 -1024040591.4092965 0 0 0 0 274993960.62397766 -241445828.16339552 0 -241445828.16339552 8626177.0115143061 0 0 0 0 -230234473.7303772 -338740915.29963499 0 -338740915.29963499 342428786.76071358 0 0 0 0 -236234130.6333437 -230486815.75665712 0 -230486815.75665712 -152952918.36147207 0 0 0 0 -149262785.24159241 -114969909.38641596 0 -114969909.38641596 91021082.675320387 0 0 0 0 -77157041.920349121 -35130121.12366271 0 -35130121.12366271 75545016.96572423 0 0 0 0 -3009449200.4449158 -148673262.49805689 0 -148673262.49805689 259490564.37635994 0 0 0 0 -509303301.93774414 722078034.48576546 0 722078034.48576546 -19508624.35341692 0 0 0 0 -5218290.4473297149 2944498.8955042884 0 2944498.8955042884 14151352.728652176 0 0 0 0 313141153.18191528 271226050.78048682 0 271226050.78048682 -225728207.70172119 0 0 0 0 -107818212.08927536 -47862859.569281131 0 -47862859.569281131 49583223.183029652 0 0 0 0 -34455097.357666016 101589795.51851845 0 101589795.51851845 138492799.24165058 0 0 0 0 -75254595.193817139 -824925.55276083946 0 -824925.55276083946 112514926.48568821 0 0 0 0 -58871083.830871582 -15153975.113431215 0 -15153975.113431215 81036568.744184494 0 0 0 0 -188967.36644816399 208601.71323011816 0 208601.71323011816 1233057.2844569036 0 0 0 0 -5780959.8823341131 4709116.8539192528 0 4709116.8539192528 1104923.1489333943 0 0 0 0 60059870.154632568 113785957.24412298 0 113785957.24412298 122490813.43167758 0 0 0 0 70047769.799560547 84264060.902162075 0 84264060.902162075 59105869.78843832 0 0 0 0 51610524.023498535 -23589702.965024114 0 -23589702.965024114 54437801.942841768 0 0 0 0 -34309532.021530151 39983925.989495039 0 39983925.989495039 141362615.71452045 0 0 0 0 -39478483.026794434 91029590.953790188 0 91029590.953790188 209371495.36224556 0 0 0 0 36988607.49810791 56173677.713537693 0 56173677.713537693 173257820.23619461 0 0 0 0 150466785.44952393 54682963.298377275 0 54682963.298377275 161192079.16159821 0 0 0 0 25133562.431213379 132524472.22521973 0 132524472.22521973 175454509.16331911 0 0 0 0 -23754857.340515137 41919910.435396194 0 41919910.435396194 137515379.94952369 0 0 0 0 -1909080.4069928378 413236.90445462242 0 413236.90445462242 1408489.4549741405 0 0 0 0 -22441797.400695801 49817762.213760376 0 49817762.213760376 25709955.374384403 0 0 0 0 -459188374.31207275 -712719245.08373141 0 -712719245.08373141 -465864030.00865555 0 0 0 0 -118790934.13146973 -17912883.57359314 0 -17912883.57359314 -111597915.44123125 0 0 0 0 95056236.224304199 -73668944.005937815 0 -73668944.005937815 -98013574.71311903 0 0 0 0 -233837969.4699707 171273718.45552278 0 171273718.45552278 -9078343.4835877419 0 0 0 0 -452098026.36785889 172772632.08871233 0 172772632.08871233 -874824.98948192596 0 0 0 0 -491356343.38220215 20637515.588793755 0 20637515.588793755 -24509277.050352454 0 0 0 0 197310334.02821732 321089831.56576163 0 321089831.56576163 130489620.58013034 0 0 0 0 -2557484.0263440162 2523528.3257775679 0 2523528.3257775679 -611829.68538753944 0 0 0 0 232096014.74105835 90435753.196915627 0 90435753.196915627 119109606.84953308 0 0 0 0 37917176.374790192 297382923.85653341 0 297382923.85653341 188413665.95145082 0 0 0 0 -93865290.001342773 103049.76711165905 0 103049.76711165905 179647797.03138447 0 0 0 0 151025125.47277832 135217164.07527542 0 135217164.07527542 155349796.9025259 0 0 0 0 -133953096.32397461 163040754.83047605 0 163040754.83047605 182438056.23801303 0 0 0 0 50889167.178073883 217717377.20864093 0 217717377.20864093 158641303.87648869 0 0 0 0 -101132161.06967163 -49278782.581576765 0 -49278782.581576765 177510945.47877312 0 0 0 0 -100182444.78900146 -17823635.097334385 0 -17823635.097334385 153444920.60536242 0 0 0 0 -359521236.30334473 428761486.07367587 0 428761486.07367587 -76910103.726018563 0 0 0 0 -304637969.3013916 -55871226.80656749 0 -55871226.80656749 202572867.7509864 0 0 0 0 -865295601.98620605 20389853.163771838 0 20389853.163771838 194471700.36091962 0 0 0 0 -361713840.11352539 280785648.45422882 0 280785648.45422882 150259134.71087539 0 0 0 0 128305096.98077393 182917267.73377484 0 182917267.73377484 112561330.38872924 0 0 0 0 178726518.94691467 347831334.79556179 0 347831334.79556179 -321823113.98463249 0 0 0 0 67779856.525939941 326895959.16165853 0 326895959.16165853 -57948732.138550997 0 0 0 0 341249283.08963394 225537529.49147257 0 225537529.49147257 -150857336.99272448 0 0 0 0 494443666.543396 92035694.25440681 0 92035694.25440681 -128297222.08035412 0 0 0 0 -179916450.82658386 -45689979.289240554 0 -45689979.289240554 128431597.69824956 0 0 0 0 -1454245.5329855829 496733.19775014138 0 496733.19775014138 2266.0157899768037 0 0 0 0 -598335504.31744385 199907865.16359261 0 199907865.16359261 698226.22293288866 0 0 0 0 246680411.78082275 -71319598.322471365 0 -71319598.322471365 -433759.2629541714 0 0 0 0 -923399031.18347168 176425577.07574904 0 176425577.07574904 646707023.65783334 0 0 0 0 169126456.58468628 -56692153.053257339 0 -56692153.053257339 125559516.53430247 0 0 0 0 -3450874.0433952957 470680.52902439237 0 470680.52902439237 139257.02841100391 0 0 0 0 54556809.789779663 71695638.186292589 0 71695638.186292589 39632.610140404198 0 0 0 0 -741736.58551710844 780437.27767276019 0 780437.27767276019 -423721.11359246616 0 0 0 0 372103726.47768402 66700504.841578051 0 66700504.841578051 -38838698.645472586 0 0 0 0 -730669.1515971981 254615.95509264618 0 254615.95509264618 -69977.873829320073 0 0 0 0 -1490099439.3662109 -119957551.58408523 0 -119957551.58408523 527844857.76933038 0 0 0 0 -1514289904.6767578 545666668.50035787 0 545666668.50035787 -198610044.65511525 0 0 0 0 -1025837004.7338867 -504059698.65414453 0 -504059698.65414453 -51699991.504328728 0 0 0 0 -48988406.883087158 203654253.30505455 0 203654253.30505455 -184613983.54272485 0 0 0 0 -738679794.65518188 -247242611.1462298 0 -247242611.1462298 -198416594.49090791 0 0 0 0 501177924.99222374 -78933019.324934557 0 -78933019.324934557 48068474.846766233 0 0 0 0 568925203.85177612 602921011.12143385 0 602921011.12143385 -45053274.723019063 0 0 0 0 82125042.601806641 330605612.52574098 0 330605612.52574098 -196755080.94172478 0 0 0 0 763613412.84750366 -105175735.77500492 0 -105175735.77500492 -354256009.22421741 0 0 0 0 -146802466.88616943 -193941253.78469062 0 -193941253.78469062 -335638374.10045439 0 0 0 0 264511033.24401855 171433148.54031122 0 171433148.54031122 -355464666.25544143 0 0 0 0 -15307585.907897949 -10734059.780723572 0 -10734059.780723572 -364362861.90384638 0 0 0 0 13540501.086502075 93829407.715697169 0 93829407.715697169 -21368578.050748825 0 0 0 0 2112484.5673522949 -142449582.38137066 0 -142449582.38137066 -49176630.464572966 0 0 0 0 -465624100.02619934 -65860303.80317533 0 -65860303.80317533 260672273.41656744 0 0 0 0 -770493293.48577881 153424756.15206265 0 153424756.15206265 153402754.24051464 0 0 0 0 -856426891.71170044 -536189582.99548841 0 -536189582.99548841 -91183295.804742694 0 0 0 0 -2336478.6380268149 804187.72819650173 0 804187.72819650173 849584.02255912602 0 0 0 0 73282705.171112061 -67481812.045732915 0 -67481812.045732915 27049957.584528685 0 0 0 0 -343633537.52590942 43105911.686050177 0 43105911.686050177 -760238438.31183529 0 0 0 0 -830197075.89894104 -589676153.45271695 0 -589676153.45271695 290728019.33799934 0 0 0 0 -38718769.302154541 -49797387.39127326 0 -49797387.39127326 -40429773.012004852 0 0 0 0 -22088597.636260986 34093563.192710638 0 34093563.192710638 235589977.02578068 0 0 0 0 -7847745.4557534903 4363060.387944378 0 4363060.387944378 -678079.09445981309 0 0 0 0 -18889910.5197258 -18876123.661998644 0 -18876123.661998644 4350752.8539121151 0 0 0 0 -278464586.78684998 205352895.01625252 0 205352895.01625252 242298353.42159462 0 0 0 0 -390635612.24951172 -316922399.03603745 0 -316922399.03603745 -49904562.598638058 0 0 0 0 -5198273.1669850051 2451647.6242004558 0 2451647.6242004558 3989091.8393237786 0 0 0 0 -9828928.0044736415 6278048.5167306699 0 6278048.5167306699 -964097.45716648572 0 0 0 0 -23804626.675231934 3389911.9715733528 0 3389911.9715733528 35694450.385372996 0 0 0 0 -102024203.95505524 -4149484.6553063393 0 -4149484.6553063393 -56483128.340921402 0 0 0 0 -369824334.48223877 32914249.906311035 0 32914249.906311035 132319463.55393863 0 0 0 0 -276678561.53131104 -136328715.2779541 0 -136328715.2779541 -321430205.55824447 0 0 0 0 -396478378.74688721 -211569933.39997482 0 -211569933.39997482 -80692031.914726257 0 0 0 0 -4580263.992795676 2087657.3219186328 0 2087657.3219186328 3521286.2238681177 0 0 0 0 -239892595.50860596 -138006212.58271027 0 -138006212.58271027 -86291783.044103622 0 0 0 0 24010922.692276001 -9766158.2125176191 0 -9766158.2125176191 30982877.702598572 0 0 0 0 60796.898315429688 20858464.630954742 0 20858464.630954742 17276924.60794735 0 0 0 0 -281253093.39796448 -98785002.892415047 0 -98785002.892415047 -83975499.663486481 0 0 0 0 -7735070.6735626161 477591.33193477988 0 477591.33193477988 9759889.8865069188 0 0 0 0 -263053376.68215942 -149904068.05664158 0 -149904068.05664158 4168736.8103303909 0 0 0 0 -126492876.8427124 -119196674.83547401 0 -119196674.83547401 -89604717.087137699 0 0 0 0 -266491465.74032211 -122669157.5473758 0 -122669157.5473758 -23729252.855424881 0 0 0 0 -156267139.99900818 -104907183.69621086 0 -104907183.69621086 -12141796.141849518 0 0 0 0 -255484138.49787903 -116137484.1754632 0 -116137484.1754632 -21225500.16617012 0 0 0 0 -296118443.50457764 -85744927.215351105 0 -85744927.215351105 -23486385.312532902 0 0 0 0 -313583428.60629272 -156557205.22306538 0 -156557205.22306538 -46803759.034256458 0 0 0 0 -16556319.628753662 62347086.143657684 0 62347086.143657684 499714459.47107887 0 0 0 0 -9668725.632913962 3741601.2744818479 0 3741601.2744818479 2199249.3428048035 0 0 0 0 -263791839.54867554 -127802747.0988102 0 -127802747.0988102 -20296604.187591076 0 0 0 0 -269819217.1386261 -110052903.49153328 0 -110052903.49153328 -18228548.126433134 0 0 0 0 -262723199.08244324 -255538462.04130197 0 -255538462.04130197 -180685133.39223862 0 0 0 0 -243937514.35775757 -126837171.02195168 0 -126837171.02195168 -89607327.445461273 0 0 0 0 -258337905.81421137 -155534548.4268896 0 -155534548.4268896 -13663727.116630554 0 0 0 0 198163629.8792038 526864754.04656458 0 526864754.04656458 402339867.68820953 0 0 0 0 -635380864.40618896 -336152450.67379379 0 -336152450.67379379 -113851598.32780838 0 0 0 0 -5627546.8741324842 2017135.7147019506 0 2017135.7147019506 1428554.7880406622 0 0 0 0 319167263.61830902 382483011.77610683 0 382483011.77610683 156601185.53459549 0 0 0 0 88446016.311096191 403141986.77216911 0 403141986.77216911 431283593.17475128 0 0 0 0 198373638.29995728 265225332.93315315 0 265225332.93315315 30051112.701122284 0 0 0 0 -511497442.1492691 -134600746.59798861 0 -134600746.59798861 470928552.90611267 0 0 0 0 -503874663.92214966 -129538040.84346581 0 -129538040.84346581 123086540.1101265 0 0 0 0 -1147454826.779953 55752139.174872398 0 55752139.174872398 168457949.55299091 0 0 0 0 -327262561.06359863 -39020512.084877014 0 -39020512.084877014 151138013.44361544 0 0 0 0 -739623914.34368896 247637085.37782717 0 247637085.37782717 451628501.65187073 0 0 0 0 335477192.27783203 528927903.74094868 0 528927903.74094868 484005556.15869904 0 0 0 0 -2209594.1678827479 1750006.4252941832 0 1750006.4252941832 1206626.3303628601 0 0 0 0 -1157613523.3880615 -458524049.74698544 0 -458524049.74698544 -188308725.62543678 0 0 0 0 -368555242.39213562 10917482.002847672 0 10917482.002847672 -567836817.95435905 0 0 0 0 -329499993.47789001 -138070004.41469765 0 -138070004.41469765 -76527893.829356194 0 0 0 0 5105426.2615966797 186767338.87887192 0 186767338.87887192 168218399.04807031 0 0 0 0 -92336411.790718079 285540353.42348671 0 285540353.42348671 68119849.34072113 0 0 0 0 155471394.93386841 279949093.05341244 0 279949093.05341244 542284291.47324753 0 0 0 0 439458480.41192627 117727900.82214165 0 117727900.82214165 270051513.49752617 0 0 0 0 195291123.14871216 348361380.32007885 0 348361380.32007885 197749870.72070312 0 0 0 0 226905148.47705078 98458348.239484787 0 98458348.239484787 145532687.10212421 0 0 0 0 51426732.755554199 190941185.57731056 0 190941185.57731056 102173448.17636299 0 0 0 0 224961632.87907243 277211264.01450378 0 277211264.01450378 154519903.37147903 0 0 0 0 208776943.1368103 60582044.51554203 0 60582044.51554203 -116594663.90119934 0 0 0 0 169669411.36141968 163046289.81907654 0 163046289.81907654 81716091.208873749 0 0 0 0 337217344.309021 160155932.1100769 0 160155932.1100769 61423633.08436203 0 0 0 0 67631442.614868164 90946132.836269379 0 90946132.836269379 -266205246.63261795 0 0 0 0 -163880092.51177979 -175218756.51597977 0 -175218756.51597977 -168251954.62405157 0 0 0 0 -34134580.388542175 70312138.126812935 0 70312138.126812935 -18363782.498262405 0 0 0 0 -184684335.23880005 -186591831.47091293 0 -186591831.47091293 -199781801.18659973 0 0 0 0 -1696684.2057953943 -393730.62817621976 0 -393730.62817621976 109210.63969182037 0 0 0 0 -69450755.609413624 7022057.0145844668 0 7022057.0145844668 61520225.98015213 0 0 0 0 199381073.01982117 -87349950.185991287 0 -87349950.185991287 -166716465.63235807 0 0 0 0 -75023723.107116699 -11984035.373888969 0 -11984035.373888969 -11177324.642522812 0 0 0 0 27142845.50491333 -105291352.87647724 0 -105291352.87647724 14768257.41971159 0 0 0 0 -917419900.90606689 178437939.116436 0 178437939.116436 204552204.62099457 0 0 0 0 -189473721.17095947 280808375.86010742 0 280808375.86010742 216815882.7263248 0 0 0 0 -528936455.61317444 45464038.295043945 0 45464038.295043945 -101124331.86688805 0 0 0 0 -564209377.84975624 -208146792.38340628 0 -208146792.38340628 -293335675.31407928 0 0 0 0 -1519523797.3459167 -458569200.34671068 0 -458569200.34671068 55622549.823936462 0 0 0 0 -1332400137.4916534 -649986202.26671791 0 -649986202.26671791 -348743945.00485182 0 0 0 0 -1734784690.0069885 -398462828.87804794 0 -398462828.87804794 -416084611.95493984 0 0 0 0 -2000250753.9906464 -338321882.06234264 0 -338321882.06234264 412512936.11226845 0 0 0 0 -1296319464.8896179 -1113931064.9572234 0 -1113931064.9572234 -722899738.91079712 0 0 0 0 -2342829.5421064645 25093.774788636714 0 25093.774788636714 -145644.00506205857 0 0 0 0 -528300732.58930969 -429538420.33420086 0 -429538420.33420086 -407254893.74097633 0 0 0 0 -725082854.26794434 -449197158.57307816 0 -449197158.57307816 -158709181.59002876 0 0 0 0 -694066660.21786499 91230695.513195038 0 91230695.513195038 -65199775.221431732 0 0 0 0 -2551603416.4294434 -808783110.24806213 0 -808783110.24806213 -1344899550.8734436 0 0 0 0 -3770966394.0319214 -729536366.74193764 0 -729536366.74193764 544879287.8865242 0 0 0 0 -684287188.72457886 -407602594.03513718 0 -407602594.03513718 -121795832.30899048 0 0 0 0 -1725554.3912693337 589448.24732389301 0 589448.24732389301 527612.43092543446 0 0 0 0 -2522773272.9299316 -1235659883.4253063 0 -1235659883.4253063 191074776.17564487 0 0 0 0 -1277546020.4706421 632699100.10868454 0 632699100.10868454 193863623.9633255 0 0 0 0 -2628226.0723776221 155557.60048148897 0 155557.60048148897 150472.68863006658 0 0 0 0 -530142775.91215515 473608097.73277664 0 473608097.73277664 104418152.25149155 0 0 0 0 -1505204350.4772644 -28315491.831994057 0 -28315491.831994057 588630633.47115898 0 0 0 0 -2506047.2090725005 851752.58877625316 0 851752.58877625316 827989.62652467936 0 0 0 0 -1105941923.5330963 -192851653.69054246 0 -192851653.69054246 483409808.38518906 0 0 0 0 -1145324489.8382263 -311420680.24261475 0 -311420680.24261475 593366733.07826996 0 0 0 0 -710296454.94140625 -446924328.72990417 0 -446924328.72990417 -138873154.38458252 0 0 0 0 -1114498748.586853 -146990502.35024738 0 -146990502.35024738 440483309.07443047 0 0 0 0 -993746969.10119629 -19375856.122404099 0 -19375856.122404099 553360588.37417507 0 0 0 0 -962027836.49243164 -39868712.767547607 0 -39868712.767547607 496567837.09871483 0 0 0 0 -600876345.84877014 -343055731.16991234 0 -343055731.16991234 -78649592.445606232 0 0 0 0 -357986073.68185425 328555.03199863434 0 328555.03199863434 -105055076.33102036 0 0 0 0 -216712083.34979248 -122174668.30453873 0 -122174668.30453873 -36661254.56728363 0 0 0 0 -190579867.58041382 -88199670.754688263 0 -88199670.754688263 -199366785.00970459 0 0 0 0 -650175265.4317627 -226333391.11004448 0 -226333391.11004448 -315811986.33690405 0 0 0 0 -733306647.51629639 -255212766.32570219 0 -255212766.32570219 31697949.722213745 0 0 0 0 -960670426.05685425 -497310935.59520531 0 -497310935.59520531 -39288550.402469635 0 0 0 0 -698808635.48498535 -352233017.20057678 0 -352233017.20057678 -57474731.521427155 0 0 0 0 -949633480.65344238 -250806107.70534325 0 -250806107.70534325 -33686509.134637833 0 0 0 0 -777280003.52661133 -392088086.91037273 0 -392088086.91037273 -67239540.212310791 0 0 0 0 -667282395.08337402 -264840479.33930016 0 -264840479.33930016 -35877856.845504761 0 0 0 0 -640608517.41635132 -294826104.09184837 0 -294826104.09184837 -24499219.659297943 0 0 0 0 -279335763.83483887 -167037647.72296143 0 -167037647.72296143 -68520704.956710815 0 0 0 0 -314678029.7310791 14601935.292308807 0 14601935.292308807 37211660.638477325 0 0 0 0 -405234751.54003906 -96111843.572967529 0 -96111843.572967529 -7779889.48072052 0 0 0 0 -548727775.49884033 -173565738.04690933 0 -173565738.04690933 49854827.758628845 0 0 0 0 -518131240.21585083 -216220127.45102119 0 -216220127.45102119 -39673859.343894958 0 0 0 0 -560173957.16543579 -152317802.4267416 0 -152317802.4267416 -59956204.37902832 0 0 0 0 132272079.76473093 -52569061.834357306 0 -52569061.834357306 -16379197.909507751 0 0 0 0 -531382614.08422852 -115994329.8847084 0 -115994329.8847084 -25925739.61227417 0 0 0 0 316016.80272619787 134020.58344811946 0 134020.58344811946 53055.938982283697 0 0 0 0 -493272035.90222168 -207163917.92546463 0 -207163917.92546463 -15088443.871810913 0 0 0 0 7492568.6011104733 -1164062.6383631974 0 -1164062.6383631974 -680766.00545484386 0 0 0 0 -478223731.22363281 -163777337.00230408 0 -163777337.00230408 267184563.02139282 0 0 0 0 167537.95669205487 2320.5124330073595 0 2320.5124330073595 -106754.57143494114 0 0 0 0 -4767487.8985925326 1095200.0779687315 0 1095200.0779687315 17248.35774420388 0 0 0 0 -2560682.4710578918 -480450.5021071136 0 -480450.5021071136 558424.64943695068 0 0 0 0 -428733625.43499756 -222308125.33883572 0 -222308125.33883572 -134786313.43088531 0 0 0 0 -57834905.141601562 -110588184.28081036 0 -110588184.28081036 -163591442.31796265 0 0 0 0 -17168544.143205971 -4325603.0959173031 0 -4325603.0959173031 1124870.3556468859 0 0 0 0 -258407229.21646118 -262114582.66483688 0 -262114582.66483688 -143188599.92589951 0 0 0 0 -470823256.1784668 -177406132.45742226 0 -177406132.45742226 -46540835.204040527 0 0 0 0 -582943884.59790039 -317562826.36815643 0 -317562826.36815643 -85566941.493597507 0 0 0 0 -460200238.37372589 -217715250.26698828 0 -217715250.26698828 -89332547.227546692 0 0 0 0 -589987017.32913208 -301157899.56992531 0 -301157899.56992531 -123631082.68307114 0 0 0 0 -445806558.17153931 -202694243.97847748 0 -202694243.97847748 -154835133.63417482 0 0 0 0 -437337329.64196777 -303466549.59430981 0 -303466549.59430981 -250322180.65091515 0 0 0 0 -679897299.56672668 -412587441.8988018 0 -412587441.8988018 -161986736.7006073 0 0 0 0 -50461995.830430746 -7974838.0415859967 0 -7974838.0415859967 886242.54406356812 0 0 0 0 -6181974.1715104012 -710498.0451945886 0 -710498.0451945886 384132.5147459954 0 0 0 0 -7597497.9766551703 -343694.64037879929 0 -343694.64037879929 446897.96301173978 0 0 0 0 5978961.3884906769 -49491410.74811089 0 -49491410.74811089 87402888.748397827 0 0 0 0 -13010241.038440287 -20432297.006480493 0 -20432297.006480493 2150845.8654319905 0 0 0 0 -30974952.528503418 -2000145.0837078094 0 -2000145.0837078094 -2034981.8814280629 0 0 0 0 -40626698.533081055 -9479269.8773918152 0 -9479269.8773918152 -1753124.1127480865 0 0 0 0 -61425419.919723511 -46360699.490125656 0 -46360699.490125656 140589.12540245056 0 0 0 0 -34422244.834724426 9045541.5571908951 0 9045541.5571908951 -31154430.047269821 0 0 0 0 -5872469.6195678711 -24229646.374847889 0 -24229646.374847889 -45762834.865039825 0 0 0 0 -240567146.38690186 -98184136.367183685 0 -98184136.367183685 67671168.305114746 0 0 0 0 -22383726.848449707 62006416.832438469 0 62006416.832438469 45900754.198009491 0 0 0 0 119832087.07720947 17272415.257591248 0 17272415.257591248 -32333166.378110886 0 0 0 0 17782775.404514313 -218919951.38878703 0 -218919951.38878703 65666115.319284439 0 0 0 0 -2513808.3782081604 -10231432.304817438 0 -10231432.304817438 -5267963.9227104187 0 0 0 0 -28329566.674072266 -5093510.6108779907 0 -5093510.6108779907 -2591456.1010284424 0 0 0 0 -27442058.962890625 -12170046.519752502 0 -12170046.519752502 -2307752.0992202759 0 0 0 0 -38123336.78894043 1046560.6156387329 0 1046560.6156387329 204024.67041778564 0 0 0 0 -25901714.201782227 -4696108.777299881 0 -4696108.777299881 -5787791.0422668457 0 0 0 0 -1854349.3101930246 152442.46747015417 0 152442.46747015417 715823.72031620145 0 0 0 0 -90459738.365753174 -30337745.717993736 0 -30337745.717993736 -990473.04204773903 0 0 0 0 -2728979.8381458595 -10173939.127168581 0 -10173939.127168581 -842776.57787832711 0 0 0 0 -7315825.8049481511 -11416973.63398972 0 -11416973.63398972 -1036088.5506324163 0 0 0 0 -8626617.4212341309 -3477013.4809789658 0 -3477013.4809789658 3001892.4976215363 0 0 0 0 5635968.1027421951 -9972979.507308796 0 -9972979.507308796 -2933400.0965039656 0 0 0 0 17763578.953521729 -41461963.38800621 0 -41461963.38800621 38271664.203788757 0 0 0 0 6593235.4390029907 5010727.9552240372 0 5010727.9552240372 69869283.412864685 0 0 0 0 -17538331.08026123 -63734905.233623505 0 -63734905.233623505 30330579.702331543 0 0 0 0 30403366.245391846 26473771.685976028 0 26473771.685976028 -56370374.738857269 0 0 0 0 -86296864.919006348 -132500061.20018005 0 -132500061.20018005 -41267437.83543396 0 0 0 0 -5896285.8719863892 -9688966.9886209965 0 -9688966.9886209965 -4066832.7158050537 0 0 0 0 -29504178.835510254 12742239.961311817 0 12742239.961311817 -74932520.007873535 0 0 0 0 -31957651.11114502 -11456098.663028717 0 -11456098.663028717 -2579783.8673114777 0 0 0 0 1830379.9447021484 -37255840.460214615 0 -37255840.460214615 48338159.604709625 0 0 0 0 3981417.8352645785 -12690447.76648061 0 -12690447.76648061 -6362009.439336149 0 0 0 0 -6124134.210592784 -5152339.4930543024 0 -5152339.4930543024 2954346.2794728065 0 0 0 0 328816613.30143738 -21833328.110279083 0 -21833328.110279083 -13226082.315499783 0 0 0 0 475260905.12039185 -335723140.11396027 0 -335723140.11396027 156204361.90726089 0 0 0 0 609660356.0608902 -379677549.18935585 0 -379677549.18935585 40582991.167345047 0 0 0 0 155113961.02235413 653422159.42339516 0 653422159.42339516 -295985605.32620811 0 0 0 0 -599073107.3343811 421997175.83754921 0 421997175.83754921 -45169870.280863762 0 0 0 0 946932502.33770752 -98029102.661601067 0 -98029102.661601067 -661879715.7740345 0 0 0 0 -78208847.19921875 76879242.495592117 0 76879242.495592117 -9843107.9232025146 0 0 0 0 -262539325.93066406 2591673.6695194244 0 2591673.6695194244 -89888626.643918991 0 0 0 0 -27237348.182250977 18107877.014972687 0 18107877.014972687 -136146940.69072533 0 0 0 0 -175120887.98987579 23216701.231165886 0 23216701.231165886 -71330919.065727234 0 0 0 0 2424941.0321655273 58273466.239665985 0 58273466.239665985 -90469285.123001099 0 0 0 0 -51320576.249145508 26530561.705028534 0 26530561.705028534 -63874719.601238251 0 0 0 0 -2140437954.3426514 -1153049418.1363888 0 -1153049418.1363888 65302866.15013504 0 0 0 0 -987364721.54465866 -618861467.04020357 0 -618861467.04020357 29319787.130102158 0 0 0 0 -1748035284.3847198 -650811000.67218781 0 -650811000.67218781 117567272.4708395 0 0 0 0 -1696713848.2633667 -110151030.18161774 0 -110151030.18161774 392011978.58150244 0 0 0 0 -1024442521.0921783 1008205457.1751368 0 1008205457.1751368 -518675238.80879974 0 0 0 0 -2883852639.111908 -85177282.225419044 0 -85177282.225419044 417598553.6209259 0 0 0 0 -6376264092.7962952 963753819.36120033 0 963753819.36120033 1315351257.4300518 0 0 0 0 -1680395808.8713989 -1280245788.4206591 0 -1280245788.4206591 -1847736166.6428289 0 0 0 0 -999877826.09417725 42849079.963247299 0 42849079.963247299 640974979.15094948 0 0 0 0 595544417.80764771 -636833159.50674152 0 -636833159.50674152 -1114898690.3645763 0 0 0 0 -3229293.2120640799 -3467607.5306717455 0 -3467607.5306717455 -2842383.2177948118 0 0 0 0 1222471210.2412796 -342842137.49551356 0 -342842137.49551356 78880962.056206703 0 0 0 0 -649251334.54856873 -1006818572.284075 0 -1006818572.284075 -23799800.020843625 0 0 0 0 -486418068.25222778 212699829.66587591 0 212699829.66587591 1237045926.5072038 0 0 0 0 -2184596657.8954315 -525871486.87755585 0 -525871486.87755585 -471459832.85548925 0 0 0 0 -964289193.44171143 -477486768.35556626 0 -477486768.35556626 1431965912.6698439 0 0 0 0 -3176581.066870762 -3111813.8848291934 0 -3111813.8848291934 2257190.2812891388 0 0 0 0 148043131.19285583 -318470506.18386459 0 -318470506.18386459 -783808383.57511902 0 0 0 0 -2871524922.5494843 -399257127.82367229 0 -399257127.82367229 2000472956.2205486 0 0 0 0 -2395002746.9704895 1280969190.1086731 0 1280969190.1086731 -800448670.75347137 0 0 0 0 -1176575485.3902588 -416877858.56475258 0 -416877858.56475258 143794829.71268845 0 0 0 0 -1423459900.7732239 397136203.58044243 0 397136203.58044243 261784783.34872437 0 0 0 0 -10864348.371714756 -7931412.8927829564 0 -7931412.8927829564 7963106.7050130107 0 0 0 0 -140824680.42984009 -27381076.861291885 0 -27381076.861291885 -263947523.31143188 0 0 0 0 -2095022031.4004059 172635405.11691856 0 172635405.11691856 252152579.51786804 0 0 0 0 -3358173977.901207 712972713.54658413 0 712972713.54658413 289343379.0780983 0 0 0 0 -8917659.3741893731 -10677141.820124127 0 -10677141.820124127 -8565612.6670446582 0 0 0 0 493410885.04382324 -1249437830.2521689 0 -1249437830.2521689 -2284309387.5206013 0 0 0 0 -1818434342.278717 482979222.73671722 0 482979222.73671722 -306696262.23546219 0 0 0 0 -1685823006.4993286 102450382.89963531 0 102450382.89963531 -67334924.078784943 0 0 0 0 -1800196229.7258453 138965654.23467255 0 138965654.23467255 255345470.92957306 0 0 0 0 -1914067380.8751221 168627087.32868195 0 168627087.32868195 251578326.16534138 0 0 0 0 -1871904378.3174019 -17393360.084244728 0 -17393360.084244728 493574301.10155487 0 0 0 0 -1417187360.3106232 277187982.55447006 0 277187982.55447006 -17592932.137176514 0 0 0 0 -2223989660.5116425 313251153.26284885 0 313251153.26284885 495526833.84519958 0 0 0 0 -1847721746.6261368 737013494.82028198 0 737013494.82028198 -467480310.92508698 0 0 0 0 -10825716.780253582 -15172392.582404166 0 -15172392.582404166 3247744.1897083782 0 0 0 0 9478084.6287231445 39990631.000005722 0 39990631.000005722 203822962.81090546 0 0 0 0 -1373851080.329958 106693040.37883425 0 106693040.37883425 65851259.471595764 0 0 0 0 -1150581066.4668274 230478316.12138557 0 230478316.12138557 81262634.100265503 0 0 0 0 -1551090024.8447876 -103336393.998806 0 -103336393.998806 160790590.0858326 0 0 0 0 -16280098.90659757 -22124774.053157404 0 -22124774.053157404 8185119.1082186718 0 0 0 0 -31914367.037643433 -2096081.1773099899 0 -2096081.1773099899 2578753.7871704102 0 0 0 0 -30210393.202087402 8775294.9073123932 0 8775294.9073123932 6386067.4541883469 0 0 0 0 -37640026.027389526 -10151494.467272758 0 -10151494.467272758 -10078563.313627243 0 0 0 0 -27924789.897949219 3335575.893529892 0 3335575.893529892 -8380859.6308854818 0 0 0 0 2020877.6177368164 -124565009.57882977 0 -124565009.57882977 208835268.59412766 0 0 0 0 -83370869.430603027 1416521.0129585266 0 1416521.0129585266 36865067.88586998 0 0 0 0 -12294269.327566985 -14166795.069661416 0 -14166795.069661416 25190690.165230855 0 0 0 0 -851532767.05435181 571893491.56719398 0 571893491.56719398 -467913342.54901123 0 0 0 0 -493965928.25360107 -131216045.67967796 0 -131216045.67967796 427476047.91793633 0 0 0 0 14490884.966705322 159679245.97330093 0 159679245.97330093 250013144.26965523 0 0 0 0 79237312.196014404 54107765.794429779 0 54107765.794429779 -48794727.799381256 0 0 0 0 129167886.86010742 433708082.83393478 0 433708082.83393478 281464207.3396616 0 0 0 0 -380644560.63233566 313501138.6723299 0 313501138.6723299 260234538.51856613 0 0 0 0 385575714.80929565 472136812.55461884 0 472136812.55461884 225157291.08753014 0 0 0 0 -1823325.8057202101 559172.99003893882 0 559172.99003893882 548051.66342593916 0 0 0 0 -109705470.0201416 -913621090.2130394 0 -913621090.2130394 -626231508.82102203 0 0 0 0 -326958841.91162109 -609338556.08854294 0 -609338556.08854294 -262850694.93984795 0 0 0 0 -203255596.8981781 -123247400.95862055 0 -123247400.95862055 -328554714.80731964 0 0 0 0 -703912388.18069458 -681279292.41310501 0 -681279292.41310501 -70254245.604751587 0 0 0 0 -8336966.7397331996 -10499887.032352835 0 -10499887.032352835 26752850.948167115 0 0 0 0 -527456719.68740845 -231566777.27620697 0 -231566777.27620697 147116605.77180171 0 0 0 0 200201939.07844162 73723142.476475716 0 73723142.476475716 -389012405.33425903 0 0 0 0 -255758253.09005737 83906271.221321106 0 83906271.221321106 -9846067.7077887058 0 0 0 0 -287889156.10488129 -34772107.785326958 0 -34772107.785326958 -34255159.079574585 0 0 0 0 -2956095285.1691589 -570093913.75571823 0 -570093913.75571823 17523275.785495758 0 0 0 0 -4453937596.144043 135227531.08576584 0 135227531.08576584 1212766495.2322083 0 0 0 0 -3352576778.2808685 -542697987.4028244 0 -542697987.4028244 1479547846.6038361 0 0 0 0 -293144486.87130737 -676341603.24127197 0 -676341603.24127197 -270537011.16714478 0 0 0 0 -3515111126.9369354 1759625810.9714088 0 1759625810.9714088 31240874.835508347 0 0 0 0 72563639.060791016 -468577633.79304886 0 -468577633.79304886 -173487426.834198 0 0 0 0 -4615911.1453895569 -4895067.4746430889 0 -4895067.4746430889 1445178.1851435564 0 0 0 0 -44263645.028930664 78214579.243743896 0 78214579.243743896 177023338.97104645 0 0 0 0 -504473519.44976807 -137568189.32925797 0 -137568189.32925797 103219059.41856384 0 0 0 0 -51474228.097122192 -11504204.040891171 0 -11504204.040891171 -18872954.598370075 0 0 0 0 -3178577263.3398314 -937690625.2445507 0 -937690625.2445507 474156308.43573761 0 0 0 0 -11588934.103793852 -2714267.0819740221 0 -2714267.0819740221 -25604936.828708876 0 0 0 0 1951961071.6416473 697848.14129638672 0 697848.14129638672 -1177411045.0262756 0 0 0 0 -651304087.99691772 1287396054.4713745 0 1287396054.4713745 -1045406330.536068 0 0 0 0 -2600835203.4909668 -2322293412.4631958 0 -2322293412.4631958 1857429850.1012764 0 0 0 0 -8782377.8690163866 -5812006.0288942382 0 -5812006.0288942382 -11271211.168276167 0 0 0 0 -21327150.986328125 -1541260.744178772 0 -1541260.744178772 -7976761.7279082537 0 0 0 0 -34413504.972412109 -1076465.5819466114 0 -1076465.5819466114 -13255977.163797379 0 0 0 0 -35820885.659072876 -2246273.1927428246 0 -2246273.1927428246 -3775477.7377747893 0 0 0 0 -9852841.5296173096 5062311.9697284698 0 5062311.9697284698 -18154382.256950378 0 0 0 0 -8514264.9553637505 22704756.172567457 0 22704756.172567457 -24500815.289984703 0 0 0 0 -9114370.9181596488 6626933.5101725496 0 6626933.5101725496 -6830157.3422994213 0 0 0 0 26945815.949836731 17776692.09194231 0 17776692.09194231 -39698625.131494045 0 0 0 0 -21213769.72587204 27075087.578798056 0 27075087.578798056 -25989760.681200027 0 0 0 0 -47558533.300003052 15182313.39801693 0 15182313.39801693 -15700742.793878555 0 0 0 0 -32450915.303634644 8320179.2230620384 0 8320179.2230620384 -18066306.871928245 0 0 0 0 -64009781.435432434 2592188.0323084593 0 2592188.0323084593 -27453173.390323162 0 0 0 0 -71708343.507766724 5262994.8395299911 0 5262994.8395299911 -19491454.224779606 0 0 0 0 -46353462.11214447 61904339.315411389 0 61904339.315411389 -55827368.926054478 0 0 0 0 -10620231.630599976 57392576.322684586 0 57392576.322684586 -59117227.362048626 0 0 0 0 -162542233.7252655 -15699017.757680237 0 -15699017.757680237 -30848661.507456303 0 0 0 0 -95074832.814987183 109584892.71434981 0 109584892.71434981 -62565689.233752131 0 0 0 0 -25289935.644226074 127737577.41069609 0 127737577.41069609 116221385.57111335 0 0 0 0 -133551304.18875122 106264084.61970615 0 106264084.61970615 342700313.34180212 0 0 0 0 -44280417.232841492 -39116540.335813046 0 -39116540.335813046 -18110429.74550724 0 0 0 0 -73913264.218154907 -5979904.2233636379 0 -5979904.2233636379 -17582545.049620628 0 0 0 0 -7489934.8377260305 -7658031.6909083761 0 -7658031.6909083761 -7032315.7388603194 0 0 0 0 -12240556.029753864 -14808767.156574182 0 -14808767.156574182 -22700946.569117934 0 0 0 0 152288902.85440063 -730795422.49358368 0 -730795422.49358368 -275735145.82033539 0 0 0 0 -1579742564.304039 -88163836.387593269 0 -88163836.387593269 215725244.9879837 0 0 0 0 -12329399.007456042 -15443984.795061573 0 -15443984.795061573 -14835329.861797825 0 0 0 0 92781699.196212769 -138300383.52460957 0 -138300383.52460957 36184128.381895781 0 0 0 0 106478536.33309937 -210657153.01613927 0 -210657153.01613927 414339655.61976337 0 0 0 0 -146306349.78923035 130666073.38478792 0 130666073.38478792 1041126424.4669944 0 0 0 0 63559367.088470459 1199867241.5575633 0 1199867241.5575633 290724907.1016525 0 0 0 0 343607286.98748779 450469661.83913529 0 450469661.83913529 -755140458.33996129 0 0 0 0 -162188996.3990097 256423170.40688717 0 256423170.40688717 108295874.6447134 0 0 0 0 -34375802.795379639 82011958.650853544 0 82011958.650853544 -33463876.468415499 0 0 0 0 -1781690.0437171459 -2336157.8330547586 0 -2336157.8330547586 -2218099.4752746737 0 0 0 0 92771321.660491943 200211631.87511802 0 200211631.87511802 -129110110.53658147 0 0 0 0 -29317928.296142578 238916733.39262617 0 238916733.39262617 -125662818.58927035 0 0 0 0 191376389.35842896 77872058.607691288 0 77872058.607691288 -163411577.74247789 0 0 0 0 -236179258.84564209 -216785369.12060833 0 -216785369.12060833 -51730504.490579128 0 0 0 0 -499100695.41844177 -284699132.871562 0 -284699132.871562 512313447.01784754 0 0 0 0 28863945.770301819 157539427.53772581 0 157539427.53772581 143646768.87835217 0 0 0 0 -4523897.0146464705 1005131.9599108053 0 1005131.9599108053 -279425.78323980427 0 0 0 0 -358417908.22668457 -593611269.17191601 0 -593611269.17191601 -235206229.85835791 0 0 0 0 -957658053.15515137 -728338824.03643465 0 -728338824.03643465 899743794.49834633 0 0 0 0 -669400165.39511108 -663507811.86368561 0 -663507811.86368561 15936691.532223701 0 0 0 0 -495304844.2878418 -93169030.188865185 0 -93169030.188865185 420339368.29145908 0 0 0 0 -579444840.05279541 25356005.024805069 0 25356005.024805069 619348927.27514553 0 0 0 0 -580640608.7740221 -9328532.1754610613 0 -9328532.1754610613 307802895.59450626 0 0 0 0 -38658550.644035339 9402459.7905364037 0 9402459.7905364037 58709932.138233185 0 0 0 0 -398538683.85889435 140740522.48210639 0 140740522.48210639 70814801.351703644 0 0 0 0 -410324128.38214111 -27831634.385788918 0 -27831634.385788918 159655108.51406956 0 0 0 0 -388024832.01861572 208073098.10368061 0 208073098.10368061 -209007283.22116661 0 0 0 0 -252690061.95788574 46468585.971529007 0 46468585.971529007 -31010275.352381229 0 0 0 0 -638273177.59727478 -93342579.573158741 0 -93342579.573158741 -50941853.295137405 0 0 0 0 -746070573.22901917 89305512.750023842 0 89305512.750023842 118980975.74528313 0 0 0 0 -1058865633.2115555 -400609797.87839341 0 -400609797.87839341 -76568090.438768387 0 0 0 0 89520561.678939819 27481474.458640099 0 27481474.458640099 -130873902.61599255 0 0 0 0 -9030076.7404060364 165124638.50022677 0 165124638.50022677 -28577524.886831284 0 0 0 0 -212319573.80895996 191141355.70447826 0 191141355.70447826 -106922310.6414566 0 0 0 0 -17552208.54246521 50480680.955327034 0 50480680.955327034 -7990205.5211954117 0 0 0 0 -65569014.618591309 31718503.57554698 0 31718503.57554698 280615257.8089056 0 0 0 0 -129631556.10301208 183676331.74754262 0 183676331.74754262 80919170.181073189 0 0 0 0 -222726838.15087891 21769761.537315845 0 21769761.537315845 133167053.77389717 0 0 0 0 108402984.99965668 76323850.965117693 0 76323850.965117693 28985733.555549622 0 0 0 0 150476964.74091339 -133149016.71383637 0 -133149016.71383637 64588849.113088131 0 0 0 0 -12633292.455769911 2714679.0751026431 0 2714679.0751026431 -503094.08981294872 0 0 0 0 -165287533.08204651 194934506.40694797 0 194934506.40694797 372721569.56847286 0 0 0 0 -61288998.975463867 212715517.4307791 0 212715517.4307791 34752374.752999306 0 0 0 0 -441758912.16604614 40141099.109564185 0 40141099.109564185 379818313.00099957 0 0 0 0 -335350206.87010193 9369918.4738995433 0 9369918.4738995433 25715040.157992184 0 0 0 0 -236114785.82699585 169233290.98949999 0 169233290.98949999 26493321.826389432 0 0 0 0 -88952378.526473999 109670038.41309351 0 109670038.41309351 -62760319.091780424 0 0 0 0 -224354086.63828278 -1794267.1677876115 0 -1794267.1677876115 31572809.348684549 0 0 0 0 303289618.37249756 526174610.83494854 0 526174610.83494854 258452910.52295041 0 0 0 0 -84472.8134585917 -14828.025095218793 0 -14828.025095218793 -562247.10928908386 0 0 0 0 -30151375.311447144 -103944828.26304412 0 -103944828.26304412 -242448010.83653045 0 0 0 0 -271609949.77076721 1421561331.6258163 0 1421561331.6258163 370711328.03133643 0 0 0 0 456738804.02427673 -136770139.77731192 0 -136770139.77731192 -458097246.02073735 0 0 0 0 -53043211.554382324 38828227.39257431 0 38828227.39257431 75199651.174951434 0 0 0 0 -1441173.1887364089 -1812047.1292708889 0 -1812047.1292708889 -122879.87321065314 0 0 0 0 36929690.057670593 -180692564.62657842 0 -180692564.62657842 -93936651.036008596 0 0 0 0 56260693.931182861 57903632.240993977 0 57903632.240993977 41260988.93299675 0 0 0 0 -136493846.01748657 7467430.448210001 0 7467430.448210001 236838882.4822185 0 0 0 0 -99486573.050460815 2269092.9739027619 0 2269092.9739027619 154377737.31246662 0 0 0 0 57411377.196166992 -38867733.766376972 0 -38867733.766376972 164405228.99431276 0 0 0 0 -19644951.419765934 2765121.0943622701 0 2765121.0943622701 -217145.18104717741 0 0 0 0 55577679.182556152 119697611.81019974 0 119697611.81019974 101943046.06410241 0 0 0 0 -2394129.5589033272 978592.72026204318 0 978592.72026204318 320779.30693426938 0 0 0 0 -23122935.982177734 31873245.5600214 0 31873245.5600214 41263669.497010708 0 0 0 0 -11529813.331405645 2032128.7392126806 0 2032128.7392126806 -3382724.1774527337 0 0 0 0 -23617368.798526764 30048498.731264144 0 30048498.731264144 -32240089.154959202 0 0 0 0 -16283076.006027222 -10577393.477255106 0 -10577393.477255106 -142205786.18938377 0 0 0 0 108015487.96043396 29004691.728916168 0 29004691.728916168 3573646.7286682129 0 0 0 0 87096026.899110794 52847818.509197891 0 52847818.509197891 -14438235.654278755 0 0 0 0 -4702086791.7038574 1949429181.333667 0 1949429181.333667 -109185458.78444284 0 0 0 0 -3356270401.2973022 2155648103.860764 0 2155648103.860764 -687562379.34218514 0 0 0 0 -4272765392.4747314 1621150260.9583704 0 1621150260.9583704 138031157.32071134 0 0 0 0 -3777363.2867736556 419561.02321428433 0 419561.02321428433 1752662.1886534106 0 0 0 0 -25196852.344390869 -21903201.113843679 0 -21903201.113843679 -5263866.8266620636 0 0 0 0 -3168818633.3934479 1673755725.4918847 0 1673755725.4918847 -246936251.66787189 0 0 0 0 -48346638.147735596 17921273.065530777 0 17921273.065530777 8419807.5893392563 0 0 0 0 -18633202.985520989 8032539.5767929778 0 8032539.5767929778 -1641859.5847169827 0 0 0 0 -52011402.977874756 18161234.626403332 0 18161234.626403332 38951434.809490323 0 0 0 0 20334916.633544922 3623263.1274204254 0 3623263.1274204254 -1808082.4570538998 0 0 0 0 -80200809.681762695 18887500.223451138 0 18887500.223451138 63671799.814776897 0 0 0 0 -90432144.953063965 -17680291.340628624 0 -17680291.340628624 20009502.701333523 0 0 0 0 -15619442.723510742 12657621.044109821 0 12657621.044109821 28046234.602969289 0 0 0 0 -12489517.607267216 -3105379.8631859832 0 -3105379.8631859832 555529.88657936268 0 0 0 0 -1837449034.0690002 1402136918.9008226 0 1402136918.9008226 -2176819381.8095779 0 0 0 0 9295795.5219268799 -21746078.516748667 0 -21746078.516748667 -14874235.484602451 0 0 0 0 -5978209185.5945511 3621481874.0852852 0 3621481874.0852852 -794111047.59040773 0 0 0 0 -2897027909.0985718 2968967666.9498734 0 2968967666.9498734 -1341338678.1472697 0 0 0 0 -4328093826.5752869 2820914378.954977 0 2820914378.954977 -1134896070.1692982 0 0 0 0 -8250411.5754166842 870019.92796979472 0 870019.92796979472 3889546.8953769947 0 0 0 0 -1527391177.0117645 3330867877.2431149 0 3330867877.2431149 -4735263615.7877579 0 0 0 0 -7920580.5204821229 -4777178.3432160672 0 -4777178.3432160672 2819323.2955404213 0 0 0 0 -5966960319.7030029 -1610693.9096259249 0 -1610693.9096259249 5291428.6953692799 0 0 0 0 -9746890.5279998779 -47166597.452736437 0 -47166597.452736437 -1418104699.6168547 0 0 0 0 -4792683.1269161999 -1088755.0899039358 0 -1088755.0899039358 -121726.84731170721 0 0 0 0 -2580510843.3177338 -3223865122.4733496 0 -3223865122.4733496 -1243247580.1435471 0 0 0 0 -2474479.8698935509 -7730755.8089788407 0 -7730755.8089788407 2944493.331283194 0 0 0 0 -34913207.54107666 -48429599.510055542 0 -48429599.510055542 -18387095.927846968 0 0 0 0 -114449970.04125977 -6267541.7154569626 0 -6267541.7154569626 57781617.380211711 0 0 0 0 -104410035.78479004 -32513592.435464382 0 -32513592.435464382 32683147.681787968 0 0 0 0 -5977009075.0847778 -2567021002.7748513 0 -2567021002.7748513 -278460239.37660909 0 0 0 0 -5309924220.9620972 -1686347406.4503839 0 -1686347406.4503839 -30172551.14365495 0 0 0 0 -3278229.2257671133 1475571.5548771471 0 1475571.5548771471 -1308659.5821977109 0 0 0 0 -281897937.10357666 -341811013.61988831 0 -341811013.61988831 -209642308.46033144 0 0 0 0 5466767.4022750854 102393087.72753188 0 102393087.72753188 29263603.841719389 0 0 0 0 251396884.69718933 62761092.168416023 0 62761092.168416023 -168050244.29158783 0 0 0 0 -7363395.3877808303 4581059.6297929585 0 4581059.6297929585 -4340320.0472571133 0 0 0 0 -3124384.1066894531 -51314296.692399502 0 -51314296.692399502 -157863075.46109015 0 0 0 0 -3567077004.6504097 -520017359.22038966 0 -520017359.22038966 156233691.53316492 0 0 0 0 -421264610.79997849 465653736.95409232 0 465653736.95409232 -416280944.61623728 0 0 0 0 -430528664.26231384 -10771319.461542234 0 -10771319.461542234 -23514407.222118728 0 0 0 0 -2975469844.3475952 -765439981.04424214 0 -765439981.04424214 182088919.66523284 0 0 0 0 -3425608326.4384995 -214546151.8115989 0 -214546151.8115989 -94893293.666088849 0 0 0 0 -3717950240.3994007 -873880725.87195277 0 -873880725.87195277 226642218.87307978 0 0 0 0 -5276464847.3398876 -1133861823.3682086 0 -1133861823.3682086 221070537.49587029 0 0 0 0 -4635146348.5950851 -1095714353.2474473 0 -1095714353.2474473 175400052.33089229 0 0 0 0 -158245933.66963959 1163999124.612587 0 1163999124.612587 -1633213519.7645798 0 0 0 0 -2827927.4807452885 -1587003.980732074 0 -1587003.980732074 1146160.9584186219 0 0 0 0 -3892017060.3540192 2051753185.1595886 0 2051753185.1595886 -349789088.68661642 0 0 0 0 -3607037252.7211151 3234914893.6905823 0 3234914893.6905823 -1817242793.5605993 0 0 0 0 -524733112.15415955 693970304.33414936 0 693970304.33414936 -1302588973.0347509 0 0 0 0 -2517765788.3850098 824382008.66101956 0 824382008.66101956 240096170.85039186 0 0 0 0 -817989013.78856659 1195467371.579165 0 1195467371.579165 -337959601.68172836 0 0 0 0 -567941074.19818115 1065811295.0676136 0 1065811295.0676136 -1959031774.8554561 0 0 0 0 -1645436369.9181595 2221424125.4381237 0 2221424125.4381237 -2229382875.866189 0 0 0 0 -1488558657.3830032 2135049137.1446948 0 2135049137.1446948 -2562299374.346838 0 0 0 0 -1295175900.1648483 2371747079.25284 0 2371747079.25284 -2723715434.9943962 0 0 0 0 -3865614251.4603577 4419552993.5838537 0 4419552993.5838537 -4019912281.8857403 0 0 0 0 -5073394155.2552032 3674706739.0786839 0 3674706739.0786839 -1777695004.5814748 0 0 0 0 -6009135423.018158 4996474236.458005 0 4996474236.458005 -2195646052.9141765 0 0 0 0 -5988102838.7012177 3213082908.3642845 0 3213082908.3642845 -1702047605.6584132 0 0 0 0 -7966516682.2933655 1367088557.4401116 0 1367088557.4401116 -3417626979.5847988 0 0 0 0 -5706242174.1030045 3041242711.847641 0 3041242711.847641 -2010530590.9017739 0 0 0 0 -5332707534.611866 3855330471.8327904 0 3855330471.8327904 -1098622029.1823769 0 0 0 0 -4856392608.6090088 3253094723.2576609 0 3253094723.2576609 -2533923487.4505148 0 0 0 0 -6435780688.0145035 2984332820.0408492 0 2984332820.0408492 -1334000987.3600416 0 0 0 0 -4260372307.6149673 3623580627.0633326 0 3623580627.0633326 -2534507137.3323746 0 0 0 0 -5288857206.8608398 3044801597.3283377 0 3044801597.3283377 12296635.233614147 0 0 0 0 -2902344153.5933304 788930468.0335331 0 788930468.0335331 -129124766.65262222 0 0 0 0 629692870.79111862 -773577643.91042233 0 -773577643.91042233 -2798071985.5150928 0 0 0 0 -2447175.7059470592 152733.01471363381 0 152733.01471363381 -7716620.6434696335 0 0 0 0 88528314.818157196 -1333141156.3567238 0 -1333141156.3567238 -1083083934.4140396 0 0 0 0 268891220.79759979 -316364045.27246857 0 -316364045.27246857 -601010542.41281319 0 0 0 0 -44526716.212936401 -189687356.68995285 0 -189687356.68995285 716436860.40795135 0 0 0 0 -1928823.4360160828 -951512356.21924973 0 -951512356.21924973 -248829602.08990479 0 0 0 0 782642141.74667931 -1037076973.2199221 0 -1037076973.2199221 -2956080340.4610348 0 0 0 0 386161937.76134491 -626091218.59487152 0 -626091218.59487152 -1306233394.2416229 0 0 0 0 120471182.7028656 -516466315.58871078 0 -516466315.58871078 -587553077.1598587 0 0 0 0 639126845.52205276 -499485032.65146065 0 -499485032.65146065 -2031183404.4368744 0 0 0 0 628691765.40000534 -386446710.55385399 0 -386446710.55385399 -1567532045.0999441 0 0 0 0 395768737.99604034 97002934.698833466 0 97002934.698833466 -590051218.28766632 0 0 0 0 618124790.3459549 115681211.71747208 0 115681211.71747208 -379364736.89193726 0 0 0 0 412662306.20746613 -56236852.292907715 0 -56236852.292907715 -1047173626.0195084 0 0 0 0 283614354.52319145 156148199.63963604 0 156148199.63963604 -268311002.19846344 0 0 0 0 342830417.31873322 399778450.75395203 0 399778450.75395203 -33580891.125728607 0 0 0 0 193901421.1623764 472347310.33443451 0 472347310.33443451 -65355745.234382629 0 0 0 0 366697845.4621582 309204601.16821671 0 309204601.16821671 -640402711.08909416 0 0 0 0 21838596.897342682 33762479.648171037 0 33762479.648171037 -81698817.053463936 0 0 0 0 -155763251.28547668 -325527085.09272724 0 -325527085.09272724 -217787212.65395492 0 0 0 0 -8003424.4457557071 2002145.107457702 0 2002145.107457702 -18583934.436229322 0 0 0 0 1436490430.8118362 507484357.51646233 0 507484357.51646233 -246075384.74859619 0 0 0 0 625028403.47177124 736892989.26796722 0 736892989.26796722 282006841.0332737 0 0 0 0 315979990.05076218 366875313.62671661 0 366875313.62671661 235996250.33420181 0 0 0 0 -17249461.91843804 6045280.2394515974 0 6045280.2394515974 -24147381.610557579 0 0 0 0 -82247654.456195831 -66653219.364824891 0 -66653219.364824891 28196882.322122574 0 0 0 0 692248617.9854126 178352184.44326401 0 178352184.44326401 110000039.69906616 0 0 0 0 433295624.17528152 395237074.53823471 0 395237074.53823471 160866434.03040791 0 0 0 0 281469557.64548492 445195957.33747244 0 445195957.33747244 -59991761.354507446 0 0 0 0 602160949.72923279 370976416.53076553 0 370976416.53076553 -97663554.52166748 0 0 0 0 306885468.62198257 540806196.18952942 0 540806196.18952942 72229972.314853668 0 0 0 0 -45954297.784198336 12123067.086854992 0 12123067.086854992 -8729608.2273306232 0 0 0 0 -81323930.975509644 -46029428.058855057 0 -46029428.058855057 56044144.552387238 0 0 0 0 104325127.7584095 369423171.84024429 0 369423171.84024429 605156617.96796799 0 0 0 0 -21665240.713466644 -9243066.7375738621 0 -9243066.7375738621 -23580599.65860796 0 0 0 0 -7768311.0558189191 -1340201.1008758135 0 -1340201.1008758135 -7466241.8000896405 0 0 0 0 -16257692.967295401 -1990561.6188440807 0 -1990561.6188440807 -7872571.5632620044 0 0 0 0 17342592.331481934 134037522.91390991 0 134037522.91390991 87734112.179840088 0 0 0 0 -25290872.620998215 9384767.9321683459 0 9384767.9321683459 -13438709.504522158 0 0 0 0 -2139872.9517059326 2448633.4925022125 0 2448633.4925022125 4645662.0448913574 0 0 0 0 -23137405.36629951 3682772.9043770358 0 3682772.9043770358 -499434.35461965203 0 0 0 0 -16088895.123396225 -688753.06394970138 0 -688753.06394970138 -10254911.590261631 0 0 0 0 2517024.0975799561 5216126.2570571899 0 5216126.2570571899 -4138161.0666389465 0 0 0 0 -13487495.813137926 6180430.4381718393 0 6180430.4381718393 -16946881.167763524 0 0 0 0 2454164.3276596069 7391851.5136854649 0 7391851.5136854649 -3242766.4725151062 0 0 0 0 -859199756.21884155 -452326304.92740917 0 -452326304.92740917 37412838.397128619 0 0 0 0 -12502047.340607114 1111073.7013715627 0 1111073.7013715627 -11990481.186688272 0 0 0 0 -170466378.30784607 -34617259.581980169 0 -34617259.581980169 77647222.209167391 0 0 0 0 108709093.50893211 -62520152.92679821 0 -62520152.92679821 -39084207.31116581 0 0 0 0 -9259969.2268855833 -4519115.8873037454 0 -4519115.8873037454 4875571.825098021 0 0 0 0 -11667409.16960175 3871507.1580427689 0 3871507.1580427689 -6553189.2111695874 0 0 0 0 227717352.31529236 -424032339.92145395 0 -424032339.92145395 659678760.69969559 0 0 0 0 -98141415.277816772 154553113.77826986 0 154553113.77826986 -24988675.743026346 0 0 0 0 -8815205.318359375 31464582.100068096 0 31464582.100068096 -610183626.33024263 0 0 0 0 354769392.82756042 -285924337.70763636 0 -285924337.70763636 -1758007576.1195545 0 0 0 0 -384970151.90357208 -979908830.38933444 0 -979908830.38933444 191228110.25965691 0 0 0 0 -5978569895.434742 1707484279.2478952 0 1707484279.2478952 428980010.09361905 0 0 0 0 -6370442175.1972885 3129949770.2763953 0 3129949770.2763953 -3892288476.8873777 0 0 0 0 -6397809124.5434341 -50048161.784069791 0 -50048161.784069791 329244239.74856603 0 0 0 0 -3992685.0377998576 2036084.6676136237 0 2036084.6676136237 -3262470.6654453888 0 0 0 0 -769007976.33068848 1888453165.3012371 0 1888453165.3012371 -3835705395.6886415 0 0 0 0 -5314013.2384590656 -428840.78847663995 0 -428840.78847663995 -10518350.280876338 0 0 0 0 -4459229136.9588089 2778590759.0856457 0 2778590759.0856457 -1071237997.5560139 0 0 0 0 -459957030.96988678 -377468869.1314162 0 -377468869.1314162 -288696026.71920455 0 0 0 0 -1920632472.8770752 -3219639210.4019194 0 -3219639210.4019194 -3444134785.2820263 0 0 0 0 -5974923106.0330963 -2579228463.4657745 0 -2579228463.4657745 281107941.21592057 0 0 0 0 -109458100.08896637 -155680499.05063623 0 -155680499.05063623 -517889873.48230529 0 0 0 0 -808572586.71443176 -336009275.69787282 0 -336009275.69787282 -450307988.99439788 0 0 0 0 -1403825981.8919525 -1201988460.3029175 0 -1201988460.3029175 -934235400.20239472 0 0 0 0 -1210426471.4076557 44541658.690593362 0 44541658.690593362 226122807.66764736 0 0 0 0 -3570147753.9918976 -1103127315.7212954 0 -1103127315.7212954 423809311.05696762 0 0 0 0 -1787973668.9470749 -790557596.47238672 0 -790557596.47238672 201098294.46666098 0 0 0 0 -2087786070.3168564 -401093440.96541458 0 -401093440.96541458 404226596.40724993 0 0 0 0 -5985446190.9143295 -1007910600.7720237 0 -1007910600.7720237 1301763844.0684597 0 0 0 0 -3557741749.4074402 -1400732770.9175987 0 -1400732770.9175987 788824662.3446281 0 0 0 0 -3749516117.4073257 165492810.93904734 0 165492810.93904734 1213860204.6574764 0 0 0 0 -2317086594.3060684 365579157.21590924 0 365579157.21590924 390466056.32721686 0 0 0 0 -3504809555.5727158 -644665616.79986 0 -644665616.79986 553701019.68428731 0 0 0 0 -3401913529.9399567 1695175610.4730053 0 1695175610.4730053 -236992210.87772256 0 0 0 0 -1596051832.2770691 -73159933.826498926 0 -73159933.826498926 -6881625.8641204834 0 0 0 0 -5983385397.1606579 665196734.44082773 0 665196734.44082773 1179147866.5936804 0 0 0 0 -3542440634.6198425 1386170147.1471782 0 1386170147.1471782 163196790.96988133 0 0 0 0 105195988.89174652 56570138.707755566 0 56570138.707755566 -107237835.08320618 0 0 0 0 107517177.69049835 -64479849.109561443 0 -64479849.109561443 -112687309.66945267 0 0 0 0 -8443041.6624911465 1249756.9669449143 0 1249756.9669449143 -8045777.03672479 0 0 0 0 123561951.25807953 -583941.23844432831 0 -583941.23844432831 -81461223.154506683 0 0 0 0 -951526151.51683807 485404268.01275909 0 485404268.01275909 -162219700.97371674 0 0 0 0 115040398.2529068 -35301812.348856926 0 -35301812.348856926 -15785140.2889328 0 0 0 0 4295026.3530731201 -76132774.732902527 0 -76132774.732902527 -30049755.862499237 0 0 0 0 22112498.106337547 -114791947.59415245 0 -114791947.59415245 22906074.410255432 0 0 0 0 -59826056.924026489 -98148384.99581337 0 -98148384.99581337 65494114.123405457 0 0 0 0 34048321.680366516 -40470834.827712059 0 -40470834.827712059 3330451.9268379211 0 0 0 0 -779100525.76534271 -196514646.4267984 0 -196514646.4267984 -286265593.14951885 0 0 0 0 -9246824.9362425357 1510114.5851077288 0 1510114.5851077288 -11062334.703875238 0 0 0 0 -93198906.76757431 9088772.1128797531 0 9088772.1128797531 -2439808.507976532 0 0 0 0 -51220306.138633728 -21133162.041793823 0 -21133162.041793823 -6430524.3277136683 0 0 0 0 -5934579.2957776822 -1067161.1496810429 0 -1067161.1496810429 -315009.87460240163 0 0 0 0 -36927823.66519165 -22214239.949202538 0 -22214239.949202538 -22194295.245059967 0 0 0 0 -60070740.391456604 -7079804.0331163406 0 -7079804.0331163406 -1270797.0258819163 0 0 0 0 -14054389.084003031 1609405.1511429623 0 1609405.1511429623 -11893731.07030626 0 0 0 0 -13848989.332606353 -8910631.5133177526 0 -8910631.5133177526 4958983.8368222956 0 0 0 0 -52640202.794247627 -10913059.738498449 0 -10913059.738498449 -10237220.352752686 0 0 0 0 -13039227.821548462 -3022196.7017383575 0 -3022196.7017383575 -14243376.474048615 0 0 0 0 -3671405.8191766515 -2626747.5513794143 0 -2626747.5513794143 1170026.0126464106 0 0 0 0 2605418.9026031494 -2825594.1261940002 0 -2825594.1261940002 977800.75247621536 0 0 0 0 217264850.01893616 -209913721.97552109 0 -209913721.97552109 -32054743.071979761 0 0 0 0 187926944.9731102 -289385594.44233823 0 -289385594.44233823 47515362.966400146 0 0 0 0 7458238.2082214355 -352141123.27339935 0 -352141123.27339935 156629328.32909107 0 0 0 0 -173892064.4625473 -179721020.36288548 0 -179721020.36288548 158509271.36252022 0 0 0 0 -35746953.77995491 -34138733.586104155 0 -34138733.586104155 193070921.67595863 0 0 0 0 33196033.315895081 -203543126.42280757 0 -203543126.42280757 182267427.7622776 0 0 0 0 229799978.84715271 -276071746.6174345 0 -276071746.6174345 -98092606.601192474 0 0 0 0 113401021.99615479 -61649602.638362885 0 -61649602.638362885 -140824947.42199445 0 0 0 0 252734081.58738899 -90159964.153144717 0 -90159964.153144717 -345106456.26670265 0 0 0 0 -9658585.8508300781 104130186.69029427 0 104130186.69029427 -301738735.5021615 0 0 0 0 8878450.6902580261 43253017.535122395 0 43253017.535122395 -333296562.59701157 0 0 0 0 -167894572.26250458 50528061.259585857 0 50528061.259585857 -187016684.31964684 0 0 0 0 23490796.780117035 94662053.262094498 0 94662053.262094498 -187507782.08905411 0 0 0 0 153046560.67024994 -49108486.346625328 0 -49108486.346625328 -241537676.87604713 0 0 0 0 -1051336583.2419739 -66875654.153831482 0 -66875654.153831482 -417806646.47346449 0 0 0 0 -694369455.01190186 198674685.84912491 0 198674685.84912491 -490016415.26485825 0 0 0 0 -1614273773.2290497 -89839540.381345749 0 -89839540.381345749 -49700453.773708463 0 0 0 0 -658005161.72341919 90291621.81445694 0 90291621.81445694 -170797347.46638012 0 0 0 0 -167753620.29842645 93968806.63793689 0 93968806.63793689 -543665491.07091141 0 0 0 0 -652618685.04840088 -260478820.15442657 0 -260478820.15442657 -383943975.31173372 0 0 0 0 -568274320.87805176 284387156.66592598 0 284387156.66592598 -469994101.89189148 0 0 0 0 -2004000668.6756287 -418729348.8652544 0 -418729348.8652544 -681911564.91720581 0 0 0 0 -1180458501.6861725 238708620.46213341 0 238708620.46213341 -1107045751.7217197 0 0 0 0 -789636225.45269775 145042309.62526035 0 145042309.62526035 -612705204.9868679 0 0 0 0 -1733487573.8364105 13487503.615154266 0 13487503.615154266 -93383117.486413956 0 0 0 0 -1149046212.9473267 -267075969.24111366 0 -267075969.24111366 -152217304.93295288 0 0 0 0 -164456854.99308777 -27976963.066325188 0 -27976963.066325188 -321026739.17930984 0 0 0 0 -16917373.855239868 -138997.25515842438 0 -138997.25515842438 350730690.13213921 0 0 0 0 -693855838.95906067 -394510333.52290535 0 -394510333.52290535 122563502.48077774 0 0 0 0 -863055132.97290611 116392866.77839875 0 116392866.77839875 319153359.96656227 0 0 0 0 -644616115.2387085 -235022827.08632469 0 -235022827.08632469 369353684.01830101 0 0 0 0 -510384053.52205157 -421058284.87038136 0 -421058284.87038136 723390095.24647141 0 0 0 0 -1313034732.7693162 -1053712196.5050697 0 -1053712196.5050697 58442503.95375824 0 0 0 0 -1207899405.9533401 -587225675.14686584 0 -587225675.14686584 741889451.37987137 0 0 0 0 -1552576266.2513416 -34652052.247367859 0 -34652052.247367859 895209203.59417868 0 0 0 0 239076415.92843366 -290755683.50145531 0 -290755683.50145531 873371797.36862564 0 0 0 0 -1109174528.0952146 181200293.36519217 0 181200293.36519217 186294402.93889618 0 0 0 0 -1284665901.7816436 -340425710.11122704 0 -340425710.11122704 2476696835.4332695 0 0 0 0 -61663499.232266866 6993768.6226501465 0 6993768.6226501465 315714.45418473909 0 0 0 0 -730662740.2694931 -73648594.358974457 0 -73648594.358974457 917315696.09835434 0 0 0 0 -55572983.378950618 9148806.2662479244 0 9148806.2662479244 -2723957.5575640146 0 0 0 0 -208280934.93399334 1008715776.4056931 0 1008715776.4056931 969187353.03921127 0 0 0 0 38062424.343811035 -191377353.63139153 0 -191377353.63139153 389989664.17823601 0 0 0 0 -487305890.42027283 275884652.85904694 0 275884652.85904694 2096982022.4021361 0 0 0 0 168720217.1235733 461839261.03719902 0 461839261.03719902 415757611.36192703 0 0 0 0 -49132038.422763824 627587659.56453323 0 627587659.56453323 413203717.01581293 0 0 0 0 130868521.21123123 875685008.50605011 0 875685008.50605011 -322731494.12878036 0 0 0 0 -509835169.29339314 490422246.57892227 0 490422246.57892227 780410748.71476364 0 0 0 0 -212634573.83800066 771562750.60291481 0 771562750.60291481 -251234433.49372864 0 0 0 0 -1087344205.9031663 761786750.81326675 0 761786750.81326675 -251221452.10664368 0 0 0 0 18967100.045270562 1069841662.4332042 0 1069841662.4332042 -1493263611.0161591 0 0 0 0 -22129400.209067225 717870244.57392192 0 717870244.57392192 -1311421482.2756348 0 0 0 0 -898296338.08298635 1149975229.7418938 0 1149975229.7418938 -1478344369.3001232 0 0 0 0 91470815.703649521 509171223.94481659 0 509171223.94481659 -458582624.31877232 0 0 0 0 246195715.8596468 592585673.19513798 0 592585673.19513798 -862624920.10748291 0 0 0 0 396884191.81250954 464942752.62815857 0 464942752.62815857 -1516184100.2584438 0 0 0 0 442664305.28890085 49831981.111570358 0 49831981.111570358 -1283499684.6780472 0 0 0 0 962900791.35883713 -387042239.2144208 0 -387042239.2144208 -2512890731.8708401 0 0 0 0 645461680.33969498 145535792.35545731 0 145535792.35545731 -1426781300.5719032 0 0 0 0 634248510.72507262 265438829.29941273 0 265438829.29941273 -2407562875.2290497 0 0 0 0 1138914640.1359463 -179016837.52275085 0 -179016837.52275085 -2350659036.5415564 0 0 0 0 481330987.18443727 359145632.82695198 0 359145632.82695198 -2655637169.8969879 0 0 0 0 189378267.91147709 1029997586.4425049 0 1029997586.4425049 -2992838502.0236816 0 0 0 0 868750505.72548294 324457690.85414886 0 324457690.85414886 -3114386036.0078163 0 0 0 0 449000850.62378716 752289939.14581943 0 752289939.14581943 -4487392024.1798935 0 0 0 0 -5702113412.3311043 -367766775.79204369 0 -367766775.79204369 -475605786.40590286 0 0 0 0 -615244507.25887299 1809891642.7896347 0 1809891642.7896347 -5538276709.451622 0 0 0 0 -3231660176.7370577 3243325710.9763107 0 3243325710.9763107 -3841188150.6332741 0 0 0 0 -2274031150.2048359 1942095180.0212212 0 1942095180.0212212 -2141508978.1361122 0 0 0 0 -1327765146.9653292 -1535748319.1587029 0 -1535748319.1587029 -1777613644.6066093 0 0 0 0 -3745632977.2373638 838272745.66556931 0 838272745.66556931 -726203890.41064453 0 0 0 0 -1592458407.5027952 -644316387.32825279 0 -644316387.32825279 -626584810.03910828 0 0 0 0 -1861398655.0626693 -615774058.76467705 0 -615774058.76467705 -29448331.677116394 0 0 0 0 -2968589302.2220116 -259737556.80124664 0 -259737556.80124664 91612984.568704605 0 0 0 0 -1595451412.8455651 1433444413.6962605 0 1433444413.6962605 -1128502070.4841576 0 0 0 0 -851202580.0925138 989379804.02625036 0 989379804.02625036 -1628401574.0283203 0 0 0 0 -318526460.53746128 -438647302.35164642 0 -438647302.35164642 -260281503.1690979 0 0 0 0 -168406974.08488655 -239976982.63759613 0 -239976982.63759613 -9063813.8574676514 0 0 0 0 -902173792.5182116 -1277282238.9080534 0 -1277282238.9080534 -986496947.81657028 0 0 0 0 -184937965.61042786 -553616156.28970337 0 -553616156.28970337 -261483124.06798792 0 0 0 0 -135650256.18731713 -60843571.188764572 0 -60843571.188764572 -123661000.92777252 0 0 0 0 -17650913.90741951 6045364.5279954672 0 6045364.5279954672 -490922.32483341172 0 0 0 0 241560827.11826515 -194159864.44568634 0 -194159864.44568634 -1048950187.3235048 0 0 0 0 26497847.18219471 -134600503.69907379 0 -134600503.69907379 -359495696.02456951 0 0 0 0 -24207487.979709364 2805896.4886966888 0 2805896.4886966888 2456566.2316079047 0 0 0 0 -81478301.116683722 -2200839.9358496666 0 -2200839.9358496666 11375383.151741028 0 0 0 0 -1359610577.3652725 -450210997.57243347 0 -450210997.57243347 1334193290.1762915 0 0 0 0 -1554068088.5423584 -1074619088.732872 0 -1074619088.732872 -781439441.83093262 0 0 0 0 -2687814064.7502747 -436357740.16029358 0 -436357740.16029358 394493000.0502243 0 0 0 0 -762285896.0880661 -475479123.09939957 0 -475479123.09939957 -332515276.79750824 0 0 0 0 -4129797.5415356457 1593695.482961975 0 1593695.482961975 805923.37221722305 0 0 0 0 -2107614777.8105011 1770532372.9580917 0 1770532372.9580917 1366330721.9267311 0 0 0 0 847280.34773495421 7150008.9174063206 0 7150008.9174063206 -2965300.8566665584 0 0 0 0 -1746034308.4606428 1794898685.2615447 0 1794898685.2615447 -318569099.97622299 0 0 0 0 490867536.00999451 124160534.88397026 0 124160534.88397026 -1701177503.037323 0 0 0 0 -32906424.237986043 13525624.850984817 0 13525624.850984817 -3617170.4951454289 0 0 0 0 -3952854537.8596001 -5183127049.5142612 0 -5183127049.5142612 -5384204781.1620789 0 0 0 0 -2451460350.0297661 -3109506297.6261597 0 -3109506297.6261597 -343556643.62923431 0 0 0 0 -72620878.00749588 -86672354.740917206 0 -86672354.740917206 -88536830.328456879 0 0 0 0 -25377548.437925339 -50597554.004611969 0 -50597554.004611969 -91672696.741516113 0 0 0 0 -119073246.86218166 -16126898.628826141 0 -16126898.628826141 22380437.300064087 0 0 0 0 -241915625.00245571 -119384423.39675522 0 -119384423.39675522 -42013105.638343811 0 0 0 0 -53910129.278873466 18514715.336614266 0 18514715.336614266 6471980.2936674505 0 0 0 0 -346046544.53408813 -73181677.796108246 0 -73181677.796108246 52516182.029600143 0 0 0 0 -343856647.66124678 -93967099.114969254 0 -93967099.114969254 20387424.430198669 0 0 0 0 1267054343.4914246 856698951.92218852 0 856698951.92218852 357311760.5676403 0 0 0 0 -2250643029.7096462 -1560267483.9932747 0 -1560267483.9932747 633274319.99663544 0 0 0 0 -5597288841.8245544 -2934863701.1480103 0 -2934863701.1480103 1995144458.6562347 0 0 0 0 -2043569472.3076477 -757856297.40994263 0 -757856297.40994263 2654021220.4186668 0 0 0 0 -909284888.38931274 2650000709.0776634 0 2650000709.0776634 2932811394.0487576 0 0 0 0 -7356418679.9830093 1086476430.854744 0 1086476430.854744 5547378047.9141312 0 0 0 0 -902256110.26635361 -877190841.3182869 0 -877190841.3182869 815813428.20294952 0 0 0 0 -1407023624.6240768 -531470258.07372665 0 -531470258.07372665 788940868.16162491 0 0 0 0 -1540162241.2595787 -350255565.33329391 0 -350255565.33329391 1267597763.9648285 0 0 0 0 -17206935.36154931 3304171.2212774521 0 3304171.2212774521 10580052.865656443 0 0 0 0 -137492723.80156326 67227723.930706978 0 67227723.930706978 455719236.25040054 0 0 0 0 850075.09498214722 -68052344.917073965 0 -68052344.917073965 61161590.089719772 0 0 0 0 -43534546.072048277 10063990.432168163 0 10063990.432168163 -1708148.9549699016 0 0 0 0 -62968502.968922898 -1573012.4379438483 0 -1573012.4379438483 9998139.2523805518 0 0 0 0 -45347791.062179565 2309212.3208904266 0 2309212.3208904266 13767348.512710094 0 0 0 0 -63084678.270333216 2156053.8293469772 0 2156053.8293469772 2863389.2349786698 0 0 0 0 -520791028.36218262 60742023.504610062 0 60742023.504610062 194899178.37080336 0 0 0 0 -505627223.575912 -63895580.406230927 0 -63895580.406230927 156758412.67415619 0 0 0 0 -83605165.847442523 6422353.0395263731 0 6422353.0395263731 1201536.2867551707 0 0 0 0 -754811310.54949069 -189155528.73900986 0 -189155528.73900986 155522961.686306 0 0 0 0 -407765639.65564632 -293338383.58942032 0 -293338383.58942032 -9758803.5851863027 0 0 0 0 -795656001.23588276 -987684131.38510132 0 -987684131.38510132 -182810255.20730209 0 0 0 0 -792277901.07764244 -528160449.53528118 0 -528160449.53528118 498269409.72942352 0 0 0 0 -63186530.322641991 5384843.0245048031 0 5384843.0245048031 1731139.9217550643 0 0 0 0 -1309144917.2344666 225484434.62669563 0 225484434.62669563 881499863.47863948 0 0 0 0 -1089555156.4980755 -684861874.93545151 0 -684861874.93545151 1104857651.1756816 0 0 0 0 -1239594484.8173218 38527812.824895859 0 38527812.824895859 532891696.68857002 0 0 0 0 -1552904423.8466492 480825460.56253624 0 480825460.56253624 299624324.53773308 0 0 0 0 -845846621.59621429 270860159.80738258 0 270860159.80738258 60856182.728965759 0 0 0 0 -1100963076.3819962 504049204.31385422 0 504049204.31385422 116205539.10767365 0 0 0 0 -633689751.14205933 478604111.75079346 0 478604111.75079346 -26222452.984836578 0 0 0 0 -96370218.048858643 249039763.9369278 0 249039763.9369278 -793090033.33145142 0 0 0 0 -1343208710.9867249 881645933.29013062 0 881645933.29013062 -248584737.17354965 0 0 0 0 -1062260.9583080932 -133191.05480208993 0 -133191.05480208993 -729966.74478607439 0 0 0 0 -109907733.4397583 -64415506.298765182 0 -64415506.298765182 21475668.960887909 0 0 0 0 -30813556.316785239 -6903982.4070864469 0 -6903982.4070864469 -4791275.7190306131 0 0 0 0 -1631828062.611908 130886232.53346443 0 130886232.53346443 -148586369.85950089 0 0 0 0 -2570059006.0152588 973415730.63404083 0 973415730.63404083 -414585809.94052124 0 0 0 0 -2359155662.0789185 995987214.47235107 0 995987214.47235107 -717376690.98055649 0 0 0 0 -1779975740.4675598 -62097856.662829399 0 -62097856.662829399 -216001023.95882416 0 0 0 0 -3223507283.7694244 455745731.32853317 0 455745731.32853317 -388224177.30679321 0 0 0 0 -67020100.544723511 -546435310.2935524 0 -546435310.2935524 -492422113.51412201 0 0 0 0 -3074644306.0835571 1093069036.3352337 0 1093069036.3352337 -392968399.87522507 0 0 0 0 1231251.3343252987 -1204586.2054193839 0 -1204586.2054193839 -3722637.3046076298 0 0 0 0 -190969435.84217834 -4274174.8931016922 0 -4274174.8931016922 -117163.62848091125 0 0 0 0 -5461992.2455598339 -12484592.042715881 0 -12484592.042715881 4097866.4074495304 0 0 0 0 71302597.228416443 261683237.97231102 0 261683237.97231102 -170940452.43902206 0 0 0 0 -949907887.28665161 -114391036.51135826 0 -114391036.51135826 472532395.21592808 0 0 0 0 -475760906.39399338 -569670302.59337616 0 -569670302.59337616 191544410.60539627 0 0 0 0 -1399956090.1082001 -432298226.65608692 0 -432298226.65608692 251487465.96957588 0 0 0 0 -2822147108.1269379 90521081.055644989 0 90521081.055644989 101003037.64946365 0 0 0 0 -1499439816.8762207 -1083496530.2190123 0 -1083496530.2190123 -134076456.45427513 0 0 0 0 -406611570.8289566 68986403.740152836 0 68986403.740152836 -26230931.124448776 0 0 0 0 65037638.411102295 -240865681.34953117 0 -240865681.34953117 -52988254.909286499 0 0 0 0 -60047877.132659912 11147527.704893112 0 11147527.704893112 -170172607.30884552 0 0 0 0 -9848910.2863019276 1090983.1874397025 0 1090983.1874397025 401051.38472726755 0 0 0 0 -11736054.035476685 -139214310.28456211 0 -139214310.28456211 192129180.37627411 0 0 0 0 2266330.1909207851 -12339850.44390266 0 -12339850.44390266 -2894726.7727417387 0 0 0 0 55300775.480407715 -324808009.03650284 0 -324808009.03650284 112728676.46715927 0 0 0 0 73740991.914367676 -274013161.1663208 0 -274013161.1663208 53068490.034255981 0 0 0 0 363997774.7973938 -247906325.6716423 0 -247906325.6716423 -129323059.40166855 0 0 0 0 -311277080.11122131 -36836056.212966919 0 -36836056.212966919 -5579192.5741615295 0 0 0 0 -187667448.81190491 52923601.187689483 0 52923601.187689483 -31823856.88974762 0 0 0 0 -16667334.776268005 -93238528.506712437 0 -93238528.506712437 -84106155.966722488 0 0 0 0 30734851.712478638 -4273364.7194170952 0 -4273364.7194170952 82849347.149906158 0 0 0 0 -85484154.138038635 -78705318.904938221 0 -78705318.904938221 137150576.36898994 0 0 0 0 -51721315.63494873 -120742374.54512691 0 -120742374.54512691 59238636.689827442 0 0 0 0 -15416215.801574707 -81687964.90023613 0 -81687964.90023613 98359773.317317963 0 0 0 0 -36101942.334996507 4973817.9997658581 0 4973817.9997658581 1033253.9529861026 0 0 0 0 -166047746.55921936 33194712.805521965 0 33194712.805521965 18207118.608816147 0 0 0 0 -100041349.77678108 846217.47015416622 0 846217.47015416622 -34745849.160663605 0 0 0 0 -327982888.51687622 183286062.79782104 0 183286062.79782104 -110492835.82714844 0 0 0 0 -45788033.175387323 -2721472.1907645576 0 -2721472.1907645576 -864281.44081005547 0 0 0 0 -393501808.9304657 156977016.37787056 0 156977016.37787056 -5383182.8195304871 0 0 0 0 -342790972.59286499 173339532.72467661 0 173339532.72467661 -96633337.057647705 0 0 0 0 583957.66216332465 896561.93480275618 0 896561.93480275618 -1021732.1008517719 0 0 0 0 -86917104.856338501 -3661298.477221489 0 -3661298.477221489 12166917.623296738 0 0 0 0 -67614106.648651123 -67419339.187999725 0 -67419339.187999725 142139519.15276909 0 0 0 0 -59613467.030636072 -3034540.1667435709 0 -3034540.1667435709 4003400.9271777705 0 0 0 0 -239419500.99763489 46875617.981249809 0 46875617.981249809 285875747.61507416 0 0 0 0 -141807341.69966888 -150681346.33528757 0 -150681346.33528757 60005042.628717422 0 0 0 0 -625515717.2983551 -276330146.35959435 0 -276330146.35959435 -33941480.557552338 0 0 0 0 -564529426.91699982 -389483326.11935425 0 -389483326.11935425 56285480.798049927 0 0 0 0 -36814340.472217828 -1231942.585704702 0 -1231942.585704702 2246732.5757853119 0 0 0 0 82825335.879302979 88744642.911635399 0 88744642.911635399 -246948654.9118824 0 0 0 0 -465454106.87295532 780995455.1184845 0 780995455.1184845 233819126.68007755 0 0 0 0 -56290018.74105835 819040354.10984325 0 819040354.10984325 155995339.3245697 0 0 0 0 -982998.31166615337 282103.80367952585 0 282103.80367952585 390294.01468477957 0 0 0 0 -1111837159.585144 -709711225.7536726 0 -709711225.7536726 -217098101.02259803 0 0 0 0 -985675953.87591553 -188461505.95892429 0 -188461505.95892429 59659594.079963684 0 0 0 0 -1020291637.9231033 -132189699.9422636 0 -132189699.9422636 654373361.94282722 0 0 0 0 -2406154757.3330536 -123624079.24101734 0 -123624079.24101734 655206766.5970211 0 0 0 0 -735111306.01544189 -76627637.800208092 0 -76627637.800208092 501334204.39076948 0 0 0 0 -177730734.87218475 378319018.60685229 0 378319018.60685229 276966154.72881317 0 0 0 0 -1129761908.8919678 15073366.911643982 0 15073366.911643982 493294442.48317003 0 0 0 0 -1155318142.4214325 377742465.8369236 0 377742465.8369236 315778887.69999313 0 0 0 0 -1086821263.9020386 307351327.76477814 0 307351327.76477814 290105453.54721093 0 0 0 0 -289822408.28616333 -947914600.74013615 0 -947914600.74013615 40198526.552165985 0 0 0 0 -3822845316.6133423 881554396.54348564 0 881554396.54348564 229340205.76620007 0 0 0 0 -3408158215.6027775 -1779771802.7400982 0 -1779771802.7400982 -151152329.93801117 0 0 0 0 -3739918722.980999 2379870086.3818774 0 2379870086.3818774 1782848175.0220184 0 0 0 0 -4472301281.0228882 -867473109.40132141 0 -867473109.40132141 263267078.35288239 0 0 0 0 -13368439.373575926 -1502517.1150900284 0 -1502517.1150900284 1208599.313070694 0 0 0 0 -722668192.20346069 1029009825.0478115 0 1029009825.0478115 -804419578.70072174 0 0 0 0 -2053385852.2248535 -2470614819.6788635 0 -2470614819.6788635 -2125272214.9110203 0 0 0 0 -806309987.19577026 -1088999193.8917084 0 -1088999193.8917084 -1352950966.5463791 0 0 0 0 -1754646457.2084656 -1384736617.0977173 0 -1384736617.0977173 530846770.99222565 0 0 0 0 -1039292072.0605164 -354116329.49760437 0 -354116329.49760437 998566854.23603439 0 0 0 0 -298886557.5283165 2719324494.9398274 0 2719324494.9398274 640930830.64119339 0 0 0 0 -23415621.813861772 -8859999.4246991742 0 -8859999.4246991742 7897384.8422494307 0 0 0 0 735027056.11395264 -123659214.49123764 0 -123659214.49123764 155335915.16210938 0 0 0 0 -18244202.962795243 -11060924.669502966 0 -11060924.669502966 13347014.979799516 0 0 0 0 -1072935815.2340698 620040535.54633713 0 620040535.54633713 828618561.2838707 0 0 0 0 -63062712.559901133 1457503.8746038321 0 1457503.8746038321 3308598.9030322153 0 0 0 0 -185542323.77340889 486409964.97400951 0 486409964.97400951 -1649193255.075428 0 0 0 0 -148034375.93592834 -8847382.1117086411 0 -8847382.1117086411 174521983.21991539 0 0 0 0 -942320497.94714355 -1579748332.247654 0 -1579748332.247654 2984679668.2633667 0 0 0 0 -52244307.377275079 -44074860.75950513 0 -44074860.75950513 31295519.45841831 0 0 0 0 182606193.30271149 406538389.07000542 0 406538389.07000542 -4288746164.0232773 0 0 0 0 -612600926.42403793 -176486612.1091404 0 -176486612.1091404 84211375.317779541 0 0 0 0 68810942.089942932 355543999.53624964 0 355543999.53624964 -1584227331.5570755 0 0 0 0 133993503.03535461 -655698921.59320068 0 -655698921.59320068 -7644786.0897507668 0 0 0 0 -1194826601.3817291 877197305.77872086 0 877197305.77872086 -1325002597.0266724 0 0 0 0 -848710266.33035755 -654671749.62716103 0 -654671749.62716103 -1038027022.2635422 0 0 0 0 -1201961248.4907608 -353422082.51471519 0 -353422082.51471519 -35737064.90599823 0 0 0 0 5348025.2294769287 -65314740.526008606 0 -65314740.526008606 -1528263517.3899136 0 0 0 0 -61856676.299780495 -36646122.213236697 0 -36646122.213236697 561126.30597158091 0 0 0 0 -1991695430.6603479 303849607.54754734 0 303849607.54754734 -2595326949.4338703 0 0 0 0 -1038717764.0928001 -1002350263.2797871 0 -1002350263.2797871 -1923598061.9170113 0 0 0 0 -1287976653.7714691 -631016357.06593704 0 -631016357.06593704 771852038.2314949 0 0 0 0 -2422353694.7709808 1107883428.8383636 0 1107883428.8383636 -1347180057.8203614 0 0 0 0 -2534195159.7091064 -260452357.8003006 0 -260452357.8003006 -1129313338.7098274 0 0 0 0 -7804007.1518450193 -3733955.744121538 0 -3733955.744121538 4120310.3421589527 0 0 0 0 -105700159.26539612 -197329921.49474335 0 -197329921.49474335 -2773304604.3244867 0 0 0 0 -1185764414.4503517 -196367106.71703625 0 -196367106.71703625 -1043070414.629467 0 0 0 0 -62383122.272841245 -19957765.025521897 0 -19957765.025521897 -5206497.7690665163 0 0 0 0 -410870863.76221466 -416326441.68465424 0 -416326441.68465424 -949498355.16709399 0 0 0 0 -567190184.03343153 -1123508830.9659901 0 -1123508830.9659901 -371249508.70666313 0 0 0 0 -112097880.27795792 40256243.994457245 0 40256243.994457245 -64391697.831680298 0 0 0 0 -539514768.84303474 -1531175321.5018597 0 -1531175321.5018597 161145222.48202896 0 0 0 0 -913623204.73168945 -977923183.58801651 0 -977923183.58801651 -74474062.803977966 0 0 0 0 -658734424.30379486 -1389786846.0064468 0 -1389786846.0064468 3334806.2005701065 0 0 0 0 -747756175.55606842 -1960010749.8703423 0 -1960010749.8703423 431885774.79828644 0 0 0 0 -417129167.264431 -1133987357.6544456 0 -1133987357.6544456 -383902964.24406433 0 0 0 0 760466768.27053261 -771660996.70428848 0 -771660996.70428848 -286933546.40532494 0 0 0 0 -31185569.715007812 -14083082.382051297 0 -14083082.382051297 -1773453.7411453417 0 0 0 0 -820763679.49013901 -488356302.0393734 0 -488356302.0393734 1612117677.020607 0 0 0 0 -1085109234.6734505 -1024006917.54566 0 -1024006917.54566 3464896651.8792763 0 0 0 0 2158489662.251667 -245978113.89830399 0 -245978113.89830399 340370190.68539047 0 0 0 0 -10850724.999834202 -6662304.1098163817 0 -6662304.1098163817 -1811680.5475721667 0 0 0 0 -2594991400.6127586 780880431.52586937 0 780880431.52586937 17390589.138275146 0 0 0 0 -1165944935.8736115 -2130912825.5435791 0 -2130912825.5435791 -582785385.05460358 0 0 0 0 -2053881187.9053421 835624091.67569733 0 835624091.67569733 -26677612.78711319 0 0 0 0 -95341822.808624268 551532481.20019722 0 551532481.20019722 -909385219.65142822 0 0 0 0 -343712504.05221939 -159025824.49662328 0 -159025824.49662328 322261884.30942535 0 0 0 0 -72430322.022613525 149361780.45400429 0 149361780.45400429 -164236394.85218811 0 0 0 0 -46434104.180778489 -16345635.618276704 0 -16345635.618276704 1009662.8127916846 0 0 0 0 -36137289.770652771 -111785584.35167313 0 -111785584.35167313 221504420.76119995 0 0 0 0 -471109624.35248947 -427821293.49308968 0 -427821293.49308968 2436931997.9717331 0 0 0 0 -1126211343.9159241 419340193.18412018 0 419340193.18412018 1009310365.4321136 0 0 0 0 399274060.51267242 309619817.01663208 0 309619817.01663208 1013818396.6119232 0 0 0 0 280640573.35368347 -1503819299.6430092 0 -1503819299.6430092 1533070132.5197525 0 0 0 0 -290206839.35348511 -62059076.792959213 0 -62059076.792959213 13110432.117296219 0 0 0 0 -78102592.400489807 -49611599.180534363 0 -49611599.180534363 -50753942.649623871 0 0 0 0 25642961.033332825 -32435426.541862488 0 -32435426.541862488 -62937188.884880066 0 0 0 0 -78572424.993736267 242480.30037689209 0 242480.30037689209 2411135.086856842 0 0 0 0 24791644.826532364 -37109730.621661186 0 -37109730.621661186 11598313.756828308 0 0 0 0 48412118.164329529 -155215307.3588295 0 -155215307.3588295 -54093404.140159607 0 0 0 0 -117714119.23863983 21437293.495889664 0 21437293.495889664 -22871086.013111115 0 0 0 0 -610341793.34843826 205319938.09988785 0 205319938.09988785 38037050.192420959 0 0 0 0 -610670359.95207977 200316140.32447052 0 200316140.32447052 453105.18892288208 0 0 0 0 -876267966.71177673 468226973.34506226 0 468226973.34506226 85700320.624359131 0 0 0 0 -1359253370.2811127 264463600.52915382 0 264463600.52915382 240662847.78408051 0 0 0 0 -970586682.20648193 207678748.13598251 0 207678748.13598251 153349669.55097198 0 0 0 0 -965643027.21647453 268888623.93965101 0 268888623.93965101 123501259.61645508 0 0 0 0 -1117423759.7208023 99184194.478305817 0 99184194.478305817 246890585.76207733 0 0 0 0 -863061451.95819092 278627826.63353729 0 278627826.63353729 198348696.85652542 0 0 0 0 -314988732.40652752 105997419.87905002 0 105997419.87905002 -17863797.309890747 0 0 0 0 -786071282.87782288 155438097.72850037 0 155438097.72850037 185951036.4513855 0 0 0 0 -777609649.63569641 8103479.8777542114 0 8103479.8777542114 107210210.21769714 0 0 0 0 -446620582.33620453 -22548212.945468903 0 -22548212.945468903 60911005.793403625 0 0 0 0 -991189032.34919739 -219746434.12212372 0 -219746434.12212372 103168652.87055969 0 0 0 0 -1194462210.8489876 129845172.17930984 0 129845172.17930984 237047935.35824585 0 0 0 0 -519580440.8776474 10318640.62670517 0 10318640.62670517 -105988219.61886024 0 0 0 0 -893603501.18765259 1259487388.4251862 0 1259487388.4251862 -18685645.148086548 0 0 0 0 -1699935016.0466766 461466682.47938156 0 461466682.47938156 317802552.60387611 0 0 0 0 -1104058268.3111572 369713747.20343018 0 369713747.20343018 261083590.58547974 0 0 0 0 -1397650346.9234314 96558985.756027222 0 96558985.756027222 494537517.92427063 0 0 0 0 -5434691.1260943338 -5155335.8724487405 0 -5155335.8724487405 -5499252.8311700895 0 0 0 0 -2277643732.7508736 1376968179.6648273 0 1376968179.6648273 126385733.38205719 0 0 0 0 -947818935.16506004 -937951544.28791332 0 -937951544.28791332 -1899170771.1101723 0 0 0 0 -3469260840.8076477 189468606.83555222 0 189468606.83555222 539572912.43618965 0 0 0 0 -948013151.58278656 380265598.35786438 0 380265598.35786438 54380520.926837921 0 0 0 0 -1620511276.5161285 -1825785481.7708759 0 -1825785481.7708759 -688479078.58831787 0 0 0 0 -2314534.9979901947 1696452.3235393353 0 1696452.3235393353 946802.78918044455 0 0 0 0 -629539648.31439209 2148251897.0569305 0 2148251897.0569305 -2543610684.8800964 0 0 0 0 -488975566.09342957 -95899436.209882736 0 -95899436.209882736 142148100.76815033 0 0 0 0 -3140899.7545883581 10893783.792229123 0 10893783.792229123 4038673.8291443205 0 0 0 0 -8490213.5577537902 -5249527.9422356393 0 -5249527.9422356393 4063518.5544074103 0 0 0 0 -4463501.6205291748 4039939.5591621399 0 4039939.5591621399 32551007.63776207 0 0 0 0 20040108.108520508 -105656197.8140831 0 -105656197.8140831 -48722445.232486725 0 0 0 0 -427333061.28744221 -91529892.1706357 0 -91529892.1706357 33996181.068946838 0 0 0 0 30294531.658493042 88472633.906280518 0 88472633.906280518 167212635.27443695 0 0 0 0 -10208655.169080373 -2815101.7548881564 0 -2815101.7548881564 6620756.6264247987 0 0 0 0 55983628.268663406 58460253.833344936 0 58460253.833344936 38793684.156211853 0 0 0 0 38686514.427947998 -12640231.473815918 0 -12640231.473815918 -30573869.764080048 0 0 0 0 49678271.813262463 126601183.19107032 0 126601183.19107032 100026404.74749756 0 0 0 0 -9258065.7782974243 4806425.1034879684 0 4806425.1034879684 28500255.111909866 0 0 0 0 -4725395.8620548248 5410377.7234671116 0 5410377.7234671116 26989748.092630386 0 0 0 0 -7879204.3071104139 9701284.5483761821 0 9701284.5483761821 6601173.3934859727 0 0 0 0 -191496265.86450577 -123036539.64977551 0 -123036539.64977551 85185225.97467804 0 0 0 0 106913218.19805908 39603254.400094986 0 39603254.400094986 -534556380.80870056 0 0 0 0 -33536576.122413635 238997389.47304153 0 238997389.47304153 -611002012.24246597 0 0 0 0 -1436373759.4123535 -145738944.21465492 0 -145738944.21465492 -710938943.81202126 0 0 0 0 -426833913.44987679 579004130.97426414 0 579004130.97426414 -1600518780.9981518 0 0 0 0 -308363215.81976318 196936766.7172966 0 196936766.7172966 -537260636.01729393 0 0 0 0 -36370362.457717896 353486138.21315575 0 353486138.21315575 -541092123.44787979 0 0 0 0 -107219028.90104675 410378723.79288387 0 410378723.79288387 -757498991.3311348 0 0 0 0 -999572827.60625458 637300385.49650574 0 637300385.49650574 -156390434.93250799 0 0 0 0 -994049381.6270752 542497190.61735725 0 542497190.61735725 -52532516.064558983 0 0 0 0 -408756197.20202541 300369863.52459335 0 300369863.52459335 35432123.042888641 0 0 0 0 -1265108459.2606049 -26182411.460670471 0 -26182411.460670471 31550561.732746124 0 0 0 0 -1348952866.4788456 698134009.82646275 0 698134009.82646275 144699334.89912605 0 0 0 0 -1808795971.4252243 1181430309.7954617 0 1181430309.7954617 -446122182.53205585 0 0 0 0 -722398596.36097336 476879317.65825748 0 476879317.65825748 -363847196.61497402 0 0 0 0 -1813996664.8820238 -447092721.7656334 0 -447092721.7656334 -1130217782.7311287 0 0 0 0 -3067695.7612763159 -2328736.8248692844 0 -2328736.8248692844 -1565618.1275526043 0 0 0 0 -1354041816.7276764 1394871236.4814053 0 1394871236.4814053 -1005518799.0195465 0 0 0 0 -2207920891.6513062 619254816.22286129 0 619254816.22286129 261705574.50855637 0 0 0 0 -1618436609.3857574 1223420878.8466187 0 1223420878.8466187 383533827.63667297 0 0 0 0 -321151436.18405151 1025077215.976387 0 1025077215.976387 -737091729.07969666 0 0 0 0 -2558666522.3671341 1843131423.3609276 0 1843131423.3609276 9067466.2413330078 0 0 0 0 -1996704402.565712 1360821687.4102612 0 1360821687.4102612 -401816989.90014839 0 0 0 0 -886405949.2442627 800519807.8388567 0 800519807.8388567 -774199852.62353039 0 0 0 0 -167290392.54563904 -63104863.509945869 0 -63104863.509945869 -992624717.66445732 0 0 0 0 -691144.69216661307 -1357429.3585301694 0 -1357429.3585301694 -4600968.4080834556 0 0 0 0 -1721228.1531347593 -1696761.545687953 0 -1696761.545687953 -10651349.768288963 0 0 0 0 320731602.53602982 153619053.44497395 0 153619053.44497395 -893854537.16393757 0 0 0 0 -1109283934.5582924 613898068.20375347 0 613898068.20375347 121396310.08301353 0 0 0 0 -787733020.38883114 15480965.524735868 0 15480965.524735868 266795955.0722065 0 0 0 0 -3097917494.9299965 1047971464.832113 0 1047971464.832113 480266841.77722085 0 0 0 0 -152236591.9873243 -30934165.363719277 0 -30934165.363719277 -869937811.00426066 0 0 0 0 -1424999189.8205032 1433983201.6131873 0 1433983201.6131873 -1624942713.43888 0 0 0 0 -3571726.1210133787 -343463.98895929009 0 -343463.98895929009 -9375771.166682357 0 0 0 0 -975174254.61986923 -147281936.62940636 0 -147281936.62940636 -34977104.022386789 0 0 0 0 363750422.10852432 -54415067.66296196 0 -54415067.66296196 -207775144.87319374 0 0 0 0 161106028.54533386 -212031319.90399742 0 -212031319.90399742 -177817336.65368271 0 0 0 0 -392860444.23294067 -239995702.65429688 0 -239995702.65429688 3359330.6105766296 0 0 0 0 -6919394.9530016296 4507804.5428406913 0 4507804.5428406913 143733.32847622625 0 0 0 0 -4631526289.1852531 2780379550.367054 0 2780379550.367054 -1657313999.5783243 0 0 0 0 -2501287153.1690369 -677023268.74757385 0 -677023268.74757385 538519411.76331353 0 0 0 0 -3906154214.3204193 3206567428.670783 0 3206567428.670783 -2030550188.0121663 0 0 0 0 -3280802276.921402 345799604.40788782 0 345799604.40788782 -2106214446.8462443 0 0 0 0 -3476224308.1440582 408048499.30062771 0 408048499.30062771 -689963332.28865671 0 0 0 0 -5023787687.1902351 2540214243.4071617 0 2540214243.4071617 -1367958234.2811098 0 0 0 0 -2308322851.369381 947232932.37035275 0 947232932.37035275 -550420999.52908134 0 0 0 0 -2575003588.5978317 278907283.41936207 0 278907283.41936207 345446253.50460196 0 0 0 0 -1202802715.1825485 -340295094.44481659 0 -340295094.44481659 -8186391.6202425957 0 0 0 0 -2873429195.9981842 827562607.24417067 0 827562607.24417067 -60497975.523336411 0 0 0 0 -1833512430.2505817 802579087.01177907 0 802579087.01177907 -147820884.96116829 0 0 0 0 -1685532956.557024 944142893.90365171 0 944142893.90365171 -341560611.2713623 0 0 0 0 -1879825406.7975044 916116000.41099882 0 916116000.41099882 -345593186.365242 0 0 0 0 -1635163220.3803101 955269278.19387245 0 955269278.19387245 -545717646.45037079 0 0 0 0 -1077577935.7005272 937147294.97130966 0 937147294.97130966 -549691231.63829231 0 0 0 0 -1124357814.9472618 779520744.95642567 0 779520744.95642567 -608393376.40336609 0 0 0 0 -1214863727.6744461 750268580.88954544 0 750268580.88954544 -600681951.76332664 0 0 0 0 -1270513902.1367302 646935372.27252865 0 646935372.27252865 -445414246.55074692 0 0 0 0 -2029185787.6615753 507319586.17955542 0 507319586.17955542 -468326412.48265266 0 0 0 0 -1030484715.0070572 835855725.0963192 0 835855725.0963192 -1506597389.1941891 0 0 0 0 -737716632.79720306 1829049588.9445505 0 1829049588.9445505 -1302162487.9978104 0 0 0 0 -273241479.11449432 835178209.96130753 0 835178209.96130753 -794782862.3013401 0 0 0 0 -725419422.45570374 -899274040.18723297 0 -899274040.18723297 -685709732.10950947 0 0 0 0 -337363879.68581581 493307034.33014679 0 493307034.33014679 -173225305.92326355 0 0 0 0 -5193570.0140539594 -5112073.6327255871 0 -5112073.6327255871 -5297834.5970942657 0 0 0 0 -1284546781.2466507 1086962070.7143831 0 1086962070.7143831 -386810718.41154861 0 0 0 0 -1414938354.4380569 688852951.4433651 0 688852951.4433651 293892166.38830185 0 0 0 0 -2681353.2586765997 -2258883.3047475535 0 -2258883.3047475535 -1448705.6368238255 0 0 0 0 -713369098.94069862 582961877.72999573 0 582961877.72999573 -597822254.65767288 0 0 0 0 -1161669493.4936485 -48029882.128446579 0 -48029882.128446579 -89593508.505653381 0 0 0 0 -848781088.89331436 347906103.01348686 0 347906103.01348686 -213513431.65282059 0 0 0 0 -542631372.26708984 209343686.36589432 0 209343686.36589432 -164753003.95645523 0 0 0 0 -809628371.04969788 -105910723.93483925 0 -105910723.93483925 -325480924.39492035 0 0 0 0 -1190315633.7810326 -238325217.52312946 0 -238325217.52312946 404158905.74417114 0 0 0 0 94145440.865058899 -658713329.02176666 0 -658713329.02176666 -1888968.4554672241 0 0 0 0 -1513635982.8707132 -807355707.11182642 0 -807355707.11182642 864835613.42036438 0 0 0 0 -1405378646.9616318 -79658799.65504837 0 -79658799.65504837 287432593.09920502 0 0 0 0 80962046.18353343 170185365.75755832 0 170185365.75755832 -979036525.90882874 0 0 0 0 579461647.42732143 -996937453.76383686 0 -996937453.76383686 -187890829.2957077 0 0 0 0 -350748850.84983826 984848779.69446945 0 984848779.69446945 728790536.15300179 0 0 0 0 -886391962.03614807 -205778724.95084381 0 -205778724.95084381 -1151012348.5510879 0 0 0 0 472713871.56819534 619797574.31470108 0 619797574.31470108 -1154932129.1767578 0 0 0 0 24786255.165725708 -9903963.6655502319 0 -9903963.6655502319 -684453248.9550972 0 0 0 0 340637569.1365509 833001392.56690502 0 833001392.56690502 -2177749124.4334335 0 0 0 0 -702830072.71773338 1184992024.6460648 0 1184992024.6460648 -738253428.30698013 0 0 0 0 -621767070.61671448 1025631447.4284821 0 1025631447.4284821 -1283466093.974987 0 0 0 0 -1573126715.8083153 1350585966.7473717 0 1350585966.7473717 -756178719.42837524 0 0 0 0 -1170445100.4031067 749853962.43010902 0 749853962.43010902 -746074791.216259 0 0 0 0 -280777214.45088959 456909533.97003555 0 456909533.97003555 -800136694.94980621 0 0 0 0 151848555.53138542 -930899663.85061646 0 -930899663.85061646 277707111.90928459 0 0 0 0 -2551473640.4054031 1522022873.751461 0 1522022873.751461 169788616.27464676 0 0 0 0 -2093605997.265152 1035374404.7868547 0 1035374404.7868547 -72988065.406996727 0 0 0 0 -1988292366.8165512 2427702337.838398 0 2427702337.838398 -1841585637.2614899 0 0 0 0 -887867205.40040016 2439446916.8099937 0 2439446916.8099937 -4277408100.7892456 0 0 0 0 -4809514349.8829041 3304337557.3597832 0 3304337557.3597832 -1160645782.2764168 0 0 0 0 -6715260.7027011169 3269463.1741516721 0 3269463.1741516721 -889800.5659141778 0 0 0 0 -4040832251.5675392 -101370350.70945382 0 -101370350.70945382 1398876790.010807 0 0 0 0 127551.46079479554 3966157.8430017382 0 3966157.8430017382 -7921297.3370839618 0 0 0 0 -2939212764.8816171 3701218927.9699726 0 3701218927.9699726 -2854741036.0019188 0 0 0 0 697074531.23533607 -1235401680.33728 0 -1235401680.33728 -2648511049.5970688 0 0 0 0 534290107.76696205 -541794506.331213 0 -541794506.331213 -4563549715.8439465 0 0 0 0 491044395.93365097 -388440399.96028137 0 -388440399.96028137 -228714384.6355218 0 0 0 0 965165190.24129868 -143135526.99842072 0 -143135526.99842072 -2493645223.403738 0 0 0 0 -222006.67419160414 8023257.7550151553 0 8023257.7550151553 -14760724.831663797 0 0 0 0 1367488315.1131382 1654967389.5254977 0 1654967389.5254977 -187187853.16022837 0 0 0 0 1048830764.0006213 847231280.25877023 0 847231280.25877023 -253000380.33242607 0 0 0 0 -304078858.5102663 308494562.768363 0 308494562.768363 -152156916.09215021 0 0 0 0 433281685.37046576 -166032050.70037758 0 -166032050.70037758 -1409063649.7179413 0 0 0 0 190081505.12903023 1171975631.7428837 0 1171975631.7428837 -2666090310.2104945 0 0 0 0 -1113570012.6397648 757968571.57082653 0 757968571.57082653 -1129548382.486268 0 0 0 0 -153118517.51327181 -43403248.383153677 0 -43403248.383153677 -577159527.90835953 0 0 0 0 -2372581911.6616974 148647894.40671444 0 148647894.40671444 116695645.86265182 0 0 0 0 -1906492291.4129333 1020203691.586586 0 1020203691.586586 -250812096.03854179 0 0 0 0 -1654430997.8458061 887190738.86053181 0 887190738.86053181 -241202377.13239157 0 0 0 0 -1194980163.6774664 1004523514.5596869 0 1004523514.5596869 -548650625.44136429 0 0 0 0 -1643490923.6392326 1246667913.2631001 0 1246667913.2631001 -677393963.00837708 0 0 0 0 -2142844979.8271332 1869184714.0795965 0 1869184714.0795965 -472535176.84400415 0 0 0 0 -1267673303.9986649 1425018813.3845561 0 1425018813.3845561 -600279679.80822754 0 0 0 0 -988257210.90032148 1673861704.0539882 0 1673861704.0539882 -1404121231.366642 0 0 0 0 133035514.05454111 1633521741.0456965 0 1633521741.0456965 -1493809421.7965598 0 0 0 0 -3751677922.1702642 2074004435.8189464 0 2074004435.8189464 -406438669.18804359 0 0 0 0 -1462890776.057085 2989108134.0296726 0 2989108134.0296726 -1670395880.1488872 0 0 0 0 834823638.56948853 808803809.04001427 0 808803809.04001427 -1781592918.2262032 0 0 0 0 -385117052.43603992 903825008.50025606 0 903825008.50025606 1448837334.5949936 0 0 0 0 -12335736.102514429 16373804.489848491 0 16373804.489848491 -1573560.3474091955 0 0 0 0 -3122499.2495383695 2889572.7957312586 0 2889572.7957312586 -2007561.9984480115 0 0 0 0 -548455107.1776228 1035906438.5371668 0 1035906438.5371668 2855223757.3792844 0 0 0 0 -15320141.360850632 12779133.120712634 0 12779133.120712634 317791.6501542356 0 0 0 0 482047609.85725677 614504464.51915324 0 614504464.51915324 -240497317.76077032 0 0 0 0 94699747.831078053 1814539905.6571236 0 1814539905.6571236 -1618836667.2205243 0 0 0 0 -278063156.24019623 1577079675.2617331 0 1577079675.2617331 -137738667.11978981 0 0 0 0 180017834.97425842 1082192576.8532534 0 1082192576.8532534 -1220684944.2527609 0 0 0 0 -177841500.22045231 1547434337.6197505 0 1547434337.6197505 -1620816758.0893953 0 0 0 0 -661814505.05097437 2627049476.3715076 0 2627049476.3715076 -3557442870.3713164 0 0 0 0 -3147066701.4205694 45804318.465970039 0 45804318.465970039 -864911562.97597969 0 0 0 0 -2921416313.797101 2243495423.1051922 0 2243495423.1051922 -1260287398.2823915 0 0 0 0 -3684108917.0497103 685454816.4544065 0 685454816.4544065 21284317.639442399 0 0 0 0 -662118289.13807344 754362945.02509916 0 754362945.02509916 -283707347.93183208 0 0 0 0 399603897.93204069 -1499896.6290848255 0 -1499896.6290848255 1513259251.1554079 0 0 0 0 -1332494402.2166491 1514549943.0172179 0 1514549943.0172179 776216901.56078243 0 0 0 0 -867402783.2345767 -673479942.64803219 0 -673479942.64803219 675187239.67843294 0 0 0 0 -2631289098.9212723 -200274560.0312767 0 -200274560.0312767 1664348168.461133 0 0 0 0 1233837037.7203503 -506013683.71028185 0 -506013683.71028185 1487095825.4755611 0 0 0 0 -1037346658.0328236 1038143939.6639147 0 1038143939.6639147 4706664980.8086109 0 0 0 0 -14667604.451962881 8545661.859307047 0 8545661.859307047 1132538.0229214905 0 0 0 0 -6005816821.3432989 323219749.09496248 0 323219749.09496248 930867628.1405524 0 0 0 0 -6023904206.1346016 -616280059.89192176 0 -616280059.89192176 2953745287.7352724 0 0 0 0 -3234689143.3542137 -2110739829.5211549 0 -2110739829.5211549 3597684967.4864039 0 0 0 0 -6654859.1958311629 2872124.2346371338 0 2872124.2346371338 611708.73459291644 0 0 0 0 -839715665.82325363 992163698.70350933 0 992163698.70350933 -1054962359.1669176 0 0 0 0 -2830396483.906065 -1818244032.2073796 0 -1818244032.2073796 2101124001.3535721 0 0 0 0 -5371026988.1328936 -471656019.18762922 0 -471656019.18762922 1548792310.3412452 0 0 0 0 -5985803646.6492519 -720918216.66931033 0 -720918216.66931033 2225221241.0031514 0 0 0 0 -3996667001.954566 -846140104.80404246 0 -846140104.80404246 1143625553.7368665 0 0 0 0 -5982671260.5618725 529639105.37300575 0 529639105.37300575 227480951.95684335 0 0 0 0 -4156874525.5816574 385427248.02731097 0 385427248.02731097 -550489380.10905111 0 0 0 0 -5984985104.3581123 1327962659.0373476 0 1327962659.0373476 -946804929.22842789 0 0 0 0 -4521437984.5486584 1946291973.7413871 0 1946291973.7413871 -1369674559.3561516 0 0 0 0 -3735528693.165061 1098343724.3020124 0 1098343724.3020124 -2234020234.1371365 0 0 0 0 -3146591577.910284 2682965838.4130211 0 2682965838.4130211 -1878832512.759186 0 0 0 0 -3200561171.6475134 1672138701.4631507 0 1672138701.4631507 1558459331.205425 0 0 0 0 675434041.07452464 401493035.90128309 0 401493035.90128309 -4550080494.7235394 0 0 0 0 200586.10586682148 3905213.3536134884 0 3905213.3536134884 -7677235.2860755716 0 0 0 0 -4384799525.571022 1867898371.3308587 0 1867898371.3308587 -2085144622.4189339 0 0 0 0 -5186944267.0064316 1918856481.4530971 0 1918856481.4530971 -366146253.97439408 0 0 0 0 1403538454.1667538 440405761.01207697 0 440405761.01207697 -2216222744.4597158 0 0 0 0 -869888139.80442953 749834800.54237938 0 749834800.54237938 -2674718084.3190594 0 0 0 0 199957023.17783356 -495830806.38984108 0 -495830806.38984108 -1551912615.9407663 0 0 0 0 13928420.686096191 2181113070.212285 0 2181113070.212285 -6117391896.7112789 0 0 0 0 -4363329324.1315231 3353171449.0796394 0 3353171449.0796394 -4643089599.0642262 0 0 0 0 -4971306039.5784416 1437399065.2870059 0 1437399065.2870059 -3616752020.0902824 0 0 0 0 -5982454406.7028847 2457037437.063036 0 2457037437.063036 -2696897048.2684188 0 0 0 0 -4892055944.2515717 3138359918.1447949 0 3138359918.1447949 -2274379578.8720298 0 0 0 0 -5415367176.7468185 1596768063.0561066 0 1596768063.0561066 -1426002005.2437251 0 0 0 0 -135682846.84280396 43374232.803104401 0 43374232.803104401 -127887614.67503929 0 0 0 0 -111878615.22906494 70103886.77715683 0 70103886.77715683 -100815442.52845764 0 0 0 0 -99038111.419189453 61028026.937850952 0 61028026.937850952 -100595130.93056566 0 0 0 0 -259338692.82116699 52471273.828464508 0 52471273.828464508 -58099910.744522095 0 0 0 0 -270671728.13955688 24685713.119532585 0 24685713.119532585 -95740740.248550415 0 0 0 0 -373669058.29716492 83948271.535396576 0 83948271.535396576 -69501205.338401794 0 0 0 0 -262156215.14360046 24163895.964477539 0 24163895.964477539 -59911221.886199951 0 0 0 0 -213666699.21878052 52737011.869544983 0 52737011.869544983 -103099289.91769028 0 0 0 0 -135909644.14636099 63026012.945913792 0 63026012.945913792 -105243006.66326141 0 0 0 0 -329932464.36654663 34641726.533187866 0 34641726.533187866 -47650738.462333679 0 0 0 0 -120903639.71644592 -66279055.53956604 0 -66279055.53956604 -83092985.625621796 0 0 0 0 -63040847.328251883 709831.07489841525 0 709831.07489841525 10532578.946923304 0 0 0 0 -217144205.409729 16681056.586963654 0 16681056.586963654 -58695282.207872391 0 0 0 0 -271213156.81922913 49547996.632629395 0 49547996.632629395 18120555.983589172 0 0 0 0 -197186321.73283386 -62237196.321685791 0 -62237196.321685791 66763462.222137451 0 0 0 0 28147882.428329468 -315551503.0460434 0 -315551503.0460434 64378532.928625107 0 0 0 0 -46660113.71749115 50782771.796295166 0 50782771.796295166 24473002.627225876 0 0 0 0 -26878768.28453064 -28157412.931665421 0 -28157412.931665421 328517783.52333832 0 0 0 0 36616842.378158569 47556544.607524872 0 47556544.607524872 367255411.83099365 0 0 0 0 -56359309.746124268 271975456.22627294 0 271975456.22627294 11784385.781352997 0 0 0 0 -88492551.402404785 147514235.19696045 0 147514235.19696045 831727699.13723755 0 0 0 0 -65341599.242706299 -432278158.20004272 0 -432278158.20004272 255866196.49339676 0 0 0 0 -245937643.49952698 -364809444.90663147 0 -364809444.90663147 659238311.30382347 0 0 0 0 -126838748.92086792 26516348.941307068 0 26516348.941307068 -128317559.6401931 0 0 0 0 -133334244.72824097 22032877.790771484 0 22032877.790771484 -91436458.694835663 0 0 0 0 -62540671.864278495 30234003.869585216 0 30234003.869585216 18513722.224685088 0 0 0 0 -64102828.32894516 36502765.73771286 0 36502765.73771286 -211893340.64593887 0 0 0 0 -74784075.29571794 9552238.1889692023 0 9552238.1889692023 23311811.870150365 0 0 0 0 -81531176.259040833 24738511.532478333 0 24738511.532478333 99129460.919202805 0 0 0 0 -95280829.096298218 107231105.63589144 0 107231105.63589144 216071794.96217251 0 0 0 0 -24536440.215856656 38491329.156648941 0 38491329.156648941 13108714.583022304 0 0 0 0 -101494977.44962354 18463111.709832691 0 18463111.709832691 30408232.665448844 0 0 0 0 -61021745.927668571 -173835368.93338287 0 -173835368.93338287 -321192577.97331619 0 0 0 0 -38829087.226028442 100148547.65620804 0 100148547.65620804 -137863228.78103256 0 0 0 0 -55571204.39894104 64074813.240795135 0 64074813.240795135 -192687923.12253571 0 0 0 0 -107926650.30966187 70274728.959358215 0 70274728.959358215 -59457285.407304764 0 0 0 0 38209776.349006653 110467116.49152851 0 110467116.49152851 -51694413.037261963 0 0 0 0 409392356.51610184 -218612952.25220633 0 -218612952.25220633 -49476606.474472046 0 0 0 0 -178315128.81525421 -20842601.67215538 0 -20842601.67215538 -97021813.024866104 0 0 0 0 -173976223.96635437 -166370891.9838028 0 -166370891.9838028 624233441.14612579 0 0 0 0 -108155944.5451355 -10005129.56791687 0 -10005129.56791687 441214439.5392561 0 0 0 0 201584357.59566116 344545427.51129866 0 344545427.51129866 277401676.13682175 0 0 0 0 -99409015.819351196 -6562657.1274833679 0 -6562657.1274833679 88385559.593585968 0 0 0 0 -219353439.16530609 106646769.73317146 0 106646769.73317146 232005702.26803207 0 0 0 0 -154287581.23335648 119944686.31171894 0 119944686.31171894 -15072395.292228699 0 0 0 0 -305635694.92166901 72666773.537815094 0 72666773.537815094 59202132.141796112 0 0 0 0 -226820471.38773346 66375164.102594852 0 66375164.102594852 43904297.154258728 0 0 0 0 -324123295.99346161 94636982.210113525 0 94636982.210113525 88359067.518257141 0 0 0 0 -376947220.79957581 -12806739.507598877 0 -12806739.507598877 17835987.251372337 0 0 0 0 -225189053.75527191 -103561366.67375183 0 -103561366.67375183 -23999488.893980026 0 0 0 0 -75289036.220901489 -6114706.8131084442 0 -6114706.8131084442 -3788642.503200531 0 0 0 0 -242157838.66448975 49197546.276492119 0 49197546.276492119 -8429966.6912155151 0 0 0 0 -23724409.445143268 -624222.1566458568 0 -624222.1566458568 5119686.1259198561 0 0 0 0 -271097911.57336426 39948873.298374176 0 39948873.298374176 33195441.16149044 0 0 0 0 -306075278.15114975 66843989.736001015 0 66843989.736001015 23784027.966552734 0 0 0 0 -35011935.320019647 -32855876.944373444 0 -32855876.944373444 -6536853.9570198804 0 0 0 0 -12422851.818473816 -244876239.68430519 0 -244876239.68430519 -125674249.71453094 0 0 0 0 -212962574.93408203 59578855.245079041 0 59578855.245079041 119293699.29807854 0 0 0 0 -262920272.20075226 110637244.34933329 0 110637244.34933329 105788388.30236435 0 0 0 0 -13976643.556629438 143652.5575591661 0 143652.5575591661 3717999.3061912358 0 0 0 0 -8141635.8327217102 -87002920.824853897 0 -87002920.824853897 24129056.848480225 0 0 0 0 -6151641.7752227783 -61627656.318145752 0 -61627656.318145752 38124555.549747467 0 0 0 0 -11856354.639419556 -79897984.796396255 0 -79897984.796396255 -17281086.683151245 0 0 0 0 57442861.377052307 -53957160.293766022 0 -53957160.293766022 -43468678.305664062 0 0 0 0 13847456.824630737 -32059606.349132538 0 -32059606.349132538 -99682895.175998688 0 0 0 0 12686422.194068909 -46555643.427516937 0 -46555643.427516937 -17309239.134567261 0 0 0 0 -39353093.346826583 -31195497.123789556 0 -31195497.123789556 -3097978.9536913298 0 0 0 0 -91404041.255577087 -30072149.401035309 0 -30072149.401035309 -24895879.279518127 0 0 0 0 59049227.860762119 -71392050.18056047 0 -71392050.18056047 -27082540.237556458 0 0 0 0 -43719989.249069214 -37764708.191772461 0 -37764708.191772461 24517017.427955627 0 0 0 0 -482600.67755285278 -25496253.090682913 0 -25496253.090682913 -1581428.3139304281 0 0 0 0 35544280.725631714 -63041906.385490417 0 -63041906.385490417 -6575912.8115997314 0 0 0 0 -32264200.251182556 -33746790.681816101 0 -33746790.681816101 7931947.2990036011 0 0 0 0 -29525345.759216309 -39965369.548107147 0 -39965369.548107147 21393230.21754837 0 0 0 0 -63239435.629806519 -46105055.329807281 0 -46105055.329807281 31080092.451032639 0 0 0 0 -63427200.690086365 -50349854.425872803 0 -50349854.425872803 169628544.13692474 0 0 0 0 -165660730.90029526 5115257.8048086166 0 5115257.8048086166 13989371.725738525 0 0 0 0 -70190880.683395386 49544437.089748383 0 49544437.089748383 -53936271.625859261 0 0 0 0 -408974272.10171127 29214703.326924324 0 29214703.326924324 -38857863.820404053 0 0 0 0 -14423944.739164747 -546166.24277085252 0 -546166.24277085252 6006090.6343611442 0 0 0 0 -240913361.18003464 147485697.33884048 0 147485697.33884048 -76259262.407783508 0 0 0 0 -397688063.9417572 61090122.507907867 0 61090122.507907867 23676606.659221649 0 0 0 0 -40721705.193816938 6447465.2353562815 0 6447465.2353562815 1360869.9374892637 0 0 0 0 -75648937.359024048 -24807294.900787354 0 -24807294.900787354 -36849754.080043793 0 0 0 0 -122258476.31298828 -7295795.6014976501 0 -7295795.6014976501 5268645.4525756836 0 0 0 0 -41895307.904585518 -7353346.1088804938 0 -7353346.1088804938 5351892.8008016888 0 0 0 0 -20085310.187110901 -1532774.698884964 0 -1532774.698884964 5854972.321182251 0 0 0 0 -29810413.368033919 -11011767.80972138 0 -11011767.80972138 2397592.9563939124 0 0 0 0 -18980933.785158157 1336005.5522232056 0 1336005.5522232056 10577710.154205322 0 0 0 0 -19021277.830892205 -3479885.6850395203 0 -3479885.6850395203 13847154.958114088 0 0 0 0 -22543399.871778965 -9315241.2856330872 0 -9315241.2856330872 17271050.631622314 0 0 0 0 -23913355.515016556 -5690213.7935600281 0 -5690213.7935600281 23183107.515167236 0 0 0 0 -15851573.083510302 1581279.0857293326 0 1581279.0857293326 4467710.6314915735 0 0 0 0 -41808797.48508317 -45509178.574768625 0 -45509178.574768625 11442394.492366556 0 0 0 0 -22085073.25911665 -11198503.272041321 0 -11198503.272041321 12710260.311228275 0 0 0 0 -216906651.57252502 78712211.231283188 0 78712211.231283188 -89943094.100479126 0 0 0 0 -41761698.094188586 5484708.2475468162 0 5484708.2475468162 10271596.543390028 0 0 0 0 -41647602.694753394 4210368.9415034177 0 4210368.9415034177 14882241.847355325 0 0 0 0 -95993076.611938477 3706167.2647075653 0 3706167.2647075653 45406404.894927979 0 0 0 0 -13815091.919858932 562066.53077316284 0 562066.53077316284 13247388.029296875 0 0 0 0 -42320098.011053152 -409715.01581906527 0 -409715.01581906527 2900588.6585526615 0 0 0 0 -316903877.87272644 48850363.925388336 0 48850363.925388336 26456458.544445038 0 0 0 0 -423480302.33659744 68996131.53072834 0 68996131.53072834 100113141.64399719 0 0 0 0 -74207482.973495483 -15557019.708339691 0 -15557019.708339691 27722549.00252533 0 0 0 0 -406034367.15977478 141643580.1492157 0 141643580.1492157 32190341.814575195 0 0 0 0 -24300279.631936643 961650.50148721412 0 961650.50148721412 4295307.6733445823 0 0 0 0 -56181438.110038757 12727056.093822479 0 12727056.093822479 29100280.317565203 0 0 0 0 -74016062.616822362 -5452389.7115356028 0 -5452389.7115356028 8288180.5400695801 0 0 0 0 -39336602.553288862 1030192.1348899603 0 1030192.1348899603 7000481.3464682326 0 0 0 0 -25178390.067265391 -8221556.3409577869 0 -8221556.3409577869 8390561.8689279743 0 0 0 0 -137944595.00852203 35110327.781326294 0 35110327.781326294 26052738.677311897 0 0 0 0 -6594198.2102235667 -1140014.7853158284 0 -1140014.7853158284 2913513.6464322023 0 0 0 0 -95644430.940395355 14757707.596328735 0 14757707.596328735 39443653.12670517 0 0 0 0 -53881471.608028412 -7517221.6070709229 0 -7517221.6070709229 45412128.351276398 0 0 0 0 -18131946.881599426 8604695.6721000671 0 8604695.6721000671 -15873229.93977356 0 0 0 0 -141337510.45427704 53225602.990589142 0 53225602.990589142 26440286.743545532 0 0 0 0 -141430349.58886719 6073468.2421646118 0 6073468.2421646118 71284277.034889221 0 0 0 0 -123420610.45909882 -33479409.125833511 0 -33479409.125833511 82881566.977264404 0 0 0 0 -68680634.747138977 -88365169.402397156 0 -88365169.402397156 100773634.83822632 0 0 0 0 8130088.8583471775 -41605657.26004535 0 -41605657.26004535 40442044.352615356 0 0 0 0 -96423555.245922089 -15342246.344690323 0 -15342246.344690323 63016621.275344849 0 0 0 0 -113976476.6005249 13001477.814815521 0 13001477.814815521 58949706.367706299 0 0 0 0 3994953.6509857178 -50893889.064933777 0 -50893889.064933777 -68956321.034051895 0 0 0 0 -16931588.825424194 -78126430.711093903 0 -78126430.711093903 -11138053.921403885 0 0 0 0 -24034750.774139404 -77027311.566921234 0 -77027311.566921234 42687067.097156525 0 0 0 0 2512034.4978561401 -44277857.914714813 0 -44277857.914714813 -11920710.904218674 0 0 0 0 -9789671.0872344971 -29174351.802829742 0 -29174351.802829742 -1713530.250705719 0 0 0 0 -20229538.4740448 -36804689.435058594 0 -36804689.435058594 4203041.9340667725 0 0 0 0 -16645207.490600586 -46286306.145946503 0 -46286306.145946503 -10768695.532409668 0 0 0 0 -33420829.038551331 -57557601.278184891 0 -57557601.278184891 2300702.6235656738 0 0 0 0 8425941.7468261719 -7196892.1121063232 0 -7196892.1121063232 -20553892.702734947 0 0 0 0 -9841918.0170059204 -35674932.886207581 0 -35674932.886207581 -17462343.919704437 0 0 0 0 -15480894.609770924 -6411554.8637126423 0 -6411554.8637126423 3522079.3019324616 0 0 0 0 -836924.04229736328 -4242436.8264427185 0 -4242436.8264427185 -39251815.620140076 0 0 0 0 -1270945.2080917358 -17533979.317142487 0 -17533979.317142487 -28683338.831163406 0 0 0 0 1977573.2529993057 -49832840.854523182 0 -49832840.854523182 -68885805.84703064 0 0 0 0 396603118.79598999 -161310556.52358246 0 -161310556.52358246 138101638.02396011 0 0 0 0 2250484.6959873661 -4730176.0729443487 0 -4730176.0729443487 -2117092.5413039792 0 0 0 0 124896558.66471863 -308456721.85472298 0 -308456721.85472298 252432766.18174362 0 0 0 0 -16667973.205921173 82495825.181266785 0 82495825.181266785 412807055.29238892 0 0 0 0 -13568510.849407196 18949717.091955185 0 18949717.091955185 3208615.6891975403 0 0 0 0 -77446859.624671936 -26183205.060045242 0 -26183205.060045242 277885527.06490326 0 0 0 0 -1365881.4193041585 -400431.525272239 0 -400431.525272239 827125.0850924179 0 0 0 0 -678028.2845556289 781538.86034825817 0 781538.86034825817 1452422.1300148722 0 0 0 0 76646565.404441833 5260084.3745040894 0 5260084.3745040894 -140198278.40305185 0 0 0 0 180402977.89006805 -193493465.24918175 0 -193493465.24918175 128174443.92817307 0 0 0 0 -14482541.819480896 67545881.47196579 0 67545881.47196579 -21319458.554021835 0 0 0 0 204403965.13587141 212482734.04793036 0 212482734.04793036 54983171.574302673 0 0 0 0 44758412.505104065 -96363282.399906158 0 -96363282.399906158 398912553.01337814 0 0 0 0 -122094790.75601578 -11812576.774105906 0 -11812576.774105906 79715124.498062134 0 0 0 0 -291530899.7086792 32394078.166658401 0 32394078.166658401 27676969.305831909 0 0 0 0 -231602769.54083252 -90758140.544326782 0 -90758140.544326782 -61211030.446315765 0 0 0 0 -121380671.88380623 -8654618.7912549973 0 -8654618.7912549973 -38695086.550933838 0 0 0 0 -196083929.8962326 62592869.373023987 0 62592869.373023987 31372469.663238525 0 0 0 0 -46467992.953857422 56268928.658802032 0 56268928.658802032 -36244538.498378754 0 0 0 0 -152196074.02520752 133860689.52994347 0 133860689.52994347 -90714947.420913696 0 0 0 0 97661.031938251108 -365514.24794260971 0 -365514.24794260971 84041.931771902367 0 0 0 0 -162600854.16975403 55691999.37093544 0 55691999.37093544 205766023.23764801 0 0 0 0 -218611509.30476379 -258456183.98269653 0 -258456183.98269653 210570042.68589401 0 0 0 0 -165930079.94541931 -206427627.50706482 0 -206427627.50706482 -48701513.90020752 0 0 0 0 -46826577.073963955 13311547.312673755 0 13311547.312673755 22314462.27345591 0 0 0 0 -78768984.265045166 31676156.112125397 0 31676156.112125397 -22465480.259405136 0 0 0 0 -100282213.71053696 -72422038.664964318 0 -72422038.664964318 -32122321.168769836 0 0 0 0 -209226192.16902924 -47322518.321761131 0 -47322518.321761131 11975395.296318054 0 0 0 0 124117720.44494629 49710763.511377811 0 49710763.511377811 44820931.465990067 0 0 0 0 100760745.5069809 104781802.31263828 0 104781802.31263828 2050990.8249225616 0 0 0 0 76855094.323257446 77804090.957931995 0 77804090.957931995 35257247.941215515 0 0 0 0 35630954.44859314 88536944.883031845 0 88536944.883031845 45517792.818216324 0 0 0 0 -49816470.741078198 17195368.288535058 0 17195368.288535058 20024614.737426296 0 0 0 0 87189243.443389893 85145177.322948456 0 85145177.322948456 21271819.092681885 0 0 0 0 -143430571.67514038 -20329037.603129148 0 -20329037.603129148 11168361.379800081 0 0 0 0 -333805187.72024536 188596428.65261841 0 188596428.65261841 -93927866.038269043 0 0 0 0 -33063234.633945085 -11387688.446123403 0 -11387688.446123403 157793.20562012028 0 0 0 0 6548485.3998705149 -102668025.01772171 0 -102668025.01772171 57269566.635948181 0 0 0 0 -641614794.86187744 460184460.42292023 0 460184460.42292023 136885420.10223007 0 0 0 0 -5773089.7128247581 1149016.5593862999 0 1149016.5593862999 -193541.91971408762 0 0 0 0 -26003023.839814082 -8088333.3309083991 0 -8088333.3309083991 122459.27030135691 0 0 0 0 239298294.74543381 158897296.53850174 0 158897296.53850174 -123332398.58258438 0 0 0 0 -642522129.39813232 -391715356.82217789 0 -391715356.82217789 542916604.06417084 0 0 0 0 13984937.97756958 106302680.64696932 0 106302680.64696932 67781282.651819229 0 0 0 0 -61723395.07247442 12585408.315445852 0 12585408.315445852 16666368.102729328 0 0 0 0 -131203490.26288033 -12693889.202135086 0 -12693889.202135086 1272249.3515396118 0 0 0 0 -193100820.57556725 -72043898.83318615 0 -72043898.83318615 23951865.003189087 0 0 0 0 420949408.78572845 303677292.4689045 0 303677292.4689045 197483693.5653038 0 0 0 0 -8225809.7917673392 -2281646.515273802 0 -2281646.515273802 139976.45248730853 0 0 0 0 366415648.35088539 112500938.62654781 0 112500938.62654781 -69032375.93031311 0 0 0 0 -353856559.70425415 -2442123.8221054077 0 -2442123.8221054077 97649951.375816345 0 0 0 0 -87089566.771774292 207084112.38362885 0 207084112.38362885 -266182023.5640831 0 0 0 0 -45110407.844894409 22624810.199943542 0 22624810.199943542 169580949.66613007 0 0 0 0 -52901257.070350647 93432182.875005722 0 93432182.875005722 138177739.04307079 0 0 0 0 -61544667.103515625 143217412.54757023 0 143217412.54757023 126410374.68133569 0 0 0 0 14351681.657546997 106485218.01499748 0 106485218.01499748 54306969.149748802 0 0 0 0 -31294754.822620392 117484704.54848886 0 117484704.54848886 -27826029.58045578 0 0 0 0 -32558514.246841431 123985578.75839901 0 123985578.75839901 49369464.234344482 0 0 0 0 34537922.686727524 99482086.745035291 0 99482086.745035291 -20425133.423957825 0 0 0 0 -33252323.906188965 59011430.972530365 0 59011430.972530365 28931228.54414463 0 0 0 0 -50508289.781936646 85703781.53930378 0 85703781.53930378 9385439.0722169876 0 0 0 0 -90138173.690750122 18732172.269346714 0 18732172.269346714 -77938710.981716156 0 0 0 0 -159779050.78634644 136144024.34440374 0 136144024.34440374 18560542.238155365 0 0 0 0 -82915218.788330078 154773656.60832596 0 154773656.60832596 -53794161.468818665 0 0 0 0 -131022079.13388062 25793814.196269035 0 25793814.196269035 -129139084.2043066 0 0 0 0 -567240222.76519775 49861122.464682579 0 49861122.464682579 -42748942.900400162 0 0 0 0 -203216195.17467499 12954214.160676718 0 12954214.160676718 -178056342.83072662 0 0 0 0 -798206.40700905025 27730.484618809074 0 27730.484618809074 -244942.99879576731 0 0 0 0 -531509657.94909668 -448755064.81410694 0 -448755064.81410694 -424696282.61385918 0 0 0 0 -103910858.59750366 331342119.78887129 0 331342119.78887129 290951079.02319622 0 0 0 0 -185786445.79543686 -280960355.17438078 0 -280960355.17438078 -280778094.24058914 0 0 0 0 -93225017.252349854 -90217454.971836567 0 -90217454.971836567 -233445133.41118956 0 0 0 0 -365750412.59035492 43341003.068077087 0 43341003.068077087 63865905.116293907 0 0 0 0 -21781530.887695312 122072211.97516346 0 122072211.97516346 186150400.73060131 0 0 0 0 -157075533.97927856 151703378.65956211 0 151703378.65956211 204303980.18449855 0 0 0 0 -108858235.48536682 100839513.06160831 0 100839513.06160831 42367391.962377548 0 0 0 0 -50587257.517063141 139597565.57145619 0 139597565.57145619 49414524.884414673 0 0 0 0 -73840221.081893921 -8528876.3409700394 0 -8528876.3409700394 72010939.623373032 0 0 0 0 2252854231.3247223 1091582952.9207764 0 1091582952.9207764 -644939731.42910862 0 0 0 0 -185533909.97909164 -251000798.33511364 0 -251000798.33511364 332090476.46771431 0 0 0 0 -716198457.27935791 -185890624.51342773 0 -185890624.51342773 393429223.28251743 0 0 0 0 572111765.8417511 293501087.84391308 0 293501087.84391308 337630902.69028765 0 0 0 0 216254379.48109436 -384987259.60144043 0 -384987259.60144043 164177823.2428484 0 0 0 0 -35383077.774703979 17627895.487733841 0 17627895.487733841 272006804.74098873 0 0 0 0 -72164543.20513916 -185261079.60630608 0 -185261079.60630608 -92830022.707982063 0 0 0 0 -101263803.75439453 121880470.07967567 0 121880470.07967567 193660172.99339867 0 0 0 0 -1470747.3254545182 -805127.16313255578 0 -805127.16313255578 583555.8699349435 0 0 0 0 -2664287.5690061897 -113366.87783147395 0 -113366.87783147395 -476643.48011746351 0 0 0 0 -153911329.75801086 -16082671.926508904 0 -16082671.926508904 -7081584.7490549088 0 0 0 0 35641411.592330933 -101028305.71966457 0 -101028305.71966457 25106642.577637196 0 0 0 0 -237914387.51818848 -29153908.286301613 0 -29153908.286301613 12111935.742323875 0 0 0 0 86444317.47543335 -136080994.27247143 0 -136080994.27247143 45804483.947420597 0 0 0 0 -83653377.998479843 -327538964.61206388 0 -327538964.61206388 -351390283.18705177 0 0 0 0 -5290127.4350252002 -768359.21275035664 0 -768359.21275035664 -415119.02250946965 0 0 0 0 -7030927.7210447937 -3119936.6716755778 0 -3119936.6716755778 3385523.2986896439 0 0 0 0 -126926350.63955975 -196406907.84190294 0 -196406907.84190294 33830950.40303421 0 0 0 0 -10671783.521592915 -2927439.0957172289 0 -2927439.0957172289 1038958.8990743868 0 0 0 0 -97792426.384685516 -356100083.73987579 0 -356100083.73987579 -195890072.44477654 0 0 0 0 43025380.780548096 82077586.190032959 0 82077586.190032959 -94287510.465461731 0 0 0 0 -121388764.36169434 120061965.03595543 0 120061965.03595543 31468166.631828308 0 0 0 0 -72285548.781585693 -108874245.61750793 0 -108874245.61750793 22479806.953432083 0 0 0 0 1093962827.0011444 -1700793857.5925159 0 -1700793857.5925159 -2701144954.4380074 0 0 0 0 -345533830.8569603 216456028.6672163 0 216456028.6672163 186255179.59704208 0 0 0 0 -187631244.150177 -228989857.97465324 0 -228989857.97465324 111995590.72347069 0 0 0 0 80518583.615478516 82554039.097003937 0 82554039.097003937 -1206559669.4992847 0 0 0 0 -252926211.29112244 -95568288.322789192 0 -95568288.322789192 451712630.7773304 0 0 0 0 -55126638.332986973 -3133696.5066932882 0 -3133696.5066932882 1723428.6083087742 0 0 0 0 -34459075.115447998 519496466.71787262 0 519496466.71787262 -473064688.37744522 0 0 0 0 -9927959.6538333893 336396616.94609308 0 336396616.94609308 -577125442.12564087 0 0 0 0 -188270502.37367249 889342.0826883316 0 889342.0826883316 528585218.3234005 0 0 0 0 -47538215.470355585 -2611007.3810402192 0 -2611007.3810402192 1776601.7706372687 0 0 0 0 -82829758.150672913 39079992.018888474 0 39079992.018888474 -197824501.36987686 0 0 0 0 -179206985.93270874 92229936.381811142 0 92229936.381811142 192343818.68036079 0 0 0 0 -32912572.127746582 343658127.05103111 0 343658127.05103111 -110466007.29814911 0 0 0 0 -152725240.86046219 80691754.603070259 0 80691754.603070259 313178010.59845734 0 0 0 0 -131120599.79883575 119137525.18512344 0 119137525.18512344 206061694.74514198 0 0 0 0 -190686195.12795258 -3172740.5884914398 0 -3172740.5884914398 701841353.83914185 0 0 0 0 -125545376.58194351 36140190.203317642 0 36140190.203317642 721164542.37523651 0 0 0 0 -369467579.348526 248974934.20254326 0 248974934.20254326 241904473.46949005 0 0 0 0 -24818725.411338806 155142918.28577423 0 155142918.28577423 210798386.63647938 0 0 0 0 -193662648.26202393 215764680.28898239 0 215764680.28898239 870963749.20959473 0 0 0 0 -221265140.60504913 60832330.251305103 0 60832330.251305103 1047694992.740799 0 0 0 0 152733096.18030548 -110679837.30609894 0 -110679837.30609894 600178731.731987 0 0 0 0 68945134.362277985 -286553460.86869526 0 -286553460.86869526 1012955347.2106628 0 0 0 0 -356434859.53231049 -253364690.63869095 0 -253364690.63869095 1635326830.1838837 0 0 0 0 -59313375.576478451 -15453153.999715969 0 -15453153.999715969 7355660.9335949142 0 0 0 0 92949275.086883545 48300613.936599731 0 48300613.936599731 155063951.92001724 0 0 0 0 4706615.2852630615 496065023.05994034 0 496065023.05994034 962392260.97697449 0 0 0 0 64261621.990310669 204803849.35808182 0 204803849.35808182 107736581.92325735 0 0 0 0 -42479299.811981201 39864674.535039902 0 39864674.535039902 77540309.173379421 0 0 0 0 74101679.452697754 127442090.42393208 0 127442090.42393208 20318425.863307953 0 0 0 0 -7576568.3546447754 68919849.653992653 0 68919849.653992653 195281910.8559885 0 0 0 0 29774894.018325806 98102676.28668499 0 98102676.28668499 -170441896.2843647 0 0 0 0 -31786726.789841846 6586014.365252126 0 6586014.365252126 6062401.7749418123 0 0 0 0 -157353721.32635498 62982033.332181931 0 62982033.332181931 441744984.73075867 0 0 0 0 -187651057.83589172 -14086477.890760899 0 -14086477.890760899 472345672.99649048 0 0 0 0 -39718490.993422225 -460393.24137536716 0 -460393.24137536716 3019414.5853255959 0 0 0 0 -71580152.500289917 190837015.24053955 0 190837015.24053955 -278092863.66162986 0 0 0 0 -78440971.461601257 39427747.717193604 0 39427747.717193604 -22802108.89496994 0 0 0 0 -94294290.705825806 120793298.43179131 0 120793298.43179131 36861181.495010376 0 0 0 0 -121189721.39741516 182088099.09176636 0 182088099.09176636 47142035.177200317 0 0 0 0 -133563542.62734985 122098637.08436203 0 122098637.08436203 186633814.93517303 0 0 0 0 -69270836.646308899 96662009.03875351 0 96662009.03875351 149632535.47793579 0 0 0 0 -85308102.313236773 13361006.276893515 0 13361006.276893515 32561942.584981643 0 0 0 0 -540338891.18739319 3932112.3139533997 0 3932112.3139533997 126152189.08703232 0 0 0 0 -19667749.778366089 58139209.395341873 0 58139209.395341873 87417140.005504608 0 0 0 0 -34470278.156005859 181610595.70817089 0 181610595.70817089 178278150.70671463 0 0 0 0 -290485519.34365082 -509855601.46948433 0 -509855601.46948433 -137032506.7815361 0 0 0 0 -89010136.097440556 17170944.406927727 0 17170944.406927727 30229268.609258361 0 0 0 0 -503891143.28752136 -182377560.65462017 0 -182377560.65462017 447709559.05327606 0 0 0 0 -141886506.46962738 -67593745.745603561 0 -67593745.745603561 -51979686.542031765 0 0 0 0 223245784.05281448 -481975715.28277397 0 -481975715.28277397 -181542412.76499939 0 0 0 0 -178381825.05765152 -39828405.495059967 0 -39828405.495059967 253796187.75785065 0 0 0 0 -180182614.32684326 -144980089.82704926 0 -144980089.82704926 279363436.40132141 0 0 0 0 456365984.82923889 881424386.59515381 0 881424386.59515381 -116340102.08108711 0 0 0 0 -3086751.329692401 -2006514.8897115495 0 -2006514.8897115495 6459545.6123142522 0 0 0 0 -206981119.32814026 171889301.75794983 0 171889301.75794983 693017801.14640045 0 0 0 0 -204424349.07601166 263052072.56225586 0 263052072.56225586 -1268173932.1309357 0 0 0 0 -999119107.2484436 -381778592.29494667 0 -381778592.29494667 160250687.5485689 0 0 0 0 -864137301.66864014 644464573.89695168 0 644464573.89695168 67523096.149360657 0 0 0 0 10362281.164970398 155862922.65882492 0 155862922.65882492 113735075.32958984 0 0 0 0 -1042695233.7662749 771663785.32450366 0 771663785.32450366 -37229206.69002533 0 0 0 0 -1117977246.670639 -562634694.41429901 0 -562634694.41429901 31274850.612453461 0 0 0 0 -115645905.59103394 46003274.551101685 0 46003274.551101685 215521215.20215225 0 0 0 0 -9683007.5090817735 16601950.260803957 0 16601950.260803957 12648518.447435318 0 0 0 0 -86730468.315797061 6482374.9256491642 0 6482374.9256491642 33775103.219263121 0 0 0 0 6525990.3702011108 104922551.27401733 0 104922551.27401733 47136397.366416931 0 0 0 0 -146453489.22573853 13705518.014130592 0 13705518.014130592 348186102.14774323 0 0 0 0 23932719.845161438 73344101.917510033 0 73344101.917510033 82291155.096635818 0 0 0 0 -5090679.2757878453 11168516.148856759 0 11168516.148856759 13809856.987887967 0 0 0 0 -59782110.483745269 -15165731.640968263 0 -15165731.640968263 22557245.504840285 0 0 0 0 -96350274.007904053 31405114.030431747 0 31405114.030431747 75206576.203735352 0 0 0 0 -137164791.17467976 74148125.649085641 0 74148125.649085641 33248401.310440063 0 0 0 0 -445109085.90647888 -554692571.39355755 0 -554692571.39355755 -406733080.76483917 0 0 0 0 422842246.53311157 23201063.13924408 0 23201063.13924408 23868388.035944939 0 0 0 0 -255083214.49278259 -44236615.657302856 0 -44236615.657302856 291119972.05579948 0 0 0 0 -2631453.4558558166 1952607.2618848325 0 1952607.2618848325 4552898.9708125032 0 0 0 0 -162460617.32752991 -178961133.90036774 0 -178961133.90036774 -62638311.191627502 0 0 0 0 -509452388.91799927 -289164689.45374298 0 -289164689.45374298 61422783.182971954 0 0 0 0 -505292813.97613525 -172363664.4523859 0 -172363664.4523859 196955997.25669098 0 0 0 0 -347642941.78144455 129288506.48498344 0 129288506.48498344 -15806739.612392426 0 0 0 0 -523360364.52816772 -89154223.137311935 0 -89154223.137311935 85656728.929512024 0 0 0 0 -79902500.817352295 -45684442.638701439 0 -45684442.638701439 194009096.85395241 0 0 0 0 -20700383.004498728 1179515.3683257326 0 1179515.3683257326 17244839.568193227 0 0 0 0 -62162112.8204422 -18943758.446854591 0 -18943758.446854591 59727066.661453247 0 0 0 0 -54046218.291381836 247476.19724082947 0 247476.19724082947 -14842688.258532524 0 0 0 0 -223236593.44728088 -1322078413.9148483 0 -1322078413.9148483 816086286.72016525 0 0 0 0 364718855.81970215 148503407.53477001 0 148503407.53477001 -210099729.77562141 0 0 0 0 -888031.77033789456 265157.83931455761 0 265157.83931455761 3331335.0155359106 0 0 0 0 -220623423.03756714 -263260660.92866707 0 -263260660.92866707 -125252210.66822433 0 0 0 0 -524526556.18384534 -248677454.81647083 0 -248677454.81647083 126337126.3786087 0 0 0 0 -990561059.71884155 -203756918.26743507 0 -203756918.26743507 190682579.18434525 0 0 0 0 -734568018.82574463 -779494714.9864254 0 -779494714.9864254 -87032922.631568909 0 0 0 0 -807312073.51629639 258485641.63356781 0 258485641.63356781 15801655.477730989 0 0 0 0 -3372341.5940990448 41658.043430559337 0 41658.043430559337 2046835.2676669788 0 0 0 0 -253543294.07620239 -164460208.31863594 0 -164460208.31863594 93765079.344322205 0 0 0 0 -299298748.59835815 -128400953.72772598 0 -128400953.72772598 226701673.43565559 0 0 0 0 -462009604.88101196 332496384.39052963 0 332496384.39052963 -365991647.1383338 0 0 0 0 -468581316.32154846 -509032299.99415588 0 -509032299.99415588 -420961574.31242371 0 0 0 0 -7469703.9980521016 -4918376.7732283287 0 -4918376.7732283287 12841327.707436375 0 0 0 0 261580083.32776642 -32527730.682592392 0 -32527730.682592392 -287442230.17798042 0 0 0 0 259210106.08065033 312713828.39560986 0 312713828.39560986 66451056.653530121 0 0 0 0 -73936093.702337265 -14339533.19250536 0 -14339533.19250536 26007692.175769806 0 0 0 0 -276626037.08132553 46865439.978667259 0 46865439.978667259 150082537.79505539 0 0 0 0 -5803878.3293380737 48481469.282608032 0 48481469.282608032 -46062568.525344849 0 0 0 0 -49027365.83782196 51056495.011627197 0 51056495.011627197 675401.50091552734 0 0 0 0 -28351087.018409729 25752986.691108704 0 25752986.691108704 26663409.159500122 0 0 0 0 -17954095.002784729 -56343245.520334244 0 -56343245.520334244 -65660983.697525978 0 0 0 0 450053860.80387115 77207932.766113281 0 77207932.766113281 -55959914.436124802 0 0 0 0 -101072395.93530273 -331769905.24923897 0 -331769905.24923897 403792054.72006226 0 0 0 0 -524116803.86859894 -310258302.53974724 0 -310258302.53974724 287272877.53796768 0 0 0 0 -208703617.56163025 -152793605.87030792 0 -152793605.87030792 153194588.4374181 0 0 0 0 -255455105.2928772 -36511900.332256317 0 -36511900.332256317 246660720.45093536 0 0 0 0 -277386768.58583069 -7209441.4744110107 0 -7209441.4744110107 640262273.48965073 0 0 0 0 -10873843.264701843 -23724647.102964401 0 -23724647.102964401 40311862.626525879 0 0 0 0 26833106.68421936 -1082507.8053283691 0 -1082507.8053283691 -15983714.983222961 0 0 0 0 19550258.052368164 12470352.835152626 0 12470352.835152626 70854500.817344666 0 0 0 0 15843478.365402222 -34175503.938976288 0 -34175503.938976288 25149608.495948792 0 0 0 0 -3056279.6138591766 -97371004.63855648 0 -97371004.63855648 12187910.989425659 0 0 0 0 -6055198.4971466064 -80848281.388706207 0 -80848281.388706207 62635274.973798752 0 0 0 0 27607822.358612061 -70746052.671348572 0 -70746052.671348572 64692159.338917613 0 0 0 0 -17923766.654682159 49002199.408622265 0 49002199.408622265 33466759.256576538 0 0 0 0 -57476870.029960632 -55179232.739936829 0 -55179232.739936829 64976640.32321167 0 0 0 0 -11978579.605247498 -20292225.465473175 0 -20292225.465473175 134913620.5614357 0 0 0 0 -3259802.0751724243 31310355.613870621 0 31310355.613870621 66584261.431243896 0 0 0 0 -5423103.4222056549 -5668725.008945005 0 -5668725.008945005 4466915.9823888503 0 0 0 0 -12528669.740638733 -33683159.570178986 0 -33683159.570178986 53332061.520269394 0 0 0 0 40328822.242927551 -94213521.960014343 0 -94213521.960014343 77566391.952358246 0 0 0 0 -73078241.227657318 -849424.26713466644 0 -849424.26713466644 77169306.015216827 0 0 0 0 -45035020.575004578 -75515683.325805664 0 -75515683.325805664 125165466.36570358 0 0 0 0 -38028950.100341924 -28805110.337223802 0 -28805110.337223802 668170.3852926367 0 0 0 0 -29926886.226488113 -29620318.142410278 0 -29620318.142410278 68346378.706748962 0 0 0 0 -42563489.846504644 2683353.1493502669 0 2683353.1493502669 18224488.297027856 0 0 0 0 66251210.021526337 43518493.892320156 0 43518493.892320156 25099540.27142334 0 0 0 0 -66296689.954839848 -6144138.9507480841 0 -6144138.9507480841 22731056.576964103 0 0 0 0 -29300342.252128601 -8757787.3043365479 0 -8757787.3043365479 28967444.668924332 0 0 0 0 -53390789.92937088 -25185948.774354935 0 -25185948.774354935 52786400.199319839 0 0 0 0 -43188767.470321387 2171817.851157492 0 2171817.851157492 26534659.085603014 0 0 0 0 -56554509.619052887 -313684.11042404175 0 -313684.11042404175 35434310.134970665 0 0 0 0 -61160032.399885178 -17419457.110552788 0 -17419457.110552788 48951966.080839157 0 0 0 0 -29822238.334400944 -7373858.7664140072 0 -7373858.7664140072 17776413.141950838 0 0 0 0 -61146775.420807838 53686746.513679743 0 53686746.513679743 46390154.239303589 0 0 0 0 -13791282.494018555 -6098160.2816982269 0 -6098160.2816982269 13605459.451675415 0 0 0 0 -2912269.3230194971 8276943.5692719538 0 8276943.5692719538 13804612.455955757 0 0 0 0 -306152272.33807373 224719511.96930504 0 224719511.96930504 1810394459.1321411 0 0 0 0 308450802.72175598 -1779861041.5096092 0 -1779861041.5096092 -756798412.89854813 0 0 0 0 -2445101603.7464752 1812411294.4172668 0 1812411294.4172668 954784335.51860046 0 0 0 0 1466364282.9167786 947820884.33883858 0 947820884.33883858 -1977127590.4324932 0 0 0 0 1784904639.5244446 65333706.062324524 0 65333706.062324524 -443567781.75456047 0 0 0 0 -11935237.646217346 2735126.8161683083 0 2735126.8161683083 11464820.267989159 0 0 0 0 -19901638.175701074 7494418.2856196798 0 7494418.2856196798 16998307.010105133 0 0 0 0 394726712.37469482 158168140.28396606 0 158168140.28396606 569131557.54618835 0 0 0 0 -3849438.0612564087 2438906.6536331177 0 2438906.6536331177 18440322.07724762 0 0 0 0 -23234922.055910654 691696.71285979822 0 691696.71285979822 13215241.247583494 0 0 0 0 -7343434.2867431641 1289948.9114443064 0 1289948.9114443064 8063968.7508950233 0 0 0 0 -7712247.8695737347 2575301.1529329047 0 2575301.1529329047 19073342.706704877 0 0 0 0 -11846182.109808724 386590.75580488145 0 386590.75580488145 13955177.498241082 0 0 0 0 -20321288.321084023 -3443774.0984672848 0 -3443774.0984672848 10526971.589982321 0 0 0 0 -14263544.216079712 -6769216.9891257286 0 -6769216.9891257286 13588782.601036072 0 0 0 0 -14151079.437240601 -6183303.8481111526 0 -6183303.8481111526 13859517.346920967 0 0 0 0 -11780763.936637111 -11435955.031321308 0 -11435955.031321308 22148232.556224149 0 0 0 0 -13225074.553604126 -5214035.4697151184 0 -5214035.4697151184 8133692.9858608246 0 0 0 0 -7186533.1877707094 5316497.8601835631 0 5316497.8601835631 12718523.273389127 0 0 0 0 -7182600.4771316051 -2826589.1023525689 0 -2826589.1023525689 6711348.1221285658 0 0 0 0 -5786703.7598342896 1334402.567728281 0 1334402.567728281 15104459.727245331 0 0 0 0 5087171.8380050659 7547533.5944442749 0 7547533.5944442749 40080503.162191391 0 0 0 0 -10483438.4897995 3948014.581243515 0 3948014.581243515 24605726.229131699 0 0 0 0 -9235195.9289994389 273077.59898693115 0 273077.59898693115 9669681.7857395336 0 0 0 0 -8258593.9169178009 4707571.9062838554 0 4707571.9062838554 21488215.238847733 0 0 0 0 -1341970.2813278213 3081789.4910077602 0 3081789.4910077602 3678175.1617876356 0 0 0 0 -12717384.24307251 18151090.978683472 0 18151090.978683472 70737503.644229889 0 0 0 0 -3468566.9043273926 41899468.701786041 0 41899468.701786041 131248083.30766296 0 0 0 0 128272611.55723572 233488435.26831436 0 233488435.26831436 -614197625.19649601 0 0 0 0 56818060.788269043 301470079.66372299 0 301470079.66372299 -286680500.95989227 0 0 0 0 19358348.437488556 -30433181.876155853 0 -30433181.876155853 80309807.860954285 0 0 0 0 -10155409.770233154 -17389984.690948486 0 -17389984.690948486 100198916.22045135 0 0 0 0 -11608617.631148249 8804265.5646763183 0 8804265.5646763183 10589384.060246058 0 0 0 0 103360568.28317261 186423249.53880692 0 186423249.53880692 -303715722.8754425 0 0 0 0 -25027728.452545166 -2078186.342830658 0 -2078186.342830658 143773639.10673904 0 0 0 0 104304880.59414673 149038256.47303772 0 149038256.47303772 215997289.67977905 0 0 0 0 -2938255.5100262836 317092.16938054562 0 317092.16938054562 3687835.9049290195 0 0 0 0 -16433475.270095825 53238686.951461792 0 53238686.951461792 5712515.0593948364 0 0 0 0 -405387440.27507019 208941433.97561264 0 208941433.97561264 -24008382.676696777 0 0 0 0 9074822.6926498413 362022979.74767685 0 362022979.74767685 -343794353.32379532 0 0 0 0 -406939947.45417786 615926820.1030674 0 615926820.1030674 -416584261.22642517 0 0 0 0 -80548376.006904602 -131208328.55650902 0 -131208328.55650902 -158341170.14450455 0 0 0 0 88946201.350997925 -9878374.9693403244 0 -9878374.9693403244 -71835705.727657318 0 0 0 0 -113587698.17904663 -30842405.94913578 0 -30842405.94913578 206126290.64364243 0 0 0 0 -11297958.207089111 11318447.75006371 0 11318447.75006371 16755320.354601808 0 0 0 0 -217983798.39464569 -16021784.955118179 0 -16021784.955118179 205521390.68154907 0 0 0 0 -4061732753.1877441 -1901320649.0138321 0 -1901320649.0138321 1964413749.9728432 0 0 0 0 -81301833.361953735 18178627.282572746 0 18178627.282572746 47642643.745530367 0 0 0 0 -17381507.397627681 7916689.7729960866 0 7916689.7729960866 12520821.863639658 0 0 0 0 -34235328.818237305 -24939053.149399757 0 -24939053.149399757 -108561229.84440231 0 0 0 0 -9078806.4450775906 11417975.689846031 0 11417975.689846031 29072634.394265216 0 0 0 0 -3251118.4165359288 8740520.2442113012 0 8740520.2442113012 21912397.297980487 0 0 0 0 -394084655.95424652 112003268.55700302 0 112003268.55700302 170124906.40999413 0 0 0 0 -125582741.37017822 343122871.27611876 0 343122871.27611876 -227305239.66227722 0 0 0 0 -497510336.05789185 446511385.36165142 0 446511385.36165142 -158788501.84729671 0 0 0 0 -470726312.35279846 288476505.45295811 0 288476505.45295811 181902041.22910309 0 0 0 0 -572327003.02903748 -94016689.266023636 0 -94016689.266023636 -124665985.81831264 0 0 0 0 -272898452.31481171 570211366.3317852 0 570211366.3317852 -539617809.5619278 0 0 0 0 186167271.59312439 570552339.05483723 0 570552339.05483723 -748234102.83296967 0 0 0 0 1502361.2107052431 -366213.58498029783 0 -366213.58498029783 -3295129.7650045138 0 0 0 0 703399347.41748047 381604932.94334269 0 381604932.94334269 -684292017.68876362 0 0 0 0 -753886940.19903564 535791779.93568563 0 535791779.93568563 28618703.894227982 0 0 0 0 -409046595.41188049 300173765.3449297 0 300173765.3449297 326024014.82173061 0 0 0 0 413726496.92454529 -72811640.17270422 0 -72811640.17270422 -214597646.04050827 0 0 0 0 347133284.88505554 302330289.0919323 0 302330289.0919323 -650937910.89188099 0 0 0 0 -83177901.144199371 261904443.66730678 0 261904443.66730678 -439957979.45655823 0 0 0 0 85624585.977798462 -163379392.16832066 0 -163379392.16832066 173538267.03261471 0 0 0 0 117633336.35064697 -41819468.125541687 0 -41819468.125541687 17010605.311898232 0 0 0 0 -2774113.6759296209 -3125166.8026869353 0 -3125166.8026869353 3569789.2518578675 0 0 0 0 -11881004.446361929 -35568.279672477394 0 -35568.279672477394 1109935.1813298576 0 0 0 0 -11199863.643005371 -1243458.4409828186 0 -1243458.4409828186 13976417.50245285 0 0 0 0 -10937016.390182495 -1891682.8619194031 0 -1891682.8619194031 11665317.621429443 0 0 0 0 -11715784.543283463 1968260.661043644 0 1968260.661043644 15283667.372428894 0 0 0 0 -11879803.060203552 2010878.6013393402 0 2010878.6013393402 7014212.8311538696 0 0 0 0 -14012524.566932023 5786106.7723921854 0 5786106.7723921854 2894644.2934470088 0 0 0 0 -11971719.310272217 3353418.1666374207 0 3353418.1666374207 10129854.217912674 0 0 0 0 -9101771.8958740234 2568603.7910003662 0 2568603.7910003662 12894356.370319366 0 0 0 0 -15304234.503903367 3505864.8621948222 0 3505864.8621948222 4351634.5133747794 0 0 0 0 -8682337.0843811035 -1049819.3405075073 0 -1049819.3405075073 13545298.550949097 0 0 0 0 -6858613.4971008301 -5035163.6623878479 0 -5035163.6623878479 21642771.657447815 0 0 0 0 -12411584.505187988 7711467.4708251953 0 7711467.4708251953 25976366.222757339 0 0 0 0 -596874.74045894295 102121.05188999325 0 102121.05188999325 256989.39183768257 0 0 0 0 -356492534.24510193 147813139.94296932 0 147813139.94296932 496194546.02922678 0 0 0 0 -8923642.7619476318 -9530152.8318281174 0 -9530152.8318281174 24545549.658744812 0 0 0 0 -8331276.5060348511 -5438942.0439062119 0 -5438942.0439062119 24545782.984455109 0 0 0 0 -15647780.775765277 2177851.9664317779 0 2177851.9664317779 2199920.0301219672 0 0 0 0 -10970338.253146872 -12352235.522080839 0 -12352235.522080839 7831889.8571539614 0 0 0 0 -183793859.57792664 -171567494.37166595 0 -171567494.37166595 251038825.76528168 0 0 0 0 -90957848.9478302 23497205.435246468 0 23497205.435246468 94222907.063072205 0 0 0 0 659132370.43344116 -37299736.375607967 0 -37299736.375607967 -353206730.75598526 0 0 0 0 1712319403.151001 -1949693231.2641411 0 -1949693231.2641411 1323623090.063261 0 0 0 0 258424.52189320326 -1250332.554452532 0 -1250332.554452532 459656.0736646927 0 0 0 0 -1020658519.7984009 -649413271.59886932 0 -649413271.59886932 -261896890.10988235 0 0 0 0 899392781.1975708 1671581247.3478403 0 1671581247.3478403 -170313743.76913071 0 0 0 0 -2681420028.1538086 762069172.05250549 0 762069172.05250549 -181752514.04454041 0 0 0 0 459920094.97732544 -476066614.93084717 0 -476066614.93084717 -1116733514.363724 0 0 0 0 -198757280.43066406 407821464.08525085 0 407821464.08525085 -946787182.63948059 0 0 0 0 -6605634.4922639579 2241939.3278579991 0 2241939.3278579991 3848297.6479662666 0 0 0 0 -9552851.9034935012 -4543515.9953602981 0 -4543515.9953602981 1042015.7620906401 0 0 0 0 -170623801.1920166 -111504219.1798954 0 -111504219.1798954 -51122580.793655396 0 0 0 0 2526970579.5722504 5509966291.0458279 0 5509966291.0458279 -3097436549.1407166 0 0 0 0 -3415130651.1142731 497282668.7239151 0 497282668.7239151 227711764.97693634 0 0 0 0 -298379562.42593384 -410163116.39545441 0 -410163116.39545441 -284229922.57797241 0 0 0 0 -518663824.71826172 -34911310.432257652 0 -34911310.432257652 89893769.345108032 0 0 0 0 -1140169219.1109619 -125781737.45531845 0 -125781737.45531845 225567550.86291885 0 0 0 0 -514728269.74578857 335286801.34546661 0 335286801.34546661 230532439.50586748 0 0 0 0 -537891684.15634155 108844070.17417717 0 108844070.17417717 287439150.24179459 0 0 0 0 -504398351.05345154 18658016.496969223 0 18658016.496969223 238688319.21042216 0 0 0 0 18705147.670562744 -198361532.74310684 0 -198361532.74310684 231379522.23295975 0 0 0 0 -206482062.8961792 102996504.25491714 0 102996504.25491714 174130634.29282761 0 0 0 0 -382436449.29110336 97242364.961061001 0 97242364.961061001 186743381.64636993 0 0 0 0 -356218507.13446045 166974740.70427322 0 166974740.70427322 181859250.38672805 0 0 0 0 -389806630.7870636 54732085.207312584 0 54732085.207312584 276461804.42594528 0 0 0 0 -351351902.38145447 288250277.12615967 0 288250277.12615967 312498872.25759101 0 0 0 0 -393532550.61904144 158904732.47701263 0 158904732.47701263 35997551.157671928 0 0 0 0 -174724403.53125 112294645.65406609 0 112294645.65406609 -51985315.188492537 0 0 0 0 -259805669.96676826 -4496428.1882861853 0 -4496428.1882861853 37598421.593593597 0 0 0 0 -199407928.20268774 -71959520.458327919 0 -71959520.458327919 615988933.92118454 0 0 0 0 158050543.79753113 317998462.62141037 0 317998462.62141037 285225407.34521675 0 0 0 0 -82317998.225002289 -189047737.50969696 0 -189047737.50969696 575655694.49434662 0 0 0 0 5955094.5855369568 -199927279.8594451 0 -199927279.8594451 396508423.6026535 0 0 0 0 -209698603.25175476 143322167.97557068 0 143322167.97557068 879148318.16158962 0 0 0 0 -333575963.87658691 -454332461.1843605 0 -454332461.1843605 -387196961.35912663 0 0 0 0 -438448319.20339966 -236847827.61566877 0 -236847827.61566877 -129309796.25709009 0 0 0 0 -136778301.43450451 -172220302.76887929 0 -172220302.76887929 -414265138.46255112 0 0 0 0 -170236116.06442261 111523010.62408829 0 111523010.62408829 86001104.645608902 0 0 0 0 -46328915.745178223 26490513.630168915 0 26490513.630168915 65395113.285567284 0 0 0 0 -28752933.605377197 -14528976.022251129 0 -14528976.022251129 50894186.723566055 0 0 0 0 8293124.1867980957 47258574.899852753 0 47258574.899852753 47821214.133813858 0 0 0 0 -399977011.5847168 359597742.19942856 0 359597742.19942856 24010668.567405701 0 0 0 0 -9432790.9747197032 1904370.5677693896 0 1904370.5677693896 3818275.2787433863 0 0 0 0 -451906350.70806885 -348212064.15358734 0 -348212064.15358734 -271636029.6911087 0 0 0 0 45467761.334442139 -399259.36424255371 0 -399259.36424255371 226471125.89837646 0 0 0 0 -503295163.67337036 -198148656.45852661 0 -198148656.45852661 280368203.44989777 0 0 0 0 -169297.52229651809 317215.35624372307 0 317215.35624372307 -72878.331961315125 0 0 0 0 -868748999.53213501 858255903.60298491 0 858255903.60298491 -481888879.34368134 0 0 0 0 96806684.120666504 -471910194.73459244 0 -471910194.73459244 581234449.06113434 0 0 0 0 124165324.96560669 -1053445443.7649231 0 -1053445443.7649231 591017787.62607574 0 0 0 0 -376214256.17550659 166401667.77096939 0 166401667.77096939 264387803.19966316 0 0 0 0 -558630888.83783722 -129712984.80854034 0 -129712984.80854034 897556260.99848938 0 0 0 0 -467668518.17727661 -188615633.97954559 0 -188615633.97954559 241444023.37375259 0 0 0 0 -452726735.74983215 -485824540.88022995 0 -485824540.88022995 -52156956.878032684 0 0 0 0 -412884984.03601074 -312175667.85004616 0 -312175667.85004616 -153695742.57800293 0 0 0 0 -520492436.73043823 -389427901.21959496 0 -389427901.21959496 178107193.1911087 0 0 0 0 -82824168.789840698 -42098943.417139053 0 -42098943.417139053 14516728.061580181 0 0 0 0 -11157453.546958923 -22539750.929796457 0 -22539750.929796457 -6714121.6303062439 0 0 0 0 -11569695.890258789 11428572.253644943 0 11428572.253644943 2823074.5290417671 0 0 0 0 -29092268.830093384 10986065.550788879 0 10986065.550788879 51981267.024232864 0 0 0 0 150804969.28979492 -186612996.57886505 0 -186612996.57886505 199722948.20966339 0 0 0 0 -25685377.9324646 19303865.931361198 0 19303865.931361198 29971478.090417862 0 0 0 0 -10954073.798307836 890138.99845766183 0 890138.99845766183 2102343.3709835373 0 0 0 0 -10649722.679893494 -6028801.6849532127 0 -6028801.6849532127 31659545.350845337 0 0 0 0 -2642897.3617566675 -898564.06770864129 0 -898564.06770864129 3326340.9938031044 0 0 0 0 -5611556.8929338083 -3724592.9056206271 0 -3724592.9056206271 10266420.402700962 0 0 0 0 -32331359.362330437 -17449927.765794396 0 -17449927.765794396 22086942.609859467 0 0 0 0 -132604451.02177429 -19298937.960765839 0 -19298937.960765839 9989900.599407196 0 0 0 0 -13043111.86332389 938683.61417371733 0 938683.61417371733 2796391.9549508896 0 0 0 0 -143053270.92172241 133219973.86133194 0 133219973.86133194 859327655.77128601 0 0 0 0 -178572434.79981995 5018438.5037841797 0 5018438.5037841797 856024089.42101288 0 0 0 0 -278947677.87442017 39093618.804389954 0 39093618.804389954 847518674.27139282 0 0 0 0 -224433598.34928894 -41405925.15385437 0 -41405925.15385437 1235147451.4857635 0 0 0 0 -282886716.4781189 126948060.21965027 0 126948060.21965027 927101692.6415863 0 0 0 0 -196333276.95272827 -37348112.497814178 0 -37348112.497814178 453890984.96884155 0 0 0 0 -194494563.34475708 173537414.90493202 0 173537414.90493202 918899826.52587128 0 0 0 0 125818948.9133606 252298931.63258362 0 252298931.63258362 448147137.19731903 0 0 0 0 -174088568.71252441 20338580.538427353 0 20338580.538427353 961115100.6822052 0 0 0 0 -29981578.889648438 386965433.88746262 0 386965433.88746262 774055335.61653137 0 0 0 0 -261649357.16291809 -221323861.97490311 0 -221323861.97490311 961378790.7798996 0 0 0 0 169255672.47503662 -431136067.63539505 0 -431136067.63539505 339758924.69802856 0 0 0 0 -553252155.84585571 -191424860.47376251 0 -191424860.47376251 260773437.62683105 0 0 0 0 -130366062.45781708 199988749.65642548 0 199988749.65642548 -459803822.28157043 0 0 0 0 -95854921.965744019 -135045551.94480515 0 -135045551.94480515 110563153.08021164 0 0 0 0 -446982057.23986816 -578338063.26787567 0 -578338063.26787567 -237399673.04478455 0 0 0 0 120362846.38349152 -560187799.27643204 0 -560187799.27643204 -995230971.23757267 0 0 0 0 -118224036.70045471 57870413.474052429 0 57870413.474052429 375936339.69723511 0 0 0 0 21129773.484802246 -176686725.19694519 0 -176686725.19694519 -309888404.02971649 0 0 0 0 22137098.209869385 -510669430.53697968 0 -510669430.53697968 -378134973.16501331 0 0 0 0 -212313216.34683228 -595570771.63951874 0 -595570771.63951874 32819261.945570946 0 0 0 0 -34409004.799758911 -97870563.38336277 0 -97870563.38336277 93938241.085083008 0 0 0 0 -46155506.526367188 -329754680.02530289 0 -329754680.02530289 446469174.64822006 0 0 0 0 -2168914.2975807525 2389685.1691234708 0 2389685.1691234708 1078917.2375931293 0 0 0 0 189311840.93496704 -383485466.12432098 0 -383485466.12432098 104821474.90289307 0 0 0 0 -11138526.92574501 -320203.94607234001 0 -320203.94607234001 5079469.1694564819 0 0 0 0 -15063928.3715633 -2068992.585966602 0 -2068992.585966602 7067322.9362853775 0 0 0 0 -997077.99426124245 1079591.6795052886 0 1079591.6795052886 155304.50307565834 0 0 0 0 243675308.81303406 8739709.3634910583 0 8739709.3634910583 5424703.9719619751 0 0 0 0 -122849256.50730896 -268929671.94750977 0 -268929671.94750977 419685963.23465729 0 0 0 0 -177782686.59851074 142849878.49052525 0 142849878.49052525 26893297.492286682 0 0 0 0 -253916262.92861938 -27750333.617790222 0 -27750333.617790222 -119709606.32121134 0 0 0 0 -215125314.46713257 -264819939.0926857 0 -264819939.0926857 204813070.96829224 0 0 0 0 -474545832.5675621 87977080.00294733 0 87977080.00294733 556287290.67655182 0 0 0 0 -227964053.74595642 -502022032.02283669 0 -502022032.02283669 -110321985.83778 0 0 0 0 -6672742.0704389438 989989.5476318514 0 989989.5476318514 3663767.4022885859 0 0 0 0 1775245.5019226074 3566425.526473999 0 3566425.526473999 -9375650.6159133911 0 0 0 0 -6071264.5142822266 10378662.052080154 0 10378662.052080154 21268364.745220184 0 0 0 0 -1566261.7686462402 17394500.553222656 0 17394500.553222656 -11036188.871732712 0 0 0 0 -14928720.886193462 5100710.3162846975 0 5100710.3162846975 3658788.3503666073 0 0 0 0 -12716661.204788208 2137791.413438797 0 2137791.413438797 8860755.0931739807 0 0 0 0 -4821362.2333145142 -164399.59797286987 0 -164399.59797286987 8857139.308921814 0 0 0 0 24316616.199630737 18122576.618736267 0 18122576.618736267 -16929731.21490097 0 0 0 0 -20865403.976428986 -8114824.8800597191 0 -8114824.8800597191 52728272.223190308 0 0 0 0 -6530911.8855421478 2147646.4563999213 0 2147646.4563999213 493033.24444811419 0 0 0 0 -2103625.4339563064 443794.50590770319 0 443794.50590770319 258042.94435743615 0 0 0 0 67582016.645011902 -116078375.13328171 0 -116078375.13328171 124500012.15740967 0 0 0 0 30573585.829025269 -59304482.520359039 0 -59304482.520359039 37904993.984481812 0 0 0 0 23869979.805389404 -40848277.620449066 0 -40848277.620449066 26292246.724411011 0 0 0 0 -27433367.897994995 -64889714.471828461 0 -64889714.471828461 85303073.115673065 0 0 0 0 19437601.652458191 -76459420.454994202 0 -76459420.454994202 75363904.510681152 0 0 0 0 4126011.5207519531 -52750626.406406403 0 -52750626.406406403 58387563.988861084 0 0 0 0 -53234.14811706543 -52487726.699012756 0 -52487726.699012756 88173101.691501617 0 0 0 0 -13024295.672610432 511504.68823902216 0 511504.68823902216 3192862.469092302 0 0 0 0 2454756.320098877 -36091335.147850037 0 -36091335.147850037 68435873.819965363 0 0 0 0 -2487262.9585037231 -28738712.708927155 0 -28738712.708927155 75164793.755672455 0 0 0 0 -11900208.431427002 23130656.789524078 0 23130656.789524078 24778998.55844593 0 0 0 0 -3983849.83644104 32966281.22687912 0 32966281.22687912 925014.39026641846 0 0 0 0 -8230902.9465097114 662730.4165706858 0 662730.4165706858 1245749.9506413694 0 0 0 0 -44485175.708316803 -29634886.346188545 0 -29634886.346188545 58923430.875 0 0 0 0 5152993.4590148926 47627051.93586731 0 47627051.93586731 74409739.314080238 0 0 0 0 56021237.112731934 -19718457.259925842 0 -19718457.259925842 -52693222.436470032 0 0 0 0 -137520190.7975769 12932797.625556946 0 12932797.625556946 234083897.86389351 0 0 0 0 -2810085.3631321937 -699045.96067095734 0 -699045.96067095734 2011138.1878661998 0 0 0 0 207169637.40713501 127616883.81408691 0 127616883.81408691 -102005908.22957611 0 0 0 0 -94582823.761238098 8022808.6033439636 0 8022808.6033439636 89175124.695589066 0 0 0 0 -239260484.50285339 99789704.29306221 0 99789704.29306221 113954140.57395172 0 0 0 0 78458337.104797363 13132143.543739319 0 13132143.543739319 134813246.82520676 0 0 0 0 -82032402.39907074 -33712428.40417099 0 -33712428.40417099 112761276.46244049 0 0 0 0 -56713938.271850586 31819981.89988327 0 31819981.89988327 181059560.92879105 0 0 0 0 14551339.326272964 -4144798.8297567368 0 -4144798.8297567368 100697703.16910553 0 0 0 0 -53627923.859954834 -20453087.885219574 0 -20453087.885219574 116866177.22873688 0 0 0 0 -33740732.286277771 -78085937.935352325 0 -78085937.935352325 7053921.4812736511 0 0 0 0 -107126637.44538879 -54065904.824962616 0 -54065904.824962616 95956992.955703735 0 0 0 0 -33044787.295669556 -50574942.512102127 0 -50574942.512102127 8998067.3652458191 0 0 0 0 -287337545.93611145 -91777628.636796951 0 -91777628.636796951 61546244.312454224 0 0 0 0 -191702746.29730606 35571723.784295082 0 35571723.784295082 -489738.11698913574 0 0 0 0 -338442601.27456665 -33470337.651456833 0 -33470337.651456833 81886881.658496857 0 0 0 0 -139230099.86532211 -83074216.168623924 0 -83074216.168623924 142558065.03839493 0 0 0 0 27045920.088348389 -162647224.8745594 0 -162647224.8745594 200624689.90121269 0 0 0 0 697225877.00275421 396614233.34575844 0 396614233.34575844 295772788.69833374 0 0 0 0 109641640.23407745 -101219296.27751732 0 -101219296.27751732 -134880044.17038727 0 0 0 0 111362948.43271542 -116917709.53756762 0 -116917709.53756762 -17506978.063926697 0 0 0 0 -686880.12031811103 -554570.34741766565 0 -554570.34741766565 1740559.6374479495 0 0 0 0 -31176059.562652588 190033409.31428909 0 190033409.31428909 -113737875.57950878 0 0 0 0 4690379.2744255066 20630338.239771843 0 20630338.239771843 227187387.76196289 0 0 0 0 6640083.4938831329 1952665.8866281509 0 1952665.8866281509 18603868.73285675 0 0 0 0 -3743817.7102737427 -37896980.196813583 0 -37896980.196813583 115543316.0147419 0 0 0 0 -3726524.6566619873 -39825953.757118225 0 -39825953.757118225 55720138.583282471 0 0 0 0 -387657035.05725861 -81743611.492294312 0 -81743611.492294312 200352103.90548706 0 0 0 0 -299894986.20439529 -293601384.8017168 0 -293601384.8017168 -20112479.281044006 0 0 0 0 -331006402.43161774 -79865113.075914383 0 -79865113.075914383 192971901.98366547 0 0 0 0 -37496904.466545105 -117081230.78737831 0 -117081230.78737831 86894135.748605728 0 0 0 0 -44035850.76864624 -162722046.26764679 0 -162722046.26764679 138222195.43508339 0 0 0 0 -224637094.82009888 -144939849.13739395 0 -144939849.13739395 140679257.09216309 0 0 0 0 159566063.33604431 -220634567.93187904 0 -220634567.93187904 69828007.081413269 0 0 0 0 80973488.958259583 -16687668.331681252 0 -16687668.331681252 82980950.077468872 0 0 0 0 -315456505.05765915 -76775158.613978386 0 -76775158.613978386 191945596.758255 0 0 0 0 -270311101.29807281 -40745328.129940987 0 -40745328.129940987 190153656.31277466 0 0 0 0 -382967990.80149078 25389453.491743088 0 25389453.491743088 171416042.06960297 0 0 0 0 -10347909.482628334 -1410483.9009525962 0 -1410483.9009525962 2490695.8677988313 0 0 0 0 -90162315.661682129 49820607.538328171 0 49820607.538328171 130574898.37260056 0 0 0 0 -530229066.05865288 -4246599.2165374756 0 -4246599.2165374756 74705152.69594574 0 0 0 0 -363209744.7996521 24614966.210720062 0 24614966.210720062 -39893981.66349411 0 0 0 0 -2899109.8757735956 -619894.03997522965 0 -619894.03997522965 767321.41357510164 0 0 0 0 -376702221.93126106 185616687.04503679 0 185616687.04503679 164220153.69822693 0 0 0 0 -766497648.46939087 -138123804.9949894 0 -138123804.9949894 87842855.890543938 0 0 0 0 315796030.23751831 411513907.01862144 0 411513907.01862144 127036682.11420822 0 0 0 0 -699623303.97930717 -497699146.82431507 0 -497699146.82431507 -312102635.78290558 0 0 0 0 -1063059518.3883457 437085410.26851892 0 437085410.26851892 468820208.63705444 0 0 0 0 101238947.06918335 290804043.52528381 0 290804043.52528381 -138378075.14398956 0 0 0 0 43696867.501312256 143659917.17633057 0 143659917.17633057 -172710209.24348831 0 0 0 0 -54934564.657653809 206250282.95122528 0 206250282.95122528 165244373.526968 0 0 0 0 -333480966.21359253 -491134908.56827545 0 -491134908.56827545 -902856935.19127274 0 0 0 0 -2996123.6163946837 91727.087322298437 0 91727.087322298437 312334.60660198145 0 0 0 0 -423577420.9039917 -622947066.9973526 0 -622947066.9973526 -978223647.44566345 0 0 0 0 -316572439.41741943 -194392220.54397774 0 -194392220.54397774 -410336139.18838501 0 0 0 0 -213207834.73840332 -294831858.37958527 0 -294831858.37958527 -1049700604.5308456 0 0 0 0 -440020889.32286072 -49893931.25371933 0 -49893931.25371933 -492530250.80348969 0 0 0 0 -1094626976.0086479 -15826076.129502296 0 -15826076.129502296 -152500311.82302856 0 0 0 0 -634162384.45824432 464456637.97773743 0 464456637.97773743 -333673987.19290924 0 0 0 0 -557298737.39605713 -522880697.01140976 0 -522880697.01140976 -766080609.13257217 0 0 0 0 -531192107.00751495 207495235.12341881 0 207495235.12341881 215713851.40688324 0 0 0 0 -441225963.86604309 170450530.46604156 0 170450530.46604156 -170852366.55949783 0 0 0 0 -298143447.04920959 90478412.820568085 0 90478412.820568085 -798219412.91028976 0 0 0 0 -274076607.50354195 -58922302.075247288 0 -58922302.075247288 -67247114.374519348 0 0 0 0 -101938741.23492432 -60296412.159507751 0 -60296412.159507751 -183723346.49926567 0 0 0 0 -17131408.109870911 -206583649.20570183 0 -206583649.20570183 -70628754.642440796 0 0 0 0 46831485.514251709 -124373899.9088707 0 -124373899.9088707 -24180261.592266083 0 0 0 0 21137478.811523438 -57312471.698638916 0 -57312471.698638916 -132980785.37382126 0 0 0 0 -41725339.272613525 -100621065.84834862 0 -100621065.84834862 14433505.056968689 0 0 0 0 -264157575.97253418 -92326501.252239227 0 -92326501.252239227 55001578.814998627 0 0 0 0 -811233412.73632812 -182628806.39759827 0 -182628806.39759827 40151941.686756134 0 0 0 0 -39165666.879272461 -450806872.63801956 0 -450806872.63801956 -367836616.2043457 0 0 0 0 -779079629.49699402 341362561.29065514 0 341362561.29065514 758955863.37966156 0 0 0 0 -867794132.81572723 101767171.91229057 0 101767171.91229057 193458747.87868166 0 0 0 0 -3210823.7425337285 -1879440.8372308342 0 -1879440.8372308342 1775175.4303867379 0 0 0 0 -459264024.62054443 -981003394.89064217 0 -981003394.89064217 -1495126331.2183027 0 0 0 0 -1374817321.3930969 -780401026.67375159 0 -780401026.67375159 -186636879.88217163 0 0 0 0 -1192639965.8268433 214788319.68397522 0 214788319.68397522 48928123.859237671 0 0 0 0 -152924565.66757202 -48339073.544605255 0 -48339073.544605255 100329457.75959396 0 0 0 0 127627732.34524536 194608987.04573822 0 194608987.04573822 -201448369.65664291 0 0 0 0 -300845509.30957031 294679625.17564392 0 294679625.17564392 -537674908.97143555 0 0 0 0 -142033455.26040649 -23033077.139785767 0 -23033077.139785767 591154400.32089233 0 0 0 0 100077511.50837708 -251642819.48631287 0 -251642819.48631287 125564123.34363556 0 0 0 0 -337062804.22312927 -345734113.97374344 0 -345734113.97374344 -104178827.39831543 0 0 0 0 -278224007.28196144 -114044400.93959236 0 -114044400.93959236 75564628.546447754 0 0 0 0 -119090784.69552612 -85945606.872844696 0 -85945606.872844696 -423122148.64594841 0 0 0 0 -221593125.81336975 -119457030.59702301 0 -119457030.59702301 600713894.3351059 0 0 0 0 -70986527.895019531 280559321.0250206 0 280559321.0250206 418690718.93772888 0 0 0 0 -471079796.9886322 -57958762.861885071 0 -57958762.861885071 247137500.73077393 0 0 0 0 -153547771.59066772 233212429.39339447 0 233212429.39339447 -98783071.81135273 0 0 0 0 -133553468.53929138 717263043.5962677 0 717263043.5962677 968273512.68503571 0 0 0 0 -185228001.8739543 -131086664.87766111 0 -131086664.87766111 882367087.80145264 0 0 0 0 -8571297.7051991969 -4872592.0315763317 0 -4872592.0315763317 5259502.5726465136 0 0 0 0 -19205574.889526367 -22765979.604469299 0 -22765979.604469299 1461877990.7734575 0 0 0 0 -223519724.47718811 258503319.36665344 0 258503319.36665344 1470824124.3099327 0 0 0 0 -224447095.70346069 -353617315.59408188 0 -353617315.59408188 -353529038.29965401 0 0 0 0 450700719.82385254 -64279496.064628601 0 -64279496.064628601 884114751.99775696 0 0 0 0 105064640.85113525 295166847.58738708 0 295166847.58738708 945052834.19322205 0 0 0 0 -1511003.5722163245 26213.933253029361 0 26213.933253029361 1394427.8481805008 0 0 0 0 350444624.38693237 785858186.23944855 0 785858186.23944855 1816619800.8403625 0 0 0 0 92496425.87890625 47219572.620761871 0 47219572.620761871 857364551.28971863 0 0 0 0 42920405.122192383 -225063557.51854706 0 -225063557.51854706 1670701885.3644638 0 0 0 0 -22464538.227416992 192527441.4467926 0 192527441.4467926 748249963.01409149 0 0 0 0 221241489.03479004 -334721747.73706818 0 -334721747.73706818 850234803.75804138 0 0 0 0 -175853227.11999321 -276030268.30697918 0 -276030268.30697918 -280452098.30302429 0 0 0 0 -263156160.33352661 -277156742.50239944 0 -277156742.50239944 -148215149.86946106 0 0 0 0 -425344032.3092041 -371497110.01607513 0 -371497110.01607513 -78009729.922071457 0 0 0 0 -402164771.05200195 -410637108.7012043 0 -410637108.7012043 -14322288.513900757 0 0 0 0 -317216422.37664795 -363601738.80730057 0 -363601738.80730057 -267122192.44750977 0 0 0 0 -285546717.36335754 -390008676.71826553 0 -390008676.71826553 -347818954.42687607 0 0 0 0 -486851197.29437256 -564868746.58138084 0 -564868746.58138084 -236554517.75640488 0 0 0 0 -399466745.22290039 -325359780.26784992 0 -325359780.26784992 -236740079.21470833 0 0 0 0 -453193630.89019775 -369353859.28215599 0 -369353859.28215599 -27161141.848003387 0 0 0 0 -405774481.96544647 -372028101.31572723 0 -372028101.31572723 -214726446.55789185 0 0 0 0 -480194970.21479797 -379641726.82057953 0 -379641726.82057953 -13847491.836245537 0 0 0 0 -307435568.43457031 -305680690.63296318 0 -305680690.63296318 -67489164.020782471 0 0 0 0 -180653153.13412476 216650238.95445061 0 216650238.95445061 132031129.65379095 0 0 0 0 -140255347.48280334 -47048436.061969757 0 -47048436.061969757 430032423.85450172 0 0 0 0 -164468280.77639771 199192278.34740448 0 199192278.34740448 128004438.89536285 0 0 0 0 -31734687.034332275 321220580.78180313 0 321220580.78180313 -11367687.385696411 0 0 0 0 -165301470.64303589 377427743.98073578 0 377427743.98073578 -32647381.217472076 0 0 0 0 -301011970.51248169 271889666.90638733 0 271889666.90638733 96450118.013412476 0 0 0 0 -243463037.31725311 172876896.86730766 0 172876896.86730766 -127940000.32505035 0 0 0 0 -105409875.10661316 -382795953.09213638 0 -382795953.09213638 -235293897.9584837 0 0 0 0 -640935062.76200867 -509738980.80582905 0 -509738980.80582905 245309449.43775558 0 0 0 0 -460080811.25094604 262115453.95150948 0 262115453.95150948 190621428.6259346 0 0 0 0 1632032.7218438908 -2451517.7757445425 0 -2451517.7757445425 -1429879.863637859 0 0 0 0 -168796654.1968894 -181585289.71439457 0 -181585289.71439457 1827779.7445526123 0 0 0 0 -276750983.30969238 -106747202.07476997 0 -106747202.07476997 135550706.40234232 0 0 0 0 -2626806.6230454594 -22311519.250679631 0 -22311519.250679631 27383852.126059443 0 0 0 0 121360902.09024811 -126467843.661726 0 -126467843.661726 57405645.062271118 0 0 0 0 13649741.784332275 -298833593.09548187 0 -298833593.09548187 -232101873.08026695 0 0 0 0 -164219533.76273537 -337918826.11610985 0 -337918826.11610985 -236460001.01959229 0 0 0 0 1868961.4407462701 -24429167.464737955 0 -24429167.464737955 23551782.744998876 0 0 0 0 -59013102.654632568 -198940476.24591064 0 -198940476.24591064 -358162118.6293335 0 0 0 0 -171034140.2960434 -163149963.6738162 0 -163149963.6738162 73615465.271087646 0 0 0 0 -133911672.05992889 182803708.3742981 0 182803708.3742981 133901091.05643082 0 0 0 0 -70161743.321632385 -375946652.28755951 0 -375946652.28755951 212550424.88854599 0 0 0 0 -255946413.17977476 -140396439.0614996 0 -140396439.0614996 363761720.87206268 0 0 0 0 -69886316.996589661 22223883.174658775 0 22223883.174658775 49974819.953773499 0 0 0 0 -136335393.83988953 -80715037.158454895 0 -80715037.158454895 65273209.785842896 0 0 0 0 -274339229.65945435 -36814590.987911224 0 -36814590.987911224 93199635.123413086 0 0 0 0 -170589189.16503716 -44502734.692609787 0 -44502734.692609787 63077331.661087036 0 0 0 0 -182591368.36803818 1230077.4753494263 0 1230077.4753494263 95283801.476470947 0 0 0 0 -288344906.78363228 76335998.721261978 0 76335998.721261978 231255770.11064529 0 0 0 0 -168830135.69580078 83848387.98393631 0 83848387.98393631 -134356864.58201218 0 0 0 0 -368395783.82262421 -273351395.04036713 0 -273351395.04036713 -549219815.06305885 0 0 0 0 -508621783.65965271 -341539857.45047855 0 -341539857.45047855 -223334623.72578859 0 0 0 0 -145281190.44752502 108532295.10463905 0 108532295.10463905 -92970528.504260063 0 0 0 0 1407938.9426092207 -14582708.716648858 0 -14582708.716648858 27219563.932057373 0 0 0 0 -421466068.04219055 -425375347.51454639 0 -425375347.51454639 -273189478.71499681 0 0 0 0 -15649546.277727187 -2293249.1132682553 0 -2293249.1132682553 11980482.703088952 0 0 0 0 -53895399.114456177 -100600046.30345154 0 -100600046.30345154 -38225082.091972351 0 0 0 0 340112787.03302002 17621464.459875107 0 17621464.459875107 -404874036.91197014 0 0 0 0 1080179888.5184326 -186840343.68624306 0 -186840343.68624306 -357045870.96262169 0 0 0 0 -805799426.30482483 130757821.26198101 0 130757821.26198101 -103455318.63115692 0 0 0 0 435876026.47243118 -239660501.18043399 0 -239660501.18043399 -27437903.854848862 0 0 0 0 1175832968.7395096 619360200.92437315 0 619360200.92437315 -805173632.74944687 0 0 0 0 -744287547.85372925 46536611.349434376 0 46536611.349434376 247799447.63529205 0 0 0 0 -1005132195.0370483 -71202895.201483727 0 -71202895.201483727 579134576.79517937 0 0 0 0 315056363.87553406 -879404790.17334747 0 -879404790.17334747 485693047.48435974 0 0 0 0 815493.81985722482 -9074391.7951045036 0 -9074391.7951045036 22040192.854942821 0 0 0 0 128051621.82736206 -788418592.9777813 0 -788418592.9777813 1627937488.9235458 0 0 0 0 37924503.665657043 30913692.316062927 0 30913692.316062927 -98200516.5131073 0 0 0 0 -121975829.10516357 -39149313.846424103 0 -39149313.846424103 2946258.4215011597 0 0 0 0 -157924737.04747772 -235788158.01931 0 -235788158.01931 -173418595.97610474 0 0 0 0 -97270496.276695251 -286286224.22528839 0 -286286224.22528839 -448471653.91603851 0 0 0 0 -143917436.78826904 -258634759.1567421 0 -258634759.1567421 -313220963.42992401 0 0 0 0 -159902084.16375732 -286180444.46340179 0 -286180444.46340179 -181463723.61659241 0 0 0 0 -190427269.25253296 -285902198.39959717 0 -285902198.39959717 -128346580.75221634 0 0 0 0 1390034847.0408783 298035763.87316704 0 298035763.87316704 -363808483.52986526 0 0 0 0 397247.57791897655 -1425199.1195576526 0 -1425199.1195576526 3127193.7460166886 0 0 0 0 455481.33365343884 -4755167.2122480571 0 -4755167.2122480571 13675132.295954579 0 0 0 0 -149762128.22688484 -193634340.02477694 0 -193634340.02477694 -261794514.87128448 0 0 0 0 -141774556.09646416 -346119675.23110485 0 -346119675.23110485 -758801120.64079666 0 0 0 0 -228682955.81537628 -98532786.421072006 0 -98532786.421072006 -316963362.69932175 0 0 0 0 -177517521.59797668 -150119719.10443497 0 -150119719.10443497 -274809735.40620422 0 0 0 0 -112726530.12438202 -18310183.472579956 0 -18310183.472579956 -147439895.58932495 0 0 0 0 -107461296.56574249 -177175363.33849001 0 -177175363.33849001 -304913160.05562592 0 0 0 0 -222251659.79737854 -422683615.66381264 0 -422683615.66381264 -500898041.42450619 0 0 0 0 -135988886.35062122 -261188873.49344778 0 -261188873.49344778 -613976659.37857056 0 0 0 0 -156904367.12072754 -210002256.60525513 0 -210002256.60525513 -272583571.43792725 0 0 0 0 -213562165.20835114 -348625472.83738327 0 -348625472.83738327 -913594404.3800621 0 0 0 0 -381462325.65795135 -741512389.00731087 0 -741512389.00731087 -728435173.06757736 0 0 0 0 -422640924.77586746 -650597573.8395232 0 -650597573.8395232 -403216819.1789341 0 0 0 0 -262341443.18909836 -597580112.47735834 0 -597580112.47735834 -555211828.9356308 0 0 0 0 -259423794.82178497 -608853735.40467882 0 -608853735.40467882 -513619533.10184407 0 0 0 0 -249909611.80503082 -571289214.57693648 0 -571289214.57693648 -405985391.30107307 0 0 0 0 -164232093.78474808 -384917677.95415115 0 -384917677.95415115 -595643592.7501564 0 0 0 0 -204467507.56187439 -401011910.63072395 0 -401011910.63072395 -395976419.14576912 0 0 0 0 -170568529.1920166 -356527305.53144264 0 -356527305.53144264 -384618398.5551796 0 0 0 0 -249222530.74568176 -330719356.80082321 0 -330719356.80082321 -328827928.48978043 0 0 0 0 -285181400.08898926 -453527283.50083351 0 -453527283.50083351 -446802195.79358864 0 0 0 0 -222265902.47751617 -273762046.46194077 0 -273762046.46194077 -291260109.34336853 0 0 0 0 -313961254.95404053 -173127426.27292633 0 -173127426.27292633 -219653891.68527222 0 0 0 0 -435948147.41287231 -211449754.52915192 0 -211449754.52915192 -227306656.33805561 0 0 0 0 -388651785.41583252 -338272647.15441513 0 -338272647.15441513 -315672836.09779549 0 0 0 0 -284407148.05249023 -393811899.61065292 0 -393811899.61065292 -290663037.98228836 0 0 0 0 -683423038.96044922 -332187312.69889832 0 -332187312.69889832 -144490226.79836655 0 0 0 0 -674404181.29535866 -577009618.07518649 0 -577009618.07518649 31732156.423526764 0 0 0 0 -508466464.83700562 -618389036.87160683 0 -618389036.87160683 -149400086.28447914 0 0 0 0 -460506724.55158615 -460115630.11723709 0 -460115630.11723709 -283784120.08492279 0 0 0 0 -360225635.81480408 -585597612.86903763 0 -585597612.86903763 -195705217.65044403 0 0 0 0 -453622647.12051392 -502474124.65185928 0 -502474124.65185928 -27616969.056297302 0 0 0 0 -447091133.06193542 -647635687.61745453 0 -647635687.61745453 -200508097.70469666 0 0 0 0 -239973988.1199646 -850794228.13047504 0 -850794228.13047504 -173085009.66074228 0 0 0 0 -512152218.03943062 -801970840.22968173 0 -801970840.22968173 294255492.2534523 0 0 0 0 -267699739.2087059 -618582454.24797535 0 -618582454.24797535 -446823424.65935707 0 0 0 0 -280803307.15565491 -541196263.47452545 0 -541196263.47452545 -373984026.93370819 0 0 0 0 -354193515.36244965 -565155700.38908768 0 -565155700.38908768 -340830355.23937607 0 0 0 0 -260898434.62051392 -654168594.40442371 0 -654168594.40442371 -304733854.37172842 0 0 0 0 -180419552.88510895 -688904246.96018207 0 -688904246.96018207 -559112649.51746058 0 0 0 0 -216345197.23059845 -654824448.81430101 0 -654824448.81430101 -434633362.23810196 0 0 0 0 -114421718.44114685 -776493683.92159045 0 -776493683.92159045 -442904013.89480937 0 0 0 0 -89059398.193104744 -607622106.73537886 0 -607622106.73537886 -784215142.15083694 0 0 0 0 -251181460.15988922 -910916173.3568182 0 -910916173.3568182 -457291691.50466156 0 0 0 0 -285306229.38493347 -722066010.74962425 0 -722066010.74962425 -446478754.62379456 0 0 0 0 -157910318.47421265 -467958758.18035364 0 -467958758.18035364 -350859304.01894999 0 0 0 0 -98507620.899154663 -533338753.70998192 0 -533338753.70998192 -664085543.19604373 0 0 0 0 -300472150.84780121 -543485763.67605066 0 -543485763.67605066 -273531461.71910834 0 0 0 0 -273498207.01347351 -440315078.66544247 0 -440315078.66544247 -321909243.32194638 0 0 0 0 -347826222.22246361 -619960193.98346066 0 -619960193.98346066 -394251439.00274849 0 0 0 0 -294836703.57704926 -594567944.4930439 0 -594567944.4930439 -466869831.22699928 0 0 0 0 -939666124.04979324 -507459522.39553487 0 -507459522.39553487 -74958638.339974165 0 0 0 0 -1098019549.8921852 -514338893.52860636 0 -514338893.52860636 18884787.964378357 0 0 0 0 -982988014.287323 -435428199.75444698 0 -435428199.75444698 31270640.237551272 0 0 0 0 -936777201.55058289 -311547406.60122895 0 -311547406.60122895 -18227853.440884113 0 0 0 0 -938019971.97581482 -176349522.15966916 0 -176349522.15966916 168460945.7160126 0 0 0 0 -1092871186.3197327 -290303719.77157581 0 -290303719.77157581 118397356.84615242 0 0 0 0 -1084710307.6280212 -87335242.542127922 0 -87335242.542127922 316585408.22881055 0 0 0 0 -1143945831.5586243 -321943766.84676123 0 -321943766.84676123 185148904.94952154 0 0 0 0 -1356646944.2489929 -467547184.97658825 0 -467547184.97658825 95176090.064285755 0 0 0 0 -1209439672.099884 -493139166.91947293 0 -493139166.91947293 -27628952.508758545 0 0 0 0 -1243496413.5752487 -223155046.6545589 0 -223155046.6545589 149149708.22638512 0 0 0 0 -1454274962.7995911 -529152260.17886615 0 -529152260.17886615 -407665494.74925804 0 0 0 0 -1562933310.8714905 -338250625.94272566 0 -338250625.94272566 -67519002.339877605 0 0 0 0 -1388912523.7969055 -437699837.22369766 0 -437699837.22369766 -11308769.171848774 0 0 0 0 -1592704807.5153809 -547929380.15141678 0 -547929380.15141678 -35205989.132612824 0 0 0 0 -897002038.77435446 -486150438.0056113 0 -486150438.0056113 -72706781.480587244 0 0 0 0 -1430704253.8753967 -698852275.97304916 0 -698852275.97304916 -146491900.06796527 0 0 0 0 -88796053.484222412 -394983017.04357767 0 -394983017.04357767 -562815533.35659933 0 0 0 0 -906964225.43640137 -701795324.21297407 0 -701795324.21297407 -185369352.91687155 0 0 0 0 -1246049903.8460541 -545325459.24349654 0 -545325459.24349654 29591601.213180542 0 0 0 0 -1554730330.5605469 -685329224.55120826 0 -685329224.55120826 -647801278.24772453 0 0 0 0 -1780221.4417035989 -76969.491353914142 0 -76969.491353914142 4271119.278093691 0 0 0 0 -678285083.92184448 -316776976.43813753 0 -316776976.43813753 -608117196.23799133 0 0 0 0 -290834848.70587158 -442207124.69107676 0 -442207124.69107676 -936484546.8216002 0 0 0 0 -435355976.22229004 -716291528.09928322 0 -716291528.09928322 -780683289.45120859 0 0 0 0 -1452779637.7303391 -711184298.54329872 0 -711184298.54329872 -256467055.69679403 0 0 0 0 -1023620685.0508652 257915497.19046021 0 257915497.19046021 391877445.60699463 0 0 0 0 379561883.87728882 -939847131.57248878 0 -939847131.57248878 -583435693.87881088 0 0 0 0 -1500758.1006188691 -2326984.9132451899 0 -2326984.9132451899 9560107.3825452719 0 0 0 0 -877906958.79843712 -528118233.57293886 0 -528118233.57293886 -210003112.42853069 0 0 0 0 -872736021.87513733 -478915184.15870512 0 -478915184.15870512 -89399981.241455913 0 0 0 0 -763432191.19508362 -403227326.93530583 0 -403227326.93530583 -219165166.90462637 0 0 0 0 -801062719.07357025 -390010552.46655518 0 -390010552.46655518 -332845621.87514353 0 0 0 0 -798786824.49243164 -419904478.9882462 0 -419904478.9882462 -162863074.42117691 0 0 0 0 3167109777.6310883 -920667058.10422134 0 -920667058.10422134 -1735008375.8088036 0 0 0 0 2578630984.6815948 2323736150.2163143 0 2323736150.2163143 830110085.04369354 0 0 0 0 -81765497.88381958 -1306499361.7437954 0 -1306499361.7437954 48617745.510501862 0 0 0 0 -21407653.057052612 -159332551.12611771 0 -159332551.12611771 766318577.71760559 0 0 0 0 -307832.33308325335 -976105.68216176331 0 -976105.68216176331 4826696.0888247117 0 0 0 0 -1042443837.8873863 -541749797.62651312 0 -541749797.62651312 -73308912.845068932 0 0 0 0 402457.6866662167 -3578534.4585089162 0 -3578534.4585089162 8563272.9685934279 0 0 0 0 -959333845.50636292 -327616598.3567338 0 -327616598.3567338 -145884497.62440395 0 0 0 0 -704800701.79249573 -377331939.16358852 0 -377331939.16358852 -108463338.62190056 0 0 0 0 -738402945.45440674 -322379733.96775818 0 -322379733.96775818 -196341502.33766055 0 0 0 0 -855203795.66903687 -436431358.7339139 0 -436431358.7339139 -74981758.008248329 0 0 0 0 -723573850.56323242 -375619626.06302452 0 -375619626.06302452 -86775841.452000618 0 0 0 0 -734600685.20185852 -382021484.05861568 0 -382021484.05861568 6387545.465801239 0 0 0 0 -567880551.30340576 -310158344.04384041 0 -310158344.04384041 -93054746.723586559 0 0 0 0 -489825336.26971436 -292325000.49477673 0 -292325000.49477673 -98413257.926165581 0 0 0 0 -582494470.02587891 -274867731.86219025 0 -274867731.86219025 8268024.2829227448 0 0 0 0 -458701664.01486206 -209053012.38904381 0 -209053012.38904381 -107487321.54218435 0 0 0 0 -489890411.14837646 -162852326.76801872 0 -162852326.76801872 7443399.988527298 0 0 0 0 -725367725.82698059 -148029229.74665022 0 -148029229.74665022 -119588734.35254955 0 0 0 0 -666546443.95893478 -243618919.3212564 0 -243618919.3212564 -106962084.42519951 0 0 0 0 -848290212.97476959 -294475194.64398748 0 -294475194.64398748 -95386093.200865984 0 0 0 0 -606971916.02932739 -232892700.83569634 0 -232892700.83569634 -148083571.29271722 0 0 0 0 -1023683792.6435852 10821449.351557851 0 10821449.351557851 73159364.03856492 0 0 0 0 -970754723.53730774 -132258904.48773789 0 -132258904.48773789 110965297.70523548 0 0 0 0 -707620766.76748657 65144599.000016689 0 65144599.000016689 -168474626.46275139 0 0 0 0 -491701230.92764282 11447434.669848442 0 11447434.669848442 -157743715.32083201 0 0 0 0 -536708747.9239502 -30081435.678076744 0 -30081435.678076744 -27685353.843427658 0 0 0 0 -702706185.19411469 623233708.09097385 0 623233708.09097385 -312704683.1888237 0 0 0 0 -279845805.71131897 -264679773.8280673 0 -264679773.8280673 648496529.79920197 0 0 0 0 349291794.18049622 -55879278.516364574 0 -55879278.516364574 -170392460.71203995 0 0 0 0 -324789581.70907593 231931407.6115694 0 231931407.6115694 861971378.77124166 0 0 0 0 -215921608.64810181 74512418.49787426 0 74512418.49787426 3366097.5998544693 0 0 0 0 -307861055.33782959 -120632830.02046967 0 -120632830.02046967 -10392016.508130789 0 0 0 0 -381257490.25984192 -170122945.21559477 0 -170122945.21559477 285090398.44790268 0 0 0 0 -550717332.39649963 -274385499.77199364 0 -274385499.77199364 171565010.55658531 0 0 0 0 -357567847.31747437 -291030757.25390339 0 -291030757.25390339 8605524.256819725 0 0 0 0 -207128891.32330322 -132172446.45800781 0 -132172446.45800781 115843527.07114983 0 0 0 0 -337406788.50357056 -78731129.587873459 0 -78731129.587873459 368334417.37187386 0 0 0 0 -18716662.652862549 46099661.790262222 0 46099661.790262222 219928183.3878231 0 0 0 0 157769832.32649231 37644113.058139801 0 37644113.058139801 234035185.60861397 0 0 0 0 -188212216.86314392 43988977.80033493 0 43988977.80033493 400386616.87140465 0 0 0 0 -4432043.8825316802 -2107786.4474058803 0 -2107786.4474058803 2068895.8522602259 0 0 0 0 236708537.72180176 541866454.59487724 0 541866454.59487724 526090247.5617075 0 0 0 0 25571701.794250488 -60665675.659909248 0 -60665675.659909248 -127309832.275527 0 0 0 0 -27645307.892242432 -9237746.8685371876 0 -9237746.8685371876 11247229.364508629 0 0 0 0 -4391096.0380983874 -1155061.4214301258 0 -1155061.4214301258 1672510.226783548 0 0 0 0 -1555909.0893990174 -925183.0520478934 0 -925183.0520478934 2781984.4263700694 0 0 0 0 -770426543.30755615 -189812418.06321812 0 -189812418.06321812 58379484.749649048 0 0 0 0 -970853150.6840744 -185085823.55364728 0 -185085823.55364728 300926292.07025146 0 0 0 0 -822771422.82571411 -306687994.91076469 0 -306687994.91076469 -142957508.79896975 0 0 0 0 -804713744.61624146 -490871789.9274025 0 -490871789.9274025 -208225296.39679432 0 0 0 0 -1029970421.1135254 -344791012.02803993 0 -344791012.02803993 172789642.87576294 0 0 0 0 -844335837.03727722 -373000089.86181211 0 -373000089.86181211 148674597.20837975 0 0 0 0 -458862727.1217041 -333657769.90592957 0 -333657769.90592957 63898115.939332008 0 0 0 0 -738232448.37141418 -422343928.66367579 0 -422343928.66367579 104059229.91686821 0 0 0 0 -868264430.07746124 -442623699.64120817 0 -442623699.64120817 25046202.395652771 0 0 0 0 -775971754.97080994 -353958270.59533262 0 -353958270.59533262 -14950389.633892059 0 0 0 0 -499261826.61651611 -313558047.82546234 0 -313558047.82546234 -14021114.21685791 0 0 0 0 -501189724.82621765 -309561562.92026806 0 -309561562.92026806 128480867.73836708 0 0 0 0 -6804970.9158630371 39433462.6764431 0 39433462.6764431 58972201.778286457 0 0 0 0 -264179283.95654297 -430172889.55870819 0 -430172889.55870819 -233822864.89136982 0 0 0 0 -919736515.63290405 -625905479.10593796 0 -625905479.10593796 26743176.43985939 0 0 0 0 -999376217.84413147 -984474294.73489523 0 -984474294.73489523 -598005720.34665108 0 0 0 0 -1120507122.0961609 -380528177.09828758 0 -380528177.09828758 250881114.35234833 0 0 0 0 -1120662179.8043671 -370728429.01559258 0 -370728429.01559258 301297234.59625244 0 0 0 0 -1858595893.6749878 -130730119.29884338 0 -130730119.29884338 675128551.48510361 0 0 0 0 -1817441345.8404846 -705255135.27319145 0 -705255135.27319145 292619530.66749221 0 0 0 0 -1010807160.1976624 -26224762.001537323 0 -26224762.001537323 315616047.55649567 0 0 0 0 -1260175424.0229034 -240397388.71204948 0 -240397388.71204948 315241699.21874237 0 0 0 0 -2193759.1703794301 -1175274.6485023892 0 -1175274.6485023892 833890.44383952208 0 0 0 0 -4672203.0221211091 -566271.73730546981 0 -566271.73730546981 3106928.5920858076 0 0 0 0 -903045601.14834595 -224104403.55404282 0 -224104403.55404282 1041307357.4415779 0 0 0 0 -2368762437.616394 -109085856.20218277 0 -109085856.20218277 1055946122.5539081 0 0 0 0 -1187798008.7222595 -1368089166.6564007 0 -1368089166.6564007 -871917431.44823074 0 0 0 0 -2334981625.4766083 -670079202.27176476 0 -670079202.27176476 70268299.508449554 0 0 0 0 516820009.90665436 -38483362.870027542 0 -38483362.870027542 -319292483.74286079 0 0 0 0 -909325577.04335022 940001629.49680901 0 940001629.49680901 181967790.14772987 0 0 0 0 -914089346.42604065 93960615.482582092 0 93960615.482582092 144327214.56078529 0 0 0 0 -47071308.637077332 355873272.36495018 0 355873272.36495018 -31902264.566356659 0 0 0 0 -3863282.9547292888 -1914880.7874778472 0 -1914880.7874778472 6747257.2949309237 0 0 0 0 -776459473.87591553 -945924399.21231461 0 -945924399.21231461 -996526533.74341249 0 0 0 0 -532998229.02386475 -22085072.590888977 0 -22085072.590888977 -170129969.93095493 0 0 0 0 -374028084.51626587 -503331970.99390793 0 -503331970.99390793 -343308547.00942993 0 0 0 0 -30254875.259674072 -27999927.170272827 0 -27999927.170272827 -55343757.678198814 0 0 0 0 -37185376.077270508 -96355085.335080624 0 -96355085.335080624 122448271.31706715 0 0 0 0 -54466791.938621521 -90609614.382600307 0 -90609614.382600307 -3093153.820643425 0 0 0 0 -3784763.1232125163 -1147632.0919548497 0 -1147632.0919548497 4917463.6767150303 0 0 0 0 468343793.12176514 -107896547.61687088 0 -107896547.61687088 29026079.982930899 0 0 0 0 -52860566.622970581 16139217.246664524 0 16139217.246664524 19777434.816392899 0 0 0 0 -9034217.5921173096 851201.59640598297 0 851201.59640598297 -20369440.106154442 0 0 0 0 704225.33003234863 -17108753.925631523 0 -17108753.925631523 11675013.303002357 0 0 0 0 15938290.277404785 73773240.284651041 0 73773240.284651041 161365787.05318069 0 0 0 0 -5535321.5322399139 841477.57600168139 0 841477.57600168139 2581328.194893565 0 0 0 0 57126537.049636841 -119716072.69527054 0 -119716072.69527054 -73222170.269980431 0 0 0 0 -7719944.6399841309 -9352517.3720378876 0 -9352517.3720378876 -128888939.6071372 0 0 0 0 -1153166495.8936768 -246076489.79339838 0 -246076489.79339838 -144370358.36603355 0 0 0 0 -21988139.00063324 400870851.46426535 0 400870851.46426535 71163520.092654228 0 0 0 0 -2251691.8861286119 290653.73035609722 0 290653.73035609722 1146202.1777816592 0 0 0 0 -376150143.62194824 -56676012.60581255 0 -56676012.60581255 -182080504.68278694 0 0 0 0 -461700467.84986877 287059634.51961422 0 287059634.51961422 45209137.122532308 0 0 0 0 -155528468.91229248 282761319.01075315 0 282761319.01075315 -134895298.07216454 0 0 0 0 -1456627.2772563361 5905448.0564249046 0 5905448.0564249046 15815240.721405759 0 0 0 0 -538233223.05361938 284391554.58360481 0 284391554.58360481 -81903767.932929993 0 0 0 0 -747680200.44226074 27833632.214138985 0 27833632.214138985 91704659.228533745 0 0 0 0 -7000178.265335083 -44086155.019397736 0 -44086155.019397736 -374835506.35393572 0 0 0 0 -1331971.148794964 2852914.1262233183 0 2852914.1262233183 9805712.941750532 0 0 0 0 -1026385237.8155022 395389996.19444191 0 395389996.19444191 37563157.029782295 0 0 0 0 -1141765321.6780167 372298973.34487867 0 372298973.34487867 32941949.309488773 0 0 0 0 -1245282.266036395 686475.88979530707 0 686475.88979530707 4150302.9011420058 0 0 0 0 -742594154.35519409 -96367386.258017659 0 -96367386.258017659 -17390577.273090363 0 0 0 0 -501356853.71151733 -223568730.8745451 0 -223568730.8745451 26573415.084589958 0 0 0 0 -452857822.44274902 -165459060.54839253 0 -165459060.54839253 93545092.335474014 0 0 0 0 -619155955.88276672 -82748441.521692991 0 -82748441.521692991 166395104.58869457 0 0 0 0 -433683230.64553833 65421722.465015411 0 65421722.465015411 93370619.05462718 0 0 0 0 -567253259.09889221 492252561.15546072 0 492252561.15546072 282682623.81523132 0 0 0 0 -1078396116.5498047 352001586.74838257 0 352001586.74838257 245499481.46649384 0 0 0 0 -333411070.46820068 410270016.62584972 0 410270016.62584972 255304220.70761752 0 0 0 0 -313520679.21484375 852956512.69314003 0 852956512.69314003 508093956.18562126 0 0 0 0 -625349990.78219604 894205449.14723682 0 894205449.14723682 774904136.28536224 0 0 0 0 -438232130.83517456 959509570.31410122 0 959509570.31410122 426988071.76917458 0 0 0 0 -479266193.60623169 393194448.15027523 0 393194448.15027523 1058160367.4681344 0 0 0 0 -470145105.39556885 454699524.66160583 0 454699524.66160583 218917711.81141281 0 0 0 0 -1448797.9773332775 -253333.95723151043 0 -253333.95723151043 448244.30798963003 0 0 0 0 -91407052.237457275 238148001.53449225 0 238148001.53449225 -596330660.17660809 0 0 0 0 -175072225.68664551 -146727524.64172029 0 -146727524.64172029 -238604064.50654411 0 0 0 0 -589454617.46330261 677680944.35326958 0 677680944.35326958 -87606757.231133461 0 0 0 0 -28019937.276184082 3580964.0553894043 0 3580964.0553894043 127041433.63543415 0 0 0 0 -1049351305.9659119 356280813.13649273 0 356280813.13649273 75412321.181268334 0 0 0 0 -748555087.65073848 235228261.0740447 0 235228261.0740447 -581270102.15410042 0 0 0 0 -943315642.99404907 -81611030.272546768 0 -81611030.272546768 51617695.805844307 0 0 0 0 288783462.27664948 376968884.86355591 0 376968884.86355591 -7922957.2360458374 0 0 0 0 2002412.045243144 -110670.95338544622 0 -110670.95338544622 -5504741.0912725674 0 0 0 0 269022535.6476059 593856142.36066294 0 593856142.36066294 51006761.344057083 0 0 0 0 116355516.43803787 150865502.26860809 0 150865502.26860809 -3714217.229511261 0 0 0 0 150870174.58122253 189381900.3582263 0 189381900.3582263 55113811.323506594 0 0 0 0 -398376792.30581665 289242345.55987835 0 289242345.55987835 111089026.45097542 0 0 0 0 -396661308.20429993 339075978.20682907 0 339075978.20682907 -190801111.85676575 0 0 0 0 -695767368.68667603 326439208.66169357 0 326439208.66169357 116658761.34136295 0 0 0 0 -760662811.20869064 463630156.92115259 0 463630156.92115259 -108633311.72096634 0 0 0 0 -805554038.20692444 201412029.30041385 0 201412029.30041385 -60146385.584941804 0 0 0 0 -677433583.52296066 421186330.84475446 0 421186330.84475446 -18347845.903693199 0 0 0 0 -598533688.62416458 224824696.01867032 0 224824696.01867032 -9094566.4564743042 0 0 0 0 -768905371.65643311 558604941.832371 0 558604941.832371 -189267037.61165833 0 0 0 0 -2629437.1398701314 -668875.9950459376 0 -668875.9950459376 -282533.40713280189 0 0 0 0 -194703840.15971375 192725072.25297832 0 192725072.25297832 -199709931.55456948 0 0 0 0 9770152.9936218262 38751709.043642759 0 38751709.043642759 55153924.113633871 0 0 0 0 114135631.47708726 113428228.62141411 0 113428228.62141411 71511958.282075882 0 0 0 0 -875273.1712488872 -930715.90679946542 0 -930715.90679946542 -95366.417316445615 0 0 0 0 -742917191.58682251 332688395.78500748 0 332688395.78500748 -81610728.337062359 0 0 0 0 108885132.98651123 370659259.00394487 0 370659259.00394487 -80600222.29083395 0 0 0 0 13167539.642795563 122784569.50391978 0 122784569.50391978 298506285.96879864 0 0 0 0 36006276.725280762 56103012.986200452 0 56103012.986200452 31303199.112516522 0 0 0 0 -6910507.5005649403 4767523.75297294 0 4767523.75297294 2334492.9288099036 0 0 0 0 -405144448.78091431 146839871.85108471 0 146839871.85108471 -170648458.88571143 0 0 0 0 436216184.59899139 514580910.4175483 0 514580910.4175483 632919503.60561073 0 0 0 0 530464244.4226532 355682183.31816077 0 355682183.31816077 84200116.939651966 0 0 0 0 -989854572.7650032 688676683.58467162 0 688676683.58467162 -554288639.74520981 0 0 0 0 -1057616581.9011917 639940389.42022276 0 639940389.42022276 -248031645.5307107 0 0 0 0 -917476457.17877197 781313792.30655646 0 781313792.30655646 -485191859.14498234 0 0 0 0 -64123186.115776062 281417561.44196534 0 281417561.44196534 -393241509.3535893 0 0 0 0 -253350063.44384003 -33404451.931072831 0 -33404451.931072831 122929119.76822805 0 0 0 0 -6267228.0803057551 7104176.29102985 0 7104176.29102985 2889732.1851971885 0 0 0 0 69528570.095474243 74834250.772837162 0 74834250.772837162 -327355494.78476763 0 0 0 0 -4369328.5567152118 4673135.1121990979 0 4673135.1121990979 3670133.9476698465 0 0 0 0 89892208.669055939 100538349.91226096 0 100538349.91226096 91473455.861158371 0 0 0 0 -343320481.84507751 365735289.98898268 0 365735289.98898268 -246420437.24638939 0 0 0 0 -11936917.229429394 2046586.1408778578 0 2046586.1408778578 3516359.0169475852 0 0 0 0 -451433235.82516479 258852081.07271981 0 258852081.07271981 -168064771.39544678 0 0 0 0 -37967596.772445679 195959397.73968983 0 195959397.73968983 47707428.469379187 0 0 0 0 -507671847.45957947 132657895.10132533 0 132657895.10132533 115669783.91881014 0 0 0 0 560302481.49462342 262679993.43870357 0 262679993.43870357 -8695271.8784098625 0 0 0 0 -484857532.03889465 540310597.65290046 0 540310597.65290046 177833318.70134735 0 0 0 0 -2054650.7443134866 4833573.1794504039 0 4833573.1794504039 -223301.02653469326 0 0 0 0 -494337519.40767527 428039529.94762748 0 428039529.94762748 -431670757.93058318 0 0 0 0 -827182754.17919922 798912292.76677251 0 798912292.76677251 -566315217.98091781 0 0 0 0 -640657212.95069885 173930680.55608845 0 173930680.55608845 43334170.449624211 0 0 0 0 -1452230426.5552673 650505113.13842797 0 650505113.13842797 -114604391.34339973 0 0 0 0 -1533408990.8823929 1272660928.7604418 0 1272660928.7604418 -626550390.48024797 0 0 0 0 -1072873619.6862793 627162214.85645521 0 627162214.85645521 -573512568.87976074 0 0 0 0 -285950383.73933411 384456317.50661743 0 384456317.50661743 651624255.03747785 0 0 0 0 46473678.885955811 93852862.600937843 0 93852862.600937843 508140567.30159307 0 0 0 0 -854576418.95220184 -172049090.70934349 0 -172049090.70934349 38590895.564684391 0 0 0 0 -438956465.4541626 -122020025.80568996 0 -122020025.80568996 40421087.309770301 0 0 0 0 638051817.65350342 1253522206.3932018 0 1253522206.3932018 354721733.94556719 0 0 0 0 -1557896066.8767242 -92593253.93144989 0 -92593253.93144989 128375120.48475361 0 0 0 0 -1666644.6107609421 1489883.5119710676 0 1489883.5119710676 248954.81692146556 0 0 0 0 850726294.98152161 544373619.3564167 0 544373619.3564167 -45037718.514411926 0 0 0 0 213260285.9425354 692533687.29550743 0 692533687.29550743 339950446.2742734 0 0 0 0 -163831400.32012939 104421979.34845519 0 104421979.34845519 176931695.62610626 0 0 0 0 673770471.95496368 226293925.97268748 0 226293925.97268748 63969792.817148209 0 0 0 0 -175356274.92593384 115345374.96578074 0 115345374.96578074 189293392.15744448 0 0 0 0 -397355069.41419983 -174021827.40997386 0 -174021827.40997386 -104053616.88467216 0 0 0 0 -2485254.2322025299 364821813.51263773 0 364821813.51263773 -134931968.01609898 0 0 0 0 -438778239.44923401 -449199461.48795903 0 -449199461.48795903 47264158.317200065 0 0 0 0 -1431627910.4802551 1396166352.2638607 0 1396166352.2638607 -1216491897.7701983 0 0 0 0 -4175095.4531446546 571199.77934092097 0 571199.77934092097 997970.65104855143 0 0 0 0 -3028870878.6783752 -291754175.18529224 0 -291754175.18529224 970781146.932127 0 0 0 0 -511243257.80604553 140943987.21202803 0 140943987.21202803 470408226.75664508 0 0 0 0 -1843065908.0431976 -123735160.86139011 0 -123735160.86139011 422134114.90496933 0 0 0 0 -328932646.27391052 538944150.00845456 0 538944150.00845456 402488001.69925475 0 0 0 0 -373556831.27430725 155169087.71458134 0 155169087.71458134 106747069.69391596 0 0 0 0 -1442492974.8300934 1775503395.7946744 0 1775503395.7946744 -1332108045.2412705 0 0 0 0 -279344.07362891361 372973.95332549512 0 372973.95332549512 469851.47604149277 0 0 0 0 -1374182577.0775757 473242764.65360904 0 473242764.65360904 619305210.35566533 0 0 0 0 -48826145.12902832 299907324.86386001 0 299907324.86386001 248063265.49661684 0 0 0 0 -1352228406.1007748 521938939.91650474 0 521938939.91650474 378893347.98780686 0 0 0 0 -1752950579.8214569 1053840558.3608506 0 1053840558.3608506 121683382.77879286 0 0 0 0 -502093001.36051941 320892338.20549655 0 320892338.20549655 248776002.49868107 0 0 0 0 -1959213903.4913483 -241478678.00000763 0 -241478678.00000763 230623668.05374104 0 0 0 0 567365232.1029886 1220101027.6911826 0 1220101027.6911826 -209156839.78330183 0 0 0 0 -1588377.4473751932 1428048.9935435914 0 1428048.9935435914 20226.70446393732 0 0 0 0 559260560.94299316 -115678433.16910672 0 -115678433.16910672 -127439331.95200396 0 0 0 0 352911331.8520813 110269445.28575134 0 110269445.28575134 -175158806.82389498 0 0 0 0 -475876241.43419647 413002076.50538468 0 413002076.50538468 -186657681.78801441 0 0 0 0 -31478981.891693115 -306511760.94278944 0 -306511760.94278944 577236610.6624794 0 0 0 0 -597638669.03747559 178266400.81416988 0 178266400.81416988 256771232.06281543 0 0 0 0 -3177956.962081857 2894034.7265544087 0 2894034.7265544087 215123.52873589343 0 0 0 0 -619508878.27566528 116262888.65018028 0 116262888.65018028 691827553.25237978 0 0 0 0 -150619197.31117249 389013181.80727732 0 389013181.80727732 299724198.40661126 0 0 0 0 16166707.68661499 456382605.39366817 0 456382605.39366817 280648915.25412178 0 0 0 0 -933630154.82025146 -140357988.71698213 0 -140357988.71698213 295509333.36658967 0 0 0 0 -875454166.84277344 4507458.3692446053 0 4507458.3692446053 277458631.78694135 0 0 0 0 -568635761.85983276 188626208.900684 0 188626208.900684 352339190.99578094 0 0 0 0 -985313958.06512451 -53488271.014833927 0 -53488271.014833927 461951683.04669762 0 0 0 0 -1225113496.7393494 -281088388.00761747 0 -281088388.00761747 273067219.76403838 0 0 0 0 -947966019.33384705 -22065252.017277956 0 -22065252.017277956 252012906.30730438 0 0 0 0 -1167040088.5946655 -256444735.78554106 0 -256444735.78554106 172047706.48710752 0 0 0 0 -615620640.70362282 -77384521.958360896 0 -77384521.958360896 219544875.31810856 0 0 0 0 -1042785498.3782349 -265773155.71235657 0 -265773155.71235657 60093657.325157166 0 0 0 0 -934868460.13311768 60537709.615273952 0 60537709.615273952 195989629.29366732 0 0 0 0 -1236263315.4076996 -140788967.91881216 0 -140788967.91881216 30151327.674340248 0 0 0 0 -1450779343.2977295 -361411823.02019072 0 -361411823.02019072 -55501646.123501539 0 0 0 0 -1711258187.6843109 -506423397.71058607 0 -506423397.71058607 -410168217.7920866 0 0 0 0 -1354966508.5478516 -233528129.66253662 0 -233528129.66253662 -613829345.65862274 0 0 0 0 -1439201963.7144775 -256601699.86522961 0 -256601699.86522961 -300085024.22903764 0 0 0 0 -1086367312.9340668 -102845501.11474919 0 -102845501.11474919 -290481905.61319065 0 0 0 0 -1470594711.8455048 -77979481.071495295 0 -77979481.071495295 -732617273.01935196 0 0 0 0 -967610873.46133423 -203417910.37246752 0 -203417910.37246752 -726827664.70467186 0 0 0 0 -1983328481.8734436 -484944212.39080286 0 -484944212.39080286 -612810376.2916261 0 0 0 0 -1927845335.2044525 -433125170.33091617 0 -433125170.33091617 -1232878236.8803239 0 0 0 0 -1786861728.5810547 -602862037.34467268 0 -602862037.34467268 -1029244203.0779772 0 0 0 0 -1617308615.1517639 218051923.15186834 0 218051923.15186834 -628795925.73049474 0 0 0 0 -1254716211.63867 27157242.391368538 0 27157242.391368538 -1112277740.3497689 0 0 0 0 -676905551.55036926 180597966.6932987 0 180597966.6932987 -729432150.90882301 0 0 0 0 -1206414476.845932 145882758.90707904 0 145882758.90707904 -227281873.7745409 0 0 0 0 -990388200.6479187 873738351.47509313 0 873738351.47509313 52444510.274182916 0 0 0 0 -567837190.90023041 20825045.649194717 0 20825045.649194717 -356723198.34589297 0 0 0 0 -1241105560.595993 570716731.52824783 0 570716731.52824783 -292515385.80290079 0 0 0 0 -1347911767.5544434 238263318.14638424 0 238263318.14638424 -9913004.7540115118 0 0 0 0 -1355624951.4746399 -269614496.97160035 0 -269614496.97160035 -603736972.55188668 0 0 0 0 -1344314940.1142273 -387605626.68629676 0 -387605626.68629676 -361296307.82786191 0 0 0 0 -825609955.46525574 2194998.8026171923 0 2194998.8026171923 -612378291.13488936 0 0 0 0 -1501758130.2863159 28106874.279232979 0 28106874.279232979 -314715692.37720203 0 0 0 0 -2007634828.5357056 -724497554.0803647 0 -724497554.0803647 -618771907.02638936 0 0 0 0 -2199450560.6632614 -803585230.33469915 0 -803585230.33469915 -266743431.93703222 0 0 0 0 -2248037841.2847595 -899304540.30341983 0 -899304540.30341983 -418738390.55122542 0 0 0 0 -3248280266.0790253 -1809678173.1429801 0 -1809678173.1429801 -978184581.79295456 0 0 0 0 -3839999279.5143738 -234055248.09776783 0 -234055248.09776783 -1238540291.7618833 0 0 0 0 -1726202711.5060272 -642060616.49072945 0 -642060616.49072945 -2111923690.296186 0 0 0 0 -1900229542.5234375 -681819571.46489716 0 -681819571.46489716 -896042286.42401099 0 0 0 0 -1860337107.5245514 1362966906.6077216 0 1362966906.6077216 -496654640.66950178 0 0 0 0 -1496980684.2024097 1271062770.3672578 0 1271062770.3672578 -483936220.85362482 0 0 0 0 -1348327547.3723679 1168448478.2557521 0 1168448478.2557521 -651731462.44078934 0 0 0 0 -1771609233.7458191 999143438.94172275 0 999143438.94172275 -368640284.13305712 0 0 0 0 -493334.46184217115 963855.21504855156 0 963855.21504855156 -977224.2938847373 0 0 0 0 -1856563930.1568756 984452663.43569756 0 984452663.43569756 -370782963.96454459 0 0 0 0 -1087651.7603162369 3396504.1961920038 0 3396504.1961920038 -1846181.5227447643 0 0 0 0 1452941340.7127838 205567795.29372525 0 205567795.29372525 -333716195.0576638 0 0 0 0 2053041901.4882812 202954173.42164415 0 202954173.42164415 -517598653.07128054 0 0 0 0 -361090131.62493896 643265023.6196394 0 643265023.6196394 264220138.75547791 0 0 0 0 -1276991075.9238358 962016185.8208431 0 962016185.8208431 -250277786.93906498 0 0 0 0 -1613743216.3529205 854728476.41067386 0 854728476.41067386 -185577947.05970907 0 0 0 0 -1619574940.3264923 1029258725.7792516 0 1029258725.7792516 -176960755.52418995 0 0 0 0 -4199104283.6953325 1648653845.3375401 0 1648653845.3375401 -154198776.14294529 0 0 0 0 -1624541471.8371277 1648500520.7659662 0 1648500520.7659662 -651569968.71122229 0 0 0 0 -1502096104.1035843 1075177091.1820755 0 1075177091.1820755 -159219313.40901852 0 0 0 0 -1421750033.5566254 779391328.4901886 0 779391328.4901886 719639440.5504694 0 0 0 0 -837609598.63076782 1227262973.2784388 0 1227262973.2784388 -34833626.943113923 0 0 0 0 -1589855125.2360368 977551823.19176662 0 977551823.19176662 -53613003.605606794 0 0 0 0 -1133117547.5501862 1415448658.2812002 0 1415448658.2812002 -710588799.13533723 0 0 0 0 -57156612.05550766 27093848.044444084 0 27093848.044444084 -5614457.1316375732 0 0 0 0 -4991210.8917679749 417856.41622054204 0 417856.41622054204 579029.20091401134 0 0 0 0 -48984167.352561951 5399362.9203857183 0 5399362.9203857183 -26457138.227888107 0 0 0 0 -873961098.71486664 106208470.62794566 0 106208470.62794566 15032931.967793465 0 0 0 0 -759245925.57055664 468903565.32907295 0 468903565.32907295 83093254.737313271 0 0 0 0 -1543501526.1187897 1094620532.4116404 0 1094620532.4116404 95025990.854387283 0 0 0 0 -1124066860.5931931 756149863.14304352 0 756149863.14304352 -114616286.28750801 0 0 0 0 -1325281938.8740387 657132009.23460293 0 657132009.23460293 114100623.84415716 0 0 0 0 -531381451.12834167 465406673.41646004 0 465406673.41646004 -393369692.46580029 0 0 0 0 -1433433710.6512661 1001077716.850401 0 1001077716.850401 -218280891.7120533 0 0 0 0 -1926282518.1531372 794798264.92359066 0 794798264.92359066 -171060257.81901026 0 0 0 0 -1890408562.249115 925792699.33918071 0 925792699.33918071 359326.66728210449 0 0 0 0 -2198986247.6067047 733790172.89906549 0 733790172.89906549 -113418987.48030043 0 0 0 0 -1890418209.8821788 844482326.67218733 0 844482326.67218733 -146788237.23591232 0 0 0 0 -3025198013.4389801 780932104.26012325 0 780932104.26012325 -69544029.372665882 0 0 0 0 -1983813124.9501724 1000808804.5218426 0 1000808804.5218426 -309099288.3005352 0 0 0 0 -4779335702.9341431 1060918743.4210911 0 1060918743.4210911 -157623222.08323669 0 0 0 0 -8168328.6971573979 2080811.0867574923 0 2080811.0867574923 1158440.6871899548 0 0 0 0 -1176676495.9681702 1776797288.9809132 0 1776797288.9809132 -1872204067.7070827 0 0 0 0 -1020875585.9648819 1135748609.319859 0 1135748609.319859 -669180396.74185181 0 0 0 0 -13989465.32255926 -1025921.3348568194 0 -1025921.3348568194 6984838.2596876556 0 0 0 0 -10673610.304260254 -552313.0819683075 0 -552313.0819683075 3774827.3656387329 0 0 0 0 -13279449.30771533 2424060.6887661517 0 2424060.6887661517 6268476.219941128 0 0 0 0 -17864235.100204468 3000927.6092499495 0 3000927.6092499495 15197917.297742367 0 0 0 0 -399589163.44262695 -73518812.4482584 0 -73518812.4482584 -446666831.33612442 0 0 0 0 -15755394.316452026 5950726.2373178005 0 5950726.2373178005 12906973.456156254 0 0 0 0 -15584823.111305237 1918925.0798385143 0 1918925.0798385143 7999889.7825193405 0 0 0 0 -18771239.995048523 5986282.0471960306 0 5986282.0471960306 5999720.4697203636 0 0 0 0 -14101517.134715423 -1709282.189043045 0 -1709282.189043045 7449246.6297633648 0 0 0 0 -1746654122.5486984 -532760611.46675086 0 -532760611.46675086 -203278243.41395664 0 0 0 0 -2443036357.256958 -1005661512.7884581 0 -1005661512.7884581 -125657359.83277941 0 0 0 0 -2394134540.2379227 -790284819.75873017 0 -790284819.75873017 54834799.469362259 0 0 0 0 -2380946052.0061264 -753276442.39638066 0 -753276442.39638066 -267316137.75412512 0 0 0 0 -2200744715.8594532 -36856222.014844306 0 -36856222.014844306 -299337723.75731611 0 0 0 0 -2670689110.0696869 -92925563.790350914 0 -92925563.790350914 -100280314.59529877 0 0 0 0 -3181057754.9959412 -204249964.52059555 0 -204249964.52059555 -115206223.34081697 0 0 0 0 -3041479218.0631256 -557700130.08938885 0 -557700130.08938885 -173220123.76948458 0 0 0 0 -2287445184.3295898 -661326252.6226995 0 -661326252.6226995 -179052519.79743767 0 0 0 0 -2756790182.4838333 -246912066.07020235 0 -246912066.07020235 -300700887.17607403 0 0 0 0 -3795814287.7055359 -407397609.71603394 0 -407397609.71603394 -325479107.55211639 0 0 0 0 -4058190930.8340149 -980481895.43285465 0 -980481895.43285465 -1409798902.2345905 0 0 0 0 -3342818309.3678131 355871002.12728214 0 355871002.12728214 -3086318170.6427498 0 0 0 0 -2879037832.1663723 -490135648.66069686 0 -490135648.66069686 -364866469.09280777 0 0 0 0 -3320812790.9631805 42520454.746453285 0 42520454.746453285 -760085148.38209915 0 0 0 0 -2842059483.274765 -305524286.49467754 0 -305524286.49467754 -1477759467.0302982 0 0 0 0 -2633979141.4988708 -117792915.86579704 0 -117792915.86579704 -881326081.26505041 0 0 0 0 -2418046349.6010284 -481307596.21524429 0 -481307596.21524429 -515056584.34489059 0 0 0 0 -2387250511.7550049 -574271913.18776464 0 -574271913.18776464 -664201498.96001148 0 0 0 0 -2393953787.5143423 -630325863.81337714 0 -630325863.81337714 -24600230.48425293 0 0 0 0 -2932481.3065459505 -2347719.498843357 0 -2347719.498843357 -14496106.546392784 0 0 0 0 -1552251534.1607208 -438754304.18062878 0 -438754304.18062878 -525922680.8188591 0 0 0 0 -2805186315.3778839 -803138318.71084023 0 -803138318.71084023 104949108.63207626 0 0 0 0 -1205520.7012939453 -12414228.263498783 0 -12414228.263498783 -10768841.455411911 0 0 0 0 -11679441.689359665 -6943944.7832908034 0 -6943944.7832908034 -13229258.742704391 0 0 0 0 -11458517.346130371 -8481560.8401842117 0 -8481560.8401842117 -4431525.9952697754 0 0 0 0 -17983238.458938599 -10682954.076103687 0 -10682954.076103687 -2913195.0724015236 0 0 0 0 -27363357.91418457 -14362127.577726841 0 -14362127.577726841 10956695.454217911 0 0 0 0 -19960091.454437256 -13315064.592211723 0 -13315064.592211723 -466827.92211914062 0 0 0 0 -15470798.651077271 -19507301.178417683 0 -19507301.178417683 -9825290.2689943314 0 0 0 0 -47347377.339080811 -111016402.48011875 0 -111016402.48011875 -5135349.084936142 0 0 0 0 62676378.959503174 -12830531.703407288 0 -12830531.703407288 -31149175.831351757 0 0 0 0 -2953635.3085604385 -2810657.6881934106 0 -2810657.6881934106 -13317582.165732842 0 0 0 0 -79717624.913238525 103856172.78119087 0 103856172.78119087 -47943029.353256226 0 0 0 0 -1828627.0460424796 -239701.29744045436 0 -239701.29744045436 -12769.993030369282 0 0 0 0 -131506092.88961792 13033632.100720406 0 13033632.100720406 9296928.3286952972 0 0 0 0 -131586529.3921051 -130115925.74211931 0 -130115925.74211931 85606238.151985645 0 0 0 0 -4049271.2008267902 -5558598.6240598485 0 -5558598.6240598485 -11779162.034747748 0 0 0 0 80300302.584243774 107313241.36606312 0 107313241.36606312 -91951522.215577364 0 0 0 0 -11316887.161449097 -16486063.232290765 0 -16486063.232290765 -17004208.544375956 0 0 0 0 -17652912.034164429 -51749965.768375397 0 -51749965.768375397 138741330.26877141 0 0 0 0 106422719.68463135 -14638933.218108177 0 -14638933.218108177 -95573584.844142914 0 0 0 0 61751979.639129639 92216327.210303307 0 92216327.210303307 -123077601.41751862 0 0 0 0 54862139.298522949 -67547231.705448627 0 -67547231.705448627 3579467.5646858215 0 0 0 0 -54323102.251403809 -11102394.503769875 0 -11102394.503769875 -14743836.199232101 0 0 0 0 27659013.074310303 -8427961.5720529556 0 -8427961.5720529556 -44455420.188251495 0 0 0 0 32328909.191726685 4110351.691236496 0 4110351.691236496 -20618555.683530331 0 0 0 0 -3199310.8023335487 -2664812.4242294431 0 -2664812.4242294431 -1951649.6319203908 0 0 0 0 -31345384.075561523 -18844535.367890835 0 -18844535.367890835 -98578.911426544189 0 0 0 0 -38416595.972694784 -6099510.2521853894 0 -6099510.2521853894 -914410.83735971444 0 0 0 0 -43320868.341598511 7656632.8122472763 0 7656632.8122472763 -13240905.730167389 0 0 0 0 -357548817.35430908 207861820.51082325 0 207861820.51082325 -27264617.30633539 0 0 0 0 22842031.142730713 -57014837.548931122 0 -57014837.548931122 -10019047.262106955 0 0 0 0 28386434.11730957 47948195.257043123 0 47948195.257043123 18007107.265014648 0 0 0 0 -27792431.310261458 -2604894.9352132678 0 -2604894.9352132678 -3102579.6811035965 0 0 0 0 -246585273.09762573 -235557922.75097397 0 -235557922.75097397 81557300.777289629 0 0 0 0 22920973.237701416 -120864856.41808754 0 -120864856.41808754 -37858028.937416553 0 0 0 0 -38021530.48374176 -2127829.7133898735 0 -2127829.7133898735 3932783.6588563919 0 0 0 0 -48941911.482620239 13540938.673388481 0 13540938.673388481 9339713.7336444855 0 0 0 0 -7343159.6106396988 -1747506.1728990376 0 -1747506.1728990376 1249505.4067294449 0 0 0 0 -8150192.5870292783 -4088920.8488318771 0 -4088920.8488318771 -5746962.282451462 0 0 0 0 -7053551.8193283081 1197136.9770791531 0 1197136.9770791531 3067917.4861299992 0 0 0 0 -17303264.428024292 -792113.01735305786 0 -792113.01735305786 1716544.0663414001 0 0 0 0 -15751115.388199635 5668019.7768255398 0 5668019.7768255398 9342050.1944155116 0 0 0 0 -226306998.82757568 -60588174.426338196 0 -60588174.426338196 63042136.98666954 0 0 0 0 -232545700.15643883 -106523849.93007188 0 -106523849.93007188 66370958.263432026 0 0 0 0 -234343401.1212616 -66600732.581109568 0 -66600732.581109568 60542995.300739288 0 0 0 0 -57991382.52935791 -10840209.152302265 0 -10840209.152302265 12924746.429118961 0 0 0 0 -39988524.62979126 55318266.969964504 0 55318266.969964504 2306521.069062233 0 0 0 0 8386137.413848877 -3097501.0902118683 0 -3097501.0902118683 -6266688.2559995651 0 0 0 0 -24131030.438720703 102790474.11061668 0 102790474.11061668 -11561071.342440307 0 0 0 0 -100741973.14718628 38775482.709719777 0 38775482.709719777 33504254.110028744 0 0 0 0 -88490097.877502441 41074182.914968252 0 41074182.914968252 33846379.620109081 0 0 0 0 -258571714.05969238 -9443964.2798982859 0 -9443964.2798982859 149979827.9902401 0 0 0 0 -380947733.91516113 11156814.634562969 0 11156814.634562969 160646256.70722389 0 0 0 0 -424218776.93347168 112121657.05381012 0 112121657.05381012 235659305.39478159 0 0 0 0 -268704127.18811035 163621449.14362431 0 163621449.14362431 -8921378.3797569275 0 0 0 0 -429935398.44897461 -52182375.42645812 0 -52182375.42645812 222831305.22230434 0 0 0 0 -40813778.19644165 127473119.19248271 0 127473119.19248271 188103448.78875828 0 0 0 0 -436694495.94129562 -147597899.31010517 0 -147597899.31010517 120869674.80697536 0 0 0 0 -5349402.9059509188 -3153578.04786174 0 -3153578.04786174 -849834.09581179405 0 0 0 0 -556119891.8828125 476752396.32968903 0 476752396.32968903 210101493.87594962 0 0 0 0 -430311762.52435303 94238031.426328182 0 94238031.426328182 386660033.23159313 0 0 0 0 -385567667.75891113 7779987.9644021988 0 7779987.9644021988 300775428.47210264 0 0 0 0 -354245405.49603271 -109192922.02656937 0 -109192922.02656937 85302845.844915867 0 0 0 0 -97299731.900024414 -7741682.0155472755 0 -7741682.0155472755 58933231.88249588 0 0 0 0 -332010391.08856201 -38122040.667325497 0 -38122040.667325497 333385516.45656586 0 0 0 0 -163290611.47424316 -122935041.1755259 0 -122935041.1755259 -26289836.710965633 0 0 0 0 -56626782.368591309 -39371372.878387451 0 -39371372.878387451 38839507.207439661 0 0 0 0 -102561529.50234985 -89231329.276644945 0 -89231329.276644945 -5814757.9574818611 0 0 0 0 -141712514.69146729 -55081529.853478909 0 -55081529.853478909 117757328.65935636 0 0 0 0 -56763919.207824707 -44283110.682856083 0 -44283110.682856083 29053864.482177615 0 0 0 0 -78310951.405056 -34174853.61202164 0 -34174853.61202164 38035093.252261877 0 0 0 0 -81772678.810180664 -24550419.685791016 0 -24550419.685791016 33302629.140811443 0 0 0 0 -80089005.435773849 -23323695.689404055 0 -23323695.689404055 32259132.301316738 0 0 0 0 -17196917.555509463 -10438491.789938197 0 -10438491.789938197 -3188277.6299022292 0 0 0 0 -145639432.71026611 12612481.636017203 0 12612481.636017203 -88251774.077539921 0 0 0 0 -9898734.5320324004 -6323072.2011518553 0 -6323072.2011518553 1192945.5894192571 0 0 0 0 -372288770.55258179 -44649046.603336453 0 -44649046.603336453 31216658.638675332 0 0 0 0 -354801136.33488464 -28023100.647102155 0 -28023100.647102155 -37080715.619407713 0 0 0 0 -344869281.5916748 -149640029.31103724 0 -149640029.31103724 95240656.434794903 0 0 0 0 -349775628.72452545 -113322772.88604629 0 -113322772.88604629 -24788804.44392091 0 0 0 0 -23279431.558624268 -36092642.522054672 0 -36092642.522054672 -3867923.7023375034 0 0 0 0 9636192.1279964447 -44058676.073409289 0 -44058676.073409289 15512328.295530558 0 0 0 0 -22385805.49901104 -23951752.620681167 0 -23951752.620681167 277134.39115142822 0 0 0 0 -21489719.017590836 -15898473.464099146 0 -15898473.464099146 -6321203.6652044924 0 0 0 0 6917163.6535148621 -69157863.10581696 0 -69157863.10581696 -24835787.596083641 0 0 0 0 -32489627.730972424 -14787429.365460269 0 -14787429.365460269 -2838830.0325887334 0 0 0 0 -20158070.436882019 -32050291.497955322 0 -32050291.497955322 -37632408.18378067 0 0 0 0 -7851157.2544403076 -9742103.341047287 0 -9742103.341047287 -10340683.631395817 0 0 0 0 7489792.8767547607 5231195.1010103226 0 5231195.1010103226 -36944130.134529114 0 0 0 0 1286382.588973999 12011490.394864082 0 12011490.394864082 -3707207.5749397278 0 0 0 0 -1247980.8583526611 7639094.4857282639 0 7639094.4857282639 -6619233.4734306335 0 0 0 0 -1441957.9657115936 -4835819.0213955641 0 -4835819.0213955641 6957514.0274505615 0 0 0 0 -2021384.4377746582 -10969955.998040199 0 -10969955.998040199 -21648883.665866852 0 0 0 0 2058339.9164123535 18144782.761852264 0 18144782.761852264 3209669.4473609924 0 0 0 0 -177078388.44815063 -125794267.9432106 0 -125794267.9432106 -478396.29437446594 0 0 0 0 -14611768.713308625 -6683487.7276300117 0 -6683487.7276300117 2561260.326900322 0 0 0 0 -45387973.958709039 -6174753.8338110298 0 -6174753.8338110298 5055367.1943328418 0 0 0 0 7484068.9131164551 14538136.971715927 0 14538136.971715927 -7459349.3954257965 0 0 0 0 21739850.604064941 89257794.146697044 0 89257794.146697044 67378630.168077469 0 0 0 0 5319823.7811050415 10377458.561247826 0 10377458.561247826 -10005468.495117188 0 0 0 0 -42976357.054071292 3638072.7814949378 0 3638072.7814949378 11047873.727415085 0 0 0 0 -64581579.6925354 -16868405.990272522 0 -16868405.990272522 -2883344.7619781494 0 0 0 0 -97081145.131835938 -15890532.735565186 0 -15890532.735565186 -61237105.510153703 0 0 0 0 -49369999.817138672 -35368477.46672821 0 -35368477.46672821 -26145600.240409851 0 0 0 0 -27506502.995162964 -215222836.82714614 0 -215222836.82714614 -63182270.091043711 0 0 0 0 -37130153.579705611 -13316775.036518876 0 -13316775.036518876 3674272.5361139253 0 0 0 0 -55376127.821655273 -17170356.39633894 0 -17170356.39633894 -5930473.9486794472 0 0 0 0 -38754253.964698374 -7566687.7905687802 0 -7566687.7905687802 7695595.9123634938 0 0 0 0 -86850532.285888672 -52415872.30983448 0 -52415872.30983448 -28475671.339595795 0 0 0 0 -78040146.657150269 -35700056.335342407 0 -35700056.335342407 -25386182.491256714 0 0 0 0 -21579738.540472627 -22099553.08411406 0 -22099553.08411406 -12907609.376347337 0 0 0 0 -17994425.545288086 -6113932.8613204956 0 -6113932.8613204956 5003390.5318374634 0 0 0 0 -36211857.230568975 -18216832.654358368 0 -18216832.654358368 -6288142.3343687169 0 0 0 0 -34012481.917503975 -20355837.874675442 0 -20355837.874675442 -3232049.9352021068 0 0 0 0 -22996092.939069968 -4368815.5392435715 0 -4368815.5392435715 -434441.26610615104 0 0 0 0 -67732278.159576416 -35885306.151512146 0 -35885306.151512146 -30111598.556243896 0 0 0 0 -117046237.00704956 -36725775.338050842 0 -36725775.338050842 -29365417.203735352 0 0 0 0 -4812150.4026922137 -374628.75671828538 0 -374628.75671828538 3787856.2733809501 0 0 0 0 -78535719.77204895 -39221298.202419281 0 -39221298.202419281 -44588641.54385376 0 0 0 0 -162059397.75611877 -67530505.971992493 0 -67530505.971992493 -10835062.318061829 0 0 0 0 -21677071.93762207 -4509948.0052947998 0 -4509948.0052947998 6763315.8375091553 0 0 0 0 -26677401.450253852 -18004617.251367472 0 -18004617.251367472 -12241933.732510148 0 0 0 0 -43301485.298189566 -7237430.8495514877 0 -7237430.8495514877 10691927.419711195 0 0 0 0 -16798179.437260874 -8808429.3066941388 0 -8808429.3066941388 389194.54382005334 0 0 0 0 -65772230.17414856 -28234742.664375305 0 -28234742.664375305 -29386166.608636856 0 0 0 0 -64208038.862030029 -34438427.184158325 0 -34438427.184158325 -23552638.397289276 0 0 0 0 -22880666.628105164 36999404.645007253 0 36999404.645007253 123772833.22614288 0 0 0 0 -91461791.713233948 -80730994.830989838 0 -80730994.830989838 -39963422.272750854 0 0 0 0 -117535985.78112793 -44588531.991195679 0 -44588531.991195679 -7841226.8630943298 0 0 0 0 44274685.376647949 -5861298.7935791016 0 -5861298.7935791016 14209302.244815826 0 0 0 0 -71717007.407089233 24673469.463581085 0 24673469.463581085 140533576.97529602 0 0 0 0 -165811071.34616852 -31362473.382865906 0 -31362473.382865906 -82279970.534669876 0 0 0 0 -132239026.77537537 -94137075.533287048 0 -94137075.533287048 -24350930.830703735 0 0 0 0 -158259736.31877136 -52795909.124546051 0 -52795909.124546051 -40659493.727825642 0 0 0 0 -162844835.86935282 -79160830.345890045 0 -79160830.345890045 -25035171.4740448 0 0 0 0 -13298759.753904805 -1283648.2995979823 0 -1283648.2995979823 5861003.3154360298 0 0 0 0 -94425004.921981812 17953979.973251343 0 17953979.973251343 138739977.75452042 0 0 0 0 85025671.625732422 202516988.2763176 0 202516988.2763176 5588510.1899490356 0 0 0 0 -36231525.717567444 64473984.211675644 0 64473984.211675644 -258802199.83459854 0 0 0 0 -141666110.40146637 -33976684.639680862 0 -33976684.639680862 -112395885.64446259 0 0 0 0 -46065275.382904053 89873526.954956055 0 89873526.954956055 -82516281.662685394 0 0 0 0 -161338567.23160553 -80597187.68258667 0 -80597187.68258667 18070537.047779083 0 0 0 0 -46808452.925930321 4702071.4758195505 0 4702071.4758195505 4439087.4038346149 0 0 0 0 -56871403.423548698 54620336.357212543 0 54620336.357212543 -15835473.282497406 0 0 0 0 -99278931.102966309 -43949069.668018341 0 -43949069.668018341 -29034753.223121643 0 0 0 0 -188887053.94372559 -42074706.294631958 0 -42074706.294631958 -22369580.661218643 0 0 0 0 -8108569.3394053672 244200.50534293801 0 244200.50534293801 1292652.7173369564 0 0 0 0 -257479219.48532486 -184461751.40712357 0 -184461751.40712357 -7461594.5787506104 0 0 0 0 -181146865.05835724 -53784112.377254486 0 -53784112.377254486 -9530200.1251029968 0 0 0 0 -185596119.20669556 -63173816.436494827 0 -63173816.436494827 3112061.6218528748 0 0 0 0 -190438986.51585817 -54213550.800406218 0 -54213550.800406218 -1807236.0802116394 0 0 0 0 -168491204.97320175 -62734487.440394402 0 -62734487.440394402 34852391.16753006 0 0 0 0 -183920584.83468056 -119703266.04633117 0 -119703266.04633117 -70885039.079158783 0 0 0 0 -186083089.49414825 -148840077.04968262 0 -148840077.04968262 -45291351.185115814 0 0 0 0 -190273664.65024948 -134968804.02496958 0 -134968804.02496958 -75554042.538630486 0 0 0 0 -9873678.2349873781 1370679.5172794275 0 1370679.5172794275 6430730.241271127 0 0 0 0 -249022407.25993347 -138379558.5483284 0 -138379558.5483284 -27509950.986619949 0 0 0 0 -260878481.75109863 -85342841.726050377 0 -85342841.726050377 -100603352.4497757 0 0 0 0 -265205520.07933903 -393631890.85067177 0 -393631890.85067177 -401862031.04795074 0 0 0 0 -4822045.50639759 1258822.3009614311 0 1258822.3009614311 3782951.3939117528 0 0 0 0 -164233259.32132721 -210440760.179533 0 -210440760.179533 -45123895.125089645 0 0 0 0 -49272937.423934937 -79943759.169187546 0 -79943759.169187546 -585671016.18661809 0 0 0 0 -47926771.31678772 -200477336.53975868 0 -200477336.53975868 -275125945.32652283 0 0 0 0 93532139.159988403 -35825325.550073624 0 -35825325.550073624 -303919340.60038757 0 0 0 0 53715025.911758423 -177185730.8026762 0 -177185730.8026762 -165623085.82290459 0 0 0 0 -11455309.121604919 -64112122.122641087 0 -64112122.122641087 -339496029.4019165 0 0 0 0 -79092778.021209717 -302099646.1065979 0 -302099646.1065979 -476479809.10088921 0 0 0 0 -63445798.59677124 -140246884.724051 0 -140246884.724051 -194716462.66114044 0 0 0 0 -111367923.8901062 -494336642.18010998 0 -494336642.18010998 -580371357.64112186 0 0 0 0 -110836951.9316501 -577405470.01347649 0 -577405470.01347649 -871112438.58600426 0 0 0 0 -621565.62989807129 -292320275.2608366 0 -292320275.2608366 -661031593.27139473 0 0 0 0 -91303482.895233154 -342206376.10221958 0 -342206376.10221958 -582735718.39014375 0 0 0 0 -92735116.619384766 -237711474.93477345 0 -237711474.93477345 -864200236.93727779 0 0 0 0 -536097885.99741364 -703460585.34219599 0 -703460585.34219599 -924814089.67539978 0 0 0 0 -207491094.17956543 -332539486.94585419 0 -332539486.94585419 -1239365753.3889875 0 0 0 0 -271584116.22343445 -348660377.75456715 0 -348660377.75456715 -780612061.18018341 0 0 0 0 -135630271.60449219 -81536914.37503624 0 -81536914.37503624 -791141081.65766287 0 0 0 0 -129974161.07646179 -217906181.56309605 0 -217906181.56309605 -1073912111.4536705 0 0 0 0 -407417900.15292358 -406945235.22306442 0 -406945235.22306442 -960444512.74697495 0 0 0 0 -259085825.89985657 -206556559.83362198 0 -206556559.83362198 -660868867.03302002 0 0 0 0 -281023666.72271729 36089967.400089264 0 36089967.400089264 -467028678.77004623 0 0 0 0 -141468947.15465546 -194514745.0811367 0 -194514745.0811367 -470898413.27695084 0 0 0 0 10154024.01940918 168612180.66762543 0 168612180.66762543 -1080626003.5230827 0 0 0 0 -275869028.03436279 197685427.72784042 0 197685427.72784042 -303110278.16113281 0 0 0 0 -152598494.8416748 -2110932.7389831543 0 -2110932.7389831543 -798224284.25846481 0 0 0 0 -218100884.7003479 -131545131.00175476 0 -131545131.00175476 -827379045.34018326 0 0 0 0 -203713283.33233643 -551450375.07297325 0 -551450375.07297325 -1502546106.8278923 0 0 0 0 2977898.7603759766 18801035.765621185 0 18801035.765621185 -1320646678.0078011 0 0 0 0 436665650.72598267 51597319.321985245 0 51597319.321985245 -1875595399.8068008 0 0 0 0 -108157251.28620911 -151485732.85644245 0 -151485732.85644245 -1243981170.0686913 0 0 0 0 135399335.56121826 -784996777.77177143 0 -784996777.77177143 -2703984916.1196747 0 0 0 0 -107909330.32775879 -1510363871.7035275 0 -1510363871.7035275 -1912001562.3170166 0 0 0 0 -382618485.41592407 -1329550184.6207097 0 -1329550184.6207097 -1818277016.9336929 0 0 0 0 -1791566412.8972893 -1688316556.5003948 0 -1688316556.5003948 -1170581939.4490051 0 0 0 0 -932600609.36148071 -883475997.36472988 0 -883475997.36472988 -1200830436.7341886 0 0 0 0 -132099912.93875122 -500111117.98770618 0 -500111117.98770618 -1492306077.6990623 0 0 0 0 -470454718.2341156 -797160186.81647265 0 -797160186.81647265 -1400280479.4249458 0 0 0 0 -515421261.36322021 -1273654159.4930491 0 -1273654159.4930491 -987491018.11017418 0 0 0 0 -2328323881.7019348 -1663830069.4571738 0 -1663830069.4571738 -582378856.00760078 0 0 0 0 -1469941338.8524017 -663022309.46078348 0 -663022309.46078348 -1744007637.697998 0 0 0 0 -1710919257.5599976 -1179042433.801589 0 -1179042433.801589 -2088140424.7837629 0 0 0 0 -3783178863.2390747 -172311506.26304245 0 -172311506.26304245 -992461341.3462925 0 0 0 0 -847074136.01687622 -2748969772.7320366 0 -2748969772.7320366 -3967842387.670414 0 0 0 0 -1655421088.4165649 -730765528.99254799 0 -730765528.99254799 -880940419.93963528 0 0 0 0 -1342708041.1720886 -311199425.31909227 0 -311199425.31909227 -398841197.13506699 0 0 0 0 -1351007936.6877365 -552398126.22148156 0 -552398126.22148156 -456698321.83481407 0 0 0 0 -1581561291.9612427 -372902560.58924961 0 -372902560.58924961 -488751343.5619278 0 0 0 0 -1710191718.440918 -787872634.68228531 0 -787872634.68228531 -608165501.69234085 0 0 0 0 -1918026559.449707 -1222420691.7183447 0 -1222420691.7183447 -1601805383.5358195 0 0 0 0 -1730893823.5001221 -962240510.78876305 0 -962240510.78876305 -1630444922.9425793 0 0 0 0 -1647960980.8661804 -440361878.82250309 0 -440361878.82250309 -863266742.26821327 0 0 0 0 -1630374181.1459351 -849351568.98374748 0 -849351568.98374748 -1843053623.0245571 0 0 0 0 -1636112525.3955193 -520141630.15734613 0 -520141630.15734613 -1234240403.014143 0 0 0 0 -1775541130.3153534 -898641302.76080573 0 -898641302.76080573 -1135573014.8810768 0 0 0 0 -1547179942.1124268 -437060428.63974333 0 -437060428.63974333 -780285489.00326443 0 0 0 0 -2247747361.1975708 -2118525524.3356543 0 -2118525524.3356543 -1103822351.7165036 0 0 0 0 -1714013165.5061951 -880028592.95780802 0 -880028592.95780802 -1187000870.4569726 0 0 0 0 -2946784913.9927979 -1584182966.9333696 0 -1584182966.9333696 -1441789429.3405614 0 0 0 0 -1569512088.4506226 -1348290280.901885 0 -1348290280.901885 -2780143765.959549 0 0 0 0 -2276144325.5865631 -2474312444.6088886 0 -2474312444.6088886 -1966617377.8853898 0 0 0 0 -1669797.9635433778 1794990.4010679349 0 1794990.4010679349 -4207433.5397869106 0 0 0 0 -2370896843.5721588 -2910119488.7259235 0 -2910119488.7259235 -3205666174.1959963 0 0 0 0 949642833.24519348 650466864.68833733 0 650466864.68833733 -1499403187.1754951 0 0 0 0 635672269.88934326 -317881791.34101105 0 -317881791.34101105 -3690390820.8717351 0 0 0 0 -1762083636.9968567 -531958297.73244858 0 -531958297.73244858 -4168759109.2975674 0 0 0 0 -19366101.70149231 342704524.30907822 0 342704524.30907822 100059574.21082306 0 0 0 0 -3108687.8979957253 2422186.9743366987 0 2422186.9743366987 -12047105.845165547 0 0 0 0 30501428.541351318 -343289483.32703018 0 -343289483.32703018 156864526.70854187 0 0 0 0 477337531.53469849 -121899256.95814896 0 -121899256.95814896 -1429996.9402198792 0 0 0 0 -183392961.11657715 -611574106.98609018 0 -611574106.98609018 -2093205908.0993094 0 0 0 0 -3062676745.743412 -2037891784.7099223 0 -2037891784.7099223 -997689577.33632088 0 0 0 0 -1028337.4006354213 -2178992.732765574 0 -2178992.732765574 -4578937.5698297108 0 0 0 0 -3746504504.1966763 -15883623.283367284 0 -15883623.283367284 125623397.74406874 0 0 0 0 -1325225892.7726822 203444938.57576054 0 203444938.57576054 -223210280.72952747 0 0 0 0 62282955.189750671 -175899451.05326843 0 -175899451.05326843 70818664.228942871 0 0 0 0 -2005971.2937129289 -10121425.398658872 0 -10121425.398658872 -19260930.228628345 0 0 0 0 -76468969.394424438 -11493244.759586334 0 -11493244.759586334 74574626.175994873 0 0 0 0 31279143.454452515 -222903354.63967323 0 -222903354.63967323 47042956.111831665 0 0 0 0 -114351480.26290894 -41505198.198413849 0 -41505198.198413849 138052395.16023612 0 0 0 0 -48602631.15385437 5027661.0638179779 0 5027661.0638179779 71110672.122001648 0 0 0 0 -187679350.38381958 10180091.269744873 0 10180091.269744873 74148472.905654907 0 0 0 0 -126700049.14081192 -88600217.575055122 0 -88600217.575055122 -18604768.904094696 0 0 0 0 -133721198.68031311 74611776.608020782 0 74611776.608020782 -353703051.49296284 0 0 0 0 -180509755.30899048 -106343615.92261791 0 -106343615.92261791 -373949980.57898331 0 0 0 0 -258737328.78109741 69664191.459022522 0 69664191.459022522 -100147404.50954437 0 0 0 0 -169265566.35209656 -146903957.96816254 0 -146903957.96816254 -243470232.84520674 0 0 0 0 -134879060.24068069 -16782185.106440544 0 -16782185.106440544 26171318.338676453 0 0 0 0 -2856691303.9786606 1707631582.6695449 0 1707631582.6695449 859099618.51700473 0 0 0 0 -1551793735.1899109 1697471950.3002098 0 1697471950.3002098 -291271278.34416234 0 0 0 0 -5968843126.116354 2713598406.5524702 0 2713598406.5524702 925076446.44536495 0 0 0 0 -2802490021.0059128 1439809856.4755068 0 1439809856.4755068 1422136823.4146156 0 0 0 0 -3714840572.8915367 1494897177.7038808 0 1494897177.7038808 1609468551.5546749 0 0 0 0 -2990973746.2453079 790742940.89061332 0 790742940.89061332 2282247205.1614332 0 0 0 0 -5987268072.4032974 -1284418682.5794177 0 -1284418682.5794177 3238219794.9708533 0 0 0 0 -1931923755.1632309 1118980729.8785677 0 1118980729.8785677 937079023.30288267 0 0 0 0 -2001596521.7731743 1111449205.4365029 0 1111449205.4365029 1113435195.189867 0 0 0 0 -1520020295.9438248 977536447.98327696 0 977536447.98327696 368509424.2108863 0 0 0 0 -1980296057.7765656 1075280477.99579 0 1075280477.99579 606577999.91189623 0 0 0 0 -1465385843.5410647 487619787.86520255 0 487619787.86520255 479429686.34185219 0 0 0 0 -812262048.58747101 1005826418.0150521 0 1005826418.0150521 -158901095.32807565 0 0 0 0 -1486471159.0523224 1248323969.5958221 0 1248323969.5958221 -22025008.682773888 0 0 0 0 -274547482.64149475 498277320.8151592 0 498277320.8151592 -661473580.49723577 0 0 0 0 -1192818512.2319107 1407456302.6263087 0 1407456302.6263087 -471883387.25164986 0 0 0 0 -408561777.18412018 154584855.41593027 0 154584855.41593027 252740221.14148241 0 0 0 0 -1357889369.3847427 623852532.95836544 0 623852532.95836544 200320928.03690481 0 0 0 0 -447930664.64630127 -147235107.58784157 0 -147235107.58784157 -34292148.339681216 0 0 0 0 -329916940.22394562 8173055.1315965652 0 8173055.1315965652 803286852.72270107 0 0 0 0 -435749743.5289917 349335322.81400013 0 349335322.81400013 706790694.00594473 0 0 0 0 -131529148.65479279 342269837.57583237 0 342269837.57583237 561099752.6172483 0 0 0 0 -859695376.70291901 521545517.68460011 0 521545517.68460011 571807177.16373062 0 0 0 0 -395952176.70087433 190789218.24768209 0 190789218.24768209 635615265.05365849 0 0 0 0 -736377256.9560318 519885125.9241004 0 519885125.9241004 1146205734.4048386 0 0 0 0 -1152335984.5605469 1516759366.9185004 0 1516759366.9185004 -241862217.95420891 0 0 0 0 -2529022287.0873623 3734629263.881135 0 3734629263.881135 -1545535346.2819986 0 0 0 0 -5979155780.7747688 -3249535693.4212694 0 -3249535693.4212694 -1262889488.223012 0 0 0 0 1003551531.2792015 1919563830.1336799 0 1919563830.1336799 -2319504496.8732762 0 0 0 0 -6030458.7468613535 2991819.6864142092 0 2991819.6864142092 -2828513.4404842891 0 0 0 0 -3102624551.4646816 -1404927749.1280065 0 -1404927749.1280065 -104305626.76359409 0 0 0 0 350902624.4903183 893370853.44552898 0 893370853.44552898 1022217621.8529415 0 0 0 0 -13488279.097261839 9443822.4540242888 0 9443822.4540242888 -5031087.037693697 0 0 0 0 -3114710897.9151669 -816761959.19178033 0 -816761959.19178033 -11504.368233680725 0 0 0 0 -986859050.44710159 -720478226.14921999 0 -720478226.14921999 -261112073.4774172 0 0 0 0 -5984865497.8224201 -1276954340.1581869 0 -1276954340.1581869 910346957.25485027 0 0 0 0 -4182230631.1116095 -399736366.70389801 0 -399736366.70389801 747708865.84286559 0 0 0 0 -4214878492.37815 -232852773.21792632 0 -232852773.21792632 392757739.67693269 0 0 0 0 -1034770680.2729454 630618977.28937399 0 630618977.28937399 -571058.37235575914 0 0 0 0 -4923016559.8044567 1476801396.0857885 0 1476801396.0857885 -102233347.99916947 0 0 0 0 -3749163.6367450035 2686555.7695781467 0 2686555.7695781467 2279456.5899705952 0 0 0 0 -617383767.88195038 -123056753.43842602 0 -123056753.43842602 533157301.94246888 0 0 0 0 -5250988780.5814857 2268393552.0620937 0 2268393552.0620937 881009481.63561022 0 0 0 0 -5306716333.4512606 -504098441.08385724 0 -504098441.08385724 739901210.81415462 0 0 0 0 -5984372736.0038204 -709927752.75166976 0 -709927752.75166976 -194597520.49344304 0 0 0 0 -8248938948.9971495 565868949.57299447 0 565868949.57299447 1464932523.971838 0 0 0 0 -32140448.224739075 -10240601.592883587 0 -10240601.592883587 175344150.56976348 0 0 0 0 -58465938.740859985 90618261.363153934 0 90618261.363153934 12173298.206871986 0 0 0 0 174428460.01279354 14121191.905221224 0 14121191.905221224 -87915847.478978157 0 0 0 0 148235123.98901367 110421267.84750509 0 110421267.84750509 -440871094.90161991 0 0 0 0 19855355.133583069 93028144.654456139 0 93028144.654456139 -124010958.47104406 0 0 0 0 -578885608.45530725 -401098704.07519555 0 -401098704.07519555 -16911926.975462794 0 0 0 0 -9330225.2189035565 8878698.2638195138 0 8878698.2638195138 6431405.0279774358 0 0 0 0 -6423327.8461666107 -37152554.284952343 0 -37152554.284952343 -163060784.08153152 0 0 0 0 -70259429.024900436 -8503364.6454544067 0 -8503364.6454544067 18527318.225727081 0 0 0 0 -3976341.3303509299 -135944.16813768214 0 -135944.16813768214 3386979.6575707453 0 0 0 0 -27046631.077070475 33964454.64453721 0 33964454.64453721 233449856.28338623 0 0 0 0 -24830948.444514222 5309257.6951499563 0 5309257.6951499563 10466582.615973542 0 0 0 0 -7691521.4614257812 -326880497.97037411 0 -326880497.97037411 676481966.46598053 0 0 0 0 -569539159.11484909 405797363.41936791 0 405797363.41936791 -134257217.62579557 0 0 0 0 -24510318.916065693 81942006.109496742 0 81942006.109496742 611358784.71770096 0 0 0 0 -18777659.825843483 13651740.990634287 0 13651740.990634287 -3362411.407220636 0 0 0 0 -255684550.74962616 164622387.09127903 0 164622387.09127903 621905639.78276801 0 0 0 0 -321660848.97812653 -73517935.127093792 0 -73517935.127093792 844167544.12841797 0 0 0 0 -260525531.36489868 30351069.853761673 0 30351069.853761673 933053658.81129646 0 0 0 0 -520387754.7575531 161158550.19044065 0 161158550.19044065 916991366.26757431 0 0 0 0 -222193238.26557922 200836294.30955315 0 200836294.30955315 1116740584.2065291 0 0 0 0 -276818169.55215454 -201946778.13226318 0 -201946778.13226318 1043132985.573988 0 0 0 0 467214328.47955322 77498393.953837395 0 77498393.953837395 1141494752.3914771 0 0 0 0 551341088.49401855 -848682684.127244 0 -848682684.127244 594855487.0287056 0 0 0 0 -3402536.7083147615 370752.20656150021 0 370752.20656150021 2979560.7476627538 0 0 0 0 -270279970.11904907 -142061834.13216782 0 -142061834.13216782 1584163449.2860146 0 0 0 0 1082817258.6785889 295354474.72845411 0 295354474.72845411 1941897.6400442123 0 0 0 0 298952911.48220825 -534990553.98339605 0 -534990553.98339605 1139002767.0514007 0 0 0 0 144997129.07826233 -126734792.46999979 0 -126734792.46999979 2101241361.7989941 0 0 0 0 -3340755.1690469123 2850219.8067253884 0 2850219.8067253884 2140386.8864516839 0 0 0 0 -11306847.681167603 -174443036.74426866 0 -174443036.74426866 2094063589.4802866 0 0 0 0 240060050.28619385 481461928.74369597 0 481461928.74369597 1422291668.2126141 0 0 0 0 523520584.86434937 179104915.96026278 0 179104915.96026278 71988869.957313538 0 0 0 0 -8631409.2286891937 32107623.507798195 0 32107623.507798195 -8014317.5439758301 0 0 0 0 -8579523.1907945834 13293811.300838947 0 13293811.300838947 -9445839.9591246732 0 0 0 0 -9721915.8829040527 -112477596.10082436 0 -112477596.10082436 430037271.5841403 0 0 0 0 -21490323.659913585 4995861.3966392791 0 4995861.3966392791 9389155.5101705585 0 0 0 0 -11742208.018118382 17353220.485028148 0 17353220.485028148 6521959.3669090271 0 0 0 0 -25275318.936073303 27639313.909851074 0 27639313.909851074 3038406.552189827 0 0 0 0 2850605.3014335632 35903586.488802433 0 35903586.488802433 -83829654.893259525 0 0 0 0 -51518423.437576294 56037744.821125746 0 56037744.821125746 -26915517.856172562 0 0 0 0 9647533.2766437531 3682154.7597581148 0 3682154.7597581148 -10672240.944767475 0 0 0 0 19489823.326324463 6516594.3237910271 0 6516594.3237910271 -32372379.176115513 0 0 0 0 -15990741.565288544 40772184.430454731 0 40772184.430454731 -13696413.0268116 0 0 0 0 3201743.6841373444 -8668209.2967416048 0 -8668209.2967416048 -10075342.165856361 0 0 0 0 -18556500.666612148 -69036539.99598819 0 -69036539.99598819 -32825788.534239769 0 0 0 0 -22681104.012088776 -9779196.6262555122 0 -9779196.6262555122 92892981.708454669 0 0 0 0 932606360.7386322 568445714.90892601 0 568445714.90892601 -250301944.83069408 0 0 0 0 -1137094520.3476334 -285707195.62502778 0 -285707195.62502778 174895840.55522382 0 0 0 0 -12737455.444912642 5002543.3378549851 0 5002543.3378549851 2231745.2722142958 0 0 0 0 -10653452.211471558 -2483547.3682818413 0 -2483547.3682818413 29913432.238411859 0 0 0 0 -8825862.5072420742 8776804.4420087542 0 8776804.4420087542 -5927685.5216094097 0 0 0 0 781688169.52783203 555746689.8165561 0 555746689.8165561 74672848.253952026 0 0 0 0 596076403.57693672 -5434944.9195845127 0 -5434944.9195845127 -239729448.09583616 0 0 0 0 -1166225434.293251 376785881.40323901 0 376785881.40323901 220314720.14762545 0 0 0 0 -149545885.76928711 -328853869.65623856 0 -328853869.65623856 37904189.730122805 0 0 0 0 517996614.33751678 173424083.36474085 0 173424083.36474085 83742454.899505168 0 0 0 0 64921604.6847229 419523002.6356805 0 419523002.6356805 269833761.63163471 0 0 0 0 -411868974.43833923 33502484.78498435 0 33502484.78498435 1033191801.8319726 0 0 0 0 4855741.0373535156 -55005250.552737236 0 -55005250.552737236 205174730.85638869 0 0 0 0 -517674177.21690464 -340446125.69812214 0 -340446125.69812214 207091761.36862755 0 0 0 0 -1365407204.8540192 58990184.083286047 0 58990184.083286047 566861953.62824142 0 0 0 0 -1200011562.7281837 -615531097.76443696 0 -615531097.76443696 531496265.39484954 0 0 0 0 -807487641.03108978 -940429139.51740408 0 -940429139.51740408 -321835907.9134779 0 0 0 0 -496783854.88493919 -6980383.6092853621 0 -6980383.6092853621 882610387.9955442 0 0 0 0 -694953.02621620893 569311.91257826611 0 569311.91257826611 -75821.290513004438 0 0 0 0 -91345990.010925293 -471665513.47000813 0 -471665513.47000813 599047596.66574764 0 0 0 0 47331127.69821167 -120056134.70254302 0 -120056134.70254302 469858992.02708936 0 0 0 0 1007261894.8162003 237869303.51690936 0 237869303.51690936 964663830.48019218 0 0 0 0 263174838.75487518 -333085906.16506338 0 -333085906.16506338 672692509.60475159 0 0 0 0 -132708737.45832062 -164153530.96621275 0 -164153530.96621275 398581884.87199664 0 0 0 0 -164201647.3283968 -121047430.20885694 0 -121047430.20885694 1095683306.0241861 0 0 0 0 436422370.12052917 275843711.61300659 0 275843711.61300659 729467130.90962648 0 0 0 0 61556890.534408569 188064705.60306543 0 188064705.60306543 173673361.50365925 0 0 0 0 212771715.2622757 -56504305.563593626 0 -56504305.563593626 362885047.48452997 0 0 0 0 -1462236.6930635273 1426603.5471093229 0 1426603.5471093229 -211502.56275118308 0 0 0 0 190572801.74044037 -198260885.50639629 0 -198260885.50639629 195604173.94884384 0 0 0 0 -413963183.91864014 -69010640.186258554 0 -69010640.186258554 772656118.80224431 0 0 0 0 -775804955.2212677 898624158.40799546 0 898624158.40799546 546261611.07295585 0 0 0 0 -640422.65141308308 1190819.9496811421 0 1190819.9496811421 -260440.16509135807 0 0 0 0 -283048448.9494009 -390802687.58578193 0 -390802687.58578193 93011695.03178215 0 0 0 0 -692385202.84895325 -605079564.65324211 0 -605079564.65324211 98470195.322865486 0 0 0 0 -829922958.0186348 -523510842.0355283 0 -523510842.0355283 168119061.14991093 0 0 0 0 -853062212.38912964 -612808293.37238526 0 -612808293.37238526 101800818.69196147 0 0 0 0 -1361947299.4239578 -659317334.64357722 0 -659317334.64357722 135632783.26980433 0 0 0 0 -252885259.916646 -634750890.86851597 0 -634750890.86851597 -179072586.99420834 0 0 0 0 -999856594.79750061 -304261283.9006533 0 -304261283.9006533 166900595.69252211 0 0 0 0 -1060515546.9944 -281760606.27016383 0 -281760606.27016383 177270490.56721082 0 0 0 0 -840376654.01335144 -488797905.32580423 0 -488797905.32580423 128338302.12468052 0 0 0 0 -802621119.45226288 -187194893.89843702 0 -187194893.89843702 232979626.77062845 0 0 0 0 -120159643.55261993 145934854.19065046 0 145934854.19065046 111483841.78963733 0 0 0 0 -838437453.19466019 263507437.3244493 0 263507437.3244493 114503401.98468733 0 0 0 0 -899449227.73313141 208193059.81534731 0 208193059.81534731 75518974.911882877 0 0 0 0 -756631053.85486221 217435832.9131704 0 217435832.9131704 19379260.765863776 0 0 0 0 -1581638471.8265686 454202718.28767902 0 454202718.28767902 -153362435.78240287 0 0 0 0 -828766677.58724594 152457450.92295647 0 152457450.92295647 -32443784.468209028 0 0 0 0 -1300301360.7487116 1204448348.6318014 0 1204448348.6318014 -544386868.24775553 0 0 0 0 -1387521347.3367348 612116323.92021787 0 612116323.92021787 -47965396.29647398 0 0 0 0 -1864347663.9859161 850400732.91174173 0 850400732.91174173 -166583370.47431421 0 0 0 0 -2117846587.0960846 160559897.40378761 0 160559897.40378761 279523837.24098372 0 0 0 0 -1222041957.7914181 -44181731.529159158 0 -44181731.529159158 118518240.11680841 0 0 0 0 -1516694941.2127914 -252720196.48719883 0 -252720196.48719883 201559330.25759917 0 0 0 0 -1706632993.5423851 -384320177.25346458 0 -384320177.25346458 140130596.08506346 0 0 0 0 -2192441956.7451973 371518138.4091472 0 371518138.4091472 62038730.688169956 0 0 0 0 -2484742486.5610723 924417109.02201164 0 924417109.02201164 -1152431537.9663982 0 0 0 0 -2712182386.9566269 136914565.64413226 0 136914565.64413226 14129781.011194944 0 0 0 0 -2561123303.4438934 526002541.00671768 0 526002541.00671768 93528422.459910929 0 0 0 0 -1875521599.4499664 762658829.14689279 0 762658829.14689279 -289563157.64268446 0 0 0 0 -1524480445.7355251 -198563108.90273511 0 -198563108.90273511 -4333779.988512516 0 0 0 0 -3254152239.848175 903930369.1143595 0 903930369.1143595 -636269153.45726597 0 0 0 0 -3864225645.4599457 2582192999.0063539 0 2582192999.0063539 -1406732398.8210926 0 0 0 0 -4228611088.9923019 2441484324.9763923 0 2441484324.9763923 -778779590.748366 0 0 0 0 -3312145992.3664742 2399661882.4718642 0 2399661882.4718642 -935338164.78248155 0 0 0 0 -3474983962.835659 502844676.06861967 0 502844676.06861967 477273488.25162733 0 0 0 0 -6695270963.8765297 1710945770.6275494 0 1710945770.6275494 282836996.66275609 0 0 0 0 -8704334.5354668722 2720432.4081974365 0 2720432.4081974365 1503035.3841928481 0 0 0 0 -267426054.79877472 -133334078.76712894 0 -133334078.76712894 194305234.31590843 0 0 0 0 27322208.785232544 54841152.78295517 0 54841152.78295517 111786095.72530651 0 0 0 0 -151340.60556741059 311659.98869477678 0 311659.98869477678 -301688.76068309002 0 0 0 0 -3437489278.7386713 1282667930.5797727 0 1282667930.5797727 297335386.85577083 0 0 0 0 -4952871946.6652374 2528679740.2105856 0 2528679740.2105856 -322045085.44939256 0 0 0 0 -4355881394.1924896 1541492874.5671575 0 1541492874.5671575 -1168912382.571641 0 0 0 0 -6852151755.9790955 2662273166.8784294 0 2662273166.8784294 -357382990.9510746 0 0 0 0 -218103.10281058098 -22336.388271570206 0 -22336.388271570206 -4190409.2632012386 0 0 0 0 -3877433536.803093 2741689820.1618881 0 2741689820.1618881 -3812665577.6043491 0 0 0 0 -62839232.313189149 -256651516.2831738 0 -256651516.2831738 -1191063727.1052694 0 0 0 0 -213580088.64261627 1626526074.7153492 0 1626526074.7153492 -2032609422.4398551 0 0 0 0 -2520085210.7949944 2111912942.4204779 0 2111912942.4204779 -841121859.46766806 0 0 0 0 -3435825165.1445351 760071078.52408886 0 760071078.52408886 -597108651.92548275 0 0 0 0 -2824224252.9874191 1229132282.8871603 0 1229132282.8871603 -259311103.68017268 0 0 0 0 -2004482578.8706055 881629476.46653473 0 881629476.46653473 -116179864.42540121 0 0 0 0 -1906037967.9224205 1617510698.5305705 0 1617510698.5305705 -535661129.45113134 0 0 0 0 -901758505.38602448 1145466845.3387818 0 1145466845.3387818 -579156233.50939751 0 0 0 0 -912738272.00119781 1306640744.322412 0 1306640744.322412 -734400540.97922397 0 0 0 0 -1339748085.295639 321376549.28179598 0 321376549.28179598 -667213073.40744162 0 0 0 0 -305193783.68276405 1371968893.5135579 0 1371968893.5135579 -517923091.04140091 0 0 0 0 241079165.93591309 382737979.63126695 0 382737979.63126695 -700830318.38516808 0 0 0 0 -843116006.98495483 1660954549.8322539 0 1660954549.8322539 -783857038.83211851 0 0 0 0 -456117784.89936066 385865370.17834949 0 385865370.17834949 62506302.925111771 0 0 0 0 -9306920.4353403598 1961003.1413837783 0 1961003.1413837783 2646291.2759399684 0 0 0 0 -918664274.70269012 468723274.10244131 0 468723274.10244131 -97079218.979808807 0 0 0 0 -832613193.66556931 598054914.88588941 0 598054914.88588941 -168278069.81233692 0 0 0 0 -620012550.27435493 275400282.43616283 0 275400282.43616283 550889.70660114288 0 0 0 0 -51723669.637462616 92686037.741940975 0 92686037.741940975 -57555290.801609993 0 0 0 0 -1426926420.9603958 420080983.81320953 0 420080983.81320953 326984833.55481529 0 0 0 0 -1312084493.3479462 735198380.02693701 0 735198380.02693701 109771875.64888406 0 0 0 0 -363068474.40786362 -48746716.278944731 0 -48746716.278944731 145370635.5880394 0 0 0 0 -2346729097.8594437 510930415.44071364 0 510930415.44071364 397428610.56548476 0 0 0 0 412803973.34500885 -107959779.37497804 0 -107959779.37497804 6471258.2980132103 0 0 0 0 963746.42416522652 -128417.62531595677 0 -128417.62531595677 -2735664.5937543917 0 0 0 0 -1190174038.1914062 285201260.94453192 0 285201260.94453192 -479879236.65919542 0 0 0 0 -4241598.7653978914 832582.62873411179 0 832582.62873411179 1371866.3896289188 0 0 0 0 -1729831718.9269943 1794420891.6647573 0 1794420891.6647573 -1298844312.930311 0 0 0 0 -2140044554.5180511 -449284323.08219051 0 -449284323.08219051 2699973469.0016699 0 0 0 0 -2844781926.1718254 1336690083.4449766 0 1336690083.4449766 -539159623.30784607 0 0 0 0 -2951483226.5658875 -104090229.94342327 0 -104090229.94342327 2591517711.7656045 0 0 0 0 -1845973231.3427582 1979255353.4441543 0 1979255353.4441543 -1928006119.5926507 0 0 0 0 -3338034391.6502686 -818618060.45722079 0 -818618060.45722079 2632754139.834269 0 0 0 0 2100756394.4019165 -262548921.1005702 0 -262548921.1005702 -52443403.163482785 0 0 0 0 -3578320.4430566728 1924471.8195712278 0 1924471.8195712278 1035176.2368505802 0 0 0 0 -946266020.30601501 794018348.35483873 0 794018348.35483873 -380228440.76151609 0 0 0 0 -2168471410.78125 1464587013.4788513 0 1464587013.4788513 -718461323.53645897 0 0 0 0 -520042545.55528736 900009737.6762197 0 900009737.6762197 -1168734970.9931231 0 0 0 0 -1633071243.3922424 1064055175.1303494 0 1064055175.1303494 -402790994.04939455 0 0 0 0 -2026888914.9549599 957063917.16667104 0 957063917.16667104 -435055282.40251637 0 0 0 0 -1550195573.6480179 1197510367.4259644 0 1197510367.4259644 -352294496.45344186 0 0 0 0 -1253150436.2987671 1048146480.9800022 0 1048146480.9800022 -672639854.73058951 0 0 0 0 -1149039357.2437592 1213761689.4898975 0 1213761689.4898975 -760648897.15514159 0 0 0 0 -1119913086.8378601 1343746651.7572026 0 1343746651.7572026 -460601788.78447521 0 0 0 0 -372869377.03539276 913537840.79761124 0 913537840.79761124 -647879539.75312948 0 0 0 0 -1228118264.107605 1119655699.7736967 0 1119655699.7736967 -470863188.9371013 0 0 0 0 -2187466182.0228577 1151059834.5034981 0 1151059834.5034981 -277679925.51453727 0 0 0 0 -1151963444.0658073 1547678750.2964549 0 1547678750.2964549 -484989167.45843363 0 0 0 0 1452544582.7689362 1085852362.4359393 0 1085852362.4359393 -431688018.11463541 0 0 0 0 -1812664.2416654266 2084533.2150222026 0 2084533.2150222026 -2405027.3163081305 0 0 0 0 -2511190033.6141434 1750270277.4957449 0 1750270277.4957449 -970982221.27558482 0 0 0 0 -1802744753.831131 1004174189.0715249 0 1004174189.0715249 -604441832.69131017 0 0 0 0 -1590362810.7980881 996838258.4064008 0 996838258.4064008 -588060536.50242448 0 0 0 0 -1561415542.9825439 991091164.86507273 0 991091164.86507273 -1113200624.9519901 0 0 0 0 -1979806355.561615 783042651.52277458 0 783042651.52277458 -585929264.18338156 0 0 0 0 -1719519618.3128586 170476726.25475037 0 170476726.25475037 -176366879.39176393 0 0 0 0 -1453125501.0141144 1206555839.5049517 0 1206555839.5049517 -572956201.6839658 0 0 0 0 -1451194576.7365246 1122099289.6797543 0 1122099289.6797543 -692379603.69241738 0 0 0 0 -4170858661.1015778 -131532595.46634287 0 -131532595.46634287 -205204966.98918033 0 0 0 0 -396885220.77949142 445891185.11722231 0 445891185.11722231 706144123.09180212 0 0 0 0 914189300.96607208 825207586.88113093 0 825207586.88113093 423688006.34781742 0 0 0 0 -5358958.6531455554 5941008.8825025707 0 5941008.8825025707 -4553539.7691346593 0 0 0 0 -1394407658.4125557 -491598613.93123883 0 -491598613.93123883 -379286195.57653546 0 0 0 0 -1198075807.714119 -120996033.78899479 0 -120996033.78899479 -206064077.12697086 0 0 0 0 -771982848.02202225 -382112663.33715463 0 -382112663.33715463 -447824133.81517553 0 0 0 0 -907097603.38350487 76496147.892243594 0 76496147.892243594 310657210.69206762 0 0 0 0 -578927360.84687805 129950799.81502271 0 129950799.81502271 34428499.16532743 0 0 0 0 -937212561.21543121 -69418115.506338656 0 -69418115.506338656 687927358.66766548 0 0 0 0 -816682549.5797348 -157697594.0100536 0 -157697594.0100536 1097045207.8027754 0 0 0 0 -564683350.48075867 -581516148.25968194 0 -581516148.25968194 1220690176.3507767 0 0 0 0 -690042592.47649765 162667332.31720322 0 162667332.31720322 342258826.49769878 0 0 0 0 -863739856.79429626 -222624132.5663352 0 -222624132.5663352 542501133.06965601 0 0 0 0 -584655018.32295227 -87397022.897272468 0 -87397022.897272468 596684732.61301625 0 0 0 0 -760711169.42648315 1003878.7243224978 0 1003878.7243224978 1000052464.2613978 0 0 0 0 -535500826.25483704 199608258.18506098 0 199608258.18506098 809770275.24578047 0 0 0 0 -502697343.26248169 -89030780.138938665 0 -89030780.138938665 578014442.42046666 0 0 0 0 31695151.699417114 369446896.25376248 0 369446896.25376248 267814844.67993021 0 0 0 0 -923670926.85025024 278998292.74438274 0 278998292.74438274 272588376.09391356 0 0 0 0 -536573339.95235443 225073674.2631135 0 225073674.2631135 -191189010.36614847 0 0 0 0 -551652630.15911865 1009916798.0061641 0 1009916798.0061641 -225510920.34325862 0 0 0 0 -1229453905.4128199 882254187.35794175 0 882254187.35794175 -198143868.40625882 0 0 0 0 -876089013.59725666 581991030.90754139 0 581991030.90754139 514066639.63860273 0 0 0 0 -272367248.19688416 1143009378.7759037 0 1143009378.7759037 1005607128.0481701 0 0 0 0 341957720.59141541 106053660.07895398 0 106053660.07895398 476377274.888906 0 0 0 0 109140823.4079895 423208428.83223724 0 423208428.83223724 1403949071.9358816 0 0 0 0 -3197227.4574493319 -518393.82074350491 0 -518393.82074350491 2188674.4140436514 0 0 0 0 700215157.79902649 557382702.17769146 0 557382702.17769146 137816070.08395934 0 0 0 0 -2457854.2462506369 774418.10001699254 0 774418.10001699254 2316472.6749664694 0 0 0 0 -116911746.34240723 662804128.31986713 0 662804128.31986713 1601911716.3568225 0 0 0 0 -98795416.70337677 -213305734.46378756 0 -213305734.46378756 1200187939.2449803 0 0 0 0 -364721671.42976379 176707125.86808652 0 176707125.86808652 656779730.55568242 0 0 0 0 26744187.149962425 315600480.34571785 0 315600480.34571785 572309364.97098398 0 0 0 0 -28161704.626930237 101635012.07710883 0 101635012.07710883 104883084.31446108 0 0 0 0 -17480022.355979919 2763314.6644212008 0 2763314.6644212008 493977.73664426804 0 0 0 0 -9544411.8804298192 6880288.5267601646 0 6880288.5267601646 2762565.913282726 0 0 0 0 53321263.200134277 -16969941.67075488 0 -16969941.67075488 122237184.65798645 0 0 0 0 -13734209.243639581 -3653408.2058853246 0 -3653408.2058853246 5323538.0261419825 0 0 0 0 -13590897.549804688 2459230.401211977 0 2459230.401211977 517358.64834529161 0 0 0 0 -15562162.509803772 3120349.8972352743 0 3120349.8972352743 5537771.5370297432 0 0 0 0 -24484427.198944092 -43401087.971593291 0 -43401087.971593291 86781248.572894305 0 0 0 0 -9567658.6913115978 6348097.3919019438 0 6348097.3919019438 3416640.2686692188 0 0 0 0 -11182509.690460205 5278651.8192830086 0 5278651.8192830086 5797191.0867343545 0 0 0 0 -13056562.47183609 6977798.7123323902 0 6977798.7123323902 11746956.533423901 0 0 0 0 -17071500.431686401 4318059.2760106325 0 4318059.2760106325 16208576.013446331 0 0 0 0 -7322698.690439675 -959148.59196782112 0 -959148.59196782112 4514026.3836936103 0 0 0 0 -1322840268.6272964 25799624.432836533 0 25799624.432836533 -170631209.25368881 0 0 0 0 -1137811507.1180267 -222501495.50521922 0 -222501495.50521922 -49084043.817470551 0 0 0 0 -26844423.086227417 10466045.953408659 0 10466045.953408659 -18131188.535549462 0 0 0 0 -10519576.849964388 6573012.9626319408 0 6573012.9626319408 5340230.3645473421 0 0 0 0 -13220408.295782566 3971464.614386037 0 3971464.614386037 8046617.2756767273 0 0 0 0 25440317.551010132 20035076.46699436 0 20035076.46699436 -16612115.391869886 0 0 0 0 -3617719.014210552 336624.0059158057 0 336624.0059158057 4090016.7814235277 0 0 0 0 -2331213343.7966957 302920586.81206131 0 302920586.81206131 815538156.70405102 0 0 0 0 -14493090.628112793 -21136882.240681887 0 -21136882.240681887 161553804.92474002 0 0 0 0 -53714721.447273254 -30915562.818299755 0 -30915562.818299755 160503219.09933829 0 0 0 0 -78156825.872894287 -22672214.605080992 0 -22672214.605080992 631525338.27563787 0 0 0 0 -421991078.13056946 -67947411.883985877 0 -67947411.883985877 627868417.67888391 0 0 0 0 -294119920.99581146 -334416170.5272702 0 -334416170.5272702 936879905.97847652 0 0 0 0 -358653638.43611145 108172129.88320926 0 108172129.88320926 980221288.99980903 0 0 0 0 -960077.67080607824 593952.22876065597 0 593952.22876065597 1780784.6612690003 0 0 0 0 678046020.21915436 -881266773.41750979 0 -881266773.41750979 684660289.85212517 0 0 0 0 236698289.99050903 -343194874.62625927 0 -343194874.62625927 374114975.80399024 0 0 0 0 -245532814.98605347 -307967045.16769385 0 -307967045.16769385 909641465.78702044 0 0 0 0 -256648901.86145592 -817281203.24777079 0 -817281203.24777079 1225528205.6364167 0 0 0 0 -880303879.6829834 241524817.22076625 0 241524817.22076625 491343113.99165022 0 0 0 0 -1687807765.5591431 1309824704.5906553 0 1309824704.5906553 583008186.15850353 0 0 0 0 -510649494.82209778 1370794796.8404181 0 1370794796.8404181 317489701.129403 0 0 0 0 -9602093.5372571535 11877714.386609674 0 11877714.386609674 -8712500.623998031 0 0 0 0 -12012254.639984131 242533353.83332896 0 242533353.83332896 194139625.21050358 0 0 0 0 -1059507072.1893158 418190592.56206465 0 418190592.56206465 -782670656.98082829 0 0 0 0 -1059786652.8674927 444261700.31999969 0 444261700.31999969 1680877939.0039139 0 0 0 0 -1256849452.8598022 137112643.90945578 0 137112643.90945578 545533630.0398941 0 0 0 0 -1254186364.1319885 -104404920.75607586 0 -104404920.75607586 -59475361.863245487 0 0 0 0 612955199.24882507 -605986416.02320576 0 -605986416.02320576 412363673.78753567 0 0 0 0 2080829054.0342407 1210064498.2453327 0 1210064498.2453327 54377748.435821533 0 0 0 0 1751481888.7662201 3079976722.0323315 0 3079976722.0323315 -5979506.9290790558 0 0 0 0 -2016451703.4200439 837343590.8447566 0 837343590.8447566 345266128.95383549 0 0 0 0 -844457004.28813934 3121492944.2531681 0 3121492944.2531681 805386599.43110466 0 0 0 0 -1213083108.8196564 147256958.35832071 0 147256958.35832071 -36606623.447127342 0 0 0 0 -1304824400.9969482 518453375.2511611 0 518453375.2511611 -1068778018.9037271 0 0 0 0 -1056035473.411171 -386756790.78402185 0 -386756790.78402185 -495539631.24110794 0 0 0 0 -3869483.5380723551 922396.69546569372 0 922396.69546569372 489065.86836031452 0 0 0 0 -3131095985.2571182 -977761330.92082834 0 -977761330.92082834 1127861595.0013809 0 0 0 0 -2667263633.3997421 -1113443292.1999478 0 -1113443292.1999478 1026214447.3348503 0 0 0 0 195535695.81570435 -209952311.49691963 0 -209952311.49691963 216640506.66501999 0 0 0 0 -3941645822.5357208 -988130770.74437141 0 -988130770.74437141 1187209249.681561 0 0 0 0 2739959426.521431 19550054.880372763 0 19550054.880372763 -1381185103.6550293 0 0 0 0 -3278561971.0542297 -721031789.78994751 0 -721031789.78994751 685966859.16766739 0 0 0 0 -848027396.32491302 153288955.078969 0 153288955.078969 -91583816.16824913 0 0 0 0 -1429002220.4762421 -1763090208.9092321 0 -1763090208.9092321 -2463520968.0177422 0 0 0 0 -7263945.4837159291 10967052.686536204 0 10967052.686536204 -12017597.539445955 0 0 0 0 -396821783.83585358 683667330.57714653 0 683667330.57714653 -1034312979.9055281 0 0 0 0 -1798044803.0183945 914708867.99674892 0 914708867.99674892 -6769810.0543107986 0 0 0 0 -802192470.58547735 708355266.84633327 0 708355266.84633327 272059072.13126755 0 0 0 0 -809419428.08346939 447801224.17687231 0 447801224.17687231 213737726.44932365 0 0 0 0 -989699950.58647919 525582646.45789814 0 525582646.45789814 386511835.18896484 0 0 0 0 -954311018.78107452 -207483378.28439522 0 -207483378.28439522 175130471.63025522 0 0 0 0 -626531845.65878296 181052298.64218521 0 181052298.64218521 325601003.30127811 0 0 0 0 -106685769.35876083 63859586.625961304 0 63859586.625961304 203210437.71800995 0 0 0 0 -659316887.43820953 459379255.60877132 0 459379255.60877132 368345894.20821476 0 0 0 0 -634454357.61736202 660827848.24576688 0 660827848.24576688 431534076.29190636 0 0 0 0 -555183255.87406921 415647771.08660316 0 415647771.08660316 276729030.54868984 0 0 0 0 -430333831.75636339 374075714.84432369 0 374075714.84432369 274929129.37295532 0 0 0 0 -406622959.40705872 285592272.86968136 0 285592272.86968136 105805221.94011736 0 0 0 0 -451113220.1784668 59956723.488928795 0 59956723.488928795 191588435.28532052 0 0 0 0 -415849185.41470337 73157501.506244183 0 73157501.506244183 78618672.045604706 0 0 0 0 -407565727.18231201 173998367.53722715 0 173998367.53722715 365253834.16648388 0 0 0 0 -374446257.52391434 196440382.83670282 0 196440382.83670282 348126183.88063049 0 0 0 0 -191365340.79670715 279740143.01718998 0 279740143.01718998 288630966.87614536 0 0 0 0 299117816.17881775 198221509.25906277 0 198221509.25906277 211206773.25181389 0 0 0 0 -145152277.32293892 155469094.96059549 0 155469094.96059549 261274153.57600594 0 0 0 0 -8240976.0317713059 9082793.1668335795 0 9082793.1668335795 -5363368.5985116418 0 0 0 0 -308057094.9421463 -1233348622.3292675 0 -1233348622.3292675 197194920.8247745 0 0 0 0 456346143.41183472 586092394.613482 0 586092394.613482 330922233.43379784 0 0 0 0 -198718976.11412811 280834266.88744831 0 280834266.88744831 458191726.68321228 0 0 0 0 -200432248.4022522 175036112.64490414 0 175036112.64490414 223639210.70188618 0 0 0 0 51605867.538673401 216457930.80927229 0 216457930.80927229 277049401.17269802 0 0 0 0 -289689571.95976257 270429388.9483757 0 270429388.9483757 488681861.64447403 0 0 0 0 11518434.114356995 349249482.35078049 0 349249482.35078049 543600894.75730705 0 0 0 0 -607405459.16546631 731854.88576984406 0 731854.88576984406 456787548.225564 0 0 0 0 -540687494.12479401 -200918585.34810132 0 -200918585.34810132 173924905.59216881 0 0 0 0 -637994260.82942963 -233306367.13536239 0 -233306367.13536239 78221747.845336914 0 0 0 0 -509099250.23305511 -32000153.447159767 0 -32000153.447159767 297979617.64576817 0 0 0 0 -422632127.69487 -28534936.216929436 0 -28534936.216929436 221498444.24376106 0 0 0 0 -659775169.1217041 -374791392.76690483 0 -374791392.76690483 -253892698.83646584 0 0 0 0 -605576157.79563904 -415597212.66235685 0 -415597212.66235685 -254689966.85697985 0 0 0 0 -540557481.22195816 -275404115.20181561 0 -275404115.20181561 -9357862.0656642914 0 0 0 0 -768076687.41543579 -501892484.00637841 0 -501892484.00637841 71940706.202798367 0 0 0 0 -597807993.34243393 -616783819.98474979 0 -616783819.98474979 -183694625.30797768 0 0 0 0 -1265863862.8504868 -479820751.34282398 0 -479820751.34282398 -136204754.3684082 0 0 0 0 -809619187.89539337 -194511145.27600193 0 -194511145.27600193 25706696.295286655 0 0 0 0 -1128602710.3356714 137262365.60114193 0 137262365.60114193 143716844.03165245 0 0 0 0 -1762528561.8541288 -267869937.28272635 0 -267869937.28272635 -332436584.37372971 0 0 0 0 -1681132621.5409851 -698595451.45293427 0 -698595451.45293427 -483077433.89986992 0 0 0 0 -2283764893.3281403 -419987686.71973562 0 -419987686.71973562 -107635851.29122877 0 0 0 0 -1115316195.0152588 -286425463.14569855 0 -286425463.14569855 -223371572.25903368 0 0 0 0 -796324848.67177582 -572829790.30640602 0 -572829790.30640602 -533498933.00351906 0 0 0 0 -837068187.32600021 -506097137.00886059 0 -506097137.00886059 -1213244828.041811 0 0 0 0 -699926199.87488556 -189203716.13881397 0 -189203716.13881397 -623185933.71238565 0 0 0 0 -2158568867.4513092 121610378.52910042 0 121610378.52910042 -1246013587.3852482 0 0 0 0 -1417201302.1583366 -486856991.95110178 0 -486856991.95110178 -1361831376.2700958 0 0 0 0 -1066653546.500412 54860736.940820694 0 54860736.940820694 -832685126.41015482 0 0 0 0 -745502864.99204254 -211298168.11309528 0 -211298168.11309528 -675922623.60984421 0 0 0 0 -236659338.26200104 154878107.88528442 0 154878107.88528442 -653104578.12666893 0 0 0 0 -350649551.34192657 148136083.29001331 0 148136083.29001331 -387168936.32600975 0 0 0 0 -585974954.53440857 -300293980.13707972 0 -300293980.13707972 -574789681.40266418 0 0 0 0 -394651331.58289337 -55784991.837168694 0 -55784991.837168694 -307731327.12903309 0 0 0 0 -467433901.09981155 -50539967.76730895 0 -50539967.76730895 -207148906.91619301 0 0 0 0 -251688028.01937103 348082108.52842712 0 348082108.52842712 -117680716.17458582 0 0 0 0 -430305614.55026788 378604805.72577065 0 378604805.72577065 -36209964.662090302 0 0 0 0 -242241597.57527161 563188467.14595032 0 563188467.14595032 26255856.695825577 0 0 0 0 -214722723.0589447 671494259.07886887 0 671494259.07886887 159638689.75106812 0 0 0 0 500176725.68994808 172231745.02821773 0 172231745.02821773 -44179933.201381683 0 0 0 0 -342769745.23127747 173206688.78511477 0 173206688.78511477 -32778117.194829941 0 0 0 0 34419733.911727905 551012033.89235687 0 551012033.89235687 -307450038.96455908 0 0 0 0 376965889.50528717 955845253.60673332 0 955845253.60673332 261833833.91511154 0 0 0 0 -421563870.38990784 542230237.659091 0 542230237.659091 288535297.21151829 0 0 0 0 -385268546.09591675 729544950.99606037 0 729544950.99606037 1062776925.8034773 0 0 0 0 -18639654.891532898 165997513.79864216 0 165997513.79864216 -342482687.13096428 0 0 0 0 -76411187.488494873 82687221.782258987 0 82687221.782258987 86053703.982034683 0 0 0 0 -84692370.042419434 -81057498.411371231 0 -81057498.411371231 339276006.17013264 0 0 0 0 -72538932.319805145 -94512031.162781715 0 -94512031.162781715 36276448.21887207 0 0 0 0 -1124352.3955780938 -899399.33593149111 0 -899399.33593149111 2639089.7514049038 0 0 0 0 -3882374.2953491211 24949117.262931347 0 24949117.262931347 16412321.026273727 0 0 0 0 -8419388.6529790014 2721084.1064165602 0 2721084.1064165602 1602750.2032536538 0 0 0 0 -2850160.4168891907 29200506.114492416 0 29200506.114492416 -11756479.670911789 0 0 0 0 145102480.55958557 680060309.31754112 0 680060309.31754112 937444603.23957062 0 0 0 0 140491146.98467803 1193156171.566889 0 1193156171.566889 -267175228.60153008 0 0 0 0 -1968481.5491320416 -381448.30365965143 0 -381448.30365965143 411873.70198847353 0 0 0 0 -1238559988.0567093 637692012.4198823 0 637692012.4198823 -322934326.64035225 0 0 0 0 -212118893.66198921 -418816005.18533921 0 -418816005.18533921 706902210.73655128 0 0 0 0 463982.06441001594 5683.7637562351301 0 5683.7637562351301 431855.26478924626 0 0 0 0 -10798371.184534326 1767509.2430683523 0 1767509.2430683523 4339311.0269523682 0 0 0 0 72971799.110359192 459485411.92167473 0 459485411.92167473 742098266.46194649 0 0 0 0 -5077030.645946838 -2709645.5100426301 0 -2709645.5100426301 9401661.7004824746 0 0 0 0 -50868820.122283936 1519670.9074878693 0 1519670.9074878693 32553496.367622852 0 0 0 0 641760019.91799927 1155884839.7784801 0 1155884839.7784801 986936801.29409122 0 0 0 0 -389715812.918396 100300364.70578003 0 100300364.70578003 639385554.15892839 0 0 0 0 -1641762487.2271423 -547749423.80787301 0 -547749423.80787301 777750491.16985083 0 0 0 0 -455982824.73283386 180761200.55162096 0 180761200.55162096 587436985.37297726 0 0 0 0 -1706084634.8781471 -422520752.62925678 0 -422520752.62925678 528152884.12301636 0 0 0 0 -1752780567.0518417 -34298747.627940178 0 -34298747.627940178 788295049.62816668 0 0 0 0 -521479588.67235565 259723033.35869241 0 259723033.35869241 41164918.603540421 0 0 0 0 -609137409.10212708 117056637.79045296 0 117056637.79045296 1042046287.2988756 0 0 0 0 -1290922489.1649857 -18193229.857393742 0 -18193229.857393742 75589591.780270576 0 0 0 0 -304242013.2681427 364888672.80967617 0 364888672.80967617 -698234360.63414311 0 0 0 0 -1800888643.8873596 670611241.02050877 0 670611241.02050877 -830637481.81261444 0 0 0 0 -2266152823.1112366 -49403137.322272301 0 -49403137.322272301 306814110.72772741 0 0 0 0 -2766569991.5792694 -419692625.57157612 0 -419692625.57157612 159435363.92618895 0 0 0 0 -2233047305.4950905 -1013490739.5703743 0 -1013490739.5703743 78456396.635514259 0 0 0 0 -2662031596.200531 -971362724.23951149 0 -971362724.23951149 92253034.714468479 0 0 0 0 -2316223379.866394 -356682613.75091171 0 -356682613.75091171 757553790.52141786 0 0 0 0 -2848314765.3983498 -440809684.6863637 0 -440809684.6863637 785842819.62821102 0 0 0 0 -2287036624.8287659 -196618315.97585106 0 -196618315.97585106 943052293.82313919 0 0 0 0 -1934758407.8134918 -645104565.18808746 0 -645104565.18808746 439334519.3200978 0 0 0 0 -2256258048.1586075 -727205261.81233132 0 -727205261.81233132 801796741.70973492 0 0 0 0 -2324978582.3231354 -528390222.6929009 0 -528390222.6929009 456135824.21185875 0 0 0 0 -1673350240.6359558 -1081762912.033684 0 -1081762912.033684 292157116.80284679 0 0 0 0 -2163940474.9356766 -835615614.29282451 0 -835615614.29282451 443977396.86629868 0 0 0 0 -1591824868.499588 -769366496.93505478 0 -769366496.93505478 -135082304.79900125 0 0 0 0 -1683777436.509613 -487050162.81583714 0 -487050162.81583714 179405322.24503922 0 0 0 0 -2068156039.357605 -510997312.15564704 0 -510997312.15564704 309986360.02967787 0 0 0 0 -2164622873.1838303 -96341779.636094093 0 -96341779.636094093 333492191.51037216 0 0 0 0 -1732234196.5069275 -487235936.41634512 0 -487235936.41634512 284472634.49196661 0 0 0 0 -3959811101.1759415 -973788261.04962206 0 -973788261.04962206 1759150748.2999089 0 0 0 0 -5969563979.8614502 -2337143497.4032869 0 -2337143497.4032869 1256174337.0508938 0 0 0 0 -1901016846.4111023 -1453065604.224431 0 -1453065604.224431 -159778553.29679513 0 0 0 0 -2136770340.4282689 243841396.09332806 0 243841396.09332806 2030220166.1041567 0 0 0 0 -2235251464.0684662 -919982515.51016617 0 -919982515.51016617 581418625.69917965 0 0 0 0 -5983236295.9160156 -880293363.53829873 0 -880293363.53829873 667282480.35599184 0 0 0 0 -8385046.8502689935 279254.16342994943 0 279254.16342994943 3699653.3217232199 0 0 0 0 -65144467.746658325 748479411.36165142 0 748479411.36165142 929922023.99888897 0 0 0 0 -5972913011.2485504 -886109215.64501715 0 -886109215.64501715 670215944.64062285 0 0 0 0 -1625691223.6884384 -505009316.14686728 0 -505009316.14686728 420834493.77332163 0 0 0 0 -1608448281.0954971 -293473197.15383244 0 -293473197.15383244 227126759.58731747 0 0 0 0 -8004562.305646494 -1554745.3817411661 0 -1554745.3817411661 6169242.8016844941 0 0 0 0 -812475432.20501709 1198346289.9273753 0 1198346289.9273753 -1080335125.022017 0 0 0 0 -980122062.17140198 181832947.98079503 0 181832947.98079503 -67561612.183941603 0 0 0 0 -13955185.231827118 24229050.017993774 0 24229050.017993774 -763074.95713080501 0 0 0 0 428053926.13824463 207592675.41007066 0 207592675.41007066 -289066911.35361052 0 0 0 0 -103704721.13079834 -151594093.07185411 0 -151594093.07185411 -26765574.56649673 0 0 0 0 14257126.580947876 73665769.825068474 0 73665769.825068474 106873984.27492261 0 0 0 0 -11564776.811888669 2816702.5365909636 0 2816702.5365909636 -2375425.8087280104 0 0 0 0 -5900299297.4609833 482422911.21226311 0 482422911.21226311 -37043377.826039188 0 0 0 0 -266347154.75515747 15255022.020824432 0 15255022.020824432 148407641.61985302 0 0 0 0 -41325755.969146729 14178254.702643394 0 14178254.702643394 43926351.504772186 0 0 0 0 -26982211.668006897 56159811.907608509 0 56159811.907608509 -109024950.0107708 0 0 0 0 -7773251.0072599407 -1710924.3032710142 0 -1710924.3032710142 8176970.2473895457 0 0 0 0 -5716341593.7867432 -1239971068.4342129 0 -1239971068.4342129 -268430694.57405338 0 0 0 0 -2590916.2455608696 8445474.0338375643 0 8445474.0338375643 6590039.8634973299 0 0 0 0 -19402972.271721646 5867132.4089330165 0 5867132.4089330165 7807331.8093471937 0 0 0 0 -106942664.32363892 -43422988.782426834 0 -43422988.782426834 115862195.97087479 0 0 0 0 -378947615.58751678 555389219.38135338 0 555389219.38135338 -452585632.97563553 0 0 0 0 -484988605.49649048 281090658.90263081 0 281090658.90263081 -123048041.27251244 0 0 0 0 111373815.49342346 218664997.40064621 0 218664997.40064621 -333584926.58910751 0 0 0 0 -17358746.510781173 7267083.0288014188 0 7267083.0288014188 7132307.9887296464 0 0 0 0 -473608752.80369568 90474361.332502365 0 90474361.332502365 83311556.567497253 0 0 0 0 -19339894.853702545 -17764237.523469806 0 -17764237.523469806 25238473.319922924 0 0 0 0 23789752.126426697 -38685447.658512712 0 -38685447.658512712 35365326.5680089 0 0 0 0 -9532854.6406801082 -4587618.0872557722 0 -4587618.0872557722 11562773.239828182 0 0 0 0 -4153676866.5796432 -2021118555.7708035 0 -2021118555.7708035 -138668084.48400497 0 0 0 0 -537613319.52790833 -480954326.30048752 0 -480954326.30048752 -1003687768.3476906 0 0 0 0 -1947786972.6519852 -2285585916.8494234 0 -2285585916.8494234 -2046877244.0091286 0 0 0 0 -6011530.4220774621 -1111427.7997919265 0 -1111427.7997919265 1775814.8982826408 0 0 0 0 -4356152429.6397247 922273729.57453346 0 922273729.57453346 -954336886.92260361 0 0 0 0 -2601668432.6555023 -951944752.76050377 0 -951944752.76050377 -3533635209.6092644 0 0 0 0 -5089615448.4111633 -1475399295.1866751 0 -1475399295.1866751 -1055437878.0716972 0 0 0 0 -2728934192.1316147 21993320.564945221 0 21993320.564945221 -167227793.67554283 0 0 0 0 -2882182560.9657745 -1212035464.5115623 0 -1212035464.5115623 -1103255603.7248471 0 0 0 0 400070154.4463501 121427456.21344376 0 121427456.21344376 -961330366.35241318 0 0 0 0 -2167476.5006066412 986365.5514052771 0 986365.5514052771 1831185.1728378739 0 0 0 0 -1293334188.6337433 1799734445.4725227 0 1799734445.4725227 -2516112950.79282 0 0 0 0 -5603512721.5010595 1756898448.459197 0 1756898448.459197 -412589647.63152313 0 0 0 0 -1790157952.0342102 800222504.3378334 0 800222504.3378334 -312529472.21748161 0 0 0 0 -1337003000.9820862 1093397069.8745632 0 1093397069.8745632 -668102997.23971558 0 0 0 0 -1780133594.9425278 739416916.84476757 0 739416916.84476757 -124148161.08772659 0 0 0 0 -2138098563.2368317 637651311.41551924 0 637651311.41551924 354187729.97923529 0 0 0 0 -1825095733.9184113 958605800.36252594 0 958605800.36252594 -110439464.35442817 0 0 0 0 -1518296006.5035706 657584846.96947098 0 657584846.96947098 34964866.010917664 0 0 0 0 -1821194727.0540924 945710434.48631096 0 945710434.48631096 -269444190.81144381 0 0 0 0 -2167498934.8172836 575462165.28480482 0 575462165.28480482 694339553.15536022 0 0 0 0 -3740745868.5163879 444557394.04694939 0 444557394.04694939 338128039.29874229 0 0 0 0 -2582790519.384119 443827159.68061662 0 443827159.68061662 589960886.73931503 0 0 0 0 -1987791107.4646149 441170189.01455402 0 441170189.01455402 477762642.92514741 0 0 0 0 -1873788187.59552 550040551.86124182 0 550040551.86124182 563425978.55128574 0 0 0 0 -1973568960.6192703 810444310.3852458 0 810444310.3852458 686803370.29869175 0 0 0 0 -2050556404.4393539 819575246.27386725 0 819575246.27386725 797653213.1272583 0 0 0 0 -1879268498.4350586 630793377.17872429 0 630793377.17872429 1028413827.2912861 0 0 0 0 -2021357490.260498 512892556.50382996 0 512892556.50382996 1003481557.036005 0 0 0 0 -1125092913.4108276 88756350.207593918 0 88756350.207593918 990727818.75797367 0 0 0 0 309927457.30898666 -496451918.98838568 0 -496451918.98838568 528922775.61521912 0 0 0 0 -2580346.779169485 -1597811.8023215402 0 -1597811.8023215402 2761752.3320280658 0 0 0 0 -1037946970.6602783 -586563810.80952215 0 -586563810.80952215 2156049289.8186584 0 0 0 0 -6336369121.9365616 -457109823.6851235 0 -457109823.6851235 1331617834.0951729 0 0 0 0 -413595297.63783264 96353102.541509628 0 96353102.541509628 43413175.321062088 0 0 0 0 -5982431390.4332733 -600743899.57419002 0 -600743899.57419002 -531864579.39251834 0 0 0 0 -187301261.3767395 16190708.824458122 0 16190708.824458122 27368951.392019272 0 0 0 0 -312710708.51387024 319530531.54914093 0 319530531.54914093 -190590009.22931004 0 0 0 0 -959471236.43734741 500285721.68848228 0 500285721.68848228 78631357.890856266 0 0 0 0 -1919316295.5876465 745748223.06165028 0 745748223.06165028 487242260.4053669 0 0 0 0 -419339362.72331238 18784341.565694809 0 18784341.565694809 309831411.73031998 0 0 0 0 -971414148.70087433 311297198.09277141 0 311297198.09277141 157371092.67848587 0 0 0 0 -4743253841.3509064 1025754324.6866939 0 1025754324.6866939 -97322828.312496722 0 0 0 0 -4963121720.0628662 460682554.51618987 0 460682554.51618987 616798076.68052375 0 0 0 0 -5983477610.4109955 -252478967.22590959 0 -252478967.22590959 1128710973.3705263 0 0 0 0 -4490874164.3807678 248124391.7381525 0 248124391.7381525 620527972.50266969 0 0 0 0 -4519102650.8095093 458616374.22375625 0 458616374.22375625 464383548.27440286 0 0 0 0 -142224640.32835388 229987143.14246911 0 229987143.14246911 35578346.452293634 0 0 0 0 -4095982556.2441864 488922561.28719091 0 488922561.28719091 343441048.71296334 0 0 0 0 72889417.95350647 66048654.81110096 0 66048654.81110096 -8256993.1871855259 0 0 0 0 -1686905.4559103921 1244612.2681893334 0 1244612.2681893334 664348.97174105607 0 0 0 0 -46416518.311096191 36683280.424666882 0 36683280.424666882 14593482.01024437 0 0 0 0 -61599327.4140625 55015619.298682928 0 55015619.298682928 -6708013.6552791297 0 0 0 0 -4806413.4739856198 3459773.0810930952 0 3459773.0810930952 1809078.3641795369 0 0 0 0 -116067532.5267334 34614288.406763077 0 34614288.406763077 28567074.045345306 0 0 0 0 -107214537.97684479 -1636823.0714930296 0 -1636823.0714930296 138908808.76961708 0 0 0 0 -30110803.05611518 -14643119.620240333 0 -14643119.620240333 956330.00780634466 0 0 0 0 -23069959.579315186 -27555867.659107447 0 -27555867.659107447 67641133.990467072 0 0 0 0 -64982940.598587036 -68492554.566221833 0 -68492554.566221833 39665709.341494083 0 0 0 0 -43400225.93069458 27248386.604406595 0 27248386.604406595 1992518.7284259796 0 0 0 0 -4973155139.6331787 1570351601.4573345 0 1570351601.4573345 37770606.270283014 0 0 0 0 -4278382607.5095139 1162165063.3459721 0 1162165063.3459721 -77872672.611260414 0 0 0 0 -5982984567.5803375 1129515610.7079692 0 1129515610.7079692 513372510.50197423 0 0 0 0 -5988352174.0200272 1888773703.5749652 0 1888773703.5749652 204654216.83089435 0 0 0 0 -5119549489.333252 1254599664.2604365 0 1254599664.2604365 423752341.44374532 0 0 0 0 -5090899132.151516 1802506143.1061933 0 1802506143.1061933 -1212419956.4034708 0 0 0 0 -4848876958.131834 3179163627.7121882 0 3179163627.7121882 -1692536854.4285684 0 0 0 0 -8140713321.5481567 1638574921.0092969 0 1638574921.0092969 -1188874329.635632 0 0 0 0 -9775861.5262008868 3762822.2162949666 0 3762822.2162949666 4212867.3335286723 0 0 0 0 -2636257146.3694305 1363385203.1543834 0 1363385203.1543834 -828219760.52839696 0 0 0 0 -199959632.26132965 -438653094.04919714 0 -438653094.04919714 -1139898917.6284885 0 0 0 0 1630530110.7829437 -410168964.29661369 0 -410168964.29661369 1462013774.0186014 0 0 0 0 2922526081.2683868 -569215140.76138508 0 -569215140.76138508 -1075809085.8284204 0 0 0 0 -3592992.296886757 -716435.45526599884 0 -716435.45526599884 -498841.10004360415 0 0 0 0 1649143291.0550232 -2495377018.3093719 0 -2495377018.3093719 -2828701111.349781 0 0 0 0 -7062123573.2372742 -2066615198.3059816 0 -2066615198.3059816 1063386476.8893553 0 0 0 0 -5976799195.417984 -195383614.33278269 0 -195383614.33278269 -3555668031.3707428 0 0 0 0 -6106075201.5871735 3269262886.412807 0 3269262886.412807 -1674032668.2910278 0 0 0 0 -8065980.6639627963 -395298.51875768229 0 -395298.51875768229 376166.25312990625 0 0 0 0 -2383988041.3822632 920174544.78926873 0 920174544.78926873 2953910871.3240747 0 0 0 0 -3232068482.4107971 -4019637958.6014738 0 -4019637958.6014738 -2060610992.5871589 0 0 0 0 -322332460.47821045 -2325181727.2860928 0 -2325181727.2860928 -2284323209.8763847 0 0 0 0 -394298.09863875061 -5581689.3308542017 0 -5581689.3308542017 -3637899.5574511187 0 0 0 0 1790174543.8430023 -82237034.443136334 0 -82237034.443136334 -890164637.37831688 0 0 0 0 895667732.19548798 1327125750.5666957 0 1327125750.5666957 1340125752.0579462 0 0 0 0 -383320339.9228363 207369272.77312994 0 207369272.77312994 690868405.00345993 0 0 0 0 -1056862042.5817871 -1664826428.3087947 0 -1664826428.3087947 -1271388380.5984385 0 0 0 0 1509888827.1546021 -679000047.17876101 0 -679000047.17876101 -1450102564.0334663 0 0 0 0 -1490833010.1358109 -1399764335.8368766 0 -1399764335.8368766 -153529172.7107389 0 0 0 0 144166300.80937195 -592588896.46391428 0 -592588896.46391428 -633146461.46298814 0 0 0 0 -1253182689.0009003 -1229468448.9939299 0 -1229468448.9939299 -771826835.05318093 0 0 0 0 -5977578668.0081367 -3695276785.4464951 0 -3695276785.4464951 148203898.46970993 0 0 0 0 -3005362250.5499878 -2802511699.8772612 0 -2802511699.8772612 -833843479.41976094 0 0 0 0 -3891330246.4158783 -2121123217.622946 0 -2121123217.622946 1082668602.5133557 0 0 0 0 -629297077.54330444 -2167893083.0800695 0 -2167893083.0800695 -1010253881.4501393 0 0 0 0 -1290489068.1430511 -365214234.23758793 0 -365214234.23758793 -74456041.5528965 0 0 0 0 -1484768183.8305054 17326847.04343231 0 17326847.04343231 339240255.74056411 0 0 0 0 -1785088548.1172714 -425598515.23017699 0 -425598515.23017699 218060570.12561119 0 0 0 0 -1710321842.9513702 -362761165.1412102 0 -362761165.1412102 251161489.74436182 0 0 0 0 -1704696451.1923561 -364100224.74215561 0 -364100224.74215561 131073643.20187393 0 0 0 0 -850433362.82498169 -604219505.82736325 0 -604219505.82736325 -110087878.59776616 0 0 0 0 -1528035521.6644287 -317203372.01771367 0 -317203372.01771367 -83022948.658426046 0 0 0 0 -1641707879.4050598 -381468468.73332691 0 -381468468.73332691 469844859.35447741 0 0 0 0 -917588891.52792358 -146251736.1910677 0 -146251736.1910677 -37566778.001353741 0 0 0 0 -311510961.19284058 38882286.388302803 0 38882286.388302803 123158717.54757214 0 0 0 0 -1080136808.0473938 -398948695.06873393 0 -398948695.06873393 -72589156.161244392 0 0 0 0 -1271551348.1468048 93652108.362119675 0 93652108.362119675 993327863.37639332 0 0 0 0 -1352182974.2660522 -1412198914.378552 0 -1412198914.378552 897891189.13156283 0 0 0 0 -2137648.6312709674 1405107.7316893153 0 1405107.7316893153 403129.13708622428 0 0 0 0 -2340104105.4326515 -762063708.28872132 0 -762063708.28872132 9189365.8130249977 0 0 0 0 -1798670692.4111633 -80912967.274685383 0 -80912967.274685383 -84789452.896672249 0 0 0 0 -655572466.21169472 373531250.67956161 0 373531250.67956161 -188272949.53413963 0 0 0 0 -1353642959.5470276 -1326403712.1614122 0 -1326403712.1614122 -627276086.14356995 0 0 0 0 -1216569837.1067772 -1133994357.1248686 0 -1133994357.1248686 -1058492643.075222 0 0 0 0 -571733356.88015747 291637654.74409199 0 291637654.74409199 -361898696.92049742 0 0 0 0 -1365245105.6705627 -662265696.63791823 0 -662265696.63791823 2508301893.0591621 0 0 0 0 2113388692.0777435 -1497552309.3869441 0 -1497552309.3869441 -979842814.44880772 0 0 0 0 -1984044.0104633197 -3913526.948557701 0 -3913526.948557701 -2366081.7122185985 0 0 0 0 -2801049122.4067535 -1413440834.126915 0 -1413440834.126915 1134868699.8599358 0 0 0 0 -643875144.39682007 -2719645330.0714312 0 -2719645330.0714312 -798034046.67430317 0 0 0 0 -567924661.84539795 -2376149109.883131 0 -2376149109.883131 1913847189.8491559 0 0 0 0 -27016904.86084719 -13544767.788026594 0 -13544767.788026594 -766829.41764160991 0 0 0 0 -54686804.599308014 -2897987.2823093534 0 -2897987.2823093534 41430857.634730339 0 0 0 0 853194806.070755 -1679738462.2094746 0 -1679738462.2094746 1036349730.0032525 0 0 0 0 -388934226.56542969 354436238.41234875 0 354436238.41234875 2233315358.6852684 0 0 0 0 -358666810.47388268 600462341.6453979 0 600462341.6453979 697125168.13322258 0 0 0 0 -483332805.19154358 -383378296.94882035 0 -383378296.94882035 649364770.36676216 0 0 0 0 653850323.73840332 416445875.64280224 0 416445875.64280224 1105365233.831912 0 0 0 0 -153457475.17916489 206179019.266078 0 206179019.266078 1247638654.7109346 0 0 0 0 109596218.86100769 -87083977.93012619 0 -87083977.93012619 521101209.97872162 0 0 0 0 23870628.533233643 -93447294.767721176 0 -93447294.767721176 1064870163.6677876 0 0 0 0 -336805903.15567017 -448055263.18428898 0 -448055263.18428898 1215330644.0668626 0 0 0 0 12393736.28817749 253787840.17436314 0 253787840.17436314 531236116.90768576 0 0 0 0 -271425439.78457403 39214003.446154833 0 39214003.446154833 369915574.87272739 0 0 0 0 26427440.638870239 236414770.56999159 0 236414770.56999159 140491714.03103876 0 0 0 0 88535199.187976837 167461647.47345757 0 167461647.47345757 -107745580.98009491 0 0 0 0 -105266720.51393127 94558554.866161346 0 94558554.866161346 -12202513.202371597 0 0 0 0 -6752308.5062255859 296556895.13972664 0 296556895.13972664 352146932.4617362 0 0 0 0 63291318.60848999 51892580.506108522 0 51892580.506108522 -104849357.28797054 0 0 0 0 9271685.8499832153 7026388.2109060287 0 7026388.2109060287 -60011602.058981419 0 0 0 0 3901163.0929107666 -39222123.939713478 0 -39222123.939713478 -350449414.55650604 0 0 0 0 -24586638.526565552 42347751.807170391 0 42347751.807170391 -31279891.464160681 0 0 0 0 16781777.497741699 39854014.261753082 0 39854014.261753082 -126051428.09134275 0 0 0 0 25990875.232463837 75064792.61626482 0 75064792.61626482 -10120113.795622826 0 0 0 0 -9540492.0888404846 10825691.150219202 0 10825691.150219202 -29943165.485384941 0 0 0 0 -5890801.423658371 23516866.948485911 0 23516866.948485911 -19245184.258310318 0 0 0 0 -5338208.4951881915 6778414.244345393 0 6778414.244345393 2809628.7085700408 0 0 0 0 346091728.66100311 34486265.156870842 0 34486265.156870842 14276320.360971928 0 0 0 0 -722790726.27584839 -97061261.257064223 0 -97061261.257064223 -6785561.5102016926 0 0 0 0 -10546831.411897659 7358198.8533968329 0 7358198.8533968329 -37856390.276013374 0 0 0 0 -6365805.6550413519 4498414.2143819071 0 4498414.2143819071 1721973.7057079105 0 0 0 0 -7658589.7010135651 16072327.365320802 0 16072327.365320802 -49442207.26554203 0 0 0 0 -749818523.26042175 -5149526.6654469967 0 -5149526.6654469967 -5561139.7185459137 0 0 0 0 611120617.95516205 229578864.08170557 0 229578864.08170557 -191477989.95477772 0 0 0 0 553105112.07862091 720365934.6900568 0 720365934.6900568 -1333032834.3762589 0 0 0 0 742705339.96917725 229911094.36613178 0 229911094.36613178 -335254609.08156967 0 0 0 0 309541268.40888977 325384263.05087233 0 325384263.05087233 -85165898.144826889 0 0 0 0 -20832438.164178848 21645148.829204559 0 21645148.829204559 1170886.8768744469 0 0 0 0 1373253368.9766405 152586524.39757836 0 152586524.39757836 -2014535552.8295851 0 0 0 0 -5473661.369033508 6813977.1841467395 0 6813977.1841467395 2424111.4724228689 0 0 0 0 1336687780.7887878 -1328925432.3635721 0 -1328925432.3635721 -144852579.56108716 0 0 0 0 113899582.92655945 -287769719.4663136 0 -287769719.4663136 -128122363.57388639 0 0 0 0 -889575.60528115928 2742418.8481054083 0 2742418.8481054083 -225408.78998610144 0 0 0 0 -56860195.215713501 18313480.981535435 0 18313480.981535435 1071809.9047981799 0 0 0 0 -55882925.606681824 32182669.210270405 0 32182669.210270405 38664860.292197227 0 0 0 0 -263307239.73211098 -149255540.3410908 0 -149255540.3410908 10819465.800012589 0 0 0 0 203981936.6139679 467246293.63954914 0 467246293.63954914 915621413.54534888 0 0 0 0 101437.33327883482 830515.08435638621 0 830515.08435638621 -332879.622442981 0 0 0 0 -118157223.91400146 -312084173.72685504 0 -312084173.72685504 588579548.7240839 0 0 0 0 210485225.99006653 -241683372.63143808 0 -241683372.63143808 1113138981.6037359 0 0 0 0 7324394.3454608917 329426259.72450185 0 329426259.72450185 508764310.26938248 0 0 0 0 81270065.031990051 -160155879.87281895 0 -160155879.87281895 -278899078.78400993 0 0 0 0 -206537316.830513 -99950550.223271847 0 -99950550.223271847 78937739.308912277 0 0 0 0 65071489.103012085 6908402.6131033897 0 6908402.6131033897 112374281.27946281 0 0 0 0 -88880036.370780945 -237849405.39724541 0 -237849405.39724541 214096824.81984138 0 0 0 0 -38444950.70576454 -2565901.7089479417 0 -2565901.7089479417 7091662.9088142281 0 0 0 0 13649114.150817871 -114502992.3391006 0 -114502992.3391006 92523843.34692502 0 0 0 0 5713138.8473961353 -1897845.6112040733 0 -1897845.6112040733 -48069.987019135893 0 0 0 0 -46575647.483734131 71215053.46660614 0 71215053.46660614 78249442.701467991 0 0 0 0 -329521136.66333771 280452444.72406214 0 280452444.72406214 2255108394.7201805 0 0 0 0 7352983.4803304747 -17570569.825858891 0 -17570569.825858891 2285801.4129249332 0 0 0 0 -186509707.89666748 46813335.654789209 0 46813335.654789209 1783805255.3478997 0 0 0 0 48862075.405425072 -159440805.43249822 0 -159440805.43249822 -4098898.7106533051 0 0 0 0 -43055697.299451135 -8004057.3986016978 0 -8004057.3986016978 5846607.4124725815 0 0 0 0 -2753170.8991338909 -10407420.453245863 0 -10407420.453245863 2014116.2654038391 0 0 0 0 -269032616.9811554 -602930173.77265072 0 -602930173.77265072 2442195684.0464659 0 0 0 0 -85585586.581542969 30313873.299227238 0 30313873.299227238 182074406.97069484 0 0 0 0 328658213.68049622 -426047861.71953821 0 -426047861.71953821 1267010511.3676021 0 0 0 0 -93981830.02243042 23949420.491486549 0 23949420.491486549 93860067.670291662 0 0 0 0 -11853518.755828857 -36032543.968895316 0 -36032543.968895316 136730615.34358215 0 0 0 0 -163214473.06332397 -34333349.547102213 0 -34333349.547102213 139046544.82837439 0 0 0 0 -78820298.090484619 -102459272.67780685 0 -102459272.67780685 180236241.56094074 0 0 0 0 -25405825.078033447 -24884299.700113773 0 -24884299.700113773 136189174.24424589 0 0 0 0 -69308131.968688965 -101700548.15534639 0 -101700548.15534639 37816596.686439276 0 0 0 0 -61929259.886016846 -49033350.398122072 0 -49033350.398122072 30352056.440736204 0 0 0 0 -9972473.7896194458 -104351660.01506984 0 -104351660.01506984 -36952267.566051006 0 0 0 0 -339230867.02212524 -18906205.611536503 0 -18906205.611536503 86525702.194781929 0 0 0 0 -147755985.32333374 -168728793.93729037 0 -168728793.93729037 -136442252.62506342 0 0 0 0 -5828561.1522064209 2895629.7391426414 0 2895629.7391426414 -247201222.68197787 0 0 0 0 -8027754.4909973145 13590241.116936624 0 13590241.116936624 -54699292.66056329 0 0 0 0 16919372.876190186 -31698895.911188126 0 -31698895.911188126 -6760992.6042363644 0 0 0 0 27812346.904846191 -29007663.900131941 0 -29007663.900131941 -105771785.09010887 0 0 0 0 26753817.246856689 -26486231.201653361 0 -26486231.201653361 -29524926.83950305 0 0 0 0 23907699.810604095 -35934688.54280749 0 -35934688.54280749 -8527386.9817144871 0 0 0 0 17531321.601024628 -51128970.069922537 0 -51128970.069922537 28515275.967306614 0 0 0 0 -18230220.09765625 -58255137.286300898 0 -58255137.286300898 74554028.543324411 0 0 0 0 -26126889.655859828 7663862.5674636588 0 7663862.5674636588 7376365.5531423492 0 0 0 0 123557042.19651794 -267425474.84952164 0 -267425474.84952164 372987655.23065186 0 0 0 0 154969216.60736084 -247938553.78501892 0 -247938553.78501892 367339332.33838367 0 0 0 0 123938223.50418091 -293402459.8097229 0 -293402459.8097229 353264646.84747601 0 0 0 0 69797616.767593384 -167413216.62347603 0 -167413216.62347603 335335645.06440926 0 0 0 0 -32250126.349601701 2277189.9608213287 0 2277189.9608213287 7538775.9306561314 0 0 0 0 8312036.718170166 -21631381.590881824 0 -21631381.590881824 5724395.059687078 0 0 0 0 -200906.7844619751 -3119778.4427794814 0 -3119778.4427794814 -13058977.021739483 0 0 0 0 3072524.3400878906 -3103119.1171352863 0 -3103119.1171352863 -15511765.614031672 0 0 0 0 -604676.0802154541 -2285394.3669112921 0 -2285394.3669112921 -9858049.5675139427 0 0 0 0 4585399.137802124 2341484.9142580926 0 2341484.9142580926 -13122932.974361897 0 0 0 0 -9422636.2091674805 990020.67149782181 0 990020.67149782181 -10015505.087366819 0 0 0 0 -25755495.283691406 10193122.255084991 0 10193122.255084991 -6150442.940984726 0 0 0 0 -4037605.3350219727 4283889.0762705803 0 4283889.0762705803 -12989780.650090218 0 0 0 0 -7970610.1437988281 12093589.300836325 0 12093589.300836325 -8751708.9117956161 0 0 0 0 -4604242.9312019348 11230088.81830062 0 11230088.81830062 -8903814.3394317627 0 0 0 0 -72135420.575744629 -176544960.76422882 0 -176544960.76422882 708509818.33150482 0 0 0 0 -15516274.025115967 16507468.389365196 0 16507468.389365196 -6832015.5362839699 0 0 0 0 -5187926.4995117188 16846457.384751797 0 16846457.384751797 -7265839.175678134 0 0 0 0 -16100670.424202234 11940793.94151294 0 11940793.94151294 7517793.9732419616 0 0 0 0 -19654464.127441406 21001924.20043695 0 21001924.20043695 -7025751.655403614 0 0 0 0 -20961692.277587891 21097682.651797295 0 21097682.651797295 -6802248.9019589424 0 0 0 0 -2097871.369567886 2297109.3234844804 0 2297109.3234844804 -1435650.1118065203 0 0 0 0 -88163010.202148438 -256534360.19212341 0 -256534360.19212341 693965950.1138916 0 0 0 0 -22449453.858642578 9372427.2518148422 0 9372427.2518148422 -6481274.5289120674 0 0 0 0 -9119859.1812133789 9619173.3381421566 0 9619173.3381421566 -6690102.2488460541 0 0 0 0 -16085917.3515625 17187555.427471161 0 17187555.427471161 -6768214.7905235291 0 0 0 0 -18337089.084716797 18774496.672063828 0 18774496.672063828 -6860874.5569376945 0 0 0 0 -12384965.446655273 18661311.103908777 0 18661311.103908777 -7227894.3873720169 0 0 0 0 -14749905.818054199 20612483.219465971 0 20612483.219465971 -7530264.5144586563 0 0 0 0 -14078958.139831543 21827836.636932254 0 21827836.636932254 -7293341.2402734756 0 0 0 0 -14480041.974609375 21570374.498635769 0 21570374.498635769 -8347066.4052851796 0 0 0 0 -14996254.074584961 21181045.276369095 0 21181045.276369095 -6737362.4006636143 0 0 0 0 -15700257.099853516 22710138.186193466 0 22710138.186193466 -8262324.109447062 0 0 0 0 -19001602.290039062 23265100.67502749 0 23265100.67502749 -8439943.7013869286 0 0 0 0 -14720026.002075195 21477488.551039696 0 21477488.551039696 -7471536.4625768661 0 0 0 0 -16059260.750305176 22153957.328919649 0 22153957.328919649 -7544689.7536258698 0 0 0 0 -120050946.59216309 -229191592.88217163 0 -229191592.88217163 679473748.47523808 0 0 0 0 -120789647.14501953 -248312005.7591095 0 -248312005.7591095 657224324.14290619 0 0 0 0 -106618195.03851318 -219298146.0357132 0 -219298146.0357132 609537301.53601074 0 0 0 0 -102420043.31433105 -218867946.54864502 0 -218867946.54864502 626605979.46046448 0 0 0 0 -109618188.18115234 -211126772.13522339 0 -211126772.13522339 664886894.29430008 0 0 0 0 -68208625.749389648 -170229681.27140808 0 -170229681.27140808 680441313.3608079 0 0 0 0 -50139235.629882812 -180820342.78622437 0 -180820342.78622437 638903896.34925842 0 0 0 0 21657745.146850586 -120104177.26515961 0 -120104177.26515961 681735725.67578888 0 0 0 0 68793309.833496094 -106391865.00497437 0 -106391865.00497437 649242889.44076538 0 0 0 0 -27127224.041641235 14695920.217143893 0 14695920.217143893 -6887122.1865339279 0 0 0 0 -21339633.20703125 19974473.232304573 0 19974473.232304573 -7553429.7980661392 0 0 0 0 -58331073.741394043 68291830.851440907 0 68291830.851440907 -36947161.88708806 0 0 0 0 121181214.13269043 -34548435.901313782 0 -34548435.901313782 461746797.01715088 0 0 0 0 51708332.364120483 -14415304.168442488 0 -14415304.168442488 -78541610.068199158 0 0 0 0 63408323.945678711 27249937.727099895 0 27249937.727099895 -155430966.47688341 0 0 0 0 150681587.53259277 -256424759.70124817 0 -256424759.70124817 555814258.7699585 0 0 0 0 211241076.06729126 -156036686.09775543 0 -156036686.09775543 482583077.44192505 0 0 0 0 -25312596.587768555 20625937.032808781 0 20625937.032808781 -6734520.9550392628 0 0 0 0 -36558548.831665039 18655828.048729897 0 18655828.048729897 -7047539.9235610962 0 0 0 0 -19545833.303283691 22682688.21489954 0 22682688.21489954 -8050845.7874131203 0 0 0 0 38386398.816650391 -291123042.1456604 0 -291123042.1456604 604877552.64712524 0 0 0 0 -109897604.39237452 -217523937.02240658 0 -217523937.02240658 601030315.73678589 0 0 0 0 -110174431.00878906 -249040558.51995087 0 -249040558.51995087 645720130.66983032 0 0 0 0 -34038487.390136719 -209308806.78334045 0 -209308806.78334045 578978554.44828796 0 0 0 0 -114248947.73614502 -223115966.79927063 0 -223115966.79927063 613117468.77716064 0 0 0 0 -26118104.69921875 -277493341.56356812 0 -277493341.56356812 623709193.80501175 0 0 0 0 -3538080.1552734375 -195613120.74080467 0 -195613120.74080467 536286716.37728882 0 0 0 0 5716311.7628173828 -98438581.43724823 0 -98438581.43724823 488325431.89492798 0 0 0 0 57078189.286865234 -169841064.46980286 0 -169841064.46980286 534756264.3237915 0 0 0 0 -95274337.891784668 -124010199.38774109 0 -124010199.38774109 533877956.64088011 0 0 0 0 -47607270.792053223 -84105957.531635284 0 -84105957.531635284 532531560.15808105 0 0 0 0 -135812985.97924805 -17892473.344924927 0 -17892473.344924927 508229971.5592103 0 0 0 0 -81116235.751098633 39877922.154098511 0 39877922.154098511 472006435.7694397 0 0 0 0 48640082.541015625 -58219659.676010132 0 -58219659.676010132 510795184.54372692 0 0 0 0 -243070313.30932617 -54445713.241573334 0 -54445713.241573334 540776786.42873383 0 0 0 0 -218297803.29554749 -56345679.419048309 0 -56345679.419048309 529804820.44552612 0 0 0 0 -191791279.78973389 -41559320.657516479 0 -41559320.657516479 523313345.63106346 0 0 0 0 -116048053.08520508 -146060199.33821869 0 -146060199.33821869 559806254.82447815 0 0 0 0 -255334273.30859375 -97105874.384284973 0 -97105874.384284973 542790934.39763641 0 0 0 0 -177792173.80444336 -186797116.6480484 0 -186797116.6480484 524743687.81718445 0 0 0 0 -117015272.18151855 -219853242.15988922 0 -219853242.15988922 600308022.90807343 0 0 0 0 -135674136.41369629 -157943219.02318573 0 -157943219.02318573 553878197.97922516 0 0 0 0 -117923094.76080322 -192641661.46681213 0 -192641661.46681213 558953343.68681335 0 0 0 0 -129652572.67605591 -224732724.20256042 0 -224732724.20256042 608846082.33937073 0 0 0 0 -148937908.83827209 -232537023.68970299 0 -232537023.68970299 539951629.88478088 0 0 0 0 -174873035.72216797 -173057899.6661377 0 -173057899.6661377 563280540.35361099 0 0 0 0 -211544449.61428833 -279137622.98573875 0 -279137622.98573875 462299218.08329773 0 0 0 0 -288704351.82952881 -152357641.50466156 0 -152357641.50466156 518093106.75000095 0 0 0 0 -408002022.23779297 -47303321.208950043 0 -47303321.208950043 535735091.23816681 0 0 0 0 -270696646.81291199 -140526304.11815453 0 -140526304.11815453 507848350.27194977 0 0 0 0 174274609.49969482 -183709388.92485046 0 -183709388.92485046 458034761.38256836 0 0 0 0 24398648.813293457 -215915873.04821777 0 -215915873.04821777 487959224.95535278 0 0 0 0 83658680.138549805 -199330918.29891205 0 -199330918.29891205 446309521.8306427 0 0 0 0 106676179.95513916 -256181436.9584198 0 -256181436.9584198 380339458.60193634 0 0 0 0 125367900.51754761 -112771174.29112625 0 -112771174.29112625 572413443.19091797 0 0 0 0 88863813.725097656 -160762203.42106628 0 -160762203.42106628 516462679.94869995 0 0 0 0 19488582.236999512 -171225652.41413879 0 -171225652.41413879 571756533.39202881 0 0 0 0 1976159.4709472656 -146897397.11650848 0 -146897397.11650848 614740164.20489502 0 0 0 0 -48566721.458190918 -175074477.37319374 0 -175074477.37319374 610632114.23651123 0 0 0 0 -38032800.224853516 -198025388.69540405 0 -198025388.69540405 555277854.52062988 0 0 0 0 -91538893.525268555 -197608227.58394623 0 -197608227.58394623 561179654.6579361 0 0 0 0 -95730649.261901855 -214959089.95284271 0 -214959089.95284271 580244017.27587128 0 0 0 0 -17835203.674041748 -205846983.87188339 0 -205846983.87188339 508962806.11170959 0 0 0 0 -88427865.024169922 -234238983.28992462 0 -234238983.28992462 500736037.64408112 0 0 0 0 3499678.4708557129 -175990115.91366577 0 -175990115.91366577 550344159.66436768 0 0 0 0 22851214.392913818 -256780815.34255219 0 -256780815.34255219 420906231.93184662 0 0 0 0 -168427295.86340332 -236389120.86416626 0 -236389120.86416626 486267115.81646538 0 0 0 0 -77108224.145690918 -218679710.76599121 0 -218679710.76599121 489690742.33618927 0 0 0 0 -54388072.909698486 -284822477.3169899 0 -284822477.3169899 430895281.09148407 0 0 0 0 -59132257.143203735 -295281826.75505066 0 -295281826.75505066 408125897.56826782 0 0 0 0 38098715.829162598 -303878974.92340469 0 -303878974.92340469 372457531.986763 0 0 0 0 123697298.82681274 -295446998.4224968 0 -295446998.4224968 338982500.34859467 0 0 0 0 35209622.492675781 -244282403.462883 0 -244282403.462883 425163033.04370117 0 0 0 0 59024882.329956055 -297915075.83483887 0 -297915075.83483887 370849612.8716507 0 0 0 0 184440049.67333984 -363034126.62740898 0 -363034126.62740898 277568976.17350769 0 0 0 0 49582385.903961182 -357458743.27529144 0 -357458743.27529144 287107501.43141937 0 0 0 0 -63315270.367950439 -363951046.08298492 0 -363951046.08298492 363834650.1031723 0 0 0 0 -180003078.86907959 -294021844.13602448 0 -294021844.13602448 430224089.79241657 0 0 0 0 -103428306.53488159 -355690561.87305069 0 -355690561.87305069 362236817.42580891 0 0 0 0 -156793159.54403687 -391549792.80570602 0 -391549792.80570602 403302169.10807037 0 0 0 0 -436922280.81185913 -380974715.52038193 0 -380974715.52038193 420902831.2507782 0 0 0 0 17786173.442321777 -475014899.63336277 0 -475014899.63336277 278029220.74114227 0 0 0 0 73097078.988098145 -465901925.19893265 0 -465901925.19893265 277232722.21063685 0 0 0 0 -427539940.38785553 3436780.5532712936 0 3436780.5532712936 484468250.67498779 0 0 0 0 -529917180.93588257 -167615680.71873951 0 -167615680.71873951 511104707.55184174 0 0 0 0 -379072894.3833313 -300080925.80541611 0 -300080925.80541611 451974453.72927094 0 0 0 0 -326267662.56158447 -221444501.48969841 0 -221444501.48969841 433473837.35045624 0 0 0 0 -161418993.49403381 -262707943.48533821 0 -262707943.48533821 440070540.94129944 0 0 0 0 -631135005.00982666 -235806755.15844727 0 -235806755.15844727 465221967.99360847 0 0 0 0 -386258398.74142456 -311064470.75937366 0 -311064470.75937366 423697069.08320236 0 0 0 0 -551424561.12589264 -119951988.42896318 0 -119951988.42896318 393409071.35365295 0 0 0 0 -1193914642.0162811 -45585596.37965107 0 -45585596.37965107 473995931.81059647 0 0 0 0 -771430787.48257446 23781856.89357245 0 23781856.89357245 361241216.38154221 0 0 0 0 -827324072.34863281 -143436020.35934734 0 -143436020.35934734 412600380.02839851 0 0 0 0 -729885908.54449654 -312711137.1440028 0 -312711137.1440028 517017026.69932556 0 0 0 0 -839135635.0675354 -167423993.10744143 0 -167423993.10744143 379103702.14097691 0 0 0 0 17663574.968780518 -556628344.06960678 0 -556628344.06960678 369528727.36801648 0 0 0 0 23221809.009319305 -577737415.83264542 0 -577737415.83264542 371511253.49917984 0 0 0 0 -161466767.67218018 -584347755.33085346 0 -584347755.33085346 377069074.90456009 0 0 0 0 -174691982.62478638 -477105624.04827809 0 -477105624.04827809 523468724.6039409 0 0 0 0 -633798141.09908295 -662246757.63530982 0 -662246757.63530982 651158183.29815102 0 0 0 0 496700870.4196167 -794924729.62075901 0 -794924729.62075901 464773145.31642628 0 0 0 0 406121961.70547485 -627759115.20179176 0 -627759115.20179176 1025309576.4321011 0 0 0 0 387948357.33254242 -276890680.05594015 0 -276890680.05594015 29435889.662260056 0 0 0 0 834319009.35479736 -655149020.24994993 0 -655149020.24994993 91256473.395338058 0 0 0 0 238689264.68109131 -629358454.54725838 0 -629358454.54725838 318036170.78124619 0 0 0 0 218668189.97394943 -181823079.53899664 0 -181823079.53899664 112957297.41621399 0 0 0 0 478893050.75462341 -433736102.36441708 0 -433736102.36441708 146846234.83267593 0 0 0 0 205436860.78619766 -297147859.21683121 0 -297147859.21683121 246145029.87342834 0 0 0 0 186092842.98678589 -358521284.86058044 0 -358521284.86058044 131260198.66116619 0 0 0 0 78713082.960357666 -140403547.2088089 0 -140403547.2088089 250019579.25147057 0 0 0 0 415937439.83703613 -227543992.06492996 0 -227543992.06492996 109132831.60995138 0 0 0 0 198976978.76547241 52179961.066770554 0 52179961.066770554 -215809746.23537445 0 0 0 0 572973613.20376587 -225996122.13503838 0 -225996122.13503838 -508070998.46971464 0 0 0 0 2244349.6891964674 1364329.4919898249 0 1364329.4919898249 -320714.93880581623 0 0 0 0 -355832159.14767456 4328438.9658497572 0 4328438.9658497572 2724199843.2632656 0 0 0 0 233407680.78932047 479537764.60710603 0 479537764.60710603 1495485442.7078471 0 0 0 0 -50682118.749237061 642929122.50607729 0 642929122.50607729 811249330.66560769 0 0 0 0 23365630.85723877 -540878246.33823299 0 -540878246.33823299 541635088.47230768 0 0 0 0 632781646.47386169 -868682326.8957963 0 -868682326.8957963 1034695088.3120867 0 0 0 0 1448185477.1359558 -49279623.891517043 0 -49279623.891517043 972090398.92182255 0 0 0 0 1686529935.6923065 -306405006.14174139 0 -306405006.14174139 982761593.70695841 0 0 0 0 -771617.9412946403 1906619.8215002269 0 1906619.8215002269 1629640.6600937163 0 0 0 0 1945740987.5783997 262620168.76466942 0 262620168.76466942 -142340396.49307728 0 0 0 0 320451931.09065247 214742579.84098494 0 214742579.84098494 1585528982.5302472 0 0 0 0 954480128.60449219 -308070086.06013775 0 -308070086.06013775 -341981397.20493698 0 0 0 0 1817517674.6436806 -1010622535.1215013 0 -1010622535.1215013 187083002.09116173 0 0 0 0 843399827.87843323 -289801966.11644316 0 -289801966.11644316 8774545.7462732792 0 0 0 0 1195226839.8305054 -104871153.51368022 0 -104871153.51368022 -597131925.12661552 0 0 0 0 352080592.96640015 198701876.79338598 0 198701876.79338598 -369597625.8211422 0 0 0 0 494852166.59609985 -9504955.9302778244 0 -9504955.9302778244 6577575.5509018898 0 0 0 0 147200851.98866653 260966682.70005196 0 260966682.70005196 -249449599.69939137 0 0 0 0 -1689093.3764661551 5096458.4846689794 0 5096458.4846689794 2483486.6518719248 0 0 0 0 912431626.76156616 259793569.06156731 0 259793569.06156731 -22434035.91373688 0 0 0 0 -3572656.984756045 9534620.7183969803 0 9534620.7183969803 -7724921.7624907168 0 0 0 0 -4620333132.6337891 2956184127.561492 0 2956184127.561492 -447266495.28993607 0 0 0 0 912819250.49093628 91779026.966315269 0 91779026.966315269 -387746614.1023159 0 0 0 0 458528908.67152405 359232607.98660612 0 359232607.98660612 -500518903.47997379 0 0 0 0 -724161.36288491637 4270358.608985588 0 4270358.608985588 -4733011.21559624 0 0 0 0 -25777900.127120972 189756547.56381989 0 189756547.56381989 494047823.93355751 0 0 0 0 3024515903.8149414 -850483765.72502565 0 -850483765.72502565 1103846743.6686077 0 0 0 0 -2578914.9656254612 4329720.3754348122 0 4329720.3754348122 -6432492.2936433824 0 0 0 0 -4264136041.8142242 -432931421.41043234 0 -432931421.41043234 1382566902.8739157 0 0 0 0 -4276939425.3820801 1385265904.9450455 0 1385265904.9450455 175321975.16804123 0 0 0 0 -3400888446.1161499 847662842.02209091 0 847662842.02209091 -59036454.10812664 0 0 0 0 -2085526524.4989471 2027427340.9824047 0 2027427340.9824047 -1823244545.998065 0 0 0 0 -1920923174.3057861 297044240.98567867 0 297044240.98567867 19323323.322742939 0 0 0 0 -2093154290.15448 1091534726.2138853 0 1091534726.2138853 121875217.77353668 0 0 0 0 -2099437591.0652924 384265677.81298763 0 384265677.81298763 468950333.52312851 0 0 0 0 -851225405.95320129 1170184271.7196507 0 1170184271.7196507 -241943332.3330431 0 0 0 0 -896400860.46018982 1292405878.4796758 0 1292405878.4796758 568590935.57169724 0 0 0 0 -870889205.42222977 1369627424.8019931 0 1369627424.8019931 -672674080.30016327 0 0 0 0 -1624880186.8396912 1043860134.4173818 0 1043860134.4173818 56004464.889108658 0 0 0 0 -703490826.61804199 837344995.51861572 0 837344995.51861572 -102168290.43938065 0 0 0 0 168484313.51513672 115413606.07118988 0 115413606.07118988 -389389965.33768153 0 0 0 0 -166498887.71959686 704085920.05832767 0 704085920.05832767 -1001352912.8998089 0 0 0 0 -746931387.75668335 582808354.00829744 0 582808354.00829744 -691414399.27968693 0 0 0 0 -2976488078.1343994 2221229923.3325219 0 2221229923.3325219 -963945539.476964 0 0 0 0 -921186122.09014893 1255830898.0772781 0 1255830898.0772781 -2936776166.243165 0 0 0 0 -4045466663.4375381 958519842.27724314 0 958519842.27724314 670715912.75318336 0 0 0 0 -3967223221.0332489 213035755.64606416 0 213035755.64606416 -41685026.075822115 0 0 0 0 -1698600498.6891022 -749650143.71479559 0 -749650143.71479559 -1836723521.2647352 0 0 0 0 391512848.08071899 355641137.44178009 0 355641137.44178009 -1198570904.1399045 0 0 0 0 -809561160.12011719 310208746.48957491 0 310208746.48957491 -629443450.76051188 0 0 0 0 254663102.84017944 404309283.54584026 0 404309283.54584026 23464119.918650866 0 0 0 0 -455951757.11694336 -215794987.47762775 0 -215794987.47762775 -482454963.29278374 0 0 0 0 -67663389.556182861 -522395102.40476477 0 -522395102.40476477 278751599.05577099 0 0 0 0 -667935255.48806763 71723574.922737181 0 71723574.922737181 553739215.48707187 0 0 0 0 -1687432427.2852478 -654952009.28681374 0 -654952009.28681374 54034792.729751885 0 0 0 0 -1015740550.568573 -585753194.35928953 0 -585753194.35928953 747523490.38469779 0 0 0 0 -180564397.58996582 -453154120.33734894 0 -453154120.33734894 1084356479.5419331 0 0 0 0 -1575367238.3317566 211845775.81711054 0 211845775.81711054 350688357.89244461 0 0 0 0 -1917261896.7956524 635090255.77891064 0 635090255.77891064 43006540.911234856 0 0 0 0 -1368963427.3929634 291611172.91338098 0 291611172.91338098 353264321.22829247 0 0 0 0 -1961476571.996109 1015291617.5618124 0 1015291617.5618124 -56443197.750338554 0 0 0 0 -1523399534.8179016 1156303362.8894012 0 1156303362.8894012 -596134700.37925673 0 0 0 0 -1410409185.467514 908376400.07157612 0 908376400.07157612 -382011076.24481964 0 0 0 0 -567098543.77879333 638431572.86382771 0 638431572.86382771 -795363215.32978547 0 0 0 0 745176875.17166138 386294404.16965103 0 386294404.16965103 136015460.20381737 0 0 0 0 -8205565.4116559885 1909247.8547327146 0 1909247.8547327146 3297904.9726023744 0 0 0 0 -1561344790.36763 1667531766.893146 0 1667531766.893146 -1777719089.916069 0 0 0 0 -2123005762.1008148 -921091501.58850217 0 -921091501.58850217 -379956827.97702599 0 0 0 0 -6089694.2754053175 5737788.1700939424 0 5737788.1700939424 395344.56020141696 0 0 0 0 -14683898.432880955 7892697.7235148959 0 7892697.7235148959 6170564.380661686 0 0 0 0 -9502102.5779495239 7807209.0717030764 0 7807209.0717030764 11280404.675066948 0 0 0 0 6102345.2531280518 10478879.218107939 0 10478879.218107939 -12305898.151385665 0 0 0 0 724450.46233260632 178959.16923512146 0 178959.16923512146 1533163.1652483414 0 0 0 0 -1898977741.920352 -266756158.6110121 0 -266756158.6110121 -35336826.808315277 0 0 0 0 -13803314.671203375 11914713.806170434 0 11914713.806170434 23522949.091454983 0 0 0 0 -19314895.494490683 12523797.482568236 0 12523797.482568236 5688036.0998590142 0 0 0 0 -13562226.260253906 6815992.9952018261 0 6815992.9952018261 12113133.3890872 0 0 0 0 -8984060.7277526855 208141994.00995779 0 208141994.00995779 160968869.65203476 0 0 0 0 -12151379.375900269 9326361.1035363674 0 9326361.1035363674 14606005.449890137 0 0 0 0 -11607736.615599275 14565199.764708012 0 14565199.764708012 1113820.6010869951 0 0 0 0 -138927292.64938354 42898389.70207119 0 42898389.70207119 376704174.83378601 0 0 0 0 -31719985.198608398 224341748.2909646 0 224341748.2909646 615608403.69476986 0 0 0 0 -840507670.79821777 310475212.77120137 0 310475212.77120137 610810768.99927247 0 0 0 0 -381588664.23561859 -136577550.39192992 0 -136577550.39192992 457357491.38631392 0 0 0 0 -14054891.922073364 800443171.60433054 0 800443171.60433054 377365425.02855849 0 0 0 0 -1319044063.5213928 873163830.0400281 0 873163830.0400281 376611959.5443747 0 0 0 0 -1692743798.3881798 -435147179.86368304 0 -435147179.86368304 392802403.41882849 0 0 0 0 -2011991984.6658936 1705168577.9503441 0 1705168577.9503441 -1514668576.4233809 0 0 0 0 -5138207564.2937317 -718824719.60869682 0 -718824719.60869682 235650460.9542799 0 0 0 0 -427678.93039167672 1976705.6636742726 0 1976705.6636742726 -5949308.0643574363 0 0 0 0 -4597646308.6294403 1133630500.6385915 0 1133630500.6385915 63658878.039081573 0 0 0 0 -2456485196.0254517 -580187607.25147724 0 -580187607.25147724 -262139397.10515308 0 0 0 0 -2035713574.2714233 813930845.03206253 0 813930845.03206253 -272410027.34530354 0 0 0 0 -3075379294.4049683 471238340.82784986 0 471238340.82784986 311429033.27897739 0 0 0 0 1067379271.2787552 348409056.43412399 0 348409056.43412399 -477017905.30452728 0 0 0 0 734995036.48173523 360648110.11198044 0 360648110.11198044 158895805.5220108 0 0 0 0 -3469666.8057608791 -1523412.3732150123 0 -1523412.3732150123 1904946.1801636317 0 0 0 0 2851618166.4538574 1112830224.036993 0 1112830224.036993 -1498764362.779664 0 0 0 0 -288770465.17501831 1245312470.1091919 0 1245312470.1091919 -596176301.07938004 0 0 0 0 -2198183196.2595825 1574359963.6817598 0 1574359963.6817598 -201172632.32597923 0 0 0 0 -1024575359.7440796 483323751.92376137 0 483323751.92376137 6327918.7019605637 0 0 0 0 -1668785139.5144272 647778598.94220209 0 647778598.94220209 236380511.97859955 0 0 0 0 -639314134.41912842 274538122.57436562 0 274538122.57436562 310946669.98279762 0 0 0 0 -907315635.25906372 181653557.78066826 0 181653557.78066826 284204327.5051899 0 0 0 0 -559517620.62361145 138357278.72717381 0 138357278.72717381 470057244.41573334 0 0 0 0 -778060019.57801819 -39030108.541435242 0 -39030108.541435242 506371371.1926651 0 0 0 0 495202460.58877563 795816718.44504929 0 795816718.44504929 -342975616.33802986 0 0 0 0 -1116404355.6478195 775029997.35533667 0 775029997.35533667 191260734.88843536 0 0 0 0 -307426870.02264404 505694072.51002121 0 505694072.51002121 274692674.30702782 0 0 0 0 -627278261.84497833 286195409.57905102 0 286195409.57905102 548231662.01387787 0 0 0 0 -367065595.87472534 575236980.43314934 0 575236980.43314934 376964846.86860657 0 0 0 0 121604740.80541992 498931068.64452171 0 498931068.64452171 372856015.6242218 0 0 0 0 333239706.32077026 269836395.41969299 0 269836395.41969299 521141290.74357605 0 0 0 0 -259562959.47414398 281761461.29955769 0 281761461.29955769 532951704.5621109 0 0 0 0 -298982349.84069824 409957829.07514572 0 409957829.07514572 632462536.71417999 0 0 0 0 22117584.051330566 441310877.21641541 0 441310877.21641541 513334167.44697571 0 0 0 0 -134667135.46893311 294780828.38442993 0 294780828.38442993 489237652.62164307 0 0 0 0 -138765546.98535156 361711944.35214996 0 361711944.35214996 478910527.2861557 0 0 0 0 3311717.0943832397 498415592.72518063 0 498415592.72518063 666650112.9185791 0 0 0 0 375546790.98922729 586319844.10630035 0 586319844.10630035 412497988.71408081 0 0 0 0 -365590483.4135437 -31637454.591213226 0 -31637454.591213226 501079097.98309708 0 0 0 0 -512936648.16729736 120999405.53876877 0 120999405.53876877 559593855.01000977 0 0 0 0 -476521346.96130371 328133418.09756088 0 328133418.09756088 558901909.32599449 0 0 0 0 -380460540.51257324 179333312.39104843 0 179333312.39104843 477043241.17090702 0 0 0 0 -335745551.74170685 167063191.85118675 0 167063191.85118675 542804564.66748047 0 0 0 0 -290007708.18972778 308311092.71989441 0 308311092.71989441 564944646.24097443 0 0 0 0 -270242403.05047607 111340670.40620422 0 111340670.40620422 558416811.86172104 0 0 0 0 -297365137.4154129 86096271.51962471 0 86096271.51962471 538079493.60083008 0 0 0 0 -9452064.4385745227 21636901.82187517 0 21636901.82187517 4754036.9070993038 0 0 0 0 -54254710.358154297 85978284.999008179 0 85978284.999008179 406530245.91134834 0 0 0 0 5546640.4658813477 -7749324.3782684803 0 -7749324.3782684803 13663159.933605075 0 0 0 0 -57690037.219787598 73251949.538146973 0 73251949.538146973 405089425.85585213 0 0 0 0 -134432382.23669434 89344872.722618103 0 89344872.722618103 482897432.5017395 0 0 0 0 -94392527.381591797 41336669.457977295 0 41336669.457977295 507596704.20669556 0 0 0 0 -128599998.45421219 56065059.176897526 0 56065059.176897526 502195123.95648193 0 0 0 0 -171274934.34741211 61380397.123100281 0 61380397.123100281 542656587.18766022 0 0 0 0 -222585006.35238647 121125983.94011307 0 121125983.94011307 519384079.58818054 0 0 0 0 -111312241.67883301 90480367.0131073 0 90480367.0131073 481519442.04698944 0 0 0 0 -131395303.3013916 104437178.12116241 0 104437178.12116241 516202888.55709839 0 0 0 0 -106349720.68908691 103501146.93850708 0 103501146.93850708 463237323.51911163 0 0 0 0 -134643278.25424194 155618074.2533989 0 155618074.2533989 447176692.34301758 0 0 0 0 -84546156.149780273 146136382.59147644 0 146136382.59147644 448792990.26084518 0 0 0 0 -142954037.84960938 129020077.18891907 0 129020077.18891907 476036495.455513 0 0 0 0 -183193303.28192139 167392276.73477936 0 167392276.73477936 538636622.5772934 0 0 0 0 -162470517.73745728 175995984.46651459 0 175995984.46651459 487611202.62744141 0 0 0 0 -149704882.27630997 248883961.51894617 0 248883961.51894617 451517044.06660461 0 0 0 0 -66355299.22265625 139035424.66148376 0 139035424.66148376 357447490.83969116 0 0 0 0 -64379858.216918945 171930553.44087219 0 171930553.44087219 358293718.90338135 0 0 0 0 -86103366.08203125 160998250.49188995 0 160998250.49188995 404796233.84185791 0 0 0 0 -65203486.522583008 123579496.90852356 0 123579496.90852356 393116570.18243408 0 0 0 0 -82029865.501739502 112718281.19306183 0 112718281.19306183 436285117.65725708 0 0 0 0 -117085088.95220947 123138390.80698395 0 123138390.80698395 435373328.60292053 0 0 0 0 -11780572.20916748 41561935.155555725 0 41561935.155555725 419641817.94038391 0 0 0 0 27791986.393493652 32907411.670372009 0 32907411.670372009 89037379.110687256 0 0 0 0 183307947.86134338 21825406.73986721 0 21825406.73986721 -17428963.362380981 0 0 0 0 33576358.171470642 164745545.44577885 0 164745545.44577885 168329722.02146912 0 0 0 0 141654222.88311768 239243936.4871521 0 239243936.4871521 219072648.360672 0 0 0 0 75283178.085113525 313874428.73888397 0 313874428.73888397 165299743.36579132 0 0 0 0 52239668.626586914 368001991.51589966 0 368001991.51589966 399407007.53926849 0 0 0 0 -51659129.931884766 236897538.06458282 0 236897538.06458282 397978065.1287384 0 0 0 0 -50243634.946838379 255825649.73308563 0 255825649.73308563 296363431.76264191 0 0 0 0 20439359.584793091 230035268.26029778 0 230035268.26029778 298739043.95892334 0 0 0 0 -20646333.397705078 157739317.40058899 0 157739317.40058899 245590492.14373779 0 0 0 0 -19723418.470947266 23970849.272125244 0 23970849.272125244 317379084.06871796 0 0 0 0 -11223866.141723633 142052812.34422302 0 142052812.34422302 256450931.49993896 0 0 0 0 -22615603.291137695 157135111.47091675 0 157135111.47091675 363521984.33760071 0 0 0 0 -20019533.353637695 171959258.52367401 0 171959258.52367401 305187278.6663208 0 0 0 0 -34608097.328369141 108940696.13783264 0 108940696.13783264 368844920.97488403 0 0 0 0 -11708301.654296875 95398220.109130859 0 95398220.109130859 299215603.22500038 0 0 0 0 -2236471.7207336426 128777713.58841705 0 128777713.58841705 182751019.93075562 0 0 0 0 -8820382.4610595703 9214095.7343673706 0 9214095.7343673706 233100628.1894722 0 0 0 0 -6888879.7544555664 -9553010.0952453613 0 -9553010.0952453613 85611859.737991333 0 0 0 0 -10626626.014923096 105568848.61703873 0 105568848.61703873 186683247.25302124 0 0 0 0 34044283.994445801 105866637.67300034 0 105866637.67300034 32474701.718307495 0 0 0 0 -34417297.670379639 97564419.892391205 0 97564419.892391205 193806293.36186218 0 0 0 0 601962.86702394485 11553743.198158965 0 11553743.198158965 -15878812.859198445 0 0 0 0 -1914552597.0314941 -70288371.456151009 0 -70288371.456151009 302059044.15941477 0 0 0 0 -3930838.3644940257 7293350.3953830674 0 7293350.3953830674 -6581534.8862168882 0 0 0 0 -844201644.36904907 115357283.3435418 0 115357283.3435418 -272438494.89442265 0 0 0 0 -981357173.66700745 301950037.15714604 0 301950037.15714604 6459403.1039671898 0 0 0 0 -1966282277.4445972 740835367.63572335 0 740835367.63572335 109010497.75396168 0 0 0 0 -1258090061.3490906 251477446.32427311 0 251477446.32427311 242080148.35479164 0 0 0 0 -876036.4373453781 341040.24599201977 0 341040.24599201977 -385676.38099752646 0 0 0 0 -1809958786.7832336 228676990.57991791 0 228676990.57991791 350070302.51685095 0 0 0 0 -1856242899.720047 400053267.65010118 0 400053267.65010118 285958776.88832855 0 0 0 0 -1486853013.8566055 -97195536.373924375 0 -97195536.373924375 -50746061.464460373 0 0 0 0 -2196486799.4614868 254749459.36146069 0 254749459.36146069 353011771.04799438 0 0 0 0 -2254363.3805635199 7989892.4998138174 0 7989892.4998138174 -15370165.664660838 0 0 0 0 -1428191233.8400726 93023822.893892765 0 93023822.893892765 -118755318.91675377 0 0 0 0 501049695.04598999 518931475.10428429 0 518931475.10428429 458132571.54897308 0 0 0 0 522714129.02685547 673425735.01019287 0 673425735.01019287 127330968.84531522 0 0 0 0 702839249.78353882 280286439.5825119 0 280286439.5825119 -68377662.415356636 0 0 0 0 -30172.936907984316 2783767.3050960228 0 2783767.3050960228 -1761508.6220934615 0 0 0 0 -8348316.5321960449 8747129.2598800659 0 8747129.2598800659 -4278223.4464092255 0 0 0 0 -7178798.8428497314 13103086.066701889 0 13103086.066701889 -47372.80700302124 0 0 0 0 -7383012.7831726074 7649072.6463165283 0 7649072.6463165283 -4149789.4072380066 0 0 0 0 -7520336.7913970947 6759480.0301790237 0 6759480.0301790237 -9601392.4286327362 0 0 0 0 -8324339.7290039062 16474550.15075016 0 16474550.15075016 -16650036.616605759 0 0 0 0 -9265907.120880127 11912027.727031231 0 11912027.727031231 2616915.8704547882 0 0 0 0 -9947135.798828125 7398146.9794206619 0 7398146.9794206619 -8141438.5261201859 0 0 0 0 -1925717742.1828904 415280770.97602338 0 415280770.97602338 -296027061.68135595 0 0 0 0 -7406659.9298629612 6473773.2451995835 0 6473773.2451995835 -5922066.5227728561 0 0 0 0 -1530976208.4554558 874869958.94538844 0 874869958.94538844 -146175189.51207244 0 0 0 0 -1324789212.5196533 -125071980.41241607 0 -125071980.41241607 -24406311.493426472 0 0 0 0 -2464812.1209710538 -18651.895497992635 0 -18651.895497992635 -720821.69742104551 0 0 0 0 -1909970451.9563732 985201251.58817077 0 985201251.58817077 -460236799.98692703 0 0 0 0 -1651522.3221483827 1961870.9078590665 0 1961870.9078590665 -331765.3977695916 0 0 0 0 -1180877796.6676941 496452677.71020073 0 496452677.71020073 -107996789.35050881 0 0 0 0 -933595793.69091797 993377442.4256984 0 993377442.4256984 -552964433.09452295 0 0 0 0 -4276963.654296875 6762767.2286632061 0 6762767.2286632061 -567244.45267105103 0 0 0 0 -11488625.687591553 4985822.8287239075 0 4985822.8287239075 1476228.7762031555 0 0 0 0 -7033247.8913049251 7940440.3341912329 0 7940440.3341912329 -3128508.9611822302 0 0 0 0 -11890120.648651123 3146463.9018955231 0 3146463.9018955231 -2584193.0144100189 0 0 0 0 -34661646.72354126 -11624415.652376652 0 -11624415.652376652 4947327.3796820641 0 0 0 0 -14685064.642691575 7605174.1028348207 0 7605174.1028348207 6138499.5071507161 0 0 0 0 -19080329.981266201 15417926.299730252 0 15417926.299730252 9911414.7016622294 0 0 0 0 68393143.537567139 44549363.380104065 0 44549363.380104065 -235749011.52838135 0 0 0 0 -4497920.8023986816 26612833.753220856 0 26612833.753220856 15947557.26971196 0 0 0 0 -901037.37512207031 30442526.846063435 0 30442526.846063435 9739813.1366775632 0 0 0 0 -5490231.4385375977 22922550.871192649 0 22922550.871192649 8132004.9498956501 0 0 0 0 -875880.84515380859 30174153.059435837 0 30174153.059435837 5387866.3334487677 0 0 0 0 -15639193.556091309 25082884.118715465 0 25082884.118715465 18175270.165890254 0 0 0 0 -3426944.1738636419 899301.36306142807 0 899301.36306142807 1143692.6389163663 0 0 0 0 -11484896.747913361 4197908.2795895338 0 4197908.2795895338 -10297371.543319702 0 0 0 0 -42616279.978927612 35069515.135146141 0 35069515.135146141 -116031.32022094727 0 0 0 0 -68524926.827758789 -39313071.627651215 0 -39313071.627651215 2191682.4469670057 0 0 0 0 -50641235.808410645 35926776.686044693 0 35926776.686044693 -15338544.872656345 0 0 0 0 -10849122.459838867 11731978.609903336 0 11731978.609903336 -20973208.510213852 0 0 0 0 -22422076.934814453 12967606.670990944 0 12967606.670990944 3292653.069519043 0 0 0 0 -28342118.178863525 184338.58076334 0 184338.58076334 24434221.51184082 0 0 0 0 -2928912.2530212402 8207052.7394666672 0 8207052.7394666672 4328450.3999814987 0 0 0 0 4763955.598449707 -3001818.3290710449 0 -3001818.3290710449 7849047.6821274757 0 0 0 0 -33044575.593322754 18701878.965649784 0 18701878.965649784 27046243.149730206 0 0 0 0 -20867870.484765951 5956218.8358691633 0 5956218.8358691633 6226351.8435759451 0 0 0 0 -15460018.023773417 6709019.7487156484 0 6709019.7487156484 -237251.89603370681 0 0 0 0 -19816258.313446045 8105416.7906975551 0 8105416.7906975551 -400644.92786095757 0 0 0 0 -18078020.595001221 4270506.3232699046 0 4270506.3232699046 -1269277.4115798762 0 0 0 0 -22572462.094985962 4992949.2380460668 0 4992949.2380460668 1350552.4057283066 0 0 0 0 -21748795.850341797 3360850.5305396579 0 3360850.5305396579 -1540955.9245469943 0 0 0 0 -14578294.690933228 14862018.826725483 0 14862018.826725483 15992723.762521744 0 0 0 0 -17324828.224136844 3825638.3947317181 0 3825638.3947317181 1220469.4284995336 0 0 0 0 -11289326.469390869 21248329.757849693 0 21248329.757849693 2577944.5340137482 0 0 0 0 -1176920838.3928375 263341012.11867461 0 263341012.11867461 -250517020.96209586 0 0 0 0 -9070277.3732767031 4788567.215426825 0 4788567.215426825 -3949979.7317148126 0 0 0 0 -11459865.351501465 3412472.1416273117 0 3412472.1416273117 2995786.6968138218 0 0 0 0 -19307639.772583008 297446.15267349966 0 297446.15267349966 -2353957.1485170424 0 0 0 0 -17817555.106887817 1523551.8917803052 0 1523551.8917803052 -1619943.3497978486 0 0 0 0 -20216257.727416992 6347509.9411650784 0 6347509.9411650784 -2588496.2619140744 0 0 0 0 -10020150.405800626 302992.84381406754 0 302992.84381406754 -2389790.7222363381 0 0 0 0 -26587063.15234375 2938917.6253406396 0 2938917.6253406396 272118.94917580858 0 0 0 0 -24730220.565307617 2113299.1623405851 0 2113299.1623405851 -670370.42912697326 0 0 0 0 -12561.001032501459 1017.6174340769649 0 1017.6174340769649 -5568.4189122914941 0 0 0 0 -27573566.260978699 5406482.1980529632 0 5406482.1980529632 109266.52273278683 0 0 0 0 -24547581.549468994 4629832.9114908986 0 4629832.9114908986 -926582.95542450994 0 0 0 0 -22980128.012512207 3685734.4600444539 0 3685734.4600444539 -1092020.6109280218 0 0 0 0 -24138146.732696533 5489224.6546272086 0 5489224.6546272086 -1740831.1323406482 0 0 0 0 -22216956.498336792 3817640.3398301178 0 3817640.3398301178 -741832.50277782604 0 0 0 0 -21770303.103409052 4822731.9002924534 0 4822731.9002924534 -451760.4736043755 0 0 0 0 -22662910.02835083 4177058.7254244052 0 4177058.7254244052 -344144.83147126436 0 0 0 0 -22725363.240966797 3518965.4113364313 0 3518965.4113364313 961139.56379921641 0 0 0 0 -22696811.689361572 3294604.0666900249 0 3294604.0666900249 -396567.63553847373 0 0 0 0 -21797757.973632812 3747462.0843298426 0 3747462.0843298426 -549081.04790114611 0 0 0 0 -21994557.242797852 4097250.227942748 0 4097250.227942748 -1155801.1138474136 0 0 0 0 -22935730.404205322 3407332.513491685 0 3407332.513491685 -147624.79705183767 0 0 0 0 -21529440.202941895 3026991.008706334 0 3026991.008706334 -140446.7876034432 0 0 0 0 -21688994.443904877 3829550.9602803737 0 3829550.9602803737 -487376.36312181037 0 0 0 0 -22493552.988327026 2489552.9534821296 0 2489552.9534821296 397170.21912949532 0 0 0 0 -23098954.89364624 2858155.1605220218 0 2858155.1605220218 620577.17399298307 0 0 0 0 -22712548.855041504 1772015.4581415036 0 1772015.4581415036 3617.4925646778688 0 0 0 0 -21322033.378379822 2834757.1235789554 0 2834757.1235789554 452294.64455732657 0 0 0 0 -20613848.624916077 2048164.979587507 0 2048164.979587507 -1324.3009238849015 0 0 0 0 -25949495.487350464 968790.2377942662 0 968790.2377942662 -12037.661601695263 0 0 0 0 -24547121.710876465 2634986.4722424066 0 2634986.4722424066 1331141.4587798307 0 0 0 0 -22938389.729949951 3244940.5561740692 0 3244940.5561740692 1523550.3235779733 0 0 0 0 -24279105.305526733 4208181.7762789149 0 4208181.7762789149 5442440.9659964032 0 0 0 0 -24025719.79095459 3703834.8562201341 0 3703834.8562201341 1421161.8696538629 0 0 0 0 -22007743.310056686 5625266.5130461566 0 5625266.5130461566 3040986.6170624048 0 0 0 0 -21908135.760437012 4244493.2847925145 0 4244493.2847925145 -166196.46045627724 0 0 0 0 -22938682.722839355 7943081.2130620107 0 7943081.2130620107 341690.16480192263 0 0 0 0 -49869758.974960327 -8046220.4210147113 0 -8046220.4210147113 24316374.156727403 0 0 0 0 -23074771.256385803 8474415.7812535558 0 8474415.7812535558 4530346.9282618202 0 0 0 0 -11969594.9500539 175434.32750074565 0 175434.32750074565 2111678.3853920223 0 0 0 0 -31289651.634506226 -6106432.3873489052 0 -6106432.3873489052 -4645918.8001302741 0 0 0 0 -2722973.2798511162 -424915.04789127409 0 -424915.04789127409 71098.964105615494 0 0 0 0 -96308081.674476624 -21702278.877881877 0 -21702278.877881877 6168534.1706293598 0 0 0 0 -11591797.833724976 11441122.460909748 0 11441122.460909748 2249936.1459957324 0 0 0 0 -61042152.428009033 -454671.18199900235 0 -454671.18199900235 15369.422001759145 0 0 0 0 -42389436.093154907 14280123.109628212 0 14280123.109628212 2256181.8725312417 0 0 0 0 -46241904.784301758 3368166.3951809597 0 3368166.3951809597 -7465.929143200904 0 0 0 0 -49013959.289428711 -5327461.6777932616 0 -5327461.6777932616 -8282833.3946311213 0 0 0 0 -49796303.955429077 4037130.2396664936 0 4037130.2396664936 6377192.0697756 0 0 0 0 -51948755.528991699 10770349.986804942 0 10770349.986804942 -11764602.027026679 0 0 0 0 -32931802.008682251 4008914.7573714689 0 4008914.7573714689 -7696139.2984571718 0 0 0 0 -29101672.350149632 16909550.392601464 0 16909550.392601464 13145861.410777256 0 0 0 0 -28805124.839782715 4875979.2862120233 0 4875979.2862120233 -89693.441356327385 0 0 0 0 -46265426.97467041 12675683.728068888 0 12675683.728068888 40079945.264405206 0 0 0 0 12942443.219734192 44791687.19799611 0 44791687.19799611 39560988.183953524 0 0 0 0 602999.48302918673 -240749.92709013075 0 -240749.92709013075 -584584.65253299661 0 0 0 0 67231437.689328194 -10190293.328223776 0 -10190293.328223776 -13752615.827147365 0 0 0 0 64962249.528747559 55743539.40062207 0 55743539.40062207 20476373.89837414 0 0 0 0 -18322392.191055298 33067546.69506073 0 33067546.69506073 50194516.139880061 0 0 0 0 3707884.7661781311 55999566.828623772 0 55999566.828623772 72630874.389879465 0 0 0 0 -32612328.571039319 2650244.9720311239 0 2650244.9720311239 2374084.8671379001 0 0 0 0 -32505545.749339849 5396847.5003546011 0 5396847.5003546011 3198605.9829078065 0 0 0 0 -23484466.070373535 23985200.086765289 0 23985200.086765289 24056904.868572593 0 0 0 0 -18079659.307342529 19587614.775911689 0 19587614.775911689 26848102.873397708 0 0 0 0 -1688966.7764663696 23094331.542443052 0 23094331.542443052 8605183.9081535935 0 0 0 0 -6072197.2925300598 32667492.997279868 0 32667492.997279868 15858220.352608383 0 0 0 0 -22320135.252441406 26104750.654940069 0 26104750.654940069 14275955.475477189 0 0 0 0 -6716320.7667236328 22226496.08309333 0 22226496.08309333 8465289.8517352343 0 0 0 0 -23995417.603942871 29015661.681096464 0 29015661.681096464 33137787.553606227 0 0 0 0 -23835724.50718689 24528741.326200843 0 24528741.326200843 18734272.946331561 0 0 0 0 -27738304.093536377 33482102.480582684 0 33482102.480582684 12592429.79578656 0 0 0 0 -30745069.749450684 25618721.334127665 0 25618721.334127665 7498783.7298904657 0 0 0 0 -23998427.395683289 22317512.671532691 0 22317512.671532691 6123884.6735193729 0 0 0 0 -39067810.774398804 20621655.143142015 0 20621655.143142015 5942735.4219363928 0 0 0 0 -21548633.787841797 23099028.762241721 0 23099028.762241721 -9240456.6413940787 0 0 0 0 -39927431.844116211 21451769.065865517 0 21451769.065865517 -6471387.7030905485 0 0 0 0 -47382611.537963867 16021373.223710537 0 16021373.223710537 -5112525.9041275978 0 0 0 0 -10204597.362251282 40452962.675131321 0 40452962.675131321 -18863967.997375011 0 0 0 0 -31574250.886322021 31434794.961289167 0 31434794.961289167 -7649172.589758873 0 0 0 0 -87107157.694854736 41485321.771818161 0 41485321.771818161 -3497237.7131655216 0 0 0 0 -33185132.651489258 90594639.365257502 0 90594639.365257502 -87192073.929056406 0 0 0 0 -14934612.613891602 42455234.443594456 0 42455234.443594456 -19706591.157853842 0 0 0 0 -5892707.6716308594 17545337.442220062 0 17545337.442220062 -3317248.9266483784 0 0 0 0 -8186160.7830200195 19010516.242977083 0 19010516.242977083 1447589.2211248875 0 0 0 0 -10511997.97454834 23483624.167669296 0 23483624.167669296 -915962.95196962357 0 0 0 0 -19879797.168563843 17958214.26938504 0 17958214.26938504 -4693798.6747407913 0 0 0 0 -18870198.02053833 19488953.966039658 0 19488953.966039658 -2757167.2966589928 0 0 0 0 -16689041.164916992 19546862.422979116 0 19546862.422979116 -9179190.2239284515 0 0 0 0 -14903319.013885498 22668720.295177937 0 22668720.295177937 -4084216.4711689949 0 0 0 0 -11230455.870758057 18339914.271782517 0 18339914.271782517 -5198723.9062724113 0 0 0 0 -3618438.9453125 20034886.670265019 0 20034886.670265019 -5556821.56339854 0 0 0 0 -9531627.5959472656 20441767.815312743 0 20441767.815312743 -7673800.3810136318 0 0 0 0 12976890.684204102 7593886.2018891126 0 7593886.2018891126 -12437635.40737398 0 0 0 0 3395887.3312988281 13682267.661319137 0 13682267.661319137 -9054877.8122059703 0 0 0 0 962274.36589050293 9339485.1000949293 0 9339485.1000949293 -8999510.1769375801 0 0 0 0 16828836.322998047 11934045.641551793 0 11934045.641551793 -8578025.8731277213 0 0 0 0 6349768.996307373 24536551.553932056 0 24536551.553932056 660429.325381428 0 0 0 0 9777924.6006164551 7955118.1278892756 0 7955118.1278892756 -12076589.429963589 0 0 0 0 28899695.383758545 2334196.3579798825 0 2334196.3579798825 -15964970.643062357 0 0 0 0 20791089.45300293 -16154456.361314364 0 -16154456.361314364 -10962546.531468987 0 0 0 0 10222644.054077148 -2122850.1175631881 0 -2122850.1175631881 -15889285.556172282 0 0 0 0 31208514.116424561 -15979807.738551572 0 -15979807.738551572 -14079049.05430603 0 0 0 0 64620434.121170044 16019485.351780921 0 16019485.351780921 -11352777.679871202 0 0 0 0 5081483.2915344238 29388826.68383503 0 29388826.68383503 9566926.1864976883 0 0 0 0 896006.22389473021 -517223.93417298794 0 -517223.93417298794 -1078893.0536784069 0 0 0 0 112173751.13201904 61694940.120824754 0 61694940.120824754 -164736400.34779882 0 0 0 0 7878206.4752197266 -171119.42164573073 0 -171119.42164573073 -28462823.257453352 0 0 0 0 12492114.265766144 3671532.625257656 0 3671532.625257656 -50790022.03373903 0 0 0 0 423739.16526070237 -341302.61331448331 0 -341302.61331448331 -627520.76929622993 0 0 0 0 -261306138.3671875 -208418524.43721819 0 -208418524.43721819 1013652.2165030241 0 0 0 0 -173397784.76245117 -87093618.430349424 0 -87093618.430349424 -353990042.16087794 0 0 0 0 -181223518.51947021 132735785.64711899 0 132735785.64711899 -235734963.85538334 0 0 0 0 -26958029.401519775 109055028.50501695 0 109055028.50501695 -116794967.75086369 0 0 0 0 109513837.79081726 47964805.572832346 0 47964805.572832346 -234211813.91450119 0 0 0 0 24848591.357531548 146046021.28077814 0 146046021.28077814 -84314630.336510181 0 0 0 0 25108669.726028442 50457375.965224147 0 50457375.965224147 -254011792.17031312 0 0 0 0 -179061154.55026245 81451634.780584335 0 81451634.780584335 11533261.196615219 0 0 0 0 -73210630.069152832 229847438.3000983 0 229847438.3000983 -6135615.1098604202 0 0 0 0 -37485206.866363525 87295665.889608145 0 87295665.889608145 287973362.29734039 0 0 0 0 111180701.95187378 87848037.510615706 0 87848037.510615706 -52998177.99544692 0 0 0 0 33747349.042205811 260268074.77171636 0 260268074.77171636 123463872.3819406 0 0 0 0 17159001.671539307 80276057.637933731 0 80276057.637933731 425224541.99369574 0 0 0 0 -8106785.0654296875 69930994.26819253 0 69930994.26819253 129656007.90260029 0 0 0 0 52781185.220443726 161822440.05231845 0 161822440.05231845 49022203.75414753 0 0 0 0 87129545.509490967 136690508.35022402 0 136690508.35022402 129979041.24857473 0 0 0 0 24874481.277618408 133971452.06571734 0 133971452.06571734 130348310.9234274 0 0 0 0 -26137809.351760864 164277226.76908004 0 164277226.76908004 -27009018.869671702 0 0 0 0 -54449569.414199829 37134030.749468565 0 37134030.749468565 -31519376.270685911 0 0 0 0 -63915082.653778076 105526516.28683066 0 105526516.28683066 205316706.32716155 0 0 0 0 -31664408.267754152 2337620.7578827776 0 2337620.7578827776 1934031.8720177831 0 0 0 0 -33515008.234039307 12394889.203071821 0 12394889.203071821 30479297.3508026 0 0 0 0 -33519371.376663208 11847954.326364538 0 11847954.326364538 17886535.69024653 0 0 0 0 -29546724.169763654 4599554.5290337484 0 4599554.5290337484 1403433.8274847197 0 0 0 0 -143015.29804992676 122548383.32636142 0 122548383.32636142 321270505.19414043 0 0 0 0 -27698364.380844116 10281273.748686396 0 10281273.748686396 10816111.15177862 0 0 0 0 -30510680.459228516 10663585.51498175 0 10663585.51498175 10807750.736262923 0 0 0 0 -25609243.795516968 7350623.069047384 0 7350623.069047384 -1526806.7085757572 0 0 0 0 -33950235.559371948 3933823.1475883345 0 3933823.1475883345 1374716.3346641895 0 0 0 0 -32020229.663589478 7388760.6330767274 0 7388760.6330767274 3701591.9475608598 0 0 0 0 -29691785.66986084 8838298.3647696376 0 8838298.3647696376 4107109.1856359337 0 0 0 0 -29973973.230903625 6787198.0970343677 0 6787198.0970343677 -1484.1225338057748 0 0 0 0 -53199794.837142944 22278198.758165024 0 22278198.758165024 -1399005.7107132673 0 0 0 0 -10432632.044458374 3945118.6837933809 0 3945118.6837933809 -573210.97939939343 0 0 0 0 -31051208.483581543 7671867.6786527056 0 7671867.6786527056 -923784.38642033376 0 0 0 0 -39591229.486175537 5459292.8140670182 0 5459292.8140670182 -16046.206323202114 0 0 0 0 -28414268.55770874 13927364.326936606 0 13927364.326936606 -1874325.4226259477 0 0 0 0 -29386700.5859375 6935535.8026646394 0 6935535.8026646394 8262972.8256189665 0 0 0 0 -41153227.657806396 9399442.1709187943 0 9399442.1709187943 7977671.5614479342 0 0 0 0 -31755427.052537888 1420909.597454872 0 1420909.597454872 2298847.464801528 0 0 0 0 -33913724.120300293 9990001.1836708002 0 9990001.1836708002 14396136.422827892 0 0 0 0 -41787577.010986328 99683673.294750214 0 99683673.294750214 11350851.411512375 0 0 0 0 -34534505.793365479 8320187.3382276315 0 8320187.3382276315 13766199.826774687 0 0 0 0 -50421007.860168457 -47356609.306120872 0 -47356609.306120872 232751071.33923912 0 0 0 0 94315393.147573471 324587070.7955358 0 324587070.7955358 528931034.14732265 0 0 0 0 -4607848.1029415727 -2732045.5339781679 0 -2732045.5339781679 2752241.7123010345 0 0 0 0 -110446974.79046631 266123996.17736816 0 266123996.17736816 675299276.06790161 0 0 0 0 1988197.1283935905 4667699.6271853335 0 4667699.6271853335 -595707.48330827395 0 0 0 0 24314597.438354492 280461347.3603754 0 280461347.3603754 454454081.00108337 0 0 0 0 67833036.383590698 96995324.601369947 0 96995324.601369947 476708400.67816067 0 0 0 0 13156883.700073242 240103639.15239811 0 240103639.15239811 282455289.74494183 0 0 0 0 -183161986.02481079 192801203.37011862 0 192801203.37011862 487573871.71191216 0 0 0 0 -109418801.20304871 100540729.17154813 0 100540729.17154813 393118400.72860527 0 0 0 0 -214834935.0005188 205265997.75027752 0 205265997.75027752 302519294.83861256 0 0 0 0 -314339522.10897827 53424450.495981693 0 53424450.495981693 457516416.11737394 0 0 0 0 -198826962.05349731 71564823.31269455 0 71564823.31269455 456051819.52751541 0 0 0 0 -161004522.93011475 49339622.322541714 0 49339622.322541714 445727935.71552753 0 0 0 0 -149899962.80944824 157506040.15893936 0 157506040.15893936 417556656.03107786 0 0 0 0 -57369199.079833984 115338382.47482944 0 115338382.47482944 375333693.12013245 0 0 0 0 -269311856.75048828 -89411203.708561897 0 -89411203.708561897 702706489.99368334 0 0 0 0 -282265875.38391113 172198961.57234192 0 172198961.57234192 540814796.78909326 0 0 0 0 -7988993.9825005829 -355613.98809506744 0 -355613.98809506744 1338515.2359125889 0 0 0 0 35396096.708770752 -255996751.14379406 0 -255996751.14379406 494235250.37311125 0 0 0 0 -14605611.339096069 6177329.3116562366 0 6177329.3116562366 -8503195.0217485428 0 0 0 0 -85664079.962463379 -7695162.4812841415 0 -7695162.4812841415 -9768840.2291431427 0 0 0 0 -14333750.969096884 -4345250.7078766525 0 -4345250.7078766525 -4781866.059362649 0 0 0 0 -28976872.568566859 1030514.9071896933 0 1030514.9071896933 1253703.8112931538 0 0 0 0 45760057.936126709 -73460365.13007164 0 -73460365.13007164 147224224.42014799 0 0 0 0 -27131677.22800827 16713255.363689952 0 16713255.363689952 8565539.6880762093 0 0 0 0 39789604.36895752 -89955512.923749924 0 -89955512.923749924 229493219.19900513 0 0 0 0 -45966959.083190918 71132807.501804352 0 71132807.501804352 146220513.33250999 0 0 0 0 -34917431.068317413 192290140.03489429 0 192290140.03489429 363128899.55784225 0 0 0 0 -22390123.2265625 -21479479.372707367 0 -21479479.372707367 462881607.21676743 0 0 0 0 -29522663.424499512 11669611.169682264 0 11669611.169682264 6145228.1068247203 0 0 0 0 -38246687.144561768 -7386813.7276651338 0 -7386813.7276651338 4479878.713804327 0 0 0 0 -16091269.101516366 3886452.6570722535 0 3886452.6570722535 2088835.8382678553 0 0 0 0 -24903113.372077942 -5838199.325986838 0 -5838199.325986838 -3862408.8621474504 0 0 0 0 -5378889.8792419434 -1640054.4212399721 0 -1640054.4212399721 2043426.4158529043 0 0 0 0 -20866004.884787217 237579.6189269647 0 237579.6189269647 -2654947.045121118 0 0 0 0 -43963641.555419922 22281844.573173925 0 22281844.573173925 12557264.584575534 0 0 0 0 -25692963.606323242 -15953085.144486908 0 -15953085.144486908 -1931728.9491977841 0 0 0 0 -1114986.2514349818 693535.09295899421 0 693535.09295899421 822074.74355610041 0 0 0 0 -14785055.64541322 -3768303.743335411 0 -3768303.743335411 224129.78239066424 0 0 0 0 -27722212.40222168 -385123.15796404332 0 -385123.15796404332 1936815.7595525831 0 0 0 0 -37822745.760009766 -7307994.3810813911 0 -7307994.3810813911 4278827.2156891935 0 0 0 0 -35129618.48059082 -1598294.1611039117 0 -1598294.1611039117 2215602.4343864699 0 0 0 0 -38502897.179656982 -7896063.6003578901 0 -7896063.6003578901 3896019.7365412563 0 0 0 0 -42956256.521148682 416438.00488584343 0 416438.00488584343 7003399.5135775125 0 0 0 0 -14313729.472052224 915446.30283644795 0 915446.30283644795 826841.97054825129 0 0 0 0 -30604065.485229492 -8040414.5706539638 0 -8040414.5706539638 10245.620907634966 0 0 0 0 -13888622.647033691 -2292718.380357122 0 -2292718.380357122 1402581.4843688291 0 0 0 0 -38170535.920043945 -7133568.6808501007 0 -7133568.6808501007 4642543.8033116385 0 0 0 0 -3887552037.4587402 -119677135.89752115 0 -119677135.89752115 -1192283.4371219275 0 0 0 0 -5974900553.2434769 640074574.56661701 0 640074574.56661701 928587333.199229 0 0 0 0 -5633644047.2492065 637168189.59852195 0 637168189.59852195 -318447569.80191487 0 0 0 0 -4072287076.8028259 -2255144928.5223718 0 -2255144928.5223718 -403532878.93282151 0 0 0 0 -2650742.8026953936 -49893.844955086708 0 -49893.844955086708 33761.511930670022 0 0 0 0 -16744903.741500854 44710.148930311203 0 44710.148930311203 -2743480.8397265077 0 0 0 0 -10766477.844909668 -1565214.1031345129 0 -1565214.1031345129 -6768810.776596386 0 0 0 0 -6546348.6472461969 -450709.53382007033 0 -450709.53382007033 163569.37802412262 0 0 0 0 -12013324.610324237 564125.23728109151 0 564125.23728109151 -657113.77774559683 0 0 0 0 -1509174019.7116547 475402095.25152194 0 475402095.25152194 -223118781.36576498 0 0 0 0 -443388541.84872437 -412818207.97416329 0 -412818207.97416329 -265185339.09382322 0 0 0 0 -1250371614.5158691 -36958737.572427332 0 -36958737.572427332 147496445.87984598 0 0 0 0 -673271657.82159424 -6059621.5924904644 0 -6059621.5924904644 -431533570.22346354 0 0 0 0 -3110775795.1818199 3148877038.3757801 0 3148877038.3757801 -1594188391.2401574 0 0 0 0 -2948593169.1375465 516361652.11067092 0 516361652.11067092 296600499.94744658 0 0 0 0 -13045516.99850297 -2866761.486536555 0 -2866761.486536555 -2272354.6801873404 0 0 0 0 -4192231.1555203982 1104606.7520822883 0 1104606.7520822883 4252511.4468098022 0 0 0 0 -282054379.11183929 496750553.47309434 0 496750553.47309434 -595839327.67718196 0 0 0 0 -981614045.9296875 -271686985.68887079 0 -271686985.68887079 -65637600.170439035 0 0 0 0 -20488128.929260254 -1409555412.6249804 0 -1409555412.6249804 -2904463096.7392268 0 0 0 0 -5769385.0117416084 -217538.69671384618 0 -217538.69671384618 -2228989.4172413149 0 0 0 0 -4767796303.0492554 -2872648273.5940943 0 -2872648273.5940943 -961493377.21585047 0 0 0 0 -5975507525.32656 -2756173860.2367687 0 -2756173860.2367687 397843371.5828281 0 0 0 0 -4524502667.8399963 -1544429312.1358476 0 -1544429312.1358476 -442393706.42062128 0 0 0 0 -4525843238.1803131 -1511715253.8703766 0 -1511715253.8703766 308122136.01744008 0 0 0 0 -3142632056.901886 -1880542826.8145266 0 -1880542826.8145266 -524233346.91283101 0 0 0 0 660030160.63708496 -851545766.93535566 0 -851545766.93535566 -431141068.97420502 0 0 0 0 -2951476729.4447021 321371649.24461395 0 321371649.24461395 659328234.06812572 0 0 0 0 -3677184.8864417821 -1491067.3034000397 0 -1491067.3034000397 -2769618.9228555933 0 0 0 0 -918685597.57473755 -1474367557.4602826 0 -1474367557.4602826 -669130632.18854702 0 0 0 0 -169749552.29571533 112923668.80573559 0 112923668.80573559 158726684.57991505 0 0 0 0 -435871471.06567383 -34315062.447299719 0 -34315062.447299719 113116673.38448566 0 0 0 0 -43061870.522109985 -4272533.6496159434 0 -4272533.6496159434 -383531496.5789125 0 0 0 0 -208958422.27194214 41363980.646552563 0 41363980.646552563 220649187.39453006 0 0 0 0 -221977579.07905579 206856162.41699576 0 206856162.41699576 -119533340.17913198 0 0 0 0 -154594226.96040344 135294918.01590997 0 135294918.01590997 -251799190.67457747 0 0 0 0 -349946719.49519348 -67017324.305269837 0 -67017324.305269837 -219256859.61080694 0 0 0 0 -549899602.51853943 84838664.738271743 0 84838664.738271743 -329624575.04866767 0 0 0 0 -375540663.23464966 -92807776.973901838 0 -92807776.973901838 -264958235.85274735 0 0 0 0 -836682738.7842865 -774674934.18048203 0 -774674934.18048203 -469723876.73619753 0 0 0 0 -995652346.10623169 -621470672.98815954 0 -621470672.98815954 -587100105.47961795 0 0 0 0 -2613874944.8034973 -973546172.16892874 0 -973546172.16892874 -285940157.79019773 0 0 0 0 -1032383136.5550995 -208525009.39297026 0 -208525009.39297026 -387295402.2150259 0 0 0 0 -937324041.44552612 -313517294.63778782 0 -313517294.63778782 -336291767.1692273 0 0 0 0 -375490831.57600403 35497454.64512974 0 35497454.64512974 -289299882.83494639 0 0 0 0 -320638233.18444824 -95843031.621108174 0 -95843031.621108174 -540463838.10733533 0 0 0 0 -994825506.77915955 129630126.69290316 0 129630126.69290316 37407959.464914694 0 0 0 0 -260945862.32034683 -248699555.92454025 0 -248699555.92454025 -336759074.60855186 0 0 0 0 -1806130917.6885071 -525475804.39414489 0 -525475804.39414489 -72060735.645883679 0 0 0 0 -2454916577.9816132 342551029.07776868 0 342551029.07776868 216559187.1181196 0 0 0 0 -4429550136.2574158 -562919767.57498908 0 -562919767.57498908 1036584744.2290666 0 0 0 0 -5985962935.5230675 -1355249529.7290194 0 -1355249529.7290194 875448687.4615103 0 0 0 0 -2816144727.9006805 -834675177.30419636 0 -834675177.30419636 155974091.87328851 0 0 0 0 -4278870505.9073296 -893987286.04776478 0 -893987286.04776478 469462929.43021536 0 0 0 0 -31524517.777366638 -13440296.484768987 0 -13440296.484768987 -87002741.524485588 0 0 0 0 -11671336.359152965 11757807.882053435 0 11757807.882053435 -7550979.0986345205 0 0 0 0 -182806902.2272644 -120316523.49349451 0 -120316523.49349451 35275091.428410053 0 0 0 0 -85115008.03338623 114862935.3775692 0 114862935.3775692 -20341437.00365591 0 0 0 0 -382423190.27703857 -7546476.4572372437 0 -7546476.4572372437 -70684157.513749361 0 0 0 0 -434069056.71640015 -57388327.859339714 0 -57388327.859339714 -5964092.9806609154 0 0 0 0 -418708877.01200867 -193566145.05678731 0 -193566145.05678731 -179450706.65651512 0 0 0 0 422146920.15115356 478653717.13709688 0 478653717.13709688 230918359.26153088 0 0 0 0 346431774.23019409 -46292288.012162209 0 -46292288.012162209 -56105545.550645351 0 0 0 0 -2474777.1265041791 2115853.7739978507 0 2115853.7739978507 782998.48602339206 0 0 0 0 545761659.45962524 299291525.252285 0 299291525.252285 -266967761.93268919 0 0 0 0 -13050766.034118652 -39162940.610292435 0 -39162940.610292435 8115365.1444644928 0 0 0 0 -14982244.345947266 -915511.70604038239 0 -915511.70604038239 -381895660.85017586 0 0 0 0 -649188419.6186161 -141863327.4943378 0 -141863327.4943378 -373716233.67034531 0 0 0 0 -625181858.41366577 -14542499.473071098 0 -14542499.473071098 -84539094.35669136 0 0 0 0 -554673396.58743286 221180995.7735405 0 221180995.7735405 440469914.64983892 0 0 0 0 -406841161.88882828 -174793421.53889155 0 -174793421.53889155 266499349.68314934 0 0 0 0 -396152912.88145447 -119900128.92847514 0 -119900128.92847514 -348104287.745821 0 0 0 0 -535324766.46697998 308669504.12053871 0 308669504.12053871 -114544064.1312294 0 0 0 0 363187763.16119385 -87020514.106896877 0 -87020514.106896877 -282142326.99490166 0 0 0 0 -44737204.971691132 137591109.89561325 0 137591109.89561325 253474025.47194386 0 0 0 0 -15630304.590575412 12566390.354449417 0 12566390.354449417 -5729761.5414342964 0 0 0 0 -67483691.502971649 -1879315.0389764905 0 -1879315.0389764905 145246317.04975319 0 0 0 0 478413891.95254517 795930233.56476879 0 795930233.56476879 -57873151.343278885 0 0 0 0 335947304.02670288 -501243475.71130466 0 -501243475.71130466 -140709906.76105833 0 0 0 0 -187150723.99588013 73878656.18806076 0 73878656.18806076 300669309.30882502 0 0 0 0 -216036421.53990936 -48125781.593536258 0 -48125781.593536258 249058300.93505478 0 0 0 0 -201871242.71289062 -521046188.37831688 0 -521046188.37831688 202003881.22881055 0 0 0 0 -186524466.79089355 -66010974.770071983 0 -66010974.770071983 249280054.00560856 0 0 0 0 176256640.88562012 314788716.91443443 0 314788716.91443443 155104354.37109375 0 0 0 0 -5721431.2032414675 -36964.0189143233 0 -36964.0189143233 984426.14471194753 0 0 0 0 -199345216.69744873 -52129920.426988602 0 -52129920.426988602 246564103.1394372 0 0 0 0 -132789060.40802002 -82196360.875436783 0 -82196360.875436783 246880283.61600494 0 0 0 0 -231216647.10523224 9309783.8734396696 0 9309783.8734396696 134036070.59671402 0 0 0 0 -200431299.55627441 -47086050.431499481 0 -47086050.431499481 229645521.0960865 0 0 0 0 -101794225.75143433 -47241902.462519646 0 -47241902.462519646 149932514.0466938 0 0 0 0 69179771.147644043 16551735.297588348 0 16551735.297588348 42243645.272833824 0 0 0 0 -1503736196.358551 -907216324.09967065 0 -907216324.09967065 -206298730.57636881 0 0 0 0 -42623466.952331543 -103500621.49123859 0 -103500621.49123859 193473422.03630257 0 0 0 0 1542285221.7472229 -802774667.50153923 0 -802774667.50153923 -2882659493.2232742 0 0 0 0 -76265923.579986572 -434614688.70073128 0 -434614688.70073128 -209737245.78243065 0 0 0 0 -1699937518.5882568 -1208940113.2550545 0 -1208940113.2550545 -529527112.46517563 0 0 0 0 -837310831.26550293 -957056062.76812935 0 -957056062.76812935 -475784903.85490513 0 0 0 0 -1801048377.3527527 -277820515.87605131 0 -277820515.87605131 -99273409.553836823 0 0 0 0 -1245104828.1644287 -44144908.592885971 0 -44144908.592885971 -10759166.522649765 0 0 0 0 -928203989.41203308 233082214.6724 0 233082214.6724 -92587939.24581337 0 0 0 0 -1010754512.9203796 -1198027532.9621038 0 -1198027532.9621038 -35710595.056316137 0 0 0 0 -3943328.6611823142 -2271158.3029144593 0 -2271158.3029144593 -529337.51448471751 0 0 0 0 -42567029.49156189 395304645.70400953 0 395304645.70400953 435040684.73080826 0 0 0 0 140217541.23791504 401620419.35096097 0 401620419.35096097 -339947588.3386755 0 0 0 0 89663837.8152771 -484872817.12132215 0 -484872817.12132215 -871538532.99960136 0 0 0 0 -3902107.8297366351 -504183.65857644752 0 -504183.65857644752 958710.63070643018 0 0 0 0 -162393859.9916687 321339716.84668541 0 321339716.84668541 105305266.43715572 0 0 0 0 81162369.454071045 -21655380.051811218 0 -21655380.051811218 293437394.17225266 0 0 0 0 53696056.336181641 44875267.721341133 0 44875267.721341133 389051876.25707626 0 0 0 0 65394831.212310791 -92479413.665699005 0 -92479413.665699005 201947271.21954441 0 0 0 0 -146739399.80885315 -5782341.2382240295 0 -5782341.2382240295 839267368.61222076 0 0 0 0 -10581370.412179425 -4111837.7824478652 0 -4111837.7824478652 -243885.72114204546 0 0 0 0 -30381921.859039307 -263458448.42624009 0 -263458448.42624009 -101172328.63003695 0 0 0 0 146333319.81161499 -28219981.102138996 0 -28219981.102138996 -313178825.13087845 0 0 0 0 84751649.744888306 19149782.543425322 0 19149782.543425322 270974945.28274536 0 0 0 0 57756455.566017151 -135181190.03991914 0 -135181190.03991914 230443044.24016953 0 0 0 0 93528122.705566406 -178946117.6550107 0 -178946117.6550107 -59007047.06504631 0 0 0 0 18383904.363098145 -334931416.38285488 0 -334931416.38285488 -146679507.24172714 0 0 0 0 62325630.588531494 -154456730.41136026 0 -154456730.41136026 -78021914.08577323 0 0 0 0 -160038897.4055481 -228137432.16594398 0 -228137432.16594398 102547160.2814306 0 0 0 0 -307020034.98114014 168082446.91534573 0 168082446.91534573 181193195.75648928 0 0 0 0 -473265754.15252686 285458657.69001162 0 285458657.69001162 150894611.80286062 0 0 0 0 -682377181.8677063 -531686038.28392231 0 -531686038.28392231 -46536612.687854648 0 0 0 0 -517594943.03015137 -132762073.90590823 0 -132762073.90590823 292070307.27486396 0 0 0 0 -563960892.41415405 -293510724.60863131 0 -293510724.60863131 106622785.76120037 0 0 0 0 -88782781.214576721 195727635.37435818 0 195727635.37435818 -60931198.303720951 0 0 0 0 -1578022.3444101214 -664133.33569774032 0 -664133.33569774032 1349111.9182942484 0 0 0 0 155518522.87365723 85620902.594851941 0 85620902.594851941 -83472200.551612616 0 0 0 0 -131210471.69223022 -207195711.77950108 0 -207195711.77950108 -120661614.98678194 0 0 0 0 -541311744.73590088 -107545506.79745758 0 -107545506.79745758 -7863140.8596549034 0 0 0 0 -147282923.88590622 -229392390.51374608 0 -229392390.51374608 -163372765.89677095 0 0 0 0 -3838257.8955883831 -3076102.2383854389 0 -3076102.2383854389 2750405.3691415223 0 0 0 0 4353843.2219696045 -93690396.66987133 0 -93690396.66987133 -141307614.84610343 0 0 0 0 11513821.511459351 -70752721.916387558 0 -70752721.916387558 -83647698.797922134 0 0 0 0 -8965279.8890315592 -7030665.5850664675 0 -7030665.5850664675 4509145.4314640313 0 0 0 0 -33785163.710235596 121710131.14921284 0 121710131.14921284 -93977860.481057167 0 0 0 0 63596060.67540741 -50621203.276336595 0 -50621203.276336595 -50769355.208339214 0 0 0 0 -63440358.63583374 -93043984.99342823 0 -93043984.99342823 -22379909.997758985 0 0 0 0 67355376.113173485 5161054.1371252201 0 5161054.1371252201 -24324429.421752691 0 0 0 0 -1039615.2043151855 21453836.910680771 0 21453836.910680771 48539689.497756958 0 0 0 0 -3131936.9247268289 -473526.37832282484 0 -473526.37832282484 2842307.0223766826 0 0 0 0 -580667698.08180237 12909544.133289695 0 12909544.133289695 49170078.16221714 0 0 0 0 -374751296.98065186 -179431267.40508413 0 -179431267.40508413 -8786709.5840439163 0 0 0 0 -100866247.8208313 -67077446.021423817 0 -67077446.021423817 2465731.7503173947 0 0 0 0 -112286332.03848267 -37975585.052334547 0 -37975585.052334547 -64451914.31498003 0 0 0 0 -109379709.90930176 -88788515.979979396 0 -88788515.979979396 -84426064.659025669 0 0 0 0 -93253374.337432861 -54983176.211345553 0 -54983176.211345553 -13587703.473439217 0 0 0 0 -236710970.40734863 -71941205.040874481 0 -71941205.040874481 -17515012.885018528 0 0 0 0 -310704626.2494812 -64565395.794035673 0 -64565395.794035673 -26486933.012254596 0 0 0 0 -344210338.6760025 16040952.055753231 0 16040952.055753231 -13442062.967592716 0 0 0 0 -397705313.61126709 -18206164.497778654 0 -18206164.497778654 11131730.4786129 0 0 0 0 -555228818.68371582 123010443.31160307 0 123010443.31160307 -42929414.566457629 0 0 0 0 -204223527.74123383 33114392.558833599 0 33114392.558833599 -352171775.48872089 0 0 0 0 -403486797.27850342 -420133022.24751711 0 -420133022.24751711 -68335544.846828461 0 0 0 0 -202861748.69763184 402312991.71228218 0 402312991.71228218 -468845954.81248283 0 0 0 0 -626014.45308098197 2168455.9758158126 0 2168455.9758158126 123572.86123625177 0 0 0 0 -471059627.65813446 -196705677.27853417 0 -196705677.27853417 -24073817.618702888 0 0 0 0 6708912.0280613303 9373463.8930141553 0 9373463.8930141553 -507703.98863896454 0 0 0 0 -74993009.963973999 42046345.794427037 0 42046345.794427037 29733324.598090172 0 0 0 0 -5245460.2777099609 986323.9208419323 0 986323.9208419323 1332190.1441012807 0 0 0 0 -7421912.6192321777 -2381210.8390188217 0 -2381210.8390188217 23928284.877252579 0 0 0 0 -9939910.2015678063 2009895.2522989139 0 2009895.2522989139 -2578957.6524663651 0 0 0 0 -142812222.8550415 -28199116.457551837 0 -28199116.457551837 -62347948.990911961 0 0 0 0 -2815364.8015079051 1735583.3519311622 0 1735583.3519311622 -2360019.0057047149 0 0 0 0 34012618.246963501 -30447487.660011292 0 -30447487.660011292 29413126.128271103 0 0 0 0 -4598405.4222166836 3676115.2228785232 0 3676115.2228785232 1203837.4637950752 0 0 0 0 38610239.66557312 -132643075.19440317 0 -132643075.19440317 117687384.22548676 0 0 0 0 55283597.753829956 -121983642.26053858 0 -121983642.26053858 13850775.932987213 0 0 0 0 108058618.30969238 -37985033.331546783 0 -37985033.331546783 18939030.966201544 0 0 0 0 141585387.5194397 -111600993.87096024 0 -111600993.87096024 15052109.650944233 0 0 0 0 -38199019.258117676 -11968710.061275154 0 -11968710.061275154 -37841430.076634288 0 0 0 0 199951005.70640564 -61336325.727256775 0 -61336325.727256775 -26190333.195310593 0 0 0 0 -3325072.3561798036 456854.80709296465 0 456854.80709296465 -14578.724786598003 0 0 0 0 -6499504.9591724277 6975205.0777564198 0 6975205.0777564198 -7705517.8292952599 0 0 0 0 -564223696.79941368 42887290.127094701 0 42887290.127094701 115013406.85653794 0 0 0 0 161787749.96682739 -115087594.78020048 0 -115087594.78020048 -38784133.795589447 0 0 0 0 88308458.989105225 -208287069.28985453 0 -208287069.28985453 -81367892.82907486 0 0 0 0 222447142.48311615 -50344709.790303707 0 -50344709.790303707 -158126649.43515015 0 0 0 0 195954992.11367798 16672512.355003357 0 16672512.355003357 69211058.44692421 0 0 0 0 508324884.2848053 89447616.410595179 0 89447616.410595179 -174327649.50559616 0 0 0 0 -8549338.8723019026 9717455.3371810988 0 9717455.3371810988 -7838779.7819950227 0 0 0 0 27187017.457809448 9899497.7483477592 0 9899497.7483477592 -53800319.968689919 0 0 0 0 2442035.5251368135 602942.43105195463 0 602942.43105195463 -2796905.6624007183 0 0 0 0 -528591406.90826416 -392257200.32702154 0 -392257200.32702154 -47383178.46613878 0 0 0 0 -675354109.47554016 70355242.329535007 0 70355242.329535007 -204280182.71360016 0 0 0 0 -746429113.62585449 -68376753.904568195 0 -68376753.904568195 -361743860.62263107 0 0 0 0 -365430967.85554504 -227128333.83522415 0 -227128333.83522415 -203314119.49641037 0 0 0 0 68974765.696563721 -140728715.4739399 0 -140728715.4739399 -131403687.55092907 0 0 0 0 51017839.906677246 -77920296.996139526 0 -77920296.996139526 -323899919.26933289 0 0 0 0 323523147.17610931 25118947.8446064 0 25118947.8446064 -264830229.60393524 0 0 0 0 -246263426.60189819 -127000027.27998924 0 -127000027.27998924 -109111685.29900742 0 0 0 0 -19838015.826599121 -233803972.6318264 0 -233803972.6318264 -159877708.65351629 0 0 0 0 -223245403.80713654 -94189637.721130133 0 -94189637.721130133 -360368749.6376915 0 0 0 0 -505198379.20474243 -173576394.66710663 0 -173576394.66710663 -107572429.5288372 0 0 0 0 -214095444.97881317 -195987118.90767646 0 -195987118.90767646 62961579.835105896 0 0 0 0 -242773993.11141968 -33290827.482998848 0 -33290827.482998848 -41391115.848899841 0 0 0 0 56824801.920928955 -14663158.307929993 0 -14663158.307929993 175875734.30738258 0 0 0 0 12464410.014678955 -187446446.80722618 0 -187446446.80722618 19629194.069105268 0 0 0 0 6111030.0851745605 -159636908.08547115 0 -159636908.08547115 19132488.847681046 0 0 0 0 -70421147.918624878 -229101771.87748909 0 -229101771.87748909 224130267.78460121 0 0 0 0 -12879275.662865371 -3661258.4553228617 0 -3661258.4553228617 -1702667.7841756283 0 0 0 0 48105447.72769165 -43680599.280701637 0 -43680599.280701637 3429346.1780605316 0 0 0 0 -35129516.385498047 -30067608.807834625 0 -30067608.807834625 91376082.763000488 0 0 0 0 -35162657.557553217 175198.57404251955 0 175198.57404251955 343377062.26742554 0 0 0 0 -302225.78186330199 -1397182.5370074287 0 -1397182.5370074287 -1821506.569086818 0 0 0 0 -12289648.323499069 -3491549.5662691887 0 -3491549.5662691887 -2213737.8775538425 0 0 0 0 -63415277.811843872 2870818.0025997162 0 2870818.0025997162 86536483.338806152 0 0 0 0 -262214852.37730408 -17211342.764073849 0 -17211342.764073849 371376948.96266937 0 0 0 0 -55389685.850280762 -99611959.729036331 0 -99611959.729036331 329849341.0900135 0 0 0 0 -149817098.02487946 120831123.11504436 0 120831123.11504436 306206040.63775063 0 0 0 0 81040204.694198608 149495980.3788662 0 149495980.3788662 235363685.82184982 0 0 0 0 -3610963.7275261506 -3032306.5753380954 0 -3032306.5753380954 -4766927.6061268151 0 0 0 0 -2324448935.6888275 226828809.85448265 0 226828809.85448265 -234198124.81409073 0 0 0 0 -3028367530.2209473 88617800.632312775 0 88617800.632312775 205569019.40080905 0 0 0 0 -200924.05649833381 -370453.60918192379 0 -370453.60918192379 -989771.68690115202 0 0 0 0 -1481984.7082230821 -589560.18735884875 0 -589560.18735884875 -1584730.4737829417 0 0 0 0 362034660.27566528 1097063469.8228736 0 1097063469.8228736 -255301245.09205246 0 0 0 0 -344019544.08299637 105377916.20859241 0 105377916.20859241 306056989.46544266 0 0 0 0 -298401573.69769287 -32827627.587334633 0 -32827627.587334633 31226658.87550354 0 0 0 0 -3432593398.6846008 -54835033.302657127 0 -54835033.302657127 -27813910.124462128 0 0 0 0 -5079530814.6142883 313820246.79884434 0 313820246.79884434 -12619360.742540359 0 0 0 0 -2654072825.4642944 -128582739.21435547 0 -128582739.21435547 -261184524.23156166 0 0 0 0 -2717904179.18396 -117554818.03311157 0 -117554818.03311157 -486964383.50173736 0 0 0 0 -3168245256.8002014 302222977.66610146 0 302222977.66610146 -624870797.00163174 0 0 0 0 -3023998927.990715 -107321383.18528652 0 -107321383.18528652 -221378279.4148941 0 0 0 0 -3430105149.8911285 826371467.13642693 0 826371467.13642693 -1447894433.3734856 0 0 0 0 -3249575609.3587189 361310447.51045036 0 361310447.51045036 -309506858.22462845 0 0 0 0 -4627159781.1735992 1568381360.2923832 0 1568381360.2923832 -1409383966.4475727 0 0 0 0 -4042784803.0031586 691699034.06466961 0 691699034.06466961 -95990933.61762619 0 0 0 0 -3541185289.5337219 301269554.48180866 0 301269554.48180866 186020398.27091217 0 0 0 0 -3711430530.35849 537224584.23509741 0 537224584.23509741 -96895420.563777924 0 0 0 0 -3596833078.1528282 605690885.20426142 0 605690885.20426142 -446765758.99380112 0 0 0 0 -3628687052.743927 706535471.4877491 0 706535471.4877491 -324696311.9706955 0 0 0 0 -3447382011.147522 260523678.75678825 0 260523678.75678825 133517093.55744553 0 0 0 0 -3638999377.2895126 369902394.83594012 0 369902394.83594012 309255480.94087219 0 0 0 0 -3857970311.0081787 73619656.436101913 0 73619656.436101913 435114287.6930275 0 0 0 0 -3005995328.7950745 16414868.793304443 0 16414868.793304443 385286220.20443106 0 0 0 0 -3836131982.5050049 296855841.6037302 0 296855841.6037302 303748148.12580681 0 0 0 0 -3612776887.7725906 464952865.00036979 0 464952865.00036979 617681515.38312531 0 0 0 0 -3227126969.9442596 -41038465.627638817 0 -41038465.627638817 545706452.29760933 0 0 0 0 -2866278054.1348724 90411737.788625717 0 90411737.788625717 494980763.99586678 0 0 0 0 -2357472571.336113 973558482.84462118 0 973558482.84462118 1081878566.1026192 0 0 0 0 -2796118470.0739441 -4417696.9690914154 0 -4417696.9690914154 616762386.99033356 0 0 0 0 -5592898036.8928375 454953717.12622356 0 454953717.12622356 1137876285.4527655 0 0 0 0 -3298275791.8113556 -205198384.15803528 0 -205198384.15803528 234720680.80754852 0 0 0 0 -3779655325.4436951 251833547.98473167 0 251833547.98473167 833643141.27616882 0 0 0 0 -3045001863.4027939 391112126.56764603 0 391112126.56764603 201893343.85270309 0 0 0 0 -2865519753.6435242 386233949.20212936 0 386233949.20212936 102765452.26010704 0 0 0 0 -3647212641.5856628 533730763.70767784 0 533730763.70767784 300329721.61089993 0 0 0 0 -1799530815.6916199 199801039.94822884 0 199801039.94822884 -176641971.05158615 0 0 0 0 -1775833153.6834106 -96405244.703956604 0 -96405244.703956604 -104996493.5109148 0 0 0 0 -2893564666.1036072 243633835.95425224 0 243633835.95425224 104413877.15857124 0 0 0 0 -1607640648.1806946 122294152.20799255 0 122294152.20799255 -12793345.787603378 0 0 0 0 -1614049265.4251845 449394098.97894859 0 449394098.97894859 -118001341.35614014 0 0 0 0 -551859243.83179665 339094435.01309115 0 339094435.01309115 -313323424.49108124 0 0 0 0 -3108647326.9747314 970596969.40640831 0 970596969.40640831 33208500.524622917 0 0 0 0 -3606499446.0098572 694547926.26288199 0 694547926.26288199 -315467922.18733406 0 0 0 0 -2983231166.1481934 191786173.11401749 0 191786173.11401749 41331641.548868179 0 0 0 0 85472850.565872192 -341776484.74991953 0 -341776484.74991953 582977484.28305769 0 0 0 0 -48153063.336486816 8809099.9747304916 0 8809099.9747304916 23708534.646370888 0 0 0 0 -14760953.846099362 2055312.2188490853 0 2055312.2188490853 13491632.030898154 0 0 0 0 -18198700.414085388 6868411.6269198656 0 6868411.6269198656 19982139.761874199 0 0 0 0 -25847655.538269043 -3801992.5675125122 0 -3801992.5675125122 7776637.787273407 0 0 0 0 -17798590.379303202 -5328412.3656179775 0 -5328412.3656179775 8899767.2911854237 0 0 0 0 -11048664.070000648 -3323075.7473857552 0 -3323075.7473857552 5287425.9941149997 0 0 0 0 -7845493.7511671111 -1590412.0775298029 0 -1590412.0775298029 1200789.7551517226 0 0 0 0 770155.69929504395 -26446598.693810463 0 -26446598.693810463 17833411.601743698 0 0 0 0 -46765701.51361084 -20044884.364807129 0 -20044884.364807129 43338704.433215141 0 0 0 0 -508282616.00136566 -447869065.58620262 0 -447869065.58620262 -380819013.24831772 0 0 0 0 -2010223503.7568054 60087860.021339417 0 60087860.021339417 259013606.95057297 0 0 0 0 -2687340734.1857605 -1680893393.2893057 0 -1680893393.2893057 -1053718950.0991325 0 0 0 0 -21404094.084472656 8593742.4330253601 0 8593742.4330253601 -25932487.0262146 0 0 0 0 -3376565.2698486 410805.88445606828 0 410805.88445606828 2573659.2736585941 0 0 0 0 -5449046705.9445496 29368828.742514849 0 29368828.742514849 442351391.94617271 0 0 0 0 -3111694527.5244751 -662564667.1595993 0 -662564667.1595993 450494442.5396269 0 0 0 0 -3153888280.6632233 -309988103.08744812 0 -309988103.08744812 482073539.95178223 0 0 0 0 -4337740289.718895 -59061905.213643551 0 -59061905.213643551 482174804.49432182 0 0 0 0 -2930814874.7210541 -246535441.57194328 0 -246535441.57194328 348525781.34628677 0 0 0 0 -3039098547.0991516 -197973406.74620628 0 -197973406.74620628 336475759.36207676 0 0 0 0 -3033010753.5349426 40605355.017255783 0 40605355.017255783 660739059.50059891 0 0 0 0 -2989619492.751503 69878229.983877659 0 69878229.983877659 177526260.55959702 0 0 0 0 -3024258615.4956665 -192636947.48613167 0 -192636947.48613167 323286583.48362923 0 0 0 0 -2245933.8446569182 -290312.72492410243 0 -290312.72492410243 -261763.89007978793 0 0 0 0 -10247192.861595154 -150776649.32040787 0 -150776649.32040787 42403080.031723022 0 0 0 0 -2996863192.5601501 -139808717.35622406 0 -139808717.35622406 315755614.29094934 0 0 0 0 -3080561981.8317108 -142055018.35955429 0 -142055018.35955429 346960279.01479435 0 0 0 0 -10850385.394651428 -2142755.7282381579 0 -2142755.7282381579 8179549.9476764202 0 0 0 0 -75951921.046634674 45631652.504587412 0 45631652.504587412 9539341.8427314758 0 0 0 0 736806727.86997986 -1199440793.5751891 0 -1199440793.5751891 472107938.68829691 0 0 0 0 -56501686.718414307 -297665428.36612988 0 -297665428.36612988 745925637.91290128 0 0 0 0 -408516875.26826477 -117496872.43248129 0 -117496872.43248129 669393043.93745327 0 0 0 0 -2013067204.7635193 718879837.79018688 0 718879837.79018688 118580360.58398914 0 0 0 0 -931301645.13356018 1018206021.0022708 0 1018206021.0022708 -483211227.63248253 0 0 0 0 -1336692822.1352844 119805391.35005951 0 119805391.35005951 -173779905.04530573 0 0 0 0 -647050313.32080078 -68931218.947620869 0 -68931218.947620869 -1433329741.6279507 0 0 0 0 -587446312.8429985 -914626075.0227443 0 -914626075.0227443 29402081.73686409 0 0 0 0 -296944782.02017212 494406995.19951844 0 494406995.19951844 -576764088.92766476 0 0 0 0 -87881413.0522995 -371175272.56539714 0 -371175272.56539714 539421771.75472355 0 0 0 0 1360990339.8151855 -221767580.27529526 0 -221767580.27529526 -197383741.00864506 0 0 0 0 272572103.69549561 331154081.08555555 0 331154081.08555555 -193685640.35211897 0 0 0 0 -680727844.25231934 262885176.50689614 0 262885176.50689614 353757855.83821869 0 0 0 0 226243467.18055153 -453401924.78676409 0 -453401924.78676409 1308029134.9467163 0 0 0 0 482618575.79734802 299386182.79473782 0 299386182.79473782 339009808.88955593 0 0 0 0 1560745939.3848267 -2171104732.26651 0 -2171104732.26651 909548138.72617817 0 0 0 0 1814766620.7546692 -1532618314.9693546 0 -1532618314.9693546 509539807.3999567 0 0 0 0 -2485084588.3501434 237909576.62002277 0 237909576.62002277 138100281.42904568 0 0 0 0 -2484409558.1619415 253846356.54483843 0 253846356.54483843 -15954028.651277542 0 0 0 0 -7309555.9721219987 -3131117.8263785616 0 -3131117.8263785616 3314762.6493553235 0 0 0 0 -3632822825.8059998 1218361089.082325 0 1218361089.082325 -426048610.8203764 0 0 0 0 -2777105813.9751892 504663876.37497807 0 504663876.37497807 97285464.41481781 0 0 0 0 -3375826977.6207275 341938716.65312195 0 341938716.65312195 552872221.66323471 0 0 0 0 -6093913721.5825806 1874120571.6179023 0 1874120571.6179023 96338953.724571705 0 0 0 0 -2496788.1393254623 -1181748.384122014 0 -1181748.384122014 385900.78655276168 0 0 0 0 -4519571607.8837433 -1047973751.295886 0 -1047973751.295886 -215980529.74889851 0 0 0 0 -2405529882.3454285 -972231496.82489538 0 -972231496.82489538 919903952.3183856 0 0 0 0 -3709498949.0979424 -364878454.94336122 0 -364878454.94336122 779069221.46268749 0 0 0 0 -3618013678.8432884 -788717930.64666259 0 -788717930.64666259 -158453644.53400135 0 0 0 0 -4819954637.7889709 -1150614073.5934949 0 -1150614073.5934949 541411456.20519853 0 0 0 0 -4060427064.9640198 -70521820.547007918 0 -70521820.547007918 96910574.054179549 0 0 0 0 -1723681269.0333252 -419525042.90680218 0 -419525042.90680218 46371814.128591537 0 0 0 0 -1985714756.3165894 -141009748.67142391 0 -141009748.67142391 -103150646.26582384 0 0 0 0 -827121867.97953796 226972000.5716573 0 226972000.5716573 -407295479.87199044 0 0 0 0 52477966.130828857 -342687034.88166618 0 -342687034.88166618 -92207130.264655352 0 0 0 0 -728498206.23547363 878050413.33191371 0 878050413.33191371 44261245.284496188 0 0 0 0 -1015435735.886261 561739688.31132984 0 561739688.31132984 142578118.78446865 0 0 0 0 -219635005.53707886 -54642502.945806503 0 -54642502.945806503 415671347.16678619 0 0 0 0 -1167807319.4379272 325313411.7057457 0 325313411.7057457 -79984656.410975575 0 0 0 0 -1090548753.7058487 737610770.4289639 0 737610770.4289639 -72789385.195653915 0 0 0 0 -1195316612.7850342 560696833.79589295 0 560696833.79589295 -255050612.3707422 0 0 0 0 -1226455048.3474731 597479672.83146286 0 597479672.83146286 7041605.3642549515 0 0 0 0 -1316231972.4816895 570818057.69891286 0 570818057.69891286 54679246.055464268 0 0 0 0 -1348220179.4619446 688692965.2997942 0 688692965.2997942 140474155.6013701 0 0 0 0 -1401280510.3408813 678944811.72711372 0 678944811.72711372 248355341.53556728 0 0 0 0 -1301543850.1372681 758023242.71226287 0 758023242.71226287 147509056.72160864 0 0 0 0 -1090602701.2553101 627570013.87766242 0 627570013.87766242 112126950.31352806 0 0 0 0 -1356030523.8179932 965961095.84675074 0 965961095.84675074 50384112.016377807 0 0 0 0 -2018665788.0535278 618768145.68714857 0 618768145.68714857 244971128.57875061 0 0 0 0 -3262967420.4457397 -862068836.05398011 0 -862068836.05398011 -434564813.71896172 0 0 0 0 -3303361665.6512146 111772662.82239437 0 111772662.82239437 -415282843.60038626 0 0 0 0 -2924926984.9157867 -530098490.12087584 0 -530098490.12087584 18566617.924468994 0 0 0 0 -2041066484.2320251 117664620.65442276 0 117664620.65442276 -201336022.04087102 0 0 0 0 -1437581585.6054993 -583617184.69528818 0 -583617184.69528818 -93149920.907077789 0 0 0 0 -1850170226.910675 -581240428.24918842 0 -581240428.24918842 -264980314.03382564 0 0 0 0 -1682430706.7511292 12527416.613749504 0 12527416.613749504 -113862688.0390625 0 0 0 0 -2971449072.2903748 -384421477.19246006 0 -384421477.19246006 2653945.7631473541 0 0 0 0 -4662608546.0080566 -388158166.40812397 0 -388158166.40812397 492895300.3168087 0 0 0 0 -2882781020.4784546 37267894.650819778 0 37267894.650819778 -30476231.178970337 0 0 0 0 -2719302.5485345162 1525500.5013474822 0 1525500.5013474822 1754506.1811824832 0 0 0 0 -3067200498.8814697 -644812984.58355474 0 -644812984.58355474 -442678223.46041584 0 0 0 0 -2791960.3647180684 2163895.9465615451 0 2163895.9465615451 447189.25189498253 0 0 0 0 -838048629.5085907 815112910.80901432 0 815112910.80901432 66759571.025741577 0 0 0 0 -1196648343.4708405 -344495237.72989702 0 -344495237.72989702 -96766777.68315506 0 0 0 0 -2753668707.3071899 -881848994.72986794 0 -881848994.72986794 321555512.15561104 0 0 0 0 -2386248649.7192078 359638948.29351044 0 359638948.29351044 675826867.37045097 0 0 0 0 -2861689879.3626556 -252452738.65093613 0 -252452738.65093613 654688380.63483429 0 0 0 0 -3894958867.5751801 113945467.75284052 0 113945467.75284052 664092778.81208038 0 0 0 0 -2972566627.2378082 -73199616.423924506 0 -73199616.423924506 57878544.869850636 0 0 0 0 -3640737612.9721832 129156016.72922277 0 129156016.72922277 -231035594.71940923 0 0 0 0 -5380560.1170862727 4345318.7650111094 0 4345318.7650111094 849552.19618875347 0 0 0 0 -2969049679.6350098 -81681569.831657887 0 -81681569.831657887 -63175098.479572296 0 0 0 0 -3019239677.2994385 -121753816.2512157 0 -121753816.2512157 80251090.345377207 0 0 0 0 -3026060072.5063934 -108775759.45121288 0 -108775759.45121288 176918017.8229785 0 0 0 0 -5795474.0826654546 3806803.9136378244 0 3806803.9136378244 3760025.4896725966 0 0 0 0 -1237968778.5346375 282918740.0874092 0 282918740.0874092 -409182507.2208463 0 0 0 0 -2973888.3891150579 2327172.0435622111 0 2327172.0435622111 510300.34815523506 0 0 0 0 -1928982037.1813965 -622625085.38170099 0 -622625085.38170099 -261825317.8902328 0 0 0 0 -3217543303.6651001 137100474.24834943 0 137100474.24834943 -45247248.936597675 0 0 0 0 -3090752552.9306641 -804571640.97499776 0 -804571640.97499776 -254084568.70472193 0 0 0 0 -2085830800.9575806 54997667.951502323 0 54997667.951502323 -189754943.98854768 0 0 0 0 -4312188009.5037994 -356222708.02217257 0 -356222708.02217257 415935102.38545036 0 0 0 0 -2087721937.0806427 44680453.762203693 0 44680453.762203693 325652088.97908831 0 0 0 0 -698294165.64432526 -731226836.16511095 0 -731226836.16511095 360092082.27292347 0 0 0 0 -1479786502.6566315 439102986.68496144 0 439102986.68496144 117183834.41251931 0 0 0 0 -14322992.312969029 10416705.265828371 0 10416705.265828371 -4127850.5576355755 0 0 0 0 -315172222.07363892 1335318800.725852 0 1335318800.725852 266679226.61931229 0 0 0 0 -429563244.6489563 -201463877.27734566 0 -201463877.27734566 1200792109.8345232 0 0 0 0 652636112.46585083 -418725552.46062183 0 -418725552.46062183 195406143.03515053 0 0 0 0 -155295736.7906189 94946038.990374565 0 94946038.990374565 -89328995.533525467 0 0 0 0 -6252251.9180655926 4073416.0946066305 0 4073416.0946066305 -1578226.3069616086 0 0 0 0 697845264.33598661 1311593312.5885739 0 1311593312.5885739 -190101829.37989998 0 0 0 0 -6026692686.9680176 -2001023423.5470781 0 -2001023423.5470781 854109861.30884314 0 0 0 0 -1536340721.0709324 -448573712.69426858 0 -448573712.69426858 -317408275.82544017 0 0 0 0 -3356102772.6990662 -723206058.49040794 0 -723206058.49040794 -13272419.249048233 0 0 0 0 -6458062.9251810089 4490498.4240459502 0 4490498.4240459502 1205310.7118076538 0 0 0 0 -4272781466.8018341 -410645892.37807035 0 -410645892.37807035 498593755.97550297 0 0 0 0 -3493925532.2300873 -369634608.13626134 0 -369634608.13626134 366891068.52646172 0 0 0 0 -2575220236.2380676 416452093.32037997 0 416452093.32037997 223443815.78971267 0 0 0 0 -3361854724.6895752 -230473705.75679615 0 -230473705.75679615 -94538137.69141829 0 0 0 0 -2269907929.6477127 389012291.97566175 0 389012291.97566175 -3070246454.901947 0 0 0 0 -3648317543.6679535 -191753845.85664308 0 -191753845.85664308 59719471.992527246 0 0 0 0 -4988630875.0307922 728183209.08914471 0 728183209.08914471 905032336.57337093 0 0 0 0 -5053775.8240426891 2668588.9877972007 0 2668588.9877972007 -2281316.3131010057 0 0 0 0 -3542798371.8969421 -228400693.45986187 0 -228400693.45986187 -171580121.07552719 0 0 0 0 -3545101876.8334689 14386529.049365155 0 14386529.049365155 19416046.226377964 0 0 0 0 -4417026384.0454559 -297223365.04822814 0 -297223365.04822814 121645047.17504048 0 0 0 0 -3333241110.1281738 -118845258.74404335 0 -118845258.74404335 -215630433.60411334 0 0 0 0 -2171683.2491183691 447328.53608482331 0 447328.53608482331 -1478248.9058450365 0 0 0 0 -2268213257.7286377 -120430270.23471451 0 -120430270.23471451 658746942.61451817 0 0 0 0 -2247770651.1698456 -202918069.35339522 0 -202918069.35339522 324604783.34922075 0 0 0 0 -1979162549.4142151 122640115.73920298 0 122640115.73920298 208476294.97803855 0 0 0 0 -1081996900.9013367 319992829.261096 0 319992829.261096 56084967.050905228 0 0 0 0 -1918029356.7305908 250936430.12235665 0 250936430.12235665 67480402.795829058 0 0 0 0 -1073541861.3370819 264416565.54259562 0 264416565.54259562 -171301727.79618263 0 0 0 0 -487068296.9380188 76106074.626530647 0 76106074.626530647 -178420037.76386797 0 0 0 0 -613695753.84783936 102632927.84581614 0 102632927.84581614 -71961172.608053207 0 0 0 0 -265135553.7239151 827249934.09007251 0 827249934.09007251 -291507534.0694313 0 0 0 0 -2621986500.7320557 272745396.73770857 0 272745396.73770857 960398664.86752272 0 0 0 0 -1810704127.9476929 1643682536.6310825 0 1643682536.6310825 -234059298.63558745 0 0 0 0 -2421728939.1541443 980000565.60488176 0 980000565.60488176 -90632939.472342491 0 0 0 0 -1112630874.3047638 562159080.88070655 0 562159080.88070655 -215504096.64618516 0 0 0 0 -1019844042.1929321 353147494.29146916 0 353147494.29146916 -292334191.8351568 0 0 0 0 -1173765756.5285645 409215091.56778455 0 409215091.56778455 -104121681.36013484 0 0 0 0 -1198968057.3970032 479221910.38965392 0 479221910.38965392 -98584421.085773468 0 0 0 0 -1271941868.4330444 424357296.41773582 0 424357296.41773582 -193518666.00747359 0 0 0 0 -1244104734.6167603 517160913.30865461 0 517160913.30865461 -129144311.32236654 0 0 0 0 -1159842591.9255676 413854647.70386237 0 413854647.70386237 -263363700.44657409 0 0 0 0 -1184344191.4587097 445217964.30958313 0 445217964.30958313 -291352142.75114965 0 0 0 0 -1447115056.9076538 514244266.71010435 0 514244266.71010435 -202618118.48832631 0 0 0 0 -1386657829.85783 260077761.12424293 0 260077761.12424293 -377860087.88410258 0 0 0 0 -1971297942.9117432 150057263.52733034 0 150057263.52733034 -255732320.56640363 0 0 0 0 -1502360770.7213745 322292439.97182339 0 322292439.97182339 -333670434.77847338 0 0 0 0 -1514398281.7248535 367116043.46491396 0 367116043.46491396 -230826087.35669056 0 0 0 0 -2088751435.8123169 306954397.7336551 0 306954397.7336551 -106092165.70304668 0 0 0 0 -2425501743.250946 139977456.10342419 0 139977456.10342419 -148164846.52724934 0 0 0 0 -2218400335.7490234 18567745.273520947 0 18567745.273520947 -249642277.25387833 0 0 0 0 -2083138882.6627502 270852598.31680137 0 270852598.31680137 -281600606.69360417 0 0 0 0 -2134913584.7907715 36747137.585869908 0 36747137.585869908 -268633345.99770182 0 0 0 0 -2225392286.1537094 234161270.70870009 0 234161270.70870009 -428003447.71289051 0 0 0 0 -2436662563.5215836 -99956277.504851565 0 -99956277.504851565 -453231841.24173391 0 0 0 0 -3106655129.6917419 -135400733.59670389 0 -135400733.59670389 -149118968.42369461 0 0 0 0 -3200151540.939064 -12832880.442096055 0 -12832880.442096055 -47635920.051123619 0 0 0 0 -3022131551.2030792 211289479.58780807 0 211289479.58780807 -87435290.787744999 0 0 0 0 -3177212888.4637146 -173234304.30096126 0 -173234304.30096126 -64244235.496376947 0 0 0 0 -3302188306.7236328 33001029.33402133 0 33001029.33402133 26303076.909718275 0 0 0 0 -2878064188.4895172 89814607.835842222 0 89814607.835842222 -151366206.87683749 0 0 0 0 -2885718917.0762329 175004100.28365052 0 175004100.28365052 44636051.427670598 0 0 0 0 -2268835718.185318 318047921.52262211 0 318047921.52262211 -184945434.56186223 0 0 0 0 -2763419750.4130859 -9320013.7567688823 0 -9320013.7567688823 -46807504.157876253 0 0 0 0 -2242760815.7055054 245691763.89624286 0 245691763.89624286 -41899514.371132493 0 0 0 0 -1690388557.7521973 288394601.41970825 0 288394601.41970825 -232774314.55803537 0 0 0 0 -2412096271.2497253 472367701.15247244 0 472367701.15247244 43691308.702924967 0 0 0 0 -1601617800.438797 626625024.6338166 0 626625024.6338166 -184124493.67475677 0 0 0 0 -1706953089.7813263 623997228.43999326 0 623997228.43999326 -175345085.48978159 0 0 0 0 -3778571.0088519156 -1111817.9900747985 0 -1111817.9900747985 -977986.45730205195 0 0 0 0 -1311901617.9381104 226710670.22865465 0 226710670.22865465 -260008346.44526339 0 0 0 0 -1656793242.9329224 411571325.91228533 0 411571325.91228533 -85905126.747972727 0 0 0 0 -1687140223.3565826 348634360.90621221 0 348634360.90621221 -3419256.1569254398 0 0 0 0 -22975429.449523926 675406.92905651254 0 675406.92905651254 -3256196.0983202248 0 0 0 0 -29540.069118324667 -594.6856831163168 0 -594.6856831163168 -7904.8337881457264 0 0 0 0 -5848009.7826644555 -610136.94371011853 0 -610136.94371011853 201075.65787128927 0 0 0 0 -21346690.860851288 9108088.1713746358 0 9108088.1713746358 -103028.27102189511 0 0 0 0 -1716225503.2055969 598523530.29807878 0 598523530.29807878 -195231654.41740179 0 0 0 0 -7858785.9994229749 -810944.41140554845 0 -810944.41140554845 -646049.71460767544 0 0 0 0 -4139637.0074456632 -1593824.335821338 0 -1593824.335821338 -977486.76590958377 0 0 0 0 -2260721564.8778534 307515048.10884762 0 307515048.10884762 -217653406.42146009 0 0 0 0 -1711409962.9620819 600459554.56687319 0 600459554.56687319 -348914134.55699873 0 0 0 0 -2441444443.2390213 565813779.7891345 0 565813779.7891345 -216023884.44391918 0 0 0 0 -1972500689.4295044 764663353.11387348 0 764663353.11387348 27035968.289101243 0 0 0 0 -3577354752.129425 715287384.27552569 0 715287384.27552569 -175549694.64579323 0 0 0 0 -3514610983.7615662 -73908141.348790064 0 -73908141.348790064 -101918524.58142692 0 0 0 0 -3127847076.0956726 254529158.13822711 0 254529158.13822711 -54459194.36330533 0 0 0 0 -2419446382.3223519 280456559.49095404 0 280456559.49095404 -141517035.17276859 0 0 0 0 -3058926630.2162666 26563179.191995621 0 26563179.191995621 -124958086.22112131 0 0 0 0 -3387729518.2822571 -55067768.912026882 0 -55067768.912026882 -64789652.813938022 0 0 0 0 -3424295798.8825989 1235767.4761715531 0 1235767.4761715531 -40189269.34011215 0 0 0 0 -3409509372.4595642 -34671901.131946057 0 -34671901.131946057 -161338730.26495337 0 0 0 0 -3579393198.3337326 -87444243.566776648 0 -87444243.566776648 -33406739.127732188 0 0 0 0 -3647993715.1801987 144767565.42642921 0 144767565.42642921 -239950763.33948362 0 0 0 0 -3546252152.841156 198056747.01394835 0 198056747.01394835 -160714460.91325799 0 0 0 0 -3628887868.4897003 43344965.325681761 0 43344965.325681761 -385549664.2316516 0 0 0 0 -4184593890.5736694 392306172.79321295 0 392306172.79321295 -322565.03409066482 0 0 0 0 -4098962145.0291443 -70957826.617353946 0 -70957826.617353946 -203291486.5479905 0 0 0 0 -4577158297.603775 579453432.05217683 0 579453432.05217683 33250660.967590928 0 0 0 0 -2243181.2215207517 -770614.99649386853 0 -770614.99649386853 -348019.08223417273 0 0 0 0 -1852554684.4877472 664717076.08629775 0 664717076.08629775 -622280743.57947826 0 0 0 0 -22078258.732093811 -958676.15649529186 0 -958676.15649529186 -13393.998766719371 0 0 0 0 -3808343301.8844604 20030637.633787956 0 20030637.633787956 38616023.913520165 0 0 0 0 -4721599.8523080945 93610.968437068164 0 93610.968437068164 340744.67721502238 0 0 0 0 -35786.743095897138 683.69471666961908 0 683.69471666961908 -2332.7115311549819 0 0 0 0 -17473743.316192627 2901779.2691914733 0 2901779.2691914733 -635860.35501420079 0 0 0 0 -26958037.062423706 5571013.3111705408 0 5571013.3111705408 -103757.66782770958 0 0 0 0 -25700799.494613647 5711713.3229157496 0 5711713.3229157496 -89746.025975063443 0 0 0 0 -2565648190.0062256 389938427.13276356 0 389938427.13276356 -13261710.660334066 0 0 0 0 -1264609584.7590637 83466002.638231158 0 83466002.638231158 -183616781.09486985 0 0 0 0 -1883949198.4121799 17141716.037083656 0 17141716.037083656 44266089.45572567 0 0 0 0 -1164121110.6061707 81797712.575749874 0 81797712.575749874 -15463597.538398504 0 0 0 0 -1853628979.6772041 206771001.41660511 0 206771001.41660511 -235324322.25307274 0 0 0 0 -2028359696.9208069 -168490946.10825479 0 -168490946.10825479 -31665561.10016048 0 0 0 0 -4023254621.174942 126641399.75126469 0 126641399.75126469 23484636.659326911 0 0 0 0 -3509398689.819191 121204949.95012522 0 121204949.95012522 -174256416.6993866 0 0 0 0 -3166217118.1258698 -109279760.51487131 0 -109279760.51487131 -168966935.42952055 0 0 0 0 -3185249901.0356827 -106317121.04443023 0 -106317121.04443023 42351865.804248959 0 0 0 0 -3191270818.4902802 -94363079.934468731 0 -94363079.934468731 -100784.62932260954 0 0 0 0 -2814934143.1572189 271571627.2923522 0 271571627.2923522 1249329.4053207338 0 0 0 0 -2360135789.9646683 -93287187.582876921 0 -93287187.582876921 123101.83011275233 0 0 0 0 -1848005812.5904694 -93625131.542778507 0 -93625131.542778507 -34149977.600326777 0 0 0 0 -1343496864.025116 -141300387.90695998 0 -141300387.90695998 -197438.79923682316 0 0 0 0 -1893285399.8782425 282749368.3689146 0 282749368.3689146 -75192201.678468138 0 0 0 0 -1095116978.0312347 142243068.98596096 0 142243068.98596096 -3872474.733486414 0 0 0 0 -625888990.27540588 -143855460.3550134 0 -143855460.3550134 -12072.835837130035 0 0 0 0 -654111569.07673645 -42074378.10494554 0 -42074378.10494554 110639229.36212039 0 0 0 0 -664791058.57592773 -98959793.709110916 0 -98959793.709110916 -126336391.65926954 0 0 0 0 -114297047.11535645 -135488222.70310426 0 -135488222.70310426 -49737.395342331591 0 0 0 0 -408269035.99914551 30562904.767679311 0 30562904.767679311 11236107.667338699 0 0 0 0 -320446734.42376709 -155714654.4243508 0 -155714654.4243508 -10306069.76586356 0 0 0 0 -101370987.4983139 17937217.114846677 0 17937217.114846677 68055460.44657588 0 0 0 0 -495886.520217821 -438083.29579122365 0 -438083.29579122365 -111081.25593973685 0 0 0 0 -317467937.02545166 -149218404.10881829 0 -149218404.10881829 123715862.91041279 0 0 0 0 -345056137.25985336 -86215307.749553934 0 -86215307.749553934 61738075.62991941 0 0 0 0 139453145.44100952 11277006.919457436 0 11277006.919457436 -208973571.08592272 0 0 0 0 -381298416.52270508 -66721275.893301487 0 -66721275.893301487 135869730.90282369 0 0 0 0 -34895252.507827759 -213477960.04903853 0 -213477960.04903853 -250129523.24806952 0 0 0 0 239496062.46134949 -329575592.36658192 0 -329575592.36658192 -236237801.88052034 0 0 0 0 -1253691074.3777618 -13348302.691379547 0 -13348302.691379547 126106346.0484612 0 0 0 0 20330.980966717005 -533578.54498004913 0 -533578.54498004913 -294022.99842101196 0 0 0 0 -799043090.09196472 -51412021.024105072 0 -51412021.024105072 -121493899.66703129 0 0 0 0 -731243043.01895142 -215747114.2079699 0 -215747114.2079699 -53880296.659838676 0 0 0 0 -1193231730.3253174 4042672.8363125324 0 4042672.8363125324 -43040875.5780406 0 0 0 0 -831837712.26577759 -129827627.83328056 0 -129827627.83328056 -153895875.65173721 0 0 0 0 -808889374.77835083 -19941268.136118889 0 -19941268.136118889 -113706286.82739639 0 0 0 0 -829409814.72833252 -96799701.40364933 0 -96799701.40364933 -33601666.85249567 0 0 0 0 -677019073.22924805 -112199133.91070318 0 -112199133.91070318 -119332104.33971786 0 0 0 0 -635147028.95040894 -208862889.52812481 0 -208862889.52812481 -11879810.288640022 0 0 0 0 -711475955.64727783 -253568486.69125843 0 -253568486.69125843 27863217.762742996 0 0 0 0 -704968704.08911133 -56350406.726628304 0 -56350406.726628304 100172429.29308319 0 0 0 0 -669495276.72623253 -219255374.87849075 0 -219255374.87849075 52873692.221281052 0 0 0 0 -552254239.08560944 -135538787.2571972 0 -135538787.2571972 -678562.67118263245 0 0 0 0 -548009663.71514893 -164841044.47617674 0 -164841044.47617674 -56788958.860869408 0 0 0 0 -813298720.23027325 -199264930.27638006 0 -199264930.27638006 29155170.63212204 0 0 0 0 -134428833.69124413 29110074.271020949 0 29110074.271020949 -69639513.474853516 0 0 0 0 -241793.16849118471 -1989651.931555666 0 -1989651.931555666 163766.81473151268 0 0 0 0 -156771978.08181763 -265701718.92155504 0 -265701718.92155504 -138155335.56757188 0 0 0 0 -5900609.2724342346 -78181002.243460536 0 -78181002.243460536 -37379427.293402195 0 0 0 0 -10737180.867156982 64194539.317626476 0 64194539.317626476 65949695.376954794 0 0 0 0 -284404590.84954834 -19584535.58538723 0 -19584535.58538723 25742879.274260521 0 0 0 0 -168264733.862854 -112201649.04170132 0 -112201649.04170132 15576627.801924586 0 0 0 0 -277763238.5569458 -96618981.055977821 0 -96618981.055977821 -15919809.83589077 0 0 0 0 -352530078.74954224 83419775.598376036 0 83419775.598376036 71839310.573406219 0 0 0 0 -1176781713.3752747 161187233.51442051 0 161187233.51442051 65244316.571378708 0 0 0 0 -1272612.7264897823 -856450.15787364542 0 -856450.15787364542 155556.97904126719 0 0 0 0 2590251.7817173004 190365538.5020774 0 190365538.5020774 674597287.53847504 0 0 0 0 31595.831211984158 -1086808.3074719533 0 -1086808.3074719533 159493.64329193439 0 0 0 0 -3236910.220878914 -2318265.1324554682 0 -2318265.1324554682 562550.19270742312 0 0 0 0 -30267499.932250977 -95506139.884304047 0 -95506139.884304047 396174822.4365654 0 0 0 0 -161988675.12161255 -262234016.4290638 0 -262234016.4290638 485294138.2726512 0 0 0 0 -509523727.959198 -354674450.09234619 0 -354674450.09234619 696515399.05639458 0 0 0 0 -147903847.46768188 -343251006.57869983 0 -343251006.57869983 -19231474.704870224 0 0 0 0 -128528608.82177734 -658886966.99129391 0 -658886966.99129391 -175771077.59900284 0 0 0 0 -694662281.14294434 -171193939.59399986 0 -171193939.59399986 13285222.154385567 0 0 0 0 -665348879.73248291 -205980091.66017437 0 -205980091.66017437 -53731878.958969116 0 0 0 0 133519860.8311615 -655772148.67447495 0 -655772148.67447495 -253137633.36157608 0 0 0 0 214677040.98994446 -465531866.98314667 0 -465531866.98314667 -131600493.11566734 0 0 0 0 -343388983.11993408 -827001837.80217266 0 -827001837.80217266 -49860877.207395554 0 0 0 0 -90288261.317443848 -630202836.42018509 0 -630202836.42018509 -175654150.78379774 0 0 0 0 -165054483.53173828 -661129344.68597698 0 -661129344.68597698 80266127.117725372 0 0 0 0 -2166091.8589165956 81817.191237181425 0 81817.191237181425 327950.91338037094 0 0 0 0 -115552448.50598145 410240314.69452441 0 410240314.69452441 -355576621.74488258 0 0 0 0 -474664653.62083435 437636570.52101088 0 437636570.52101088 466349080.74627495 0 0 0 0 -568692973.96835327 185863791.89270592 0 185863791.89270592 167314923.26545858 0 0 0 0 -609864034.42340088 -174970195.71285915 0 -174970195.71285915 384296254.71321964 0 0 0 0 -322248115.8491745 -352378330.65212321 0 -352378330.65212321 173646529.84274864 0 0 0 0 -536192076.56588745 -158927901.61385632 0 -158927901.61385632 11705709.341700554 0 0 0 0 -623497919.96699524 -309884107.4446857 0 -309884107.4446857 60271008.754440308 0 0 0 0 -898956442.26977539 -449612605.50572205 0 -449612605.50572205 -175593097.61953294 0 0 0 0 -590954846.83106995 -137916527.71224761 0 -137916527.71224761 115714205.31219673 0 0 0 0 -128907348.85718536 -46713693.518546462 0 -46713693.518546462 160564965.56896591 0 0 0 0 -112275290.39992523 19192318.506931067 0 19192318.506931067 171212384.97531891 0 0 0 0 -169126154.40405273 -26913730.467743874 0 -26913730.467743874 135944396.20666313 0 0 0 0 -67955306.411560059 -38010542.978713036 0 -38010542.978713036 113617430.41847897 0 0 0 0 -68532354.521240234 -92526329.706566811 0 -92526329.706566811 84933466.601114273 0 0 0 0 -13371052.393192291 -91443169.921463013 0 -91443169.921463013 22997516.700073242 0 0 0 0 -11235759.006584167 -71256404.331292808 0 -71256404.331292808 27497014.301258087 0 0 0 0 -18762275.300273895 -80155699.859642029 0 -80155699.859642029 113956633.88827133 0 0 0 0 -24133644.038635254 -36318095.544782639 0 -36318095.544782639 133269931.96030331 0 0 0 0 -21306336.413936317 -2669496.357063571 0 -2669496.357063571 1085657.7005523001 0 0 0 0 -40657545.917022705 -71305951.295807838 0 -71305951.295807838 248530024.88764 0 0 0 0 -3763053.4272880554 -77176285.044111609 0 -77176285.044111609 169220776.59901619 0 0 0 0 -103207761.31939697 2845067.9127264023 0 2845067.9127264023 284844168.60549259 0 0 0 0 -3876538.8521739393 -5641260.3762594145 0 -5641260.3762594145 517792.73219858925 0 0 0 0 -17297875.683837891 -53167572.207595825 0 -53167572.207595825 28994400.769748688 0 0 0 0 -16214541.894592285 11521314.096148491 0 11521314.096148491 187167994.05878973 0 0 0 0 77310092.716430664 46854275.448178053 0 46854275.448178053 -16732378.641845703 0 0 0 0 -33254230.933166504 -14723154.029753685 0 -14723154.029753685 181061244.62476921 0 0 0 0 -21898593.279632568 81548326.609858513 0 81548326.609858513 64634093.263261795 0 0 0 0 -101496155.73986816 513150432.33001709 0 513150432.33001709 -87571586.798952103 0 0 0 0 -640797618.59124756 332685842.55910492 0 332685842.55910492 -109941570.75473571 0 0 0 0 2997435.5267333984 250492542.82261944 0 250492542.82261944 -265409016.63436508 0 0 0 0 -1057715.0435451567 -544367.29384172894 0 -544367.29384172894 -56303.806218655314 0 0 0 0 -270596019.59615326 604256651.67370915 0 604256651.67370915 191702024.71292877 0 0 0 0 -44141365.999908447 -108926731.12968636 0 -108926731.12968636 61954755.939940453 0 0 0 0 -349149303.86013794 392893755.04261971 0 392893755.04261971 574784662.52291489 0 0 0 0 -241551064.27224731 -89444102.383822441 0 -89444102.383822441 580173472.16465724 0 0 0 0 -128380421.88145447 98431067.02541399 0 98431067.02541399 244328385.06280518 0 0 0 0 -168970756.99316406 39936559.712268829 0 39936559.712268829 185534891.13458598 0 0 0 0 -196643129.23675537 182323960.97411346 0 182323960.97411346 154525014.78759766 0 0 0 0 -191509436.64727783 206103524.62844086 0 206103524.62844086 194045824.05915833 0 0 0 0 -239342387.20898438 16734631.78132534 0 16734631.78132534 190522866.63350487 0 0 0 0 -225267623.52496338 42200773.373192787 0 42200773.373192787 232069809.71706629 0 0 0 0 -204799677.02900696 -51759263.172007084 0 -51759263.172007084 91565482.611847878 0 0 0 0 -451452682.90115356 -73419749.488378525 0 -73419749.488378525 97705375.191147804 0 0 0 0 -289630018.76774597 7158669.6232681274 0 7158669.6232681274 196200078.39677429 0 0 0 0 -147518760.63970947 55886862.544465065 0 55886862.544465065 17007591.169478774 0 0 0 0 -110043791.00537109 -29395969.401561737 0 -29395969.401561737 27066183.232847214 0 0 0 0 -2744726.4759814441 -2542608.7611417845 0 -2542608.7611417845 -303439.60982468259 0 0 0 0 96905995.726013184 -56717098.59696579 0 -56717098.59696579 -65500274.24765563 0 0 0 0 -185283617.77731323 45120474.888135433 0 45120474.888135433 -42395237.834478378 0 0 0 0 -736361811.30114746 40882895.458861828 0 40882895.458861828 -42427762.235731117 0 0 0 0 -1134174.1287744045 -835271.19119704515 0 -835271.19119704515 -26738.560062588891 0 0 0 0 -358963985.63009644 -348510427.28563714 0 -348510427.28563714 -339611638.37294769 0 0 0 0 -164669324.33006287 -196917644.50087953 0 -196917644.50087953 -99927470.986041069 0 0 0 0 -9103311.3485412598 -94261461.162169695 0 -94261461.162169695 -359356599.58940601 0 0 0 0 -180933184.24530029 -141404837.66957474 0 -141404837.66957474 -105959230.00583363 0 0 0 0 -92754812.81237793 -119864978.89305782 0 -119864978.89305782 -18142214.6658355 0 0 0 0 -66136146.189849854 -111790976.42276096 0 -111790976.42276096 -17061214.896247864 0 0 0 0 -192767340.60675526 -115884459.31268054 0 -115884459.31268054 72982222.439630508 0 0 0 0 -187879267.32028198 -18767362.22388649 0 -18767362.22388649 132773948.05606937 0 0 0 0 -71072418.722106934 -120457880.99557209 0 -120457880.99557209 -218091.94973468781 0 0 0 0 -52690314.677337646 -171134850.49455261 0 -171134850.49455261 -102070420.28188801 0 0 0 0 19644092.076263428 -113305511.90235329 0 -113305511.90235329 -58705362.681447983 0 0 0 0 69879648.848480225 -97961027.239547968 0 -97961027.239547968 -159784940.9672091 0 0 0 0 -11343989.779180527 -93586978.258253574 0 -93586978.258253574 -110396699.94480705 0 0 0 0 122255507.45550537 -35161309.160249233 0 -35161309.160249233 -179311504.63094378 0 0 0 0 -45643535.483398438 42166797.444067955 0 42166797.444067955 -69783555.86013031 0 0 0 0 -104434669.8633728 -69134394.234396935 0 -69134394.234396935 -150338347.02546024 0 0 0 0 -104127948.80307007 1836807.7865614295 0 1836807.7865614295 -708126473.46574926 0 0 0 0 -37223692.264892578 40396087.569166183 0 40396087.569166183 -277265647.50223398 0 0 0 0 -291766890.94821167 129384765.28396571 0 129384765.28396571 -22832305.026181221 0 0 0 0 -98084845.946166992 -24351595.251589775 0 -24351595.251589775 97822298.999482155 0 0 0 0 -56462283.630493164 101075399.23108935 0 101075399.23108935 -18269168.524314761 0 0 0 0 143085189.28573036 149624964.35879549 0 149624964.35879549 -9160120.0612134933 0 0 0 0 126627450.89764404 -21735177.081936784 0 -21735177.081936784 38929377.171913147 0 0 0 0 50243512.848114014 72308860.623877525 0 72308860.623877525 70294204.242726803 0 0 0 0 93910472.143005371 30121889.754362106 0 30121889.754362106 -92225183.515643597 0 0 0 0 59650938.423568726 58839411.333842099 0 58839411.333842099 -423388914.89467502 0 0 0 0 -296646598.54000854 -392497647.60503697 0 -392497647.60503697 -342370335.28885847 0 0 0 0 -586170386.37994385 200012459.1321615 0 200012459.1321615 -61898061.964282513 0 0 0 0 -312701395.92934227 -43114922.762135923 0 -43114922.762135923 136514862.63940811 0 0 0 0 -243415423.10317993 -40142696.219469666 0 -40142696.219469666 132619165.22321337 0 0 0 0 122251131.09533691 14777283.564172506 0 14777283.564172506 52870273.217216492 0 0 0 0 90821269.424034119 -195598456.45527294 0 -195598456.45527294 51708113.118995339 0 0 0 0 -36704476.144927979 -350855334.8523531 0 -350855334.8523531 156395533.62321019 0 0 0 0 -1018123.6330947578 -822470.86460124701 0 -822470.86460124701 -60559.305193413165 0 0 0 0 -184318348.72027588 28563989.633381754 0 28563989.633381754 178418228.22257328 0 0 0 0 -857732.28662957251 -468725.51877704263 0 -468725.51877704263 437908.32072990248 0 0 0 0 163681732.66769409 -111452716.35600168 0 -111452716.35600168 78519.478260948032 0 0 0 0 -422072281.54951477 93478832.153575078 0 93478832.153575078 167695618.70499533 0 0 0 0 33962792.834014893 -21119460.976449702 0 -21119460.976449702 35425035.107104048 0 0 0 0 218406512.13603973 103240476.97517103 0 103240476.97517103 3916761.7684457302 0 0 0 0 179456655.49157715 -59828889.375955105 0 -59828889.375955105 134354935.76242119 0 0 0 0 333598125.09747314 -4968607.0198590755 0 -4968607.0198590755 46068366.56450209 0 0 0 0 158605063.16418457 46479428.151169062 0 46479428.151169062 138648656.52607182 0 0 0 0 232175057.56390381 157781757.34311771 0 157781757.34311771 157525963.98090535 0 0 0 0 69341.32621639967 -28744.755184205249 0 -28744.755184205249 6897.7776435998385 0 0 0 0 72802006.781951904 39939669.633964777 0 39939669.633964777 53716432.016967297 0 0 0 0 -191253492.62469482 -17566707.025222123 0 -17566707.025222123 130266138.01515484 0 0 0 0 -226489226.76293945 -77899988.537065864 0 -77899988.537065864 204625289.29549551 0 0 0 0 -19577719.041610718 -141542185.42201918 0 -141542185.42201918 115854092.10840321 0 0 0 0 161469019.10314941 -76551266.374996126 0 -76551266.374996126 111968556.5472171 0 0 0 0 175474151.05187988 -287908003.19594169 0 -287908003.19594169 -293053.4500311173 0 0 0 0 -470932507.86470032 -68765393.535343602 0 -68765393.535343602 247280440.07317543 0 0 0 0 -274603780.17970276 -267652028.30250055 0 -267652028.30250055 142383044.07714653 0 0 0 0 482908043.68936157 25442166.752273574 0 25442166.752273574 -52812995.109108329 0 0 0 0 597655.37562068552 -407494.91736798733 0 -407494.91736798733 -51382.317492808463 0 0 0 0 529580.97458648682 -314245.07742670702 0 -314245.07742670702 -6.2167294443256367 0 0 0 0 435044.21273803711 -266897.76352838398 0 -266897.76352838398 193687.94283023136 0 0 0 0 139631.86635252833 -123664.65653835796 0 -123664.65653835796 258645.23805876033 0 0 0 0 -2216025.6602172852 -2440165.9582463419 0 -2440165.9582463419 4212943.3802648019 0 0 0 0 -3418288.9094238281 2254099.5870561898 0 2254099.5870561898 -222471.36326800473 0 0 0 0 -4565208.5202293396 -509328.32930414751 0 -509328.32930414751 10253110.659608729 0 0 0 0 371161.88916015625 -152882.5366151052 0 -152882.5366151052 268.88587547046927 0 0 0 0 6315833.4063415527 3201241.0250790175 0 3201241.0250790175 -2180581.0539364968 0 0 0 0 94245.230919495225 -40644.845982866362 0 -40644.845982866362 110935.32260406864 0 0 0 0 -426879.17892456055 -362388.14509611548 0 -362388.14509611548 176671.025553621 0 0 0 0 -1447211.0850219727 104695.54015279343 0 104695.54015279343 -826.94319107593526 0 0 0 0 2315327.1248474121 -10286373.342463028 0 -10286373.342463028 10915754.542849749 0 0 0 0 -2434509.9717712402 -4338032.1818769025 0 -4338032.1818769025 18596544.965430036 0 0 0 0 195905.79906256497 603617.97210004181 0 603617.97210004181 -260324.36408728725 0 0 0 0 6204215.2694396973 -5741054.695676975 0 -5741054.695676975 13236473.763819084 0 0 0 0 19731662.385803223 -7707592.2935656141 0 -7707592.2935656141 2744233.6714178175 0 0 0 0 6159262.2443084717 -8993458.3338740263 0 -8993458.3338740263 6361386.4694171902 0 0 0 0 6798110.0232543945 2923411.7586186589 0 2923411.7586186589 -1278629.7353969947 0 0 0 0 3156260.5611036271 74616.292474299669 0 74616.292474299669 -550316.76619526604 0 0 0 0 13825072.129405975 4225302.2145448923 0 4225302.2145448923 -12604452.828645706 0 0 0 0 9939957.7859039307 -6953251.2178354263 0 -6953251.2178354263 3046838.9153442383 0 0 0 0 156832.23001098633 -3055577.6121682008 0 -3055577.6121682008 606464.60142942891 0 0 0 0 1419230.7175122499 -421482.90353670716 0 -421482.90353670716 -923223.31281521008 0 0 0 0 1248886.2088165283 -4153232.9472979777 0 -4153232.9472979777 967736.51405097963 0 0 0 0 1152191.6125567108 -2096342.8676765859 0 -2096342.8676765859 1616319.9193246271 0 0 0 0 116674554.83892822 -64123250.936890244 0 -64123250.936890244 -33762192.620093822 0 0 0 0 181106013.36987305 11598501.945851922 0 11598501.945851922 -85314624.193287849 0 0 0 0 954934.60157844424 -1147346.5177412108 0 -1147346.5177412108 456266.99377970304 0 0 0 0 -78922542.601501465 45011146.810172513 0 45011146.810172513 49940721.045719333 0 0 0 0 -183805146.21194458 -38860419.833117269 0 -38860419.833117269 19166240.559606552 0 0 0 0 -73882768.986175537 -13301917.168238036 0 -13301917.168238036 24614646.188086711 0 0 0 0 -68267909.343070984 -8715009.3197682276 0 -8715009.3197682276 37554.278521897431 0 0 0 0 -76310400.477035522 -4256879.9377803933 0 -4256879.9377803933 7486363.7840883248 0 0 0 0 -64984695.387500763 -18615468.495762303 0 -18615468.495762303 8954611.3902652524 0 0 0 0 -82195169.162231445 -24966964.077089787 0 -24966964.077089787 8261352.5649449434 0 0 0 0 -42572751.224914551 -15019433.671213018 0 -15019433.671213018 19767.829202829802 0 0 0 0 -8887157.4256439209 -9605927.1436127815 0 -9605927.1436127815 -5126710.0022833226 0 0 0 0 -40808021.061157227 -38037618.613776758 0 -38037618.613776758 -13812505.694655668 0 0 0 0 -35547119.146789551 -55222414.41391179 0 -55222414.41391179 -57301382.886519536 0 0 0 0 -15574168.450592041 -5702653.7230048534 0 -5702653.7230048534 -6202092.3716889359 0 0 0 0 -8751279.6961669922 -3340193.5752832489 0 -3340193.5752832489 1643920.0862250179 0 0 0 0 1868399.2319946289 -2429836.3671578709 0 -2429836.3671578709 -2486043.8546030857 0 0 0 0 -111396.29072205722 -242707.36399871111 0 -242707.36399871111 293600.20980228717 0 0 0 0 25076788.58190918 -10271887.346273245 0 -10271887.346273245 -13722.119875634286 0 0 0 0 -37912709.139694214 -18426337.134148356 0 -18426337.134148356 -2018326.5275297184 0 0 0 0 687387.47182291746 -554391.89811490476 0 -554391.89811490476 374518.24856118625 0 0 0 0 20673010.022186279 9535291.6470824536 0 9535291.6470824536 6007054.0654841214 0 0 0 0 38093.049613803625 -16367.146315259859 0 -16367.146315259859 29112.385035314928 0 0 0 0 6435450.3992919922 -18211987.449571617 0 -18211987.449571617 5303352.9806929827 0 0 0 0 3842600.4540557861 -13465519.61083382 0 -13465519.61083382 15268904.211986613 0 0 0 0 3906195.1257324219 -609459.38566281018 0 -609459.38566281018 -2213507.1792882932 0 0 0 0 1196877.09957394 -788292.16297554225 0 -788292.16297554225 241980.24698590356 0 0 0 0 1419848.5944976807 -2784764.6600362379 0 -2784764.6600362379 -16385.181613940746 0 0 0 0 6170470.5390968323 -6222887.3786359038 0 -6222887.3786359038 7666396.3096614862 0 0 0 0 5099496.3362942636 -2020278.0788960503 0 -2020278.0788960503 -1109146.1411802582 0 0 0 0 15415317.58391571 -8796238.3826093078 0 -8796238.3826093078 -2610391.9557893276 0 0 0 0 10106004.359676361 -5249624.2429698706 0 -5249624.2429698706 5409437.6791291237 0 0 0 0 17997687.051422119 -31133831.154181898 0 -31133831.154181898 -42311129.851116776 0 0 0 0 -10982562.612365723 20350134.345062852 0 20350134.345062852 -5484682.4430007935 0 0 0 0 -5007782.4152985066 -3010208.0046477318 0 -3010208.0046477318 1907806.0371847767 0 0 0 0 -21294904.411102295 -6806412.9143434763 0 -6806412.9143434763 64522062.93602404 0 0 0 0 -1824875.821421057 -638029.48886416201 0 -638029.48886416201 930990.65301350737 0 0 0 0 -47264592.742233276 -65846693.970462263 0 -65846693.970462263 -59451090.440257549 0 0 0 0 -24131714.552124023 64015035.297743201 0 64015035.297743201 -143876382.07481325 0 0 0 0 -29348389.83416748 30220342.658827066 0 30220342.658827066 -65854846.864212513 0 0 0 0 -32890497.56439209 -80232972.656248569 0 -80232972.656248569 -103596645.08545804 0 0 0 0 -8240695.2346191406 5174.1727058887482 0 5174.1727058887482 -107468792.42771816 0 0 0 0 -405384519.92626953 -99455213.097008944 0 -99455213.097008944 -13008862.595041275 0 0 0 0 -619721.38902416825 -29485.68745956663 0 -29485.68745956663 240466.18224845378 0 0 0 0 -186141012.18571472 120824507.60989051 0 120824507.60989051 43340520.07962209 0 0 0 0 -494679.09958952665 -271438.19337887317 0 -271438.19337887317 39194.621169180027 0 0 0 0 -211645047.42877197 -157900521.64881414 0 -157900521.64881414 -117077209.12816513 0 0 0 0 -227443771.9070282 480292060.34898996 0 480292060.34898996 52784508.218073964 0 0 0 0 -441572738.58807373 -15819385.435443357 0 -15819385.435443357 53317410.71044033 0 0 0 0 -209770660.81718445 2316688.4867544174 0 2316688.4867544174 35753185.765794277 0 0 0 0 -26570932.087957382 15994105.108014815 0 15994105.108014815 36538425.484818459 0 0 0 0 -28011685.832584649 -3581481.3737641685 0 -3581481.3737641685 1919725.9240273267 0 0 0 0 -58218910.815704346 -23891825.620063305 0 -23891825.620063305 125900739.85503554 0 0 0 0 -36095979.334686279 42073061.099197388 0 42073061.099197388 16582890.887862682 0 0 0 0 -26652874.789558411 4198777.3694760799 0 4198777.3694760799 75324469.925424576 0 0 0 0 -4673030.8643493652 23239111.75676012 0 23239111.75676012 -10712589.382851839 0 0 0 0 -7769850.6045177802 -2574666.1258519664 0 -2574666.1258519664 2580291.9409621898 0 0 0 0 39704738.007598877 -23887067.493942261 0 -23887067.493942261 -987000.84419381618 0 0 0 0 -5454176.4232559204 22908933.024672091 0 22908933.024672091 1870266.4858055115 0 0 0 0 -15179533.099967957 1395779.6716195345 0 1395779.6716195345 313724.07576560974 0 0 0 0 186483288.92849731 -495680473.42984629 0 -495680473.42984629 635446952.27226448 0 0 0 0 251754070.69902039 -305475202.15983772 0 -305475202.15983772 185177255.05847168 0 0 0 0 251208906.8999176 -704926523.21450472 0 -704926523.21450472 1213196189.0754356 0 0 0 0 -25693055.107523292 -6098158.0928689344 0 -6098158.0928689344 640655.40317769209 0 0 0 0 -301102045.06704712 -102123118.7751236 0 -102123118.7751236 1376363008.9278765 0 0 0 0 558206814.78345108 -191313750.98950195 0 -191313750.98950195 15579503.1731987 0 0 0 0 53445735.909912109 -365297006.55115318 0 -365297006.55115318 561410.72242069244 0 0 0 0 155435275.19810867 -28168496.116020322 0 -28168496.116020322 -708337846.6452713 0 0 0 0 -1719710190.7513733 902810114.3996954 0 902810114.3996954 -1006355503.5498009 0 0 0 0 528467196.34518433 -1084851497.0082812 0 -1084851497.0082812 -936975519.53818989 0 0 0 0 354027192.20051575 588149338.42081332 0 588149338.42081332 1420634185.7573128 0 0 0 0 -302997386.70028687 -1867720519.7255049 0 -1867720519.7255049 2562444420.1250057 0 0 0 0 -120398809.70758057 -47733828.927373886 0 -47733828.927373886 -35096648.78008461 0 0 0 0 -17802290.587371826 14409669.979971886 0 14409669.979971886 -199042394.13424683 0 0 0 0 37123968.961303711 -90681839.133115768 0 -90681839.133115768 -228092967.01397157 0 0 0 0 6298476.9434509277 -25802144.120920181 0 -25802144.120920181 -178275514.37538433 0 0 0 0 -17852744.954711914 -39150351.244193077 0 -39150351.244193077 27867486.790403366 0 0 0 0 -22531477.515258789 -73662403.894400597 0 -73662403.894400597 -38397980.309580803 0 0 0 0 -41897186.087890625 -26558348.50784111 0 -26558348.50784111 1401956.9657497406 0 0 0 0 13707356.61138916 -39016003.476964951 0 -39016003.476964951 -67612864.520170212 0 0 0 0 14509157.795471191 -43301497.832276344 0 -43301497.832276344 -77160258.254993439 0 0 0 0 21435701.966491699 -62850180.990120888 0 -62850180.990120888 -34192399.62782383 0 0 0 0 20237217.401428223 -76524710.22487545 0 -76524710.22487545 -13775545.666893005 0 0 0 0 23882616.283180237 -101253710.41419363 0 -101253710.41419363 -57101776.925094604 0 0 0 0 50062905.783813477 -94169986.922750473 0 -94169986.922750473 -117003286.72011757 0 0 0 0 3922771.7351074219 -37073182.808958054 0 -37073182.808958054 -79546683.062392235 0 0 0 0 57116683.659301758 -79269338.401986122 0 -79269338.401986122 -87884358.983654976 0 0 0 0 40655515.306091309 -45652055.559429169 0 -45652055.559429169 -154661218.46805191 0 0 0 0 48214073.939575195 -152485402.3496294 0 -152485402.3496294 -2546972.0191373825 0 0 0 0 43333167.82321167 -42624023.231657982 0 -42624023.231657982 15697996.555751801 0 0 0 0 38169709.532714844 -102606705.29868603 0 -102606705.29868603 -124173592.20811749 0 0 0 0 85001974.580993652 -49943990.080855727 0 -49943990.080855727 -67998097.407367706 0 0 0 0 65038688.349060059 -61574120.289420128 0 -61574120.289420128 -80419289.291573524 0 0 0 0 70959655.604492188 -94440504.955589294 0 -94440504.955589294 -117284303.91356754 0 0 0 0 -8144086.7928771973 3898074.7563657761 0 3898074.7563657761 -13136739.306667328 0 0 0 0 -34525355.423034668 44722893.193350315 0 44722893.193350315 -23995382.903116226 0 0 0 0 -74673244.573242188 -108598664.04272747 0 -108598664.04272747 -142000905.96766663 0 0 0 0 655529.04185178876 -477191.37503275275 0 -477191.37503275275 -638283.61908119777 0 0 0 0 78644.846476048231 -97420.079493246973 0 -97420.079493246973 119574.18300994998 0 0 0 0 5015257.3857574463 14710823.903467178 0 14710823.903467178 -37029349.726024628 0 0 0 0 5353660.2531738281 -20109401.72766012 0 -20109401.72766012 -19189312.306931496 0 0 0 0 27912704.115036011 -1628763.9531059265 0 -1628763.9531059265 -10625126.74806118 0 0 0 0 33452615.478363037 -52805715.895767212 0 -52805715.895767212 9866378.6442317963 0 0 0 0 23517062.527069092 -46581622.586820602 0 -46581622.586820602 18854669.456050873 0 0 0 0 25006399.567077637 -41762123.578888893 0 -41762123.578888893 -60346702.537770271 0 0 0 0 19346900.937667847 -39430047.007198572 0 -39430047.007198572 10267870.352710724 0 0 0 0 -13387005.745697021 -85771379.183566093 0 -85771379.183566093 12271427.753948212 0 0 0 0 32771494.92074585 -47676090.484112263 0 -47676090.484112263 4340218.8851418495 0 0 0 0 -4093137.0670776367 -49842382.133992195 0 -49842382.133992195 70019777.362567902 0 0 0 0 -27997536.468923926 -3712050.005688156 0 -3712050.005688156 2197311.3033115901 0 0 0 0 -7617656.8894958496 -76208998.097824097 0 -76208998.097824097 88237913.552990437 0 0 0 0 92016371.535461426 -417303613.68883514 0 -417303613.68883514 841881816.37163162 0 0 0 0 -14025977.42207925 -2320954.5939515084 0 -2320954.5939515084 4471963.9878010899 0 0 0 0 -21005740.150461107 -9353535.6685136296 0 -9353535.6685136296 -1053462.1659538771 0 0 0 0 -26152567.676643372 4343635.9852615595 0 4343635.9852615595 21775831.032026291 0 0 0 0 -2816300.9095201343 -611636.74985710531 0 -611636.74985710531 1439274.4923704313 0 0 0 0 237956460.66647339 -428581563.49223518 0 -428581563.49223518 374487794.03966999 0 0 0 0 150756366.18490601 -380257798.56172085 0 -380257798.56172085 628287486.54452705 0 0 0 0 221219308.61584473 -328304799.39490891 0 -328304799.39490891 604003801.92658997 0 0 0 0 -41772082.675979614 -14405519.203062534 0 -14405519.203062534 288896057.49226379 0 0 0 0 135570138.97393799 -259053461.31710052 0 -259053461.31710052 281185557.78540421 0 0 0 0 101916454.03289795 -253577878.96781731 0 -253577878.96781731 300810738.98605824 0 0 0 0 248675823.1708374 -449474910.21522331 0 -449474910.21522331 429485101.88386536 0 0 0 0 -24560475.657469839 -3668736.1009604735 0 -3668736.1009604735 1183612.4889505159 0 0 0 0 177751336.41796875 -245660449.52745724 0 -245660449.52745724 -156106814.14656353 0 0 0 0 6064409.3292694092 4025812.2982540131 0 4025812.2982540131 21242709.600928307 0 0 0 0 -158412310.31338501 -7248959.0411205292 0 -7248959.0411205292 131508826.71738625 0 0 0 0 -32280910.148406982 -86110538.946338654 0 -86110538.946338654 190798247.24376583 0 0 0 0 -663495.14798355103 -22584761.29212594 0 -22584761.29212594 108089159.00172424 0 0 0 0 -39605719.08605957 -82640934.89157486 0 -82640934.89157486 79069166.849628448 0 0 0 0 3571965.5854492188 -65761426.590460777 0 -65761426.590460777 24835641.337997437 0 0 0 0 -1784423.7864990234 -43789596.829601288 0 -43789596.829601288 62253431.773000717 0 0 0 0 -6709574.359161377 -35409486.339268684 0 -35409486.339268684 29354247.901626587 0 0 0 0 -7794318.8480224609 -76609168.172634125 0 -76609168.172634125 101034756.83050919 0 0 0 0 21379893.820648193 -54696235.242233276 0 -54696235.242233276 106015852.79308367 0 0 0 0 -4645060.4458007812 -23626416.847350121 0 -23626416.847350121 180687673.93524551 0 0 0 0 106103.09199412167 -9652102.9940051325 0 -9652102.9940051325 777956.9698577309 0 0 0 0 45785667.229187012 -66027004.016859055 0 -66027004.016859055 -26165989.140592575 0 0 0 0 51021427.925415039 -68392026.047500134 0 -68392026.047500134 401742402.52723026 0 0 0 0 -11910372.913513184 -12040840.624130249 0 -12040840.624130249 525026650.99789953 0 0 0 0 53447333.820461273 -58387160.723984838 0 -58387160.723984838 387125351.47232437 0 0 0 0 190637.08752501011 -2659395.3885059878 0 -2659395.3885059878 296365.56336833513 0 0 0 0 51875599.31161499 -11138124.579138279 0 -11138124.579138279 606901232.83778572 0 0 0 0 -9511999.5049438477 -201455628.18605042 0 -201455628.18605042 1022670544.0012217 0 0 0 0 116554070.16702271 -113640534.99875116 0 -113640534.99875116 163566322.84255981 0 0 0 0 166241578.60335922 -259442818.75735268 0 -259442818.75735268 369428682.90964317 0 0 0 0 154824945.08834362 -119787174.43039578 0 -119787174.43039578 381280261.48122978 0 0 0 0 92651154.299407959 -123558044.3872602 0 -123558044.3872602 65713570.414007187 0 0 0 0 84966776.631652832 -200528241.05104542 0 -200528241.05104542 298739062.64417005 0 0 0 0 116190758.6966095 -258597121.31467319 0 -258597121.31467319 -57638998.569596291 0 0 0 0 18324385.481988151 -192147180.9769271 0 -192147180.9769271 -100263662.13668966 0 0 0 0 41291707.834411621 -207508694.40421116 0 -207508694.40421116 123008059.86521226 0 0 0 0 167148527.32874298 -52547980.177625656 0 -52547980.177625656 -41864150.859272003 0 0 0 0 424261153.43948364 -88681035.844644547 0 -88681035.844644547 -347917069.7071104 0 0 0 0 701298.71629366279 -2871442.2617369369 0 -2871442.2617369369 -5190994.403254861 0 0 0 0 86803235.127922058 48882324.002771832 0 48882324.002771832 -128670301.37153101 0 0 0 0 84311088.854019165 -85852468.818627596 0 -85852468.818627596 -55253507.905440807 0 0 0 0 204039521.67526245 -695735.70906257629 0 -695735.70906257629 -61202288.104902744 0 0 0 0 19664417.709594727 -53527028.622221231 0 -53527028.622221231 -68189767.044063568 0 0 0 0 198591170.44797516 -98682232.641203403 0 -98682232.641203403 54232558.573843956 0 0 0 0 6740965.9742126465 -77863578.529648304 0 -77863578.529648304 90640498.427857876 0 0 0 0 120575917.7562561 -170222976.60929394 0 -170222976.60929394 334755098.59067345 0 0 0 0 113671576.9145813 -128000222.96939421 0 -128000222.96939421 108044537.06986427 0 0 0 0 325271599.91567993 -166881467.79984474 0 -166881467.79984474 94089577.2505548 0 0 0 0 317475471.71075439 -433408377.18348694 0 -433408377.18348694 559354750.90993786 0 0 0 0 372388640.31739044 -177302173.58293635 0 -177302173.58293635 296729821.01715279 0 0 0 0 150347868.34106445 -232355201.36576474 0 -232355201.36576474 251902862.31151962 0 0 0 0 175284833.17703247 -323599340.40572739 0 -323599340.40572739 570671519.79787254 0 0 0 0 99429908.860839844 -221438669.72351646 0 -221438669.72351646 274513378.29067945 0 0 0 0 141770346.35896301 -68201571.219463825 0 -68201571.219463825 -22469827.024815559 0 0 0 0 341820.5966796875 -210438936.52484703 0 -210438936.52484703 250741718.05058765 0 0 0 0 240008125.09621429 -74472125.594654799 0 -74472125.594654799 -249138165.77172184 0 0 0 0 -2037623.8082443029 -1884497.9898346551 0 -1884497.9898346551 -2192421.6312574493 0 0 0 0 -99533464.866621017 281973243.02886713 0 281973243.02886713 -294128296.59854984 0 0 0 0 121388965.67849731 13187063.663338661 0 13187063.663338661 -196606259.87382066 0 0 0 0 -46612704.877750397 -81549468.363046944 0 -81549468.363046944 -3323892.5298652649 0 0 0 0 -1968629500.8974056 919944079.86729872 0 919944079.86729872 -130474533.74308968 0 0 0 0 -113409952.81137085 454765211.95933723 0 454765211.95933723 -665160859.74150217 0 0 0 0 -962268.44768165052 -407259.38741484284 0 -407259.38741484284 -538905.52933946159 0 0 0 0 -235543746.87594604 137211828.45976353 0 137211828.45976353 -80670205.93132782 0 0 0 0 -548512336.36804199 133996419.9144249 0 133996419.9144249 410231363.0183382 0 0 0 0 -511832362.2832489 257350491.18612576 0 257350491.18612576 -154492574.45374107 0 0 0 0 -1143371.4155596532 -670035.29831630737 0 -670035.29831630737 -8681677.5947853066 0 0 0 0 -884818515.55168152 349798771.36682558 0 349798771.36682558 -35018050.621994019 0 0 0 0 -683639998.90808105 382594569.74316025 0 382594569.74316025 -200307668.43298125 0 0 0 0 -748123373.65986633 244559030.20933151 0 244559030.20933151 -10595622.458171844 0 0 0 0 -343150914.34591675 299947696.48707676 0 299947696.48707676 -38508596.614915609 0 0 0 0 -337428167.58552933 234264305.16210872 0 234264305.16210872 -1004071413.5168686 0 0 0 0 -269827358.43099976 145843213.50848389 0 145843213.50848389 -325510110.00600147 0 0 0 0 -897488.54311189335 -79373.20897616446 0 -79373.20897616446 -5834271.3285536468 0 0 0 0 -830310399.4132843 -1369027174.2471623 0 -1369027174.2471623 205502592.41510963 0 0 0 0 -1349435.2273471057 -3230640.2684051432 0 -3230640.2684051432 -4397613.4468736947 0 0 0 0 -63763631.00390625 194761156.8280201 0 194761156.8280201 -160637703.4049229 0 0 0 0 -298812193.04823303 852151384.7072072 0 852151384.7072072 -111054200.18582582 0 0 0 0 -664094630.66751099 -428770289.19765759 0 -428770289.19765759 -636023965.63661242 0 0 0 0 -155049.77503378689 -357646.21732062846 0 -357646.21732062846 -3785065.9698024928 0 0 0 0 -949908754.0880127 -282783901.4104445 0 -282783901.4104445 -199688417.81317139 0 0 0 0 653326976.26887512 627989172.12747812 0 627989172.12747812 -926303487.9897691 0 0 0 0 -541396336.08184052 582486016.23523927 0 582486016.23523927 -372333352.86701822 0 0 0 0 214072195.99311829 171998668.74253857 0 171998668.74253857 -149350238.14023638 0 0 0 0 -659552238.24250031 -273303353.3357023 0 -273303353.3357023 -184362530.60086441 0 0 0 0 -705816294.39440918 -9087895.0695667267 0 -9087895.0695667267 71176434.642074585 0 0 0 0 -357512831.5329895 166959431.08221912 0 166959431.08221912 -98592961.655382156 0 0 0 0 -271698198.21792603 123080772.35727692 0 123080772.35727692 -204240564.26844406 0 0 0 0 164652744.84379578 75719594.208338618 0 75719594.208338618 -254240130.22904778 0 0 0 0 -980548.41066087037 -2751772.3977767602 0 -2751772.3977767602 -9926510.7185675837 0 0 0 0 -205070058.96894836 -50648651.824254513 0 -50648651.824254513 -26041278.237422943 0 0 0 0 -495672761.69577026 263144607.74827957 0 263144607.74827957 -110502328.45100403 0 0 0 0 945700.72083234042 92632.203314814717 0 92632.203314814717 -1527203.8969432423 0 0 0 0 136483013.78729248 -25297476.10478282 0 -25297476.10478282 59128324.098397791 0 0 0 0 -532884486.36595154 -67348382.869407654 0 -67348382.869407654 -8343537.9238653183 0 0 0 0 -587522872.51013184 -254177794.6678772 0 -254177794.6678772 -124631426.99788189 0 0 0 0 -537694906.83285522 -173045178.28943348 0 -173045178.28943348 -362832215.60332108 0 0 0 0 -236108679.53536987 138628375.75850201 0 138628375.75850201 -1151244617.4533577 0 0 0 0 -357938011.57373047 28492826.939933777 0 28492826.939933777 -491699455.17689228 0 0 0 0 -578372362.77418518 -266579254.91321373 0 -266579254.91321373 -221928479.10675812 0 0 0 0 -393596.73841391876 -61305.840584225953 0 -61305.840584225953 -2317921.0670822132 0 0 0 0 -703893982.65847778 -468617183.52730274 0 -468617183.52730274 -483582982.2153511 0 0 0 0 -586217907.95093727 -275669733.80285084 0 -275669733.80285084 -1084019718.2429276 0 0 0 0 446163251.29904938 -410860756.70097637 0 -410860756.70097637 -1311664465.9163284 0 0 0 0 -569600831.6131134 844998537.74696445 0 844998537.74696445 186170528.29628372 0 0 0 0 -274803016.87591553 -132538787.10358047 0 -132538787.10358047 714840919.54491806 0 0 0 0 -255180723.58170509 268267034.70297945 0 268267034.70297945 -171688726.31471443 0 0 0 0 -595052662.94393921 226377688.32282066 0 226377688.32282066 -113714735.16034222 0 0 0 0 123555855.58349609 -99919249.464541435 0 -99919249.464541435 99417693.922568798 0 0 0 0 -487229921.55960083 334877800.54626369 0 334877800.54626369 -7964114.2466697693 0 0 0 0 -206917660.98477173 55587067.813331604 0 55587067.813331604 -46320744.715339661 0 0 0 0 -566306719.18383789 205567554.28572845 0 205567554.28572845 210963325.31735802 0 0 0 0 -574283073.25511169 269960007.18261909 0 269960007.18261909 323431105.77960968 0 0 0 0 101801855.19389343 250509929.32621717 0 250509929.32621717 559308806.81482697 0 0 0 0 -2429892.5244121365 -689248.93017251045 0 -689248.93017251045 3613285.0502747092 0 0 0 0 273233921.8440094 -340200628.2556982 0 -340200628.2556982 227832234.50117111 0 0 0 0 -15200501.33152771 -20396941.999628782 0 -20396941.999628782 16937937.302711487 0 0 0 0 -3358633.149162516 -3745623.0646189228 0 -3745623.0646189228 1167047.5322450623 0 0 0 0 -398432190.74111938 131739562.48795509 0 131739562.48795509 -21170600.935289383 0 0 0 0 -385073647.77185059 137108033.3524704 0 137108033.3524704 -76956577.647708893 0 0 0 0 -431412727.95543671 51515964.07316494 0 51515964.07316494 46710153.315006256 0 0 0 0 -293877687.28900146 39514401.989653587 0 39514401.989653587 -31300445.308444977 0 0 0 0 -495093751.69660151 157447094.80171928 0 157447094.80171928 31900579.484149933 0 0 0 0 -673808670.87168503 412547710.98000979 0 412547710.98000979 3722621.554309845 0 0 0 0 -928950.57334101945 -462453.67343933135 0 -462453.67343933135 848389.53989928216 0 0 0 0 -487030348.86965942 360894923.44473124 0 360894923.44473124 -174285388.57450485 0 0 0 0 -405606931.65374756 111367990.47274399 0 111367990.47274399 -216319542.18082905 0 0 0 0 -311033484.17224312 148971338.82374799 0 148971338.82374799 -71392483.188560486 0 0 0 0 4436327.3119354248 2067149.2136974335 0 2067149.2136974335 -4645522.2645263672 0 0 0 0 412965.22955799103 -53408148.947366536 0 -53408148.947366536 28821616.276994705 0 0 0 0 178313688.73748779 -277260548.34957027 0 -277260548.34957027 39071753.132175446 0 0 0 0 -3075547.0254121646 -7608934.9834808968 0 -7608934.9834808968 -13031371.01475583 0 0 0 0 233763237.93901062 -113343106.06497812 0 -113343106.06497812 -61468288.389369965 0 0 0 0 24294055.446594238 -106324614.4732461 0 -106324614.4732461 -13025360.88641119 0 0 0 0 -66955688.350143433 -82732531.597977638 0 -82732531.597977638 220680851.84586143 0 0 0 0 -265084759.00546265 -103326386.95049477 0 -103326386.95049477 7639151.0079283714 0 0 0 0 -7047832.4427337646 -118169842.20714045 0 -118169842.20714045 4029059.0240316391 0 0 0 0 65111213.167663574 -155238186.90486789 0 -155238186.90486789 -357313511.27792358 0 0 0 0 24117606.362640381 -89397129.712234497 0 -89397129.712234497 135426363.96161318 0 0 0 0 -7437122.6371784955 -11595641.827857837 0 -11595641.827857837 -13010668.288666524 0 0 0 0 9332516.2895202637 -242515355.08185196 0 -242515355.08185196 217188604.25575337 0 0 0 0 -68275109.119659424 -51052312.525217056 0 -51052312.525217056 140003529.92351151 0 0 0 0 -63224097.038391113 -1407181.9876384735 0 -1407181.9876384735 201889707.79443645 0 0 0 0 -178204133.27984619 -98897998.044077873 0 -98897998.044077873 143872128.79768276 0 0 0 0 -81509984.9168396 -172519085.06534576 0 -172519085.06534576 181792515.39911032 0 0 0 0 -180234120.85144043 111197622.66796303 0 111197622.66796303 266176130.01487112 0 0 0 0 -202334442.11920166 189065189.5463028 0 189065189.5463028 -5747773.3097271919 0 0 0 0 23701094.717590332 -66148121.266949654 0 -66148121.266949654 144994813.91885185 0 0 0 0 -147746976.92224121 -8449751.963634491 0 -8449751.963634491 127475613.65751839 0 0 0 0 30501259.997238159 145690310.07300913 0 145690310.07300913 127296554.21787262 0 0 0 0 -38574845.887878418 53849545.77022028 0 53849545.77022028 50803226.331764221 0 0 0 0 -347658.28852844238 60049684.222297668 0 60049684.222297668 -67263145.997353554 0 0 0 0 -184837427.33929443 145477016.65000963 0 145477016.65000963 -106819004.30032873 0 0 0 0 -107652277.73847961 -19134254.354246855 0 -19134254.354246855 -244003067.9656682 0 0 0 0 -78078078.133773804 -17312091.076401234 0 -17312091.076401234 -8762088.5483951569 0 0 0 0 -224743020.7041626 -74556434.987743378 0 -74556434.987743378 -12841282.366059572 0 0 0 0 -554360424.99526978 -153813583.6843996 0 -153813583.6843996 -247480380.33124018 0 0 0 0 -50424864.376098633 103499075.16977191 0 103499075.16977191 -594484321.19167781 0 0 0 0 11539115.552902222 -33881980.513531089 0 -33881980.513531089 -386002447.65199566 0 0 0 0 1802781.7425689697 -359821482.61782289 0 -359821482.61782289 -389289500.39377904 0 0 0 0 -86935894.526138306 -113564184.85725343 0 -113564184.85725343 9116449.906835556 0 0 0 0 -60512008.393539429 448788942.75328475 0 448788942.75328475 -943161595.2471894 0 0 0 0 1146526.2090484649 -1119567.3273101263 0 -1119567.3273101263 -2706578.935797018 0 0 0 0 10967111.532417297 138736303.7246061 0 138736303.7246061 -417593356.90105867 0 0 0 0 214056996.64834595 175119347.5498054 0 175119347.5498054 -514486117.56562114 0 0 0 0 89600859.990661621 -91212648.69589138 0 -91212648.69589138 -337654345.69424152 0 0 0 0 168850515.64503479 -54080295.265940189 0 -54080295.265940189 -322693578.23161793 0 0 0 0 -18297086.341674805 58019699.934977651 0 58019699.934977651 -348789182.66311169 0 0 0 0 16320202.725158691 -194949431.9558959 0 -194949431.9558959 -920990017.07544029 0 0 0 0 -37396894.643432617 -14270255.827197075 0 -14270255.827197075 40168746.433375359 0 0 0 0 22556861.489990234 -4629641.6543512344 0 -4629641.6543512344 -11315068.914123535 0 0 0 0 13446399.529094696 24002796.584669113 0 24002796.584669113 228407276.10595322 0 0 0 0 38910773.590492249 24987077.205676556 0 24987077.205676556 -115431288.83633614 0 0 0 0 -8221047.2300349325 -2553047.8326668283 0 -2553047.8326668283 -596552.26889951993 0 0 0 0 -15229682.801940918 22727446.94068718 0 22727446.94068718 -59571239.908588409 0 0 0 0 -16931920.832603455 -4815882.4369902611 0 -4815882.4369902611 -46837230.102802277 0 0 0 0 26781660.319824219 -124617740.38642693 0 -124617740.38642693 47441562.359508514 0 0 0 0 -34009782.959251404 7878984.8136014938 0 7878984.8136014938 32705580.142232895 0 0 0 0 -8720897.2979278564 -1077359.2643845566 0 -1077359.2643845566 574033.4674728252 0 0 0 0 -6590609.0548945442 745535.20704209805 0 745535.20704209805 953871.41932457872 0 0 0 0 -136645959.2913208 -106158812.15858841 0 -106158812.15858841 63648552.268053055 0 0 0 0 69753089.166051865 5874194.0697815418 0 5874194.0697815418 -137532169.95581055 0 0 0 0 -17175954.761352539 37406539.498209953 0 37406539.498209953 -23575350.619527817 0 0 0 0 96808971.84762001 -78637955.047936201 0 -78637955.047936201 -50887278.807222366 0 0 0 0 -1546898.6155760437 274941.49767683446 0 274941.49767683446 -1900100.4896273483 0 0 0 0 26863231.193889618 11188154.769836903 0 11188154.769836903 -45019803.640989304 0 0 0 0 53979909.191894531 16479327.994830132 0 16479327.994830132 -66348383.662313461 0 0 0 0 -110425358.32046509 62688254.867706299 0 62688254.867706299 -74869896.558483124 0 0 0 0 22202560.25170517 100702.67069911957 0 100702.67069911957 -62262770.701190948 0 0 0 0 26578976.414955139 -579577.34628200531 0 -579577.34628200531 -62300531.977909088 0 0 0 0 84529609.164245605 -29951797.215612411 0 -29951797.215612411 -73628245.793235779 0 0 0 0 34668755.026901245 -3383446.0327596664 0 -3383446.0327596664 -85536014.4741745 0 0 0 0 36679143.456531525 62106341.776135445 0 62106341.776135445 -123172043.99373817 0 0 0 0 100264397.18167114 17236661.621869087 0 17236661.621869087 -115602937.24127364 0 0 0 0 -101057.56354978681 -24524.469687301666 0 -24524.469687301666 -2199892.0517531745 0 0 0 0 98543028.113571167 132112963.04391861 0 132112963.04391861 4570148.9637475014 0 0 0 0 148285698.70602798 65682127.133415937 0 65682127.133415937 -246880934.67456245 0 0 0 0 122150120.43238831 -185899009.31298923 0 -185899009.31298923 -70025795.833263397 0 0 0 0 123825539.77584076 -176760469.56694317 0 -176760469.56694317 -312389840.49086475 0 0 0 0 -528778316.31576538 -439109359.9288311 0 -439109359.9288311 -387933163.74113274 0 0 0 0 -574868866.59059906 -775818771.17961729 0 -775818771.17961729 -246240763.71273804 0 0 0 0 1331244058.3240662 803432361.69973755 0 803432361.69973755 -49971651.825023651 0 0 0 0 675953974.17489624 -2212704646.1073818 0 -2212704646.1073818 -1309911284.5344601 0 0 0 0 415307821.02308655 -58860947.098545074 0 -58860947.098545074 -705090227.18600368 0 0 0 0 425566853.56968689 390611061.13176727 0 390611061.13176727 75595856.377269745 0 0 0 0 -558477988.80206299 50449065.092057228 0 50449065.092057228 -11453083.941585541 0 0 0 0 -5911106.0132109076 -6354825.376708921 0 -6354825.376708921 -2815794.053458157 0 0 0 0 -2470246899.8400574 -376068149.12683773 0 -376068149.12683773 223363768.9383049 0 0 0 0 -1253818364.2397766 590208107.65571785 0 590208107.65571785 -283543613.02467918 0 0 0 0 -3862979281.2883911 -1497781716.8665638 0 -1497781716.8665638 -50448144.628213882 0 0 0 0 -3703693.8815877438 -2314871.9078298528 0 -2314871.9078298528 -1110366.9320608126 0 0 0 0 -681168250.84451294 -1734131003.3417339 0 -1734131003.3417339 132995275.2889595 0 0 0 0 -4208444340.8195801 -1000076906.7701797 0 -1000076906.7701797 765256359.86946106 0 0 0 0 -3752133398.1555023 1086516706.2231092 0 1086516706.2231092 -149302757.41686916 0 0 0 0 -1876660.4470728785 -2266273.5520760976 0 -2266273.5520760976 -1799230.4708337728 0 0 0 0 -538070032.61599731 -1620258222.8122463 0 -1620258222.8122463 -1424888106.7871628 0 0 0 0 391755432.04985046 373873096.18655968 0 373873096.18655968 351062012.93311119 0 0 0 0 -2600116550.612854 -387431691.62188721 0 -387431691.62188721 -298657309.25323677 0 0 0 0 -1062155874.9920959 40957849.35790062 0 40957849.35790062 -224574997.17280197 0 0 0 0 -1570006363.8178864 300623116.23560238 0 300623116.23560238 -1764029.4800205231 0 0 0 0 -1377857936.1306839 548559487.0454855 0 548559487.0454855 -394358031.56350517 0 0 0 0 -780599288.89750671 271592966.45382977 0 271592966.45382977 -1332404.2828922272 0 0 0 0 -479202951.09545898 125006979.85270882 0 125006979.85270882 -75817896.356201172 0 0 0 0 -1233338796.5730133 96893961.691823959 0 96893961.691823959 137665137.17143059 0 0 0 0 -1163610441.7711639 58614768.055071831 0 58614768.055071831 40384688.026172638 0 0 0 0 -1167723516.0314636 -54737652.98982048 0 -54737652.98982048 162285689.28975868 0 0 0 0 59079728.151504517 228547103.29927921 0 228547103.29927921 669682285.75840569 0 0 0 0 -8243763.578096509 -3263703.1458703335 0 -3263703.1458703335 -1080077.4913916346 0 0 0 0 11644372.610595703 -100055366.02928734 0 -100055366.02928734 -7007252.0796947479 0 0 0 0 -303066656.94229126 478112357.09798622 0 478112357.09798622 -399700550.95704937 0 0 0 0 212994051.03752136 15867317.519651413 0 15867317.519651413 -291275391.86260605 0 0 0 0 -469158543.72711182 154999102.34560013 0 154999102.34560013 -82132805.210161209 0 0 0 0 44433966.327362061 175138194.78105354 0 175138194.78105354 -292509908.69000244 0 0 0 0 448360.65492813289 -133026.07554291934 0 -133026.07554291934 -523181.92056861613 0 0 0 0 -105036937.20898438 41690249.611658096 0 41690249.611658096 -32543976.804613113 0 0 0 0 -78322802.708732605 9790893.8069348335 0 9790893.8069348335 -124843879.7461071 0 0 0 0 1008827.864197582 -259697.47374165058 0 -259697.47374165058 -1035014.8317371793 0 0 0 0 -406682451.93630981 -7069090.5967364311 0 -7069090.5967364311 -11953804.256885529 0 0 0 0 -272900057.53469849 191004304.10068893 0 191004304.10068893 -101274303.65541792 0 0 0 0 -274239888.8681488 -137878930.34937477 0 -137878930.34937477 -17120503.483055115 0 0 0 0 -76057273.659889221 130688631.01022577 0 130688631.01022577 -33825789.240787506 0 0 0 0 -1224970236.5986767 -45337366.701565266 0 -45337366.701565266 207870675.1697731 0 0 0 0 -814747394.21875 8552588.7384586334 0 8552588.7384586334 62844503.654407501 0 0 0 0 -730570530.44448853 165985924.94068718 0 165985924.94068718 -31782816.437861443 0 0 0 0 -739086254.52729797 -36480627.533005714 0 -36480627.533005714 55257479.136739731 0 0 0 0 -764601863.38490295 51341451.404813766 0 51341451.404813766 76440887.54458046 0 0 0 0 -1001417136.1296234 -141305884.79355669 0 -141305884.79355669 51467124.292604446 0 0 0 0 -797586401.99208069 896743206.8232398 0 896743206.8232398 1033464118.7371407 0 0 0 0 -1557549448.7320404 60412797.837299347 0 60412797.837299347 202244293.5356636 0 0 0 0 -463429361.81617737 -456473961.60135937 0 -456473961.60135937 193172709.20504761 0 0 0 0 -1864428793.1512299 -1443320781.3597579 0 -1443320781.3597579 -489486069.15104675 0 0 0 0 -9322397.3327699751 1300774.6970258472 0 1300774.6970258472 646262.95019663544 0 0 0 0 -787845652.36309814 1180732024.4459724 0 1180732024.4459724 -575659521.72710586 0 0 0 0 -2165501368.1089592 499278247.79029441 0 499278247.79029441 -641483733.33834457 0 0 0 0 -3088080966.0524597 -3366111820.1627693 0 -3366111820.1627693 -4361636011.3577728 0 0 0 0 -5343859986.1379395 253620094.3610878 0 253620094.3610878 3625094506.6137466 0 0 0 0 44411274.620948792 70284320.196023941 0 70284320.196023941 139231053.29269791 0 0 0 0 -76039409.051269531 29134634.053266525 0 29134634.053266525 128210999.91618347 0 0 0 0 -93457004.205215454 98494959.439241409 0 98494959.439241409 119574778.01353645 0 0 0 0 -24442900.232525975 783748.36032998702 0 783748.36032998702 1858657.0447903997 0 0 0 0 -188534484.03804016 -35962858.328483582 0 -35962858.328483582 486224013.78019905 0 0 0 0 -873866937.05718994 733648725.49437714 0 733648725.49437714 1710325519.7650948 0 0 0 0 -320182823.54327393 -156751801.6002655 0 -156751801.6002655 1855381800.462894 0 0 0 0 -33469126.632638276 -1572446.4382933024 0 -1572446.4382933024 2780977.5086911274 0 0 0 0 -87114588.938766479 56810120.976285934 0 56810120.976285934 339472079.24923396 0 0 0 0 -5397520.6401748657 12747351.755221844 0 12747351.755221844 134574848.5255394 0 0 0 0 -67164283.519332886 34680379.539176941 0 34680379.539176941 134964288.15810558 0 0 0 0 15896935.94618988 63934416.954266071 0 63934416.954266071 -46940128.565084457 0 0 0 0 -54181449.230636597 86612544.899856567 0 86612544.899856567 -51952774.086321831 0 0 0 0 1115353.3806539476 -234294.45010216907 0 -234294.45010216907 -1003782.9317209888 0 0 0 0 -17395119.756603241 47147754.801293492 0 47147754.801293492 -86858517.542266846 0 0 0 0 3651531.7916107178 20519187.277050018 0 20519187.277050018 -78112206.390579224 0 0 0 0 -29656961.406036377 72598951.379639626 0 72598951.379639626 -114571492.94948959 0 0 0 0 -36342001.521331787 70948104.464788437 0 70948104.464788437 -115838402.25097492 0 0 0 0 -17341708.826431274 24957469.611872673 0 24957469.611872673 -52052707.05603981 0 0 0 0 -284552.59929656982 24786606.955912113 0 24786606.955912113 -56046495.701047897 0 0 0 0 -7003049.788848877 16408177.328575134 0 16408177.328575134 -60602809.236536026 0 0 0 0 -21225088.702445984 30027947.061158895 0 30027947.061158895 -51279671.298576355 0 0 0 0 15502538.622787476 27394578.542704582 0 27394578.542704582 -63019756.232414246 0 0 0 0 590923.12611299753 -128063.53396947868 0 -128063.53396947868 -510808.96597781964 0 0 0 0 24012812.934448242 68134673.240031242 0 68134673.240031242 -14780449.832118988 0 0 0 0 -33592251.671615601 54470345.78571701 0 54470345.78571701 71379177.980897903 0 0 0 0 -22090162.847244263 20750220.096343994 0 20750220.096343994 60178742.235450745 0 0 0 0 5710954.326461792 50194572.432596207 0 50194572.432596207 87436515.97233963 0 0 0 0 -2586971.7977294922 57170493.763166428 0 57170493.763166428 113615463.60210228 0 0 0 0 -56780350.210512161 96193681.881850719 0 96193681.881850719 89992856.732147217 0 0 0 0 -26058698.481735229 58764127.14446497 0 58764127.14446497 123032185.35464859 0 0 0 0 -618390904.86523438 -515809239.49433136 0 -515809239.49433136 423090824.49868011 0 0 0 0 -38176963.144566983 -3275530.8575958535 0 -3275530.8575958535 4406091.2503755279 0 0 0 0 -30516200.892837524 33074522.431413651 0 33074522.431413651 156284414.2770977 0 0 0 0 -33999410.950138092 -4334372.1646232605 0 -4334372.1646232605 56195323.421703339 0 0 0 0 -36499578.568481445 3491345.4445934296 0 3491345.4445934296 103354718.29905701 0 0 0 0 128303591.72108459 -93930674.663583755 0 -93930674.663583755 -356661.46299362183 0 0 0 0 565866531.52709961 -580925058.9303031 0 -580925058.9303031 138241523.19568634 0 0 0 0 -453277.62692648172 -2606249.2433967739 0 -2606249.2433967739 311104.45583719388 0 0 0 0 58166999.665893555 -14495570.766235352 0 -14495570.766235352 -50644310.84577179 0 0 0 0 17531391.666473389 13718185.120049477 0 13718185.120049477 -37168100.897670746 0 0 0 0 213579270.81519699 -410596312.24780929 0 -410596312.24780929 -98390248.935245514 0 0 0 0 201010523.58704376 -475521237.42925227 0 -475521237.42925227 81628478.462247849 0 0 0 0 477337273.88848877 -215948643.52840614 0 -215948643.52840614 312624460.54134238 0 0 0 0 -9180806.5118103027 124245082.88031936 0 124245082.88031936 366951823.30704117 0 0 0 0 -71432062.1320467 -691937737.461007 0 -691937737.461007 444568256.00660324 0 0 0 0 -681645.91837355494 -1021928.8862415925 0 -1021928.8862415925 518182.28070449643 0 0 0 0 -66360815.196960449 -491802154.45006943 0 -491802154.45006943 359207986.39078736 0 0 0 0 428624051.42657471 -798331160.10521126 0 -798331160.10521126 170735152.04158688 0 0 0 0 713479647.88943481 -85800968.456678391 0 -85800968.456678391 599707046.92261124 0 0 0 0 319693343.87521362 -519439701.66513252 0 -519439701.66513252 23215853.321659088 0 0 0 0 58950711.13470459 -486252816.42190742 0 -486252816.42190742 493166545.36665916 0 0 0 0 181328919.05056763 -618235055.81576633 0 -618235055.81576633 134798987.10055923 0 0 0 0 -375505195.16403198 -657728917.87493706 0 -657728917.87493706 1319341211.7243643 0 0 0 0 -691711538.08824158 385431320.33320618 0 385431320.33320618 -250255839.58647919 0 0 0 0 -304407998.61233521 -317975457.49281931 0 -317975457.49281931 11695954.770683289 0 0 0 0 -190976458.55508423 -204214386.41966915 0 -204214386.41966915 -375356743.04141045 0 0 0 0 -145890514.89007568 -244957800.94791603 0 -244957800.94791603 35226956.616124988 0 0 0 0 158002984.83013916 -301811401.00387287 0 -301811401.00387287 -169388377.39597511 0 0 0 0 90605004.352996826 -469418452.77973461 0 -469418452.77973461 231543556.78387928 0 0 0 0 -29439673.094299316 -402757959.17927647 0 -402757959.17927647 -212227592.38611794 0 0 0 0 28715600.316436768 -314563111.57480645 0 -314563111.57480645 -213795205.38784885 0 0 0 0 -203974545.56112671 -62127542.210879803 0 -62127542.210879803 -208363013.55490094 0 0 0 0 -71326329.392974854 2989461.7766246796 0 2989461.7766246796 -256379779.89118481 0 0 0 0 -918644858.13168335 -34256901.775663853 0 -34256901.775663853 -464458124.73050117 0 0 0 0 -328077654.26239014 -231846809.77598143 0 -231846809.77598143 -432354485.35330009 0 0 0 0 -572841136.77789307 226068210.47951412 0 226068210.47951412 -416175808.62985599 0 0 0 0 -665771016.98092651 67641826.678477764 0 67641826.678477764 -292044121.65015078 0 0 0 0 -675175574.62466431 152892999.12294436 0 152892999.12294436 -570778639.73616982 0 0 0 0 -1421329913.0100403 119703703.1717453 0 119703703.1717453 -318001557.33419991 0 0 0 0 -1039042734.6965637 265666557.15354347 0 265666557.15354347 -452646900.4752636 0 0 0 0 -830939660.48640442 43292030.131284833 0 43292030.131284833 -277395865.37552643 0 0 0 0 -1016395433.3594971 -2674083.5838866234 0 -2674083.5838866234 -422753277.50811768 0 0 0 0 -1304948455.6292114 323413412.60205603 0 323413412.60205603 -331467766.23738199 0 0 0 0 -640173303.38827515 248391642.27528572 0 248391642.27528572 -291938068.35232091 0 0 0 0 -295268882.08251953 -25542315.328122616 0 -25542315.328122616 -177510512.48307419 0 0 0 0 -76474926.067596436 -137445106.07941818 0 -137445106.07941818 -229226633.18849564 0 0 0 0 -281531988.25723267 -21293797.667194843 0 -21293797.667194843 -423144294.41640186 0 0 0 0 -168787762.30639648 91110593.636195183 0 91110593.636195183 -235693968.2552478 0 0 0 0 142836872.87033081 -90772717.422596931 0 -90772717.422596931 -314559035.44546032 0 0 0 0 389124039.70962524 -148942927.25360727 0 -148942927.25360727 -209933206.11968422 0 0 0 0 126955095.49942017 -175729257.07576466 0 -175729257.07576466 -33899375.461396217 0 0 0 0 114614329.63330078 -30834302.165346146 0 -30834302.165346146 -106703021.3090806 0 0 0 0 496582950.50027466 -166571818.88580608 0 -166571818.88580608 -124237733.88821983 0 0 0 0 363860401.56460571 -171923951.5226779 0 -171923951.5226779 921989.22742652893 0 0 0 0 526779570.90145874 -182719520.79047203 0 -182719520.79047203 -36497728.104617119 0 0 0 0 371087586.11853027 -308829818.99147987 0 -308829818.99147987 274466500.36822701 0 0 0 0 98380070.621459961 -283072802.92430878 0 -283072802.92430878 154407800.49572849 0 0 0 0 94867380.923034668 -206425931.07761955 0 -206425931.07761955 -43733587.256237984 0 0 0 0 399565843.86620331 -230085938.54543209 0 -230085938.54543209 -132614768.84073448 0 0 0 0 -3155485971.1767883 -479002903.02493668 0 -479002903.02493668 1101297525.4106445 0 0 0 0 -700236292.82315063 1524381526.426868 0 1524381526.426868 -940941481.41076469 0 0 0 0 -1663625359.757309 49978763.738544941 0 49978763.738544941 -1173654635.2447014 0 0 0 0 -1902137095.6117783 684083651.35096765 0 684083651.35096765 -805280802.79663849 0 0 0 0 -1273723757.8800659 -497028952.4963541 0 -497028952.4963541 -1578126114.7705765 0 0 0 0 -874800.2694260478 -1483519.0082686022 0 -1483519.0082686022 -5005728.2160457643 0 0 0 0 -610423840.50183105 998449178.08717537 0 998449178.08717537 -585837576.83333588 0 0 0 0 294265237.91256714 1072183945.8554468 0 1072183945.8554468 -942180416.23894501 0 0 0 0 -580582867.69252777 960200482.26540327 0 960200482.26540327 -724638917.45382309 0 0 0 0 313469211.94824219 380875301.80377316 0 380875301.80377316 761450225.72696602 0 0 0 0 -735694287.01196289 1270903925.4064739 0 1270903925.4064739 357921640.91358566 0 0 0 0 387162660.1640625 921701230.38534021 0 921701230.38534021 -825343261.3706727 0 0 0 0 1367605192.5743408 629642394.77522111 0 629642394.77522111 -215641383.50585198 0 0 0 0 -695110.51019212045 -1090923.9399315715 0 -1090923.9399315715 -2214973.2674946617 0 0 0 0 230613475.0918541 1275088174.9844189 0 1275088174.9844189 -545618800.56243706 0 0 0 0 -4335156327.0088196 509294483.46721983 0 509294483.46721983 153097821.32803535 0 0 0 0 326157109.65763855 989654808.35986495 0 989654808.35986495 -765203765.49224281 0 0 0 0 -1120775552.6203461 -102203955.60853481 0 -102203955.60853481 700245999.26161385 0 0 0 0 -53174029.633026123 818513820.04218483 0 818513820.04218483 -1072322840.3784399 0 0 0 0 -1081228540.6193848 -285246086.76341057 0 -285246086.76341057 246862668.24300766 0 0 0 0 434205022.65626526 -352565000.88641071 0 -352565000.88641071 -84194508.098957062 0 0 0 0 -2424361338.8253174 1455887445.5694294 0 1455887445.5694294 -578317475.32068491 0 0 0 0 -1030503149.0020752 81706219.723020554 0 81706219.723020554 -449950172.55496025 0 0 0 0 -1428832266.0614624 576549128.36589241 0 576549128.36589241 -437854039.6651088 0 0 0 0 -2151399872.3041077 236301176.68113232 0 236301176.68113232 -140814446.8829422 0 0 0 0 -2345403940.4239807 564921396.49336934 0 564921396.49336934 33544686.25233078 0 0 0 0 -3126460519.6232986 989459883.44316387 0 989459883.44316387 -224462196.44143867 0 0 0 0 -2766110602.4996948 -231924932.918293 0 -231924932.918293 -217520633.50755787 0 0 0 0 -2140983347.3243713 213092850.26533747 0 213092850.26533747 -139726905.67445564 0 0 0 0 -1421532062.9720154 128521081.2080636 0 128521081.2080636 -702535724.95449257 0 0 0 0 -2247020081.1267548 187502483.65703034 0 187502483.65703034 -40471241.31690526 0 0 0 0 -1815505547.5823059 243231827.13422918 0 243231827.13422918 -288931588.89139128 0 0 0 0 -1310351810.0143738 130373241.16504931 0 130373241.16504931 -541145256.71814013 0 0 0 0 -1794527724.3761749 13891275.02978459 0 13891275.02978459 -1059485159.8107777 0 0 0 0 -1508321598.653183 -634994536.37023902 0 -634994536.37023902 -272376844.95710039 0 0 0 0 19369539.940368652 -20884878.328957021 0 -20884878.328957021 7746707.5512940884 0 0 0 0 -6610637.9626344787 -2011592.8822427839 0 -2011592.8822427839 -759703.33051948342 0 0 0 0 -1152411.0817363709 295588.30994687788 0 295588.30994687788 -178405.06199409545 0 0 0 0 121318454.98840237 329694750.361094 0 329694750.361094 765153374.93327785 0 0 0 0 -2204712820.7746887 539622845.52626085 0 539622845.52626085 -122870478.05543041 0 0 0 0 -2205202.3958135275 -944072.10420316458 0 -944072.10420316458 -6312377.2564149806 0 0 0 0 -18546978.172789395 3129156.2018433511 0 3129156.2018433511 2221344.6397356493 0 0 0 0 21817284.962020874 841288688.67344666 0 841288688.67344666 358383228.69069886 0 0 0 0 12538533.556808472 -41503378.861943722 0 -41503378.861943722 2247552.8704020977 0 0 0 0 9424100.4008483887 -36282765.11551404 0 -36282765.11551404 33052983.810374379 0 0 0 0 -2299724.9476318359 -23787389.792759538 0 -23787389.792759538 23877201.866072774 0 0 0 0 -26595360.083740234 -53699581.948375225 0 -53699581.948375225 -1789103.6796650887 0 0 0 0 -41086726.615653992 -88925601.881060332 0 -88925601.881060332 103973649.45303059 0 0 0 0 -1386576066.2885437 -307068287.04417992 0 -307068287.04417992 3146369249.4687901 0 0 0 0 -25880983.993117198 126642.10850570723 0 126642.10850570723 2861490.9323797496 0 0 0 0 -22434767.873535156 10781084.505393505 0 10781084.505393505 -3953143.3614085913 0 0 0 0 -8815918.405090332 9791148.2267043591 0 9791148.2267043591 -18167547.454929352 0 0 0 0 -13051907.790328979 -1456281.9877511561 0 -1456281.9877511561 9370283.8477220535 0 0 0 0 -29085069.925598145 19487839.123479605 0 19487839.123479605 -13072935.160534382 0 0 0 0 -14399509.558105469 19004884.500807285 0 19004884.500807285 -33307742.700963497 0 0 0 0 -8275533.9895288944 -7869905.0170118278 0 -7869905.0170118278 -35383776.000864983 0 0 0 0 7544311.7602539062 -11946661.487413168 0 -11946661.487413168 -59538778.953392506 0 0 0 0 9230011.2482261658 -24222691.238793895 0 -24222691.238793895 -10631653.982862949 0 0 0 0 21918397.93837738 -24694982.334504068 0 -24694982.334504068 -4513632.2544801235 0 0 0 0 22127067.800681591 -9576085.0513104387 0 -9576085.0513104387 -1127357.3586914539 0 0 0 0 19202618.752716064 -19796171.075592518 0 -19796171.075592518 -10270335.132121205 0 0 0 0 22034256.186737061 -13224956.60441184 0 -13224956.60441184 -24628573.178018928 0 0 0 0 67372503.129577637 -17563513.928258032 0 -17563513.928258032 -12402048.284527183 0 0 0 0 -1800225188.0207214 -185075263.71349472 0 -185075263.71349472 79377009.585397601 0 0 0 0 -4072970.8068204094 -2149391.7895083129 0 -2149391.7895083129 -342157.8032268231 0 0 0 0 -2052806198.2842407 46615992.307921171 0 46615992.307921171 35742207.664077282 0 0 0 0 -1493979913.6542358 -80504681.014321923 0 -80504681.014321923 32741322.372660756 0 0 0 0 -1494602233.8422699 21945815.051457703 0 21945815.051457703 80915784.228323221 0 0 0 0 -1372102305.1203089 -57973339.807161696 0 -57973339.807161696 -75807618.467983365 0 0 0 0 -1373030860.3557968 -51777535.534099564 0 -51777535.534099564 98693901.727240562 0 0 0 0 -1393074641.2760468 -149250509.35292867 0 -149250509.35292867 -50625.517141757067 0 0 0 0 154776260.16835022 -203853585.1422736 0 -203853585.1422736 -1274859.117125479 0 0 0 0 -1759266089.5800171 -37760387.591976821 0 -37760387.591976821 105649791.66364032 0 0 0 0 -3172014.7106085159 -1478200.6131995991 0 -1478200.6131995991 -114086.58420320148 0 0 0 0 -4240430.6598815918 -20842696.513453543 0 -20842696.513453543 28953730.303744227 0 0 0 0 -25111170.024902344 14050834.682888359 0 14050834.682888359 2840999.8198715001 0 0 0 0 -371453.10726818442 -147810.95410192013 0 -147810.95410192013 133104.76630992611 0 0 0 0 -12167520.174133301 -1318926.3414492349 0 -1318926.3414492349 -32389.002869125114 0 0 0 0 2609088.1234054565 33825785.425051771 0 33825785.425051771 -4463898.1072712541 0 0 0 0 -34327522.042526245 29321383.40635306 0 29321383.40635306 6190210.2996850042 0 0 0 0 -624255.75442686677 -377720.73470264673 0 -377720.73470264673 -43007.992870116359 0 0 0 0 -22778683.275177002 19057756.811006844 0 19057756.811006844 -2087319.4624289498 0 0 0 0 -74992578.019514084 17698980.026227754 0 17698980.026227754 5686182.3762072623 0 0 0 0 98503197.529937744 17102639.704416141 0 17102639.704416141 -50328392.218441263 0 0 0 0 -206141526.44073486 -61919166.681032181 0 -61919166.681032181 -115319116.62200952 0 0 0 0 28757090.267669678 120070158.50251856 0 120070158.50251856 -133112536.31918457 0 0 0 0 571765863.15057373 -100114737.57335538 0 -100114737.57335538 -160151801.76705307 0 0 0 0 145153364.08041382 38682741.416315317 0 38682741.416315317 -47983961.768569469 0 0 0 0 432131688.74829102 -52981814.987374187 0 -52981814.987374187 -71388170.01166153 0 0 0 0 395162133.60951233 -130233563.19510651 0 -130233563.19510651 -177781953.37075996 0 0 0 0 140207901.42870712 3664498.6145299673 0 3664498.6145299673 -232645342.10629749 0 0 0 0 -209664607.59423828 26004728.181891441 0 26004728.181891441 -117052891.26300383 0 0 0 0 87738636.028686523 -90989435.395039082 0 -90989435.395039082 -228508272.02047634 0 0 0 0 -548241677.73901367 143626551.36926782 0 143626551.36926782 -106111215.94576001 0 0 0 0 -353939529.06518555 -59198151.157335758 0 -59198151.157335758 -203055688.16434479 0 0 0 0 -193442386.54216003 59399572.733101249 0 59399572.733101249 -280520250.40577841 0 0 0 0 -1290688212.7485046 273993158.41058421 0 273993158.41058421 -111434548.94252753 0 0 0 0 -1110311024.2201538 -125660719.74003315 0 -125660719.74003315 -49700612.829874665 0 0 0 0 -646160097.80921936 -3661158.3975434899 0 -3661158.3975434899 -101309123.34583163 0 0 0 0 -959034398.23434448 146070511.18261212 0 146070511.18261212 24919556.055428669 0 0 0 0 -476586314.52249146 -146175241.94821757 0 -146175241.94821757 -47122142.079188913 0 0 0 0 -1012454073.7872314 90205315.323974684 0 90205315.323974684 -20262024.986227676 0 0 0 0 -841268979.33335114 -160651584.84935758 0 -160651584.84935758 7081.7258510622778 0 0 0 0 -206305736.29750061 144687615.42775354 0 144687615.42775354 -23962770.249659866 0 0 0 0 -16597505.732147217 -175538115.91657084 0 -175538115.91657084 320486.46533330035 0 0 0 0 116500895.15740585 -61888481.847800128 0 -61888481.847800128 33816593.917716265 0 0 0 0 846503928.03959656 165069821.74193364 0 165069821.74193364 -78865859.954987735 0 0 0 0 -14789599.589675903 -22369172.736823831 0 -22369172.736823831 -47426.316503817492 0 0 0 0 -24951202.905975342 -27152065.361625791 0 -27152065.361625791 26520772.942480922 0 0 0 0 -160149.91059589386 -1019859.5565420613 0 -1019859.5565420613 -107308.66352043256 0 0 0 0 -32482379.996154785 -8265452.7454801388 0 -8265452.7454801388 7483757.8052681237 0 0 0 0 -28842329.275512695 -14115250.76014689 0 -14115250.76014689 13034786.361923343 0 0 0 0 -28632527.060588837 -9875433.7291363571 0 -9875433.7291363571 3972253.5949261002 0 0 0 0 -28708647.249542236 -8475978.8827582337 0 -8475978.8827582337 5404584.7232706379 0 0 0 0 -29301929.246520996 -9348051.1870791391 0 -9348051.1870791391 6139289.7951318473 0 0 0 0 -28754293.531066895 -10121460.189096805 0 -10121460.189096805 2015169.0809818059 0 0 0 0 -24732629.291564941 -10468109.951256145 0 -10468109.951256145 1552543.3294264637 0 0 0 0 -30083266.585975647 -7979124.2491209572 0 -7979124.2491209572 5268950.4475055225 0 0 0 0 -164318.10426288284 -300026.57735323906 0 -300026.57735323906 -32072.547520125852 0 0 0 0 -20042229.362922668 8264219.9510195777 0 8264219.9510195777 -34040370.460648894 0 0 0 0 -33246857.541778564 -7293661.9519758392 0 -7293661.9519758392 6425779.8095944375 0 0 0 0 -31524109.670715332 -6344202.7786078546 0 -6344202.7786078546 2393081.1499443427 0 0 0 0 -26306216.982879639 -6481240.9092675373 0 -6481240.9092675373 427540.3218042329 0 0 0 0 -11567924.641357422 -7754455.4067355543 0 -7754455.4067355543 -4201177.7467258684 0 0 0 0 774122050.12359619 147293570.48565948 0 147293570.48565948 -87370329.267986298 0 0 0 0 -711476.81026379764 -1984685.6631405503 0 -1984685.6631405503 633129.63421683037 0 0 0 0 -463520.83176555485 -1417838.8097233921 0 -1417838.8097233921 -190222.85010720426 0 0 0 0 -22214716.04208374 -11808644.856433898 0 -11808644.856433898 17870757.391712964 0 0 0 0 -40124451.603485107 -9354869.3330596909 0 -9354869.3330596909 5579503.3478093259 0 0 0 0 -33799819.751266479 -15644998.142276252 0 -15644998.142276252 2146793.7595939934 0 0 0 0 -20450326.593353271 -16505633.454219015 0 -16505633.454219015 -2947292.9646041095 0 0 0 0 -1619433.6223941445 -717138.99841985852 0 -717138.99841985852 1920011.4472729322 0 0 0 0 -47458045.81060791 8340536.4281651974 0 8340536.4281651974 5009153.3531779945 0 0 0 0 -2270068.1098022461 -7970442.5479428656 0 -7970442.5479428656 478607.1125091631 0 0 0 0 -873892.07523680106 -4066704.8839367777 0 -4066704.8839367777 -370813.64148997748 0 0 0 0 516090396.88812256 -117868435.4948287 0 -117868435.4948287 -61195058.719789147 0 0 0 0 581441416.83181381 -78524223.631251514 0 -78524223.631251514 -57810968.754390717 0 0 0 0 -1853154.5090892985 -1738942.1782213375 0 -1738942.1782213375 1640926.9218029641 0 0 0 0 -22408625.635406494 -11868335.371736854 0 -11868335.371736854 -1762800.7705482394 0 0 0 0 -24766327.704315186 -5146066.5990200713 0 -5146066.5990200713 -1102746.9317374378 0 0 0 0 -47264350.873321533 -5325833.8687576354 0 -5325833.8687576354 3623292.6171881855 0 0 0 0 -34424734.633071899 -11267935.033312067 0 -11267935.033312067 -3847518.9062876329 0 0 0 0 -36364271.404968262 -587916.19032581523 0 -587916.19032581523 1946762.2079432905 0 0 0 0 -29852894.302215576 -4821450.0393024627 0 -4821450.0393024627 -7751747.1260748301 0 0 0 0 -24355.031565949321 -15559.470347233117 0 -15559.470347233117 19578.269009664251 0 0 0 0 -26091342.109176636 -15045004.348338332 0 -15045004.348338332 -9263806.4138140753 0 0 0 0 -15653187.648857117 9860562.4175117407 0 9860562.4175117407 20486561.089335375 0 0 0 0 -26253564.161651611 -5413538.57248032 0 -5413538.57248032 4064235.847951483 0 0 0 0 -29571137.75177002 -4578114.7495895261 0 -4578114.7495895261 5387031.2679684944 0 0 0 0 -21077747.581192017 -2853894.8268275307 0 -2853894.8268275307 3961646.723931524 0 0 0 0 -27251359.411376953 -8019257.2606832869 0 -8019257.2606832869 32055.626224140262 0 0 0 0 -15690985.301925659 -4609245.6256650258 0 -4609245.6256650258 -23563.587441403688 0 0 0 0 -13822799.522888184 -3171194.9088957757 0 -3171194.9088957757 -596214.91615645774 0 0 0 0 -12384.773266002536 -9736.0152652785182 0 -9736.0152652785182 1696.0685601305515 0 0 0 0 -3124863.9960784912 -7441501.746879952 0 -7441501.746879952 -10875851.98858086 0 0 0 0 851469.046875 1236659.2127231981 0 1236659.2127231981 5164.8902994908267 0 0 0 0 -924058.05487060547 -1401665.8466645433 0 -1401665.8466645433 -6829379.1147646401 0 0 0 0 -4186703.8811645508 -5335954.2738639116 0 -5335954.2738639116 -398787.84000186436 0 0 0 0 -3096588.2903900146 -322600.56481657852 0 -322600.56481657852 3818952.9969041087 0 0 0 0 -4719779.8010864258 1685914.2913882816 0 1685914.2913882816 670029.02594233584 0 0 0 0 435879.67163085938 -627760.2716053566 0 -627760.2716053566 1701559.3538195882 0 0 0 0 -22454306.239120483 -15092517.61953216 0 -15092517.61953216 -2312964.7599333543 0 0 0 0 -277030.23795318604 1069307.0975708277 0 1069307.0975708277 2873114.8856532322 0 0 0 0 -2574627.1871643066 -4352175.6352244765 0 -4352175.6352244765 -1296878.3812609846 0 0 0 0 -2084406.5696105957 3382677.3904546243 0 3382677.3904546243 -10309.872462249119 0 0 0 0 -24893.002680286765 -9328.8273501396179 0 -9328.8273501396179 6099.6086293206754 0 0 0 0 252075.27226257324 -4186276.716043232 0 -4186276.716043232 -1288885.4821498431 0 0 0 0 -1014602.975402832 -653244.38599519804 0 -653244.38599519804 3896911.0971110575 0 0 0 0 -18913.687899574637 -7026.8544106148183 0 -7026.8544106148183 6167.6441507093141 0 0 0 0 -4448005.1598815918 -2695608.8793894704 0 -2695608.8793894704 8814982.311170496 0 0 0 0 -36463963.246612549 -16337263.626811722 0 -16337263.626811722 -2299613.402835344 0 0 0 0 -1393595.8835754395 -2500715.3506941842 0 -2500715.3506941842 4319548.7518118294 0 0 0 0 -682371.53057861328 -1813685.4982849956 0 -1813685.4982849956 6230554.687722167 0 0 0 0 2397471.8124465942 -743921.64809514699 0 -743921.64809514699 5093354.3465207312 0 0 0 0 -1677962.7453613281 -2519422.7953141695 0 -2519422.7953141695 5471808.3484405996 0 0 0 0 32434.7802734375 -1196965.9898739383 0 -1196965.9898739383 1271279.1154954322 0 0 0 0 -259187.21111980081 -352059.6841256842 0 -352059.6841256842 320458.6755179023 0 0 0 0 -1067729.977935791 -948704.27592281741 0 -948704.27592281741 7120830.0076757409 0 0 0 0 -29022582.389678955 65475056.949017718 0 65475056.949017718 19221891.52287209 0 0 0 0 -31125010.015838623 2128519.7338626981 0 2128519.7338626981 -94543.446696698666 0 0 0 0 59841.877392157912 128998.94710672274 0 128998.94710672274 -178662.53040616302 0 0 0 0 -85668378.770263672 -1776800.8135325015 0 -1776800.8135325015 765709.49322013557 0 0 0 0 -388930.72821259499 40038.367016464472 0 40038.367016464472 -131968.37343558529 0 0 0 0 -2328831.1400756836 2697884.7196096377 0 2697884.7196096377 15958471.20837686 0 0 0 0 -81227.917472362518 -91143.019136339426 0 -91143.019136339426 93079.863089706749 0 0 0 0 -3667930.0057678223 -4923841.8716176422 0 -4923841.8716176422 8748435.7708266657 0 0 0 0 -83101.012725830078 -743993.08407428861 0 -743993.08407428861 17636.55143661797 0 0 0 0 -1658991.2665100098 -3489696.400779523 0 -3489696.400779523 -3058757.6496632099 0 0 0 0 -4593291.6899719238 -2125541.0253798366 0 -2125541.0253798366 -1297185.0531061813 0 0 0 0 -4482533.682510376 -1941506.7006492242 0 -1941506.7006492242 -2820932.1372128874 0 0 0 0 -9361057.2400817871 -7965931.1515159607 0 -7965931.1515159607 -5077374.1598594412 0 0 0 0 -7827547.7511291504 -8166328.8873540685 0 -8166328.8873540685 -7820998.0157615244 0 0 0 0 -13214881.032730103 -5263544.9197981656 0 -5263544.9197981656 340112.84778951108 0 0 0 0 -11451180.272521973 -4569893.7970421612 0 -4569893.7970421612 2501932.591832608 0 0 0 0 -15152968.489593506 -8115142.8768472299 0 -8115142.8768472299 507224.23332487047 0 0 0 0 -11394274.695831299 -5005953.6192928106 0 -5005953.6192928106 3928132.7796621919 0 0 0 0 -6711720.8175201416 -3055063.3551661111 0 -3055063.3551661111 1203735.7572031319 0 0 0 0 -4761027.9625091553 -2159670.5748451687 0 -2159670.5748451687 4582975.0367608368 0 0 0 0 647837.98983764648 -2265747.7174372077 0 -2265747.7174372077 -1045031.5574754402 0 0 0 0 -6687319.6559753418 -5729121.3847614527 0 -5729121.3847614527 -746419.30436523259 0 0 0 0 59245999.142486572 -32633571.864465073 0 -32633571.864465073 -17365176.503466785 0 0 0 0 -6302134.7275915146 -5594562.4947396256 0 -5594562.4947396256 2738711.2453947961 0 0 0 0 -3687950.6805807352 1384502.8865781799 0 1384502.8865781799 -22809.148742439342 0 0 0 0 -5996764.4493255615 -744513.35608750023 0 -744513.35608750023 7778580.9590243101 0 0 0 0 -479491.44955463707 -554110.32358573377 0 -554110.32358573377 404980.38975581457 0 0 0 0 -7649678.8577880859 -8808484.1855175495 0 -8808484.1855175495 4491070.7435911298 0 0 0 0 -10480861.596374512 -3478119.4526526928 0 -3478119.4526526928 5426444.1435281634 0 0 0 0 -14524817.067382812 -5070926.9758300781 0 -5070926.9758300781 8850742.9209284186 0 0 0 0 -16610984.262176514 -4818548.4816469252 0 -4818548.4816469252 6260919.0414912701 0 0 0 0 -14349941.697631836 -5405480.2327500172 0 -5405480.2327500172 5415511.3184354305 0 0 0 0 -13663469.748687744 -6461652.192466259 0 -6461652.192466259 3447776.1200451851 0 0 0 0 -9127217.6156921387 -5606844.006651178 0 -5606844.006651178 3041689.2779381871 0 0 0 0 15584866.460998535 33605032.617846608 0 33605032.617846608 -17652552.074677527 0 0 0 0 -77409822.83392334 51529425.224295601 0 51529425.224295601 15976692.712412655 0 0 0 0 -34484115.855911255 6773043.6865761876 0 6773043.6865761876 -26631566.590062618 0 0 0 0 -1772137.9133693129 725003.49421414733 0 725003.49421414733 -521389.08198490506 0 0 0 0 608354.88851928711 -2284660.5798650831 0 -2284660.5798650831 570516.6847460568 0 0 0 0 -10978467.589199066 -68170293.919109643 0 -68170293.919109643 25625941.495129943 0 0 0 0 -148974728.70495605 17626342.026769727 0 17626342.026769727 55665468.902228564 0 0 0 0 55711506.343929291 -55435481.641307458 0 -55435481.641307458 -114419992.71118003 0 0 0 0 60326068.037231445 54061890.781265371 0 54061890.781265371 -111959260.73788211 0 0 0 0 -107220265.74554443 106548936.90300894 0 106548936.90300894 -66301575.187003501 0 0 0 0 9929028.5020446777 16966.577921003103 0 16966.577921003103 -53661252.987513661 0 0 0 0 -66479.180311143398 -226683.87467888743 0 -226683.87467888743 -277083.25466660823 0 0 0 0 -14037183.497161865 18536935.206454277 0 18536935.206454277 15455602.524216682 0 0 0 0 -18148312.441864014 -70445345.527790248 0 -70445345.527790248 -17761136.42464219 0 0 0 0 -21764948.313842773 -23688408.458594408 0 -23688408.458594408 114358343.87196553 0 0 0 0 -598469.70543283224 1761438.6754968744 0 1761438.6754968744 175797.91446741944 0 0 0 0 -4613576.1630859375 602975.1943192482 0 602975.1943192482 9839062.7606275082 0 0 0 0 -7555044.803263694 3747562.6270819949 0 3747562.6270819949 1087183.6004937869 0 0 0 0 -6495009.8465756625 -362708.70867463946 0 -362708.70867463946 1491740.0494489355 0 0 0 0 -130778942.78648376 87507049.189793453 0 87507049.189793453 129765642.34581763 0 0 0 0 3946619.1629638672 54424076.616287708 0 54424076.616287708 -125001145.85335529 0 0 0 0 -10435554.542454392 3613947.6200683862 0 3613947.6200683862 58178.981042508967 0 0 0 0 25155426.423446655 36496276.580862522 0 36496276.580862522 -256555672.80477524 0 0 0 0 -16129006.080123901 45711980.227245092 0 45711980.227245092 -99470535.964133263 0 0 0 0 -12844298.921630859 -5770120.7350280583 0 -5770120.7350280583 4854636.987261828 0 0 0 0 -5300633.6570510864 942384.1272726059 0 942384.1272726059 6183261.0294491053 0 0 0 0 -10311217.154481396 633114.80759928375 0 633114.80759928375 1055134.9185539698 0 0 0 0 -14500368.802032471 -6021685.3117073476 0 -6021685.3117073476 4986534.8797662258 0 0 0 0 -15812627.932556152 -6470470.2192618251 0 -6470470.2192618251 6660962.1171965301 0 0 0 0 -3223467.7158813477 -1053284.5191460848 0 -1053284.5191460848 4169539.4800819159 0 0 0 0 -5899620.4376871884 1273958.5580524355 0 1273958.5580524355 386821.96122347674 0 0 0 0 56082969.381164551 62608845.2050924 0 62608845.2050924 37527509.238565356 0 0 0 0 -29356127.059028625 43462619.599546671 0 43462619.599546671 -44732455.276861191 0 0 0 0 -29987785.523345947 44198449.883388042 0 44198449.883388042 -38001690.702616453 0 0 0 0 -6962909.1472395658 899722.13555904478 0 899722.13555904478 2193084.0440582829 0 0 0 0 -11448058.198486328 4611937.1552517414 0 4611937.1552517414 10615897.907454073 0 0 0 0 -11668311.336923897 -1293182.3232510611 0 -1293182.3232510611 4827728.1289215228 0 0 0 0 -10858641.473050684 4327024.344803974 0 4327024.344803974 4526457.3286790773 0 0 0 0 -19263720.922546387 -2663766.7569819093 0 -2663766.7569819093 6251567.702893883 0 0 0 0 -20276862.42868042 -2991566.3753204644 0 -2991566.3753204644 5665532.6477123201 0 0 0 0 -14147218.575077057 -3411164.1568991682 0 -3411164.1568991682 5447480.0122092962 0 0 0 0 -15975259.766235352 -4642832.0858373642 0 -4642832.0858373642 5811869.522954464 0 0 0 0 -23830458.1328125 442534.37128421664 0 442534.37128421664 6650311.6818148047 0 0 0 0 -22003049.524414062 -3481171.4301956594 0 -3481171.4301956594 6893744.6903817058 0 0 0 0 -14415402.74044095 1741333.4263473349 0 1741333.4263473349 6448402.6098342659 0 0 0 0 -19521884.937620163 1506226.3772245422 0 1506226.3772245422 4517599.3725696504 0 0 0 0 -14293182.080871582 1748053.4603586197 0 1748053.4603586197 21041963.744581461 0 0 0 0 -5414010.8284454346 -1019021.7119489908 0 -1019021.7119489908 5137719.8412251472 0 0 0 0 -9542635.954284668 -4307873.6007995605 0 -4307873.6007995605 14266669.000889778 0 0 0 0 678884.205078125 -362067.08964824677 0 -362067.08964824677 21307971.512594938 0 0 0 0 -5174732.9231567383 5289115.1123046875 0 5289115.1123046875 3895209.2954754829 0 0 0 0 -5190025.7044677734 5016863.0359988213 0 5016863.0359988213 1218722.429954052 0 0 0 0 -69399153.493713379 -28214141.723936081 0 -28214141.723936081 47719563.849899292 0 0 0 0 -11231551.712712184 -4213496.1111578345 0 -4213496.1111578345 7615242.1763543282 0 0 0 0 41322.273503482342 -307388.22284967965 0 -307388.22284967965 320961.45080356864 0 0 0 0 -25346847.322480436 -1143948.4677995294 0 -1143948.4677995294 5263825.6892478336 0 0 0 0 -44123073.998764038 18468551.985156536 0 18468551.985156536 11519330.523155212 0 0 0 0 -35523596.464408189 -8408475.6770500764 0 -8408475.6770500764 11140485.181313096 0 0 0 0 -30449565.974365234 12260753.410591125 0 12260753.410591125 8871245.8664550781 0 0 0 0 -34030011.050537109 19054626.837112427 0 19054626.837112427 10573518.99319458 0 0 0 0 -19350641.493878588 11646703.801457908 0 11646703.801457908 6465186.7846773257 0 0 0 0 -1579046.5852847248 10095.696834750473 0 10095.696834750473 1150014.0579795726 0 0 0 0 -40961838.98034668 -36710659.971141815 0 -36710659.971141815 40179698.008018494 0 0 0 0 -30673375.358398438 -51249771.527648926 0 -51249771.527648926 166441400.00571108 0 0 0 0 -41212640.215438366 -2378263.5827298816 0 -2378263.5827298816 9089128.6961911414 0 0 0 0 21576771.036071777 -99195275.157644272 0 -99195275.157644272 127442462.99690819 0 0 0 0 -37429930.725219727 -12690176.326274872 0 -12690176.326274872 118800281.79216766 0 0 0 0 -14368721.606079102 37839778.344688416 0 37839778.344688416 83476919.243721008 0 0 0 0 -14107087.197875977 -45920939.722787857 0 -45920939.722787857 95616957.362640381 0 0 0 0 -29282806.478515625 -17835660.875904083 0 -17835660.875904083 50665578.275009155 0 0 0 0 -6108954.7891845703 -31900990.637264252 0 -31900990.637264252 31375248.721138 0 0 0 0 -3463832.8566894531 -37420996.662818909 0 -37420996.662818909 36218505.197330475 0 0 0 0 62975.571990966797 -33415902.264759064 0 -33415902.264759064 26037472.469291687 0 0 0 0 5892105.5330810547 -45700589.604038239 0 -45700589.604038239 50462933.296350479 0 0 0 0 109873.59942626953 -43422917.87797451 0 -43422917.87797451 50093659.257053375 0 0 0 0 -16480706.722015381 -29495478.045513153 0 -29495478.045513153 4179564.2662086487 0 0 0 0 1538187.8653087374 -1278124.4899183512 0 -1278124.4899183512 -241330.74673611764 0 0 0 0 61514947.941040039 -65957825.941559374 0 -65957825.941559374 10952425.120311737 0 0 0 0 28390560.202026367 -34200302.189929962 0 -34200302.189929962 -17321605.377941608 0 0 0 0 20933708.538192749 -50225798.210350037 0 -50225798.210350037 6106970.6851730347 0 0 0 0 -1632193.16015625 -28519538.660255432 0 -28519538.660255432 22350269.962116241 0 0 0 0 15033462.531188965 -42672519.72233963 0 -42672519.72233963 -2893483.9764404297 0 0 0 0 3309857.8958740234 -41616784.115699768 0 -41616784.115699768 -2872917.4002761841 0 0 0 0 6133240.1923217773 -25752844.218395233 0 -25752844.218395233 -7183533.5734753609 0 0 0 0 14105196.65447998 -24368298.53966713 0 -24368298.53966713 -6970945.9783477783 0 0 0 0 17013417.750915527 -24481366.563278198 0 -24481366.563278198 -15879893.310252666 0 0 0 0 26019884.312759399 -17954031.670419693 0 -17954031.670419693 -12580427.120616913 0 0 0 0 -70087277.416866302 -3576591.1066020131 0 -3576591.1066020131 -2320762.3570747375 0 0 0 0 -71964108.295196533 -25442519.525773048 0 -25442519.525773048 229889.57001495361 0 0 0 0 26449445.037353516 -51969522.643579483 0 -51969522.643579483 -15372589.571377754 0 0 0 0 -11504351.094233088 375600.46476902813 0 375600.46476902813 3251679.2874728385 0 0 0 0 -7017818.4503131285 -5150876.166567035 0 -5150876.166567035 4478617.4446107643 0 0 0 0 -25425493.038238525 127452.38078050315 0 127452.38078050315 7185216.925221771 0 0 0 0 -36226801.838409424 9043070.6912059784 0 9043070.6912059784 6965810.104598999 0 0 0 0 59629990.093200684 5067476.3558483124 0 5067476.3558483124 -37217298.76473999 0 0 0 0 -50890068.105499268 -18155721.119846821 0 -18155721.119846821 163027.94124603271 0 0 0 0 -8606912.1117457412 1176579.5672011822 0 1176579.5672011822 4563325.8185385494 0 0 0 0 -27627493.588562012 715065.74497889727 0 715065.74497889727 7268026.9310468733 0 0 0 0 -21115292.053909302 5430816.5521182828 0 5430816.5521182828 4261100.6291304976 0 0 0 0 9264675.2377319336 -12543340.073781967 0 -12543340.073781967 11852111.873516083 0 0 0 0 1296727.8302870393 -3951955.2944968194 0 -3951955.2944968194 -217463.28913816903 0 0 0 0 11946071.321472168 -14538713.395614624 0 -14538713.395614624 -3068200.1077651978 0 0 0 0 15023694.306030273 -20460597.056957245 0 -20460597.056957245 -1984545.6196694374 0 0 0 0 -7646398.6280517578 -11137998.497004509 0 -11137998.497004509 -604128.97101593018 0 0 0 0 8487978.5114746094 -20045862.61448288 0 -20045862.61448288 13046614.071052551 0 0 0 0 26046331.142272949 -4756461.3919658661 0 -4756461.3919658661 -6533954.4036140442 0 0 0 0 -2304156.4528796636 -8459574.3105768934 0 -8459574.3105768934 2015375.7352394024 0 0 0 0 -849712.61840948462 460151.65103821456 0 460151.65103821456 385602.93445590232 0 0 0 0 540471176.63294029 -276425066.05826795 0 -276425066.05826795 37311737.088925362 0 0 0 0 -4789877.2030334473 -2724762.4142079353 0 -2724762.4142079353 -291441.76273345947 0 0 0 0 -50740209.657623291 -7995897.3089542389 0 -7995897.3089542389 -1228312.278678894 0 0 0 0 -856943.7783138454 -7420638.7201947421 0 -7420638.7201947421 4679876.6785572832 0 0 0 0 497856138.0847168 -132589694.0293355 0 -132589694.0293355 77289393.636296511 0 0 0 0 -31830679.080810547 8807388.3438665122 0 8807388.3438665122 4056083.4921690449 0 0 0 0 -35294216.487442017 -1967260.6892821789 0 -1967260.6892821789 6964124.2888299525 0 0 0 0 -30141741.283355713 -2784746.2119594216 0 -2784746.2119594216 3726434.935586527 0 0 0 0 -30161882.782123208 -7449146.0668269796 0 -7449146.0668269796 3820627.5639368892 0 0 0 0 -21503635.602142334 -5100668.9961897954 0 -5100668.9961897954 5049751.5509499907 0 0 0 0 -21463022.073760986 -5122143.9467193633 0 -5122143.9467193633 4106958.6578130871 0 0 0 0 -16895460.226989746 -5599048.5163507164 0 -5599048.5163507164 4665816.1547594145 0 0 0 0 -21808792.015739441 -4576538.1671198998 0 -4576538.1671198998 6605602.6737215519 0 0 0 0 -21563210.132492065 -3111260.2710595168 0 -3111260.2710595168 6427577.5774240196 0 0 0 0 -25762593.07019043 -250585.4101434201 0 -250585.4101434201 7218962.1106911153 0 0 0 0 -27783982.627258301 -3943830.7229303122 0 -3943830.7229303122 6772667.2902958095 0 0 0 0 -4815345274.4517822 -389666806.03927034 0 -389666806.03927034 916427417.7801981 0 0 0 0 -5976715021.1259613 -2751416511.8986006 0 -2751416511.8986006 182186263.84230745 0 0 0 0 -3991367679.5006523 -2084858562.3317611 0 -2084858562.3317611 642096506.84531212 0 0 0 0 -8174053.4052150249 -1203661.3843005002 0 -1203661.3843005002 3050633.8093914092 0 0 0 0 -3732191608.8057632 -413879781.07652283 0 -413879781.07652283 -3744857.3899437562 0 0 0 0 -3659306061.4918518 -692179589.1533246 0 -692179589.1533246 584349702.2188344 0 0 0 0 -4742299856.7254944 -172940897.20829487 0 -172940897.20829487 440560046.4305923 0 0 0 0 -5741473.9591297954 -1363946.7945558652 0 -1363946.7945558652 1152045.8668798448 0 0 0 0 -5202737594.0369644 1367150197.8341074 0 1367150197.8341074 32683419.659097195 0 0 0 0 -3389623231.3388939 918624781.74212277 0 918624781.74212277 -4927358.6120393276 0 0 0 0 -3364642758.7940674 524865959.95052266 0 524865959.95052266 441667031.23284149 0 0 0 0 -3691804.8877681792 -476865.37727820873 0 -476865.37727820873 1391362.0738391145 0 0 0 0 -2504852393.9251556 982963818.50873005 0 982963818.50873005 1991139379.5140641 0 0 0 0 -2149657032.4299011 -996789024.93471861 0 -996789024.93471861 -503142589.03788108 0 0 0 0 -4286532233.4002991 -3108555699.7213306 0 -3108555699.7213306 -1163481840.7807307 0 0 0 0 -2039445879.3401489 -108287866.035954 0 -108287866.035954 407805143.512532 0 0 0 0 -653059859.83880615 1418952726.8243041 0 1418952726.8243041 553230258.03011489 0 0 0 0 -844888143.1438446 553699628.29544961 0 553699628.29544961 215381532.15870285 0 0 0 0 -4443067.4607215673 -4835367.3122232407 0 -4835367.3122232407 -3064604.1071532406 0 0 0 0 131537161.62538147 -479247135.62664545 0 -479247135.62664545 -468233845.56400681 0 0 0 0 22229911.056236267 -20148047.224524934 0 -20148047.224524934 -23805509.484343797 0 0 0 0 -38325249.826797485 16572183.222665809 0 16572183.222665809 18938544.490347683 0 0 0 0 -1770949200.9736176 194802062.65245426 0 194802062.65245426 -22805443.229305863 0 0 0 0 -1737153469.4453583 -27633858.267538667 0 -27633858.267538667 196541344.61238825 0 0 0 0 -6249959.1254368797 -3832904.5976096392 0 -3832904.5976096392 -1169833.6315004965 0 0 0 0 8192392.8997192383 -10446084.344739337 0 -10446084.344739337 7464.5840877034552 0 0 0 0 -16951773.857757568 -11784715.828862263 0 -11784715.828862263 -4663.052354056299 0 0 0 0 -2210470.6579742432 1013156.8491927953 0 1013156.8491927953 2609119.5720802583 0 0 0 0 -16073980.373016357 -9341284.294524109 0 -9341284.294524109 9654398.1284924503 0 0 0 0 -16011577.020389557 -8785751.540677594 0 -8785751.540677594 -1182741.6441844478 0 0 0 0 -53535197.756408691 -1028017.2423829164 0 -1028017.2423829164 16208674.819234513 0 0 0 0 -31805514.649757385 9667855.3916801903 0 9667855.3916801903 4327390.842449531 0 0 0 0 -34752145.493804932 -5618888.1827624636 0 -5618888.1827624636 7683957.6096527847 0 0 0 0 -1110771.4458150696 -145274.11275134981 0 -145274.11275134981 -32387.606749164974 0 0 0 0 -36851267.143585205 4780603.5759070776 0 4780603.5759070776 17620.683269710051 0 0 0 0 -29437447.906265259 -646360.32035250426 0 -646360.32035250426 3987431.8702624841 0 0 0 0 -59070752.345703125 -4129897.5782515965 0 -4129897.5782515965 8946866.454680115 0 0 0 0 -49640567.626953125 -1250235.4688652679 0 -1250235.4688652679 4774933.2085303487 0 0 0 0 -42577478.869567871 12921613.120940551 0 12921613.120940551 8914639.4896650165 0 0 0 0 -50410879.470184326 -1559948.6307697687 0 -1559948.6307697687 -11283762.834127476 0 0 0 0 -111066247.49310303 38181562.827401146 0 38181562.827401146 -37156054.661288761 0 0 0 0 -62358165.044433594 -27197289.400570583 0 -27197289.400570583 3075059.3036527429 0 0 0 0 983617.21615409851 -13786373.568385588 0 -13786373.568385588 5903865.364324661 0 0 0 0 -135481.44771412015 8244.771791562438 0 8244.771791562438 -37261.876761755302 0 0 0 0 -58243915.198547363 18773586.73508358 0 18773586.73508358 -1885181.7482445352 0 0 0 0 -94895159.716430664 40887258.09220022 0 40887258.09220022 -3366365.78609249 0 0 0 0 -70010127.467910767 -27814905.185276046 0 -27814905.185276046 -13201808.469387639 0 0 0 0 -11590091.079086304 -7900003.0754954815 0 -7900003.0754954815 -6796956.8202218115 0 0 0 0 -1595093.3376656305 -347261.3295134306 0 -347261.3295134306 -55865.526921548939 0 0 0 0 1298808.8468017578 -2030476.1484488733 0 -2030476.1484488733 -31732280.847068034 0 0 0 0 -673573.24384401739 84381.400544092059 0 84381.400544092059 442417.009477543 0 0 0 0 -46102623.735671997 20000112.997128762 0 20000112.997128762 588121.31151935458 0 0 0 0 -4741407.0180969238 -9642623.3186976612 0 -9642623.3186976612 5491274.014786765 0 0 0 0 -3900685.0416698391 -659459.06183741242 0 -659459.06183741242 1007353.7256052311 0 0 0 0 -1266772.4804077148 -3751655.6499789953 0 -3751655.6499789953 2007478.8529675007 0 0 0 0 -711240.79242901504 -1284006.4687488973 0 -1284006.4687488973 -870973.89904280577 0 0 0 0 -29590773.711784363 36154181.388186768 0 36154181.388186768 -9027624.6561747789 0 0 0 0 -34015717.301208496 -7435822.0579830855 0 -7435822.0579830855 11229553.128087461 0 0 0 0 -52737351.976074219 57859789.35271579 0 57859789.35271579 -14905855.230810098 0 0 0 0 -7166415.0074157715 1003084.7143003345 0 1003084.7143003345 -100974.95380920172 0 0 0 0 1188691.1723327637 -8785667.1966149807 0 -8785667.1966149807 -650076.5150847435 0 0 0 0 -86803682.030578613 32904006.25199452 0 32904006.25199452 -20927822.458573818 0 0 0 0 -360828.44333714247 -729915.66714857519 0 -729915.66714857519 -655549.62847644801 0 0 0 0 1360974.5649502277 2180128.967141944 0 2180128.967141944 -988979.96371769905 0 0 0 0 841512.60723172128 177609.6259894222 0 177609.6259894222 -733927.00199315965 0 0 0 0 -3401419.9591205809 -2633150.5858195201 0 -2633150.5858195201 -1575017.2499156115 0 0 0 0 2452724.6216201782 -1001329.4935700595 0 -1001329.4935700595 -7762521.9526796341 0 0 0 0 -8645436.9104919434 -8884402.2372395098 0 -8884402.2372395098 -284658.94247312844 0 0 0 0 10302611.064196587 -8477573.4713688735 0 -8477573.4713688735 -19479413.332024753 0 0 0 0 -20182792.965713501 -29010327.760827579 0 -29010327.760827579 16806576.608654737 0 0 0 0 -8368212.8718261719 -12518517.450409889 0 -12518517.450409889 -307951.67419160903 0 0 0 0 -9149954.395690918 -6016299.8701789081 0 -6016299.8701789081 -14878908.74712579 0 0 0 0 -10918490.976104736 7446646.7214217186 0 7446646.7214217186 33596263.467029035 0 0 0 0 -13661994.004108429 -2265138.7958636582 0 -2265138.7958636582 11768206.877502441 0 0 0 0 -8783132.1430676877 3393523.9163903743 0 3393523.9163903743 -205964.42634490365 0 0 0 0 44245565.979156494 70205259.347499371 0 70205259.347499371 -698436432.82750511 0 0 0 0 -939239.81740492582 -445339.68741974235 0 -445339.68741974235 345908.19786629616 0 0 0 0 -237224073.88998413 716754405.56168222 0 716754405.56168222 -2283144239.7775421 0 0 0 0 -279221.11892521754 111813.16754055023 0 111813.16754055023 -110054.78434661636 0 0 0 0 -8719044.6624298096 -3334305.1971581578 0 -3334305.1971581578 8062629.2889303565 0 0 0 0 -2213561.8735650759 -1434718.3783124015 0 -1434718.3783124015 660917.81386563869 0 0 0 0 -515323006.75428772 238013298.21626174 0 238013298.21626174 18951798.933743596 0 0 0 0 -442542319.12437439 250414480.03278854 0 250414480.03278854 -134846322.42273188 0 0 0 0 -291080595.2800293 309536464.04134846 0 309536464.04134846 -230518245.24878216 0 0 0 0 -294276804.89190674 263542701.16743279 0 263542701.16743279 -881437271.02191925 0 0 0 0 -1542137192.8028564 399045643.08631134 0 399045643.08631134 298406809.30657196 0 0 0 0 53242582.927215576 55192000.872598648 0 55192000.872598648 -259019579.40301573 0 0 0 0 -576096575.41235352 113620311.53608215 0 113620311.53608215 -234862562.6898737 0 0 0 0 -618084291.01147461 -270989511.42290199 0 -270989511.42290199 -447151997.98698378 0 0 0 0 165470609.91973305 192514615.33067465 0 192514615.33067465 -329848885.46884346 0 0 0 0 -873519077.92575073 -134389293.30422115 0 -134389293.30422115 49120021.011853606 0 0 0 0 -1333988718.6165466 221440489.80185509 0 221440489.80185509 260645494.95745635 0 0 0 0 -2940610.2914896905 -205828.58339760453 0 -205828.58339760453 1288972.7287659484 0 0 0 0 -1684643767.206913 -1168054665.1038556 0 -1168054665.1038556 -657368631.01172543 0 0 0 0 -1654272888.5600395 -1559761548.0468328 0 -1559761548.0468328 96255902.536448479 0 0 0 0 -2470225345.6915894 -1155967173.8817925 0 -1155967173.8817925 300709342.37066877 0 0 0 0 -5613598.6968017519 -1210488.6578269303 0 -1210488.6578269303 3207034.9536954602 0 0 0 0 -567951851.33955383 -679786005.52387834 0 -679786005.52387834 -795541870.398772 0 0 0 0 -708862358.06491089 -304832918.65055108 0 -304832918.65055108 -366888280.22827935 0 0 0 0 -227341313.7177124 -103929017.7893014 0 -103929017.7893014 -415625675.66936898 0 0 0 0 -455197977.2726059 -298697976.70351851 0 -298697976.70351851 -288520368.64455938 0 0 0 0 -254778135.38127136 -149959284.4792881 0 -149959284.4792881 118280482.8703599 0 0 0 0 114456994.93264771 -232045606.93713999 0 -232045606.93713999 -288540028.69270885 0 0 0 0 -360127725.62394714 -382259647.97638249 0 -382259647.97638249 314121941.80528116 0 0 0 0 -272337478.60905457 -290325857.41332829 0 -290325857.41332829 -555215320.21870112 0 0 0 0 -2983662.6083097905 -1133338.2429735847 0 -1133338.2429735847 2093489.2737046946 0 0 0 0 -429526775.09419632 -715255946.93530905 0 -715255946.93530905 -472604904.76967621 0 0 0 0 -156347689.15466309 -333528049.14285278 0 -333528049.14285278 -330833484.84938478 0 0 0 0 -2258295356.6938095 -3492124656.8214765 0 -3492124656.8214765 -3093649665.7996583 0 0 0 0 -5975220043.4350119 -2886899221.4308038 0 -2886899221.4308038 520051954.91410792 0 0 0 0 -5968605102.5878448 -2893000924.4895811 0 -2893000924.4895811 516612664.55071443 0 0 0 0 -1080421111.4406586 33396555.932114601 0 33396555.932114601 336334873.00903183 0 0 0 0 -4818843865.4420547 -2233833135.058825 0 -2233833135.058825 -460673462.95051384 0 0 0 0 -2513506768.9421959 -916510086.24612856 0 -916510086.24612856 151502398.17657614 0 0 0 0 -2167831872.5592422 -980205111.01578438 0 -980205111.01578438 135256695.95315933 0 0 0 0 -8409208.8180996329 -2131822.7840757743 0 -2131822.7840757743 3529653.5140978042 0 0 0 0 -3824245633.948761 1352563917.7286472 0 1352563917.7286472 786758192.94687176 0 0 0 0 -3540968713.8979721 820083229.69163728 0 820083229.69163728 510437852.34102058 0 0 0 0 -5986456342.859375 2347901819.2314606 0 2347901819.2314606 369769879.78032494 0 0 0 0 -5972572901.2480755 4369721413.1219091 0 4369721413.1219091 -2674434586.0424218 0 0 0 0 -10510390.334421352 -859339.91870764643 0 -859339.91870764643 -2679351.9113960098 0 0 0 0 -2292778427.06707 1783151100.9597855 0 1783151100.9597855 -864438375.36080015 0 0 0 0 -2299045635.5680327 1167336947.269701 0 1167336947.269701 -330511982.98907661 0 0 0 0 -24770698.822850376 -5540490.2571895532 0 -5540490.2571895532 -2179054.7317583142 0 0 0 0 108315211.9732666 -734172605.91457081 0 -734172605.91457081 487063298.30180264 0 0 0 0 237111136.70459175 -34349107.163516819 0 -34349107.163516819 145048680.79765511 0 0 0 0 -711936253.55332446 -137195856.08792433 0 -137195856.08792433 358370587.57298267 0 0 0 0 -744348058.0974884 681465579.83159423 0 681465579.83159423 -429353399.49582827 0 0 0 0 -2440655362.3424377 1325642833.3870785 0 1325642833.3870785 -303443688.19444728 0 0 0 0 -1004894702.2769623 245285275.12651843 0 245285275.12651843 -17463041.031928539 0 0 0 0 -1624615544.0977631 566089588.34417009 0 566089588.34417009 -68161312.453263879 0 0 0 0 -365293072.00549316 155023390.24803603 0 155023390.24803603 -94027461.969833493 0 0 0 0 -64603082.925361633 -214980677.8251304 0 -214980677.8251304 246185757.97734833 0 0 0 0 -36218182.042492494 -9053024.8008346576 0 -9053024.8008346576 -611274.89678782399 0 0 0 0 -566936285.69687653 412263816.78391117 0 412263816.78391117 -99724802.648336202 0 0 0 0 33030562.556228638 -222831606.70786518 0 -222831606.70786518 -155551231.43688506 0 0 0 0 -47512661.177246094 -612799492.46856833 0 -612799492.46856833 1061117400.2829599 0 0 0 0 -32553902.396597564 -8151457.5179627426 0 -8151457.5179627426 -1276613.385054853 0 0 0 0 -488924222.0663147 -285920278.87892675 0 -285920278.87892675 124514113.63749647 0 0 0 0 -193952713.47698975 -268631564.95896626 0 -268631564.95896626 -540600760.31101751 0 0 0 0 -1059336697.5521049 -149414261.18902761 0 -149414261.18902761 -407926662.7990942 0 0 0 0 -1221753569.064209 1048072818.9483318 0 1048072818.9483318 -1979583637.7581673 0 0 0 0 -658993989.47439575 494777528.82947588 0 494777528.82947588 -387288059.02384186 0 0 0 0 -582280620.17523193 139302993.30951524 0 139302993.30951524 839461122.20320702 0 0 0 0 267133077.92415619 -147127793.90167809 0 -147127793.90167809 119775022.61823082 0 0 0 0 -144920804.4934082 -479224841.9962182 0 -479224841.9962182 1150912642.8450308 0 0 0 0 58528913.097045898 35303266.556854725 0 35303266.556854725 344562084.20026529 0 0 0 0 -255818467.03448486 256912554.03546619 0 256912554.03546619 297471428.28854656 0 0 0 0 -783285501.39257812 472668610.76719093 0 472668610.76719093 -184730962.74686337 0 0 0 0 -77010420.778564453 -19166334.486563683 0 -19166334.486563683 99211986.788747311 0 0 0 0 -791815673.62957764 226559685.35597706 0 226559685.35597706 -217445128.64541054 0 0 0 0 234766872.07171249 -215167500.76447934 0 -215167500.76447934 -1675174190.6525536 0 0 0 0 -768956241.22375488 165267923.11170959 0 165267923.11170959 -575250152.85015106 0 0 0 0 -40703357.900283813 -26658190.599150658 0 -26658190.599150658 -272455271.3145256 0 0 0 0 -38895646.553077698 314949585.08897686 0 314949585.08897686 -295074997.27001953 0 0 0 0 -135173366.62324524 215403933.84985757 0 215403933.84985757 362586837.86086845 0 0 0 0 -18484667.263336182 78531635.565403461 0 78531635.565403461 166525095.79742193 0 0 0 0 -37440944.459862366 -8789056.3377036639 0 -8789056.3377036639 58692.764839796524 0 0 0 0 -49918878.608825684 -120576378.56115007 0 -120576378.56115007 596547058.35808253 0 0 0 0 147742562.57481384 -239665766.06986132 0 -239665766.06986132 -72130468.240371227 0 0 0 0 274428487.55007553 -1618314.8119035363 0 -1618314.8119035363 -90353610.816835523 0 0 0 0 -59037479.554458618 75306977.926205754 0 75306977.926205754 168056841.94760156 0 0 0 0 -14698041.773040771 -74331764.611890554 0 -74331764.611890554 166448861.00027251 0 0 0 0 -95496999.409248352 -195940057.01636308 0 -195940057.01636308 106016541.63921213 0 0 0 0 204263587.70641708 200363807.22541553 0 200363807.22541553 -70863373.733571529 0 0 0 0 187032266.67372322 200839420.31160423 0 200839420.31160423 -145280650.62207365 0 0 0 0 177635987.78848267 32594013.301361561 0 32594013.301361561 -16586899.600887001 0 0 0 0 522677045.66891479 -168321736.55068487 0 -168321736.55068487 -46066555.599753141 0 0 0 0 -6150871.6503505185 1175722.5033893697 0 1175722.5033893697 2969662.1898048436 0 0 0 0 195428001.77227783 39424781.686817944 0 39424781.686817944 -38481209.547292233 0 0 0 0 169380274.50009155 55527610.904587984 0 55527610.904587984 -14415517.517468929 0 0 0 0 146232160.81399536 91137063.803961396 0 91137063.803961396 -45181008.809170008 0 0 0 0 111115096.54284668 115746727.95247471 0 115746727.95247471 -1060912.7609738111 0 0 0 0 114995659.37486267 99381637.658326209 0 99381637.658326209 20650677.245164275 0 0 0 0 27408563.952350616 197865290.3136963 0 197865290.3136963 -37688245.320150971 0 0 0 0 -737905.43530273438 169600350.54916674 0 169600350.54916674 88539788.680551827 0 0 0 0 25725521.108886719 210640894.64017415 0 210640894.64017415 37886021.759155989 0 0 0 0 101576203.80124283 160642964.11054271 0 160642964.11054271 -66070433.819566965 0 0 0 0 96459587.731472015 200774932.52567858 0 200774932.52567858 -145610218.76056814 0 0 0 0 107372407.81530762 149085933.84733701 0 149085933.84733701 -56201010.809471607 0 0 0 0 223979843.96104431 34432589.192515969 0 34432589.192515969 -68656381.440745831 0 0 0 0 166796583.63456392 107308721.2510791 0 107308721.2510791 -116672784.99424553 0 0 0 0 -80361384.028900146 152520278.00602126 0 152520278.00602126 -90496062.20038712 0 0 0 0 -80038836.335922241 247235778.73056328 0 247235778.73056328 -205631001.64606476 0 0 0 0 -80774716.927947998 59713575.947597265 0 59713575.947597265 -289709744.81803071 0 0 0 0 -82348268.763961792 226224639.17577404 0 226224639.17577404 -37965187.274190784 0 0 0 0 49820308.051940918 339576924.0786674 0 339576924.0786674 58696131.21546483 0 0 0 0 43307721.583007812 195740015.86133209 0 195740015.86133209 -113974672.00530283 0 0 0 0 -439192545.36013794 -13981224.576173186 0 -13981224.576173186 -89737079.8825607 0 0 0 0 -373274517.42778015 -55616156.599049747 0 -55616156.599049747 -317042995.90461707 0 0 0 0 -436983530.21644211 45212511.517130494 0 45212511.517130494 -194009706.57439876 0 0 0 0 -1436350292.9677277 200852867.20070982 0 200852867.20070982 -44625322.244668484 0 0 0 0 -219676974.28686523 151522266.55478537 0 151522266.55478537 -24379884.248396993 0 0 0 0 -398245606.3221283 -39101958.838486075 0 -39101958.838486075 -70036606.548034549 0 0 0 0 -641184348.81800842 -62166110.338190436 0 -62166110.338190436 -175242788.17108774 0 0 0 0 -2861270187.7341995 176207754.4550705 0 176207754.4550705 320125831.31652141 0 0 0 0 -1588269244.6145935 -164746284.53058207 0 -164746284.53058207 19205777.31153512 0 0 0 0 -1540057474.1546936 -241712688.40191972 0 -241712688.40191972 -95646370.304618835 0 0 0 0 -1701792751.4134521 1178014.7262152433 0 1178014.7262152433 68962800.808063358 0 0 0 0 -1283042401.4626389 -224212432.19945663 0 -224212432.19945663 26622252.681686714 0 0 0 0 -1178279138.850769 -613600744.39729655 0 -613600744.39729655 -277162049.68153375 0 0 0 0 -3058252486.0287018 -737181764.38801551 0 -737181764.38801551 223148507.66335666 0 0 0 0 -3074655716.7409945 -527312173.42621636 0 -527312173.42621636 406201456.03217125 0 0 0 0 -4824613574.8362503 -1291941402.9714265 0 -1291941402.9714265 581910878.01296449 0 0 0 0 -4146861832.404068 -1008224856.6794037 0 -1008224856.6794037 302085842.1219275 0 0 0 0 -5985599439.4062958 -943761575.78588581 0 -943761575.78588581 754328696.34959257 0 0 0 0 -5229044291.1542969 -323572171.02553421 0 -323572171.02553421 1235233870.785023 0 0 0 0 -5983381903.0585403 -483691051.32709032 0 -483691051.32709032 1334695340.5777471 0 0 0 0 -4804845893.4096298 119779956.54915881 0 119779956.54915881 1097965000.1864662 0 0 0 0 -4126339721.776947 331148746.15027821 0 331148746.15027821 1153378272.17835 0 0 0 0 -3061656084.9797173 812874341.97729194 0 812874341.97729194 421120121.47831225 0 0 0 0 -5984083915.3516178 1009871930.1760137 0 1009871930.1760137 1230500135.9673746 0 0 0 0 -4201860.4911346436 34817152.854848862 0 34817152.854848862 65911378.557950929 0 0 0 0 -43138541.98765564 32733156.0311656 0 32733156.0311656 104769424.15630627 0 0 0 0 -21775439.618132569 1578312.2371580675 0 1578312.2371580675 9452730.8762072921 0 0 0 0 -3908706.5955066979 4580279.7302718665 0 4580279.7302718665 4290196.576798534 0 0 0 0 82165357.413070679 150795418.37099314 0 150795418.37099314 -18910198.673694611 0 0 0 0 -15780586.830718994 49518283.265619278 0 49518283.265619278 -8784333.9944720268 0 0 0 0 -67435927.981246948 13161173.788296163 0 13161173.788296163 10048002.453759193 0 0 0 0 116872950.46835327 -24634445.432436466 0 -24634445.432436466 2993131.2956929207 0 0 0 0 -166273578.26074219 28401162.407310486 0 28401162.407310486 65753748.406166553 0 0 0 0 84610981.307189941 46332414.401937485 0 46332414.401937485 2792634.6999986172 0 0 0 0 75900052.618549347 81878952.548636883 0 81878952.548636883 -12534438.998679638 0 0 0 0 105728858.73142147 79914487.553610578 0 79914487.553610578 -21816867.890472889 0 0 0 0 -15790835.973671496 44451291.029861733 0 44451291.029861733 5086063.3502521515 0 0 0 0 15240491.961120605 58068535.391618252 0 58068535.391618252 23006318.876708031 0 0 0 0 -19822473.251464844 61842303.649581671 0 61842303.649581671 29500184.591399193 0 0 0 0 -39844913.268447876 121260.01727962494 0 121260.01727962494 28080855.842208862 0 0 0 0 -52497531.305389404 32245586.493860245 0 32245586.493860245 24100055.661776066 0 0 0 0 -23264457.161095068 7861409.4988587052 0 7861409.4988587052 14799447.644053202 0 0 0 0 -23907090.441736683 981076.88994270191 0 981076.88994270191 10987435.333815938 0 0 0 0 -39027554.550453186 5812530.7361030579 0 5812530.7361030579 46119536.45438385 0 0 0 0 -33860077.492675781 17295627.551445007 0 17295627.551445007 31324639.71216774 0 0 0 0 -23398090.893966675 -5136722.572886467 0 -5136722.572886467 61121449.481246948 0 0 0 0 -15622216.620121241 -1602162.2217400083 0 -1602162.2217400083 5947907.0392090352 0 0 0 0 -49495602.789001465 -17265785.076454163 0 -17265785.076454163 113741260.76734352 0 0 0 0 -22403063.30960083 11826255.888594627 0 11826255.888594627 11784211.693430901 0 0 0 0 -8686796.7072357535 6295818.781941019 0 6295818.781941019 5803148.0934795141 0 0 0 0 -34265541.492538452 37453249.616920471 0 37453249.616920471 -7489038.474009037 0 0 0 0 -31656703.497817993 62071036.869866848 0 62071036.869866848 -10638129.524131775 0 0 0 0 -16185307.219268799 -2193487.7978429794 0 -2193487.7978429794 11686788.219851494 0 0 0 0 -12994183.179874644 9653584.54457625 0 9653584.54457625 15732311.937639371 0 0 0 0 -22342888.013824463 8701663.3148159981 0 8701663.3148159981 6761122.7359224558 0 0 0 0 -51727989.241672516 44485462.271865845 0 44485462.271865845 20038065.926559448 0 0 0 0 -34236231.397644043 23964847.716787338 0 23964847.716787338 18872554.993972778 0 0 0 0 -20319764.120839283 5847676.0428752154 0 5847676.0428752154 12369047.105745986 0 0 0 0 -54407660.871234894 36767900.320931673 0 36767900.320931673 38383508.739170074 0 0 0 0 -46376700.448638916 18583557.519794464 0 18583557.519794464 39021158.264080107 0 0 0 0 -40940613.324249268 3644991.7279510498 0 3644991.7279510498 48632003.193525791 0 0 0 0 -47966093.449615479 19179189.764974594 0 19179189.764974594 77602686.64736557 0 0 0 0 -47845586.760871887 21215206.841407895 0 21215206.841407895 45936825.599357605 0 0 0 0 -47850703.86730957 1864376.7550354004 0 1864376.7550354004 50123994.969676971 0 0 0 0 -22665295.792694092 -3922106.2276797295 0 -3922106.2276797295 -66355.081518173218 0 0 0 0 -13730323.793701172 -1405699.0275211334 0 -1405699.0275211334 482652.45509529114 0 0 0 0 -2332953.3029998392 3582428.2686832696 0 3582428.2686832696 6227780.5083451485 0 0 0 0 -46893628.784317017 20681862.273700714 0 20681862.273700714 31072785.274578094 0 0 0 0 -47085618.692382812 2107350.9763565063 0 2107350.9763565063 30370763.792423248 0 0 0 0 -13943671.107821971 -845127.28382201493 0 -845127.28382201493 1582289.4602908939 0 0 0 0 -3223916.4066162109 4098182.9519252777 0 4098182.9519252777 4588009.8202476501 0 0 0 0 -19288286.117353745 5817312.4966812208 0 5817312.4966812208 10922698.952940609 0 0 0 0 -11751844.836874466 108786.96334858984 0 108786.96334858984 1620773.6966885482 0 0 0 0 -14487744.883575439 3813824.3758275509 0 3813824.3758275509 5212184.7540655136 0 0 0 0 -20817885.608978271 -8813815.3418040276 0 -8813815.3418040276 8635320.5155930817 0 0 0 0 -11442259.970184326 3618891.7870050669 0 3618891.7870050669 4920664.4140748978 0 0 0 0 -13711960.293334961 1738545.3933410645 0 1738545.3933410645 9941907.8250513077 0 0 0 0 -6887608.6732788086 3154364.9895102978 0 3154364.9895102978 1160883.6521606445 0 0 0 0 -13466204.787006378 5829322.0414518006 0 5829322.0414518006 1998448.4457402229 0 0 0 0 -10968372.347478956 4222194.0845964924 0 4222194.0845964924 6669452.8432168746 0 0 0 0 -13652948.525817871 1293228.6312298775 0 1293228.6312298775 2476360.2709007263 0 0 0 0 -5250498.773948282 5076082.3924785033 0 5076082.3924785033 4728399.9521853942 0 0 0 0 -10706233.36781016 -120703.39558631182 0 -120703.39558631182 1609425.3196842123 0 0 0 0 -242579.57062621787 2742826.5176795125 0 2742826.5176795125 1948358.1349225417 0 0 0 0 3379414.7225341797 5034778.4278125763 0 5034778.4278125763 -12551963.306274414 0 0 0 0 -22825635.446838379 -3426941.0399235487 0 -3426941.0399235487 1253485.6382379532 0 0 0 0 348167.70763073862 3394699.6231673583 0 3394699.6231673583 1776674.4216961758 0 0 0 0 -9980570.3337097168 -443570.19667828083 0 -443570.19667828083 3250927.1358866692 0 0 0 0 7194996.6753845215 3849331.111872673 0 3849331.111872673 14581258.11832428 0 0 0 0 -16172338.088197544 6006356.7988715693 0 6006356.7988715693 11663956.193585362 0 0 0 0 -31684872.800492309 5466598.3321400508 0 5466598.3321400508 24006660.737619966 0 0 0 0 -77389488.451065063 19377793.540456057 0 19377793.540456057 15572335.389098644 0 0 0 0 -59021832.690795898 2063565.6500530243 0 2063565.6500530243 8199262.823923111 0 0 0 0 -64318785.412322998 2189495.3996005058 0 2189495.3996005058 9418243.9077243805 0 0 0 0 -55742434.961338043 13245742.996150076 0 13245742.996150076 9466024.3607387543 0 0 0 0 -36369506.33392334 17075165.779749632 0 17075165.779749632 11640234.054311752 0 0 0 0 -44388979.703598022 25404678.139983892 0 25404678.139983892 5519258.0811166763 0 0 0 0 -40391757.856903076 35113695.165378332 0 35113695.165378332 -10240358.107050896 0 0 0 0 -63567354.57598877 54572957.590941429 0 54572957.590941429 9717735.6083154678 0 0 0 0 -58806698.896209717 71871487.597841263 0 71871487.597841263 30371813.421985626 0 0 0 0 -27907598.282226562 86357276.92037344 0 86357276.92037344 -27974693.02654171 0 0 0 0 -57441505.872848511 103901022.3150351 0 103901022.3150351 95093134.120566368 0 0 0 0 -79952506.734405518 65546454.421664715 0 65546454.421664715 29746654.103208601 0 0 0 0 -77226984.885787964 59560160.70924449 0 59560160.70924449 42890194.076631069 0 0 0 0 -85107291.904956818 49013098.988268495 0 49013098.988268495 29302646.223975182 0 0 0 0 22382004.002471924 96278650.392420292 0 96278650.392420292 -121234525.95405865 0 0 0 0 -25236587.618240356 101402080.5024569 0 101402080.5024569 24649368.224850655 0 0 0 0 -23749644.795532227 92442449.254695654 0 92442449.254695654 23367026.60253942 0 0 0 0 -54543895.217468262 82645194.05176115 0 82645194.05176115 202872859.04918623 0 0 0 0 -15934494.652008057 173374503.65275383 0 173374503.65275383 18578212.103851795 0 0 0 0 -34149577.97644043 33847834.916374683 0 33847834.916374683 171577398.85683727 0 0 0 0 -123390327.5569458 83150496.959712744 0 83150496.959712744 150946761.52460027 0 0 0 0 -38073760.906087056 -8534211.2793947496 0 -8534211.2793947496 882073.83755502093 0 0 0 0 -16515106.608791351 -61293357.822718441 0 -61293357.822718441 279665127.68201113 0 0 0 0 -59072529.410968512 85963346.023743629 0 85963346.023743629 53408397.662884712 0 0 0 0 -161834244.72010803 25878768.942447186 0 25878768.942447186 70328354.07484436 0 0 0 0 -102124303.84375 -24529255.472714663 0 -24529255.472714663 -29780903.471369743 0 0 0 0 -83388232.818756104 27756909.704885006 0 27756909.704885006 116022025.41090512 0 0 0 0 -91873665.535217285 54388869.073069811 0 54388869.073069811 62265448.029162884 0 0 0 0 -137698223.76504517 72838250.581253052 0 72838250.581253052 163924845.99328947 0 0 0 0 33409341.583374023 34420832.487808645 0 34420832.487808645 68576070.058131218 0 0 0 0 -265755731.5161438 -15380436.326321125 0 -15380436.326321125 132625897.44783831 0 0 0 0 734445.09908439219 878337.55473492295 0 878337.55473492295 -367764.64487010846 0 0 0 0 113230069.73791504 114764405.32666302 0 114764405.32666302 -30168306.627360344 0 0 0 0 -252804004.56326294 -131623696.83695984 0 -131623696.83695984 20179277.459389091 0 0 0 0 145951985.51591492 201009792.16309857 0 201009792.16309857 7824860.9553108215 0 0 0 0 53164690.869140625 170491843.69025922 0 170491843.69025922 124223583.24230385 0 0 0 0 -103965728.58662415 -282685226.0549674 0 -282685226.0549674 81933055.943004131 0 0 0 0 16289874.440984726 67799485.786835611 0 67799485.786835611 22281639.95856595 0 0 0 0 -200154162.50561523 -306198353.64448476 0 -306198353.64448476 89176643.459988356 0 0 0 0 -2408274.1410034895 -959407.86942084413 0 -959407.86942084413 1962552.6817664159 0 0 0 0 -38366145.850547828 -7857186.3338550907 0 -7857186.3338550907 2825359.0184941692 0 0 0 0 -52225755.120529175 206567234.50999355 0 206567234.50999355 -167384023.97064602 0 0 0 0 -238405252.82266235 408042015.32390881 0 408042015.32390881 205874342.19951749 0 0 0 0 -90204184.379241943 -50136813.79867363 0 -50136813.79867363 63756703.451854706 0 0 0 0 -73113950.083206177 -131572215.84767139 0 -131572215.84767139 273153184.86697769 0 0 0 0 -74584015.880050659 -48003107.711328506 0 -48003107.711328506 54268122.898181915 0 0 0 0 -92374130.605560303 1090680.6486978531 0 1090680.6486978531 443221.81089496613 0 0 0 0 -41560166.601730347 -14506014.596712112 0 -14506014.596712112 -2135686.2168531418 0 0 0 0 -41576476.22769165 -32514326.171203136 0 -32514326.171203136 -12875110.087909698 0 0 0 0 -56037413.064422607 -6026968.3264846802 0 -6026968.3264846802 -31305562.029951096 0 0 0 0 -46610972.892211914 -21228069.677431107 0 -21228069.677431107 -37105076.707723618 0 0 0 0 -54072734.040771484 -14215336.302350998 0 -14215336.302350998 -1025391.6678857803 0 0 0 0 -43859276.344665527 6133262.2750718594 0 6133262.2750718594 98260343.638333321 0 0 0 0 -61759679.906616211 -56012452.932487011 0 -56012452.932487011 45225775.673429489 0 0 0 0 89561697.013061523 -121317743.22832012 0 -121317743.22832012 -637656560.69599962 0 0 0 0 -282320914.05957031 -141947856.91062546 0 -141947856.91062546 551492886.36431313 0 0 0 0 -13739156.338684082 -35391429.630165577 0 -35391429.630165577 -50701041.498489559 0 0 0 0 -150346360.03573608 -201474432.45624256 0 -201474432.45624256 -26776130.679539561 0 0 0 0 -154047914.79107666 359707842.93051052 0 359707842.93051052 -120816061.90876198 0 0 0 0 -368975637.65753174 -975698328.13450336 0 -975698328.13450336 -52209098.240850449 0 0 0 0 -425168024.20227051 527091376.72587013 0 527091376.72587013 1138231297.0717087 0 0 0 0 -39415888.628875732 115541617.20650864 0 115541617.20650864 263903314.7136035 0 0 0 0 -2396294.5156860352 -84420739.031801939 0 -84420739.031801939 33799405.126065254 0 0 0 0 -25267372.491897583 -35137354.451286316 0 -35137354.451286316 -9689524.9368686676 0 0 0 0 -9629734.5301741734 -2648064.2303267717 0 -2648064.2303267717 2511037.3676529741 0 0 0 0 -33623107.987426758 -32448588.125346661 0 -32448588.125346661 5393.7982521057129 0 0 0 0 -6453256.7143435478 -460781.60461738333 0 -460781.60461738333 4213335.3541368144 0 0 0 0 -35252056.805961609 -21360252.510939598 0 -21360252.510939598 52729463.754707336 0 0 0 0 -72417144.443161011 -20276602.656399727 0 -20276602.656399727 30584074.360227346 0 0 0 0 -134700706.05673599 6416113.7223995328 0 6416113.7223995328 126515350.18955231 0 0 0 0 -100096421.87460327 -69389540.361333728 0 -69389540.361333728 93328324.019584656 0 0 0 0 -95939560.122283936 -95630416.738424778 0 -95630416.738424778 174020283.66409302 0 0 0 0 -137190621.02453613 -11335516.487719536 0 -11335516.487719536 178191418.53679931 0 0 0 0 -75778042.343963623 6262311.3592996597 0 6262311.3592996597 34297532.923591256 0 0 0 0 -26735535.950897649 2166815.0432079807 0 2166815.0432079807 15487778.09505159 0 0 0 0 206521915.80216789 -5366968.2485910654 0 -5366968.2485910654 5543057.3858377934 0 0 0 0 -84914036.254615784 21262975.431133032 0 21262975.431133032 12802237.629676819 0 0 0 0 152821793.52926826 39754540.689581476 0 39754540.689581476 35369681.846037865 0 0 0 0 -30319471.131935976 12103532.115517009 0 12103532.115517009 12056549.429287577 0 0 0 0 -33392018.377558812 -27660303.808865082 0 -27660303.808865082 -5607703.4097424485 0 0 0 0 -44638923.118862152 -49082161.553617477 0 -49082161.553617477 26203932.643569946 0 0 0 0 -42772552.121002197 -23937392.889605522 0 -23937392.889605522 -7724854.3223128319 0 0 0 0 -29617419.288464822 -3675140.2356746322 0 -3675140.2356746322 11495483.720325846 0 0 0 0 -272833800.89765167 21610364.478624344 0 21610364.478624344 130525343.05647278 0 0 0 0 -82653078.922027588 -39915710.190107346 0 -39915710.190107346 62548391.902664185 0 0 0 0 104678604.70866394 72273399.686772764 0 72273399.686772764 17119348.82338202 0 0 0 0 -81473903.018743038 -25267097.138865232 0 -25267097.138865232 82766348.424278259 0 0 0 0 -33207116.027624533 17625846.265098777 0 17625846.265098777 22176124.32911668 0 0 0 0 -59463433.113788605 -19764878.317250371 0 -19764878.317250371 13632432.326601028 0 0 0 0 -54605090.586177826 -6111852.2682065964 0 -6111852.2682065964 9059270.3744468689 0 0 0 0 -45124435.841430664 -20711364.654126167 0 -20711364.654126167 1171313.6430664062 0 0 0 0 -29133835.888007924 -23400612.410843469 0 -23400612.410843469 -6394253.946142178 0 0 0 0 -43834844.187019348 -11658664.192070961 0 -11658664.192070961 -3448113.3941035271 0 0 0 0 154866434.19452667 -179151137.16640568 0 -179151137.16640568 -52382220.396785736 0 0 0 0 -44396901.475151062 -10146297.380712509 0 -10146297.380712509 -5152961.6172027588 0 0 0 0 -14760089.611686252 -10016705.558103859 0 -10016705.558103859 748967.64506131411 0 0 0 0 -49246211.359809875 -35547903.351136208 0 -35547903.351136208 -7863593.7586231232 0 0 0 0 -48644294.415672302 -9971410.9488639832 0 -9971410.9488639832 4093390.74315238 0 0 0 0 -48235653.414543152 -35917873.62234211 0 -35917873.62234211 -10778233.894947052 0 0 0 0 -47404827.612113953 -37572646.263504028 0 -37572646.263504028 -7483334.9879264832 0 0 0 0 -26463776.238456726 -15019769.708218813 0 -15019769.708218813 -3240104.2457122803 0 0 0 0 -19394164.634231567 -12128033.537670135 0 -12128033.537670135 -10044861.442565918 0 0 0 0 -35809423.035327911 -42318420.762103081 0 -42318420.762103081 -36471563.788097382 0 0 0 0 -41560305.79133606 -14995237.740972519 0 -14995237.740972519 5203428.0871682167 0 0 0 0 -26435376.475791931 -5621067.5682096481 0 -5621067.5682096481 6765329.70900774 0 0 0 0 -16198876.655744523 -10727155.779068053 0 -10727155.779068053 6981793.8018777044 0 0 0 0 -4984613.3206530958 -8787265.0700825155 0 -8787265.0700825155 4812188.4796253107 0 0 0 0 -40901053.597465515 -8494299.9834157228 0 -8494299.9834157228 18449234.521069527 0 0 0 0 -45094710.07056427 -25042732.932385206 0 -25042732.932385206 22438808.6350317 0 0 0 0 12020189.208740234 -22221016.039383888 0 -22221016.039383888 80212556.803549767 0 0 0 0 -20949042.004745483 -6084325.48969841 0 -6084325.48969841 12884605.290561676 0 0 0 0 -12642855.599258423 -23205251.553386688 0 -23205251.553386688 -5677336.9087677002 0 0 0 0 -214254.19497527182 6491761.7293712655 0 6491761.7293712655 4083732.2563853143 0 0 0 0 -9327642.3058929443 13930301.012348175 0 13930301.012348175 7506999.5806293488 0 0 0 0 -3668908.2131347656 1917842.1915740967 0 1917842.1915740967 5480014.8548355103 0 0 0 0 -6084905.7982775569 -1551616.658846145 0 -1551616.658846145 4193719.094697854 0 0 0 0 -38981937.401845843 -6648554.9330488667 0 -6648554.9330488667 10728201.211779255 0 0 0 0 -26239215.347234879 8136166.4161533043 0 8136166.4161533043 13137478.714014286 0 0 0 0 -17836833.036102295 15697710.786766052 0 15697710.786766052 9172953.2412452698 0 0 0 0 -83620314.112136841 -23662566.73259896 0 -23662566.73259896 73118123.484894276 0 0 0 0 -24558020.336532593 14457608.719727516 0 14457608.719727516 15232730.214332581 0 0 0 0 -39344790.12701416 45573083.995485306 0 45573083.995485306 177092933.12638283 0 0 0 0 42008501.704099655 -116224282.60328454 0 -116224282.60328454 60627268.493346453 0 0 0 0 -41015671.106969155 -2731303.82480748 0 -2731303.82480748 10371890.761139004 0 0 0 0 20434213.575714111 87165994.672519207 0 87165994.672519207 75236968.537211895 0 0 0 0 -47786350.531768799 -4996110.0495529175 0 -4996110.0495529175 51461464.13835907 0 0 0 0 -27126713.83405304 15899947.279407024 0 15899947.279407024 72573102.819915771 0 0 0 0 -70822955.902435303 44003493.177257538 0 44003493.177257538 39355527.015663147 0 0 0 0 -27582847.985267639 19569288.235303879 0 19569288.235303879 25950749.831718445 0 0 0 0 -9441882.8784959316 24928153.469325289 0 24928153.469325289 -6628986.7909622192 0 0 0 0 -24671660.070159912 32567326.633270264 0 32567326.633270264 15192670.509319305 0 0 0 0 -28796531.6824646 43874479.429746628 0 43874479.429746628 -12611543.798286438 0 0 0 0 -18629445.615936279 26297705.677185059 0 26297705.677185059 -10760423.512672901 0 0 0 0 -2263032.2426510155 2614486.0080305957 0 2614486.0080305957 3746462.1371966396 0 0 0 0 -18005248.922393799 29672832.77904129 0 29672832.77904129 -7438142.1600952148 0 0 0 0 -802536.12827298045 744385.13115554908 0 744385.13115554908 1352631.4487538491 0 0 0 0 -57483447.124572754 89977876.186608315 0 89977876.186608315 -97520674.265001297 0 0 0 0 -168218184.63452148 61959747.623872757 0 61959747.623872757 25100821.754481316 0 0 0 0 -73660615.998123169 -96751692.902187347 0 -96751692.902187347 -115514162.31519604 0 0 0 0 -156301803.38047791 -60381926.434020996 0 -60381926.434020996 -10841401.516605377 0 0 0 0 -111218629.23684692 -50479266.877729416 0 -50479266.877729416 -13689954.812747955 0 0 0 0 -36466240.930465698 -50860760.286985397 0 -50860760.286985397 -18521657.571243286 0 0 0 0 -18092376.032455444 -35791703.353500366 0 -35791703.353500366 -51193314.659801483 0 0 0 0 -17636429.311416626 -15189773.786828995 0 -15189773.786828995 -16651989.006095886 0 0 0 0 -64013137.126678467 -84997973.796770096 0 -84997973.796770096 -60238966.578295231 0 0 0 0 -67345368.292526245 -63325121.437871933 0 -63325121.437871933 -21259874.366272449 0 0 0 0 -73836598.156585693 -69206114.313390732 0 -69206114.313390732 4006078.5246219635 0 0 0 0 -58218373.526672363 -51606754.206548691 0 -51606754.206548691 -17796378.136631012 0 0 0 0 -56645491.616867065 -54140321.560896873 0 -54140321.560896873 -14696539.865159512 0 0 0 0 -20865186.542800903 -49083647.22359848 0 -49083647.22359848 -20351632.073291779 0 0 0 0 -41056680.587272644 -27737556.858417749 0 -27737556.858417749 57593735.414432526 0 0 0 0 -28568664.699645996 -55848116.112769127 0 -55848116.112769127 -74849999.691043854 0 0 0 0 -111246619.82519531 -81183854.003131866 0 -81183854.003131866 400550.87149524689 0 0 0 0 -97734023.467834473 -31680722.470433235 0 -31680722.470433235 32538903.117938995 0 0 0 0 -136033838.77093506 -47336651.849434853 0 -47336651.849434853 189323859.75806046 0 0 0 0 -133612860.57901001 -15899351.404238939 0 -15899351.404238939 50616912.59344101 0 0 0 0 47531174.307373047 -58401805.445146561 0 -58401805.445146561 60085254.555792809 0 0 0 0 -84306311.735595703 4807716.0507316589 0 4807716.0507316589 36151507.825357437 0 0 0 0 12050735.799163818 65423489.043416977 0 65423489.043416977 67780439.294001579 0 0 0 0 -52580401.842727661 84265678.224671841 0 84265678.224671841 -181081684.56771183 0 0 0 0 -3323015.2218215913 -3212640.0429039672 0 -3212640.0429039672 -401064.68594855053 0 0 0 0 -124822546.46134949 66010224.626817703 0 66010224.626817703 123422455.88303375 0 0 0 0 2293579.2523498535 15660671.556863785 0 15660671.556863785 -309318438.88505173 0 0 0 0 854883394.20263672 -453927469.34370422 0 -453927469.34370422 -436066628.4157486 0 0 0 0 -88864527.042007446 48750046.950492859 0 48750046.950492859 -42851462.602493286 0 0 0 0 -14279982.742906861 -16717143.881073514 0 -16717143.881073514 8188072.381690775 0 0 0 0 -10075480.446544304 -8514225.4524718076 0 -8514225.4524718076 -1105458.7013033461 0 0 0 0 -27392965.692443848 -65292533.153261185 0 -65292533.153261185 -81380562.939432144 0 0 0 0 -45477174.344329834 -87021589.316156387 0 -87021589.316156387 -59121591.598773003 0 0 0 0 -80723915.681533813 -85936153.050690174 0 -85936153.050690174 -16650849.954435349 0 0 0 0 -17480731.982384227 -26081729.710246347 0 -26081729.710246347 15907145.342326945 0 0 0 0 -10752212.058044434 -28850897.734165192 0 -28850897.734165192 36645454.961883545 0 0 0 0 -48198708.334121704 -32482708.81345892 0 -32482708.81345892 3520886.4105474353 0 0 0 0 354139.09744262695 -33347614.781337738 0 -33347614.781337738 6657489.9179496765 0 0 0 0 -11892691.847045898 -25105350.361637115 0 -25105350.361637115 26982229.929580688 0 0 0 0 -7845960.6587371826 -24359066.623538971 0 -24359066.623538971 15483405.097305298 0 0 0 0 -5330631.928894043 -32011741.669120789 0 -32011741.669120789 24838908.739967346 0 0 0 0 -54421074.113861084 20795715.970031738 0 20795715.970031738 10880984.087299347 0 0 0 0 -36117220.891437531 269858.96034622192 0 269858.96034622192 11020080.697063446 0 0 0 0 -48770798.111106873 20602966.539814949 0 20602966.539814949 9697341.7202711105 0 0 0 0 -49183909.304622889 10751750.509383529 0 10751750.509383529 -6157380.5801467896 0 0 0 0 -41551546.548828125 36769969.731556416 0 36769969.731556416 14970930.975990295 0 0 0 0 -48238070.271738052 19675453.94922924 0 19675453.94922924 8391501.4776000977 0 0 0 0 -75083087.522453308 34994370.591836929 0 34994370.591836929 3473798.0317306519 0 0 0 0 -97831761.89074707 -3481989.8348617554 0 -3481989.8348617554 11001834.316566467 0 0 0 0 -89240570.45350647 -305853.50006866455 0 -305853.50006866455 11894516.366172791 0 0 0 0 -90730735.708896637 -63266.331174850464 0 -63266.331174850464 12419114.154968262 0 0 0 0 -24176764.027632751 -15799025.145255979 0 -15799025.145255979 -1169678.5096600573 0 0 0 0 -60425077.405042648 -43582161.072007179 0 -43582161.072007179 10619894.383052826 0 0 0 0 -79239212.133370399 -50438957.588224888 0 -50438957.588224888 10641221.571552277 0 0 0 0 -125084919.34040833 -57953437.567565918 0 -57953437.567565918 11676234.622879028 0 0 0 0 -7208984.0114277154 -1466188.9607678875 0 -1466188.9607678875 6169311.4587798268 0 0 0 0 -19773996.813248634 -47108867.384845257 0 -47108867.384845257 -98140947.14371109 0 0 0 0 15348425.792236328 21589910.515972137 0 21589910.515972137 29909018.2622509 0 0 0 0 -52227704.565811142 -9017529.3657743968 0 -9017529.3657743968 24818827.888941679 0 0 0 0 -19485671.149414062 -38691066.852715492 0 -38691066.852715492 -67719412.842216492 0 0 0 0 -82368759.374084473 -113427624.35932541 0 -113427624.35932541 -52514882.426704407 0 0 0 0 -37503548.916873932 -83213461.646350861 0 -83213461.646350861 -103866257.46229935 0 0 0 0 -35184545.511779785 -66994342.401874542 0 -66994342.401874542 -32888268.26927948 0 0 0 0 -71102129.384216309 -94432109.180379629 0 -94432109.180379629 -67059375.645593166 0 0 0 0 -131836082.37588501 -21122489.717061996 0 -21122489.717061996 70330023.979990005 0 0 0 0 13146944.265716553 16812297.876819611 0 16812297.876819611 11302690.240058899 0 0 0 0 -39233892.770462036 8257351.8551979065 0 8257351.8551979065 25212932.232076645 0 0 0 0 33381306.116592407 3348296.3896274567 0 3348296.3896274567 2233955.8000717163 0 0 0 0 -12038908.335235596 -36931629.903234482 0 -36931629.903234482 -33894662.115322113 0 0 0 0 -58889121.148040771 -77920643.981813431 0 -77920643.981813431 -6560632.4239654541 0 0 0 0 -44534606.85395813 -80659150.38922596 0 -80659150.38922596 -34941903.42780304 0 0 0 0 -10885700.320404053 -3881781.217716217 0 -3881781.217716217 18373629.249473572 0 0 0 0 -16165870.718732588 -18646810.266000602 0 -18646810.266000602 -2415275.8344640173 0 0 0 0 11137318.459793091 -8419670.0290794373 0 -8419670.0290794373 18684157.446725845 0 0 0 0 32897203.23391366 -13108288.592553526 0 -13108288.592553526 9581666.0035171509 0 0 0 0 -22499769.002571743 -7475241.3064824007 0 -7475241.3064824007 1636521.959748324 0 0 0 0 -56843228.445560455 8635475.0245604515 0 8635475.0245604515 973606.48338317871 0 0 0 0 -54152027.36857605 12064455.046447754 0 12064455.046447754 2151470.732840538 0 0 0 0 -54794356.073173523 8291575.0368185043 0 8291575.0368185043 -16111998.611839294 0 0 0 0 -19890301.759769298 -17923379.645773996 0 -17923379.645773996 2073902.108402306 0 0 0 0 1442936.0294799805 -5563531.6652450562 0 -5563531.6652450562 61609.030943393707 0 0 0 0 -24359784.312723354 -7625927.9279857725 0 -7625927.9279857725 -4199427.8680121526 0 0 0 0 7504590.7872390747 -49350161.059863091 0 -49350161.059863091 -40682171.634304047 0 0 0 0 -17399598.879918441 -17098459.029763661 0 -17098459.029763661 6086253.6533602886 0 0 0 0 -68406534.553207397 -32480753.429160118 0 -32480753.429160118 9383663.3157396317 0 0 0 0 -45481592.840816833 -4381362.1531135403 0 -4381362.1531135403 8010816.5081091262 0 0 0 0 -13598263.304746211 -8007143.9596113451 0 -8007143.9596113451 -10678089.522050824 0 0 0 0 -4245397.2156218737 -4264498.144785732 0 -4264498.144785732 846653.23069652636 0 0 0 0 68144491.956573486 22961665.746599197 0 22961665.746599197 -46804517.783008575 0 0 0 0 -79825394.17533493 -186458632.12894249 0 -186458632.12894249 -127079336.89633369 0 0 0 0 -76836725.720397949 -92464281.558919907 0 -92464281.558919907 51714850.624590158 0 0 0 0 -62892304.119720459 883617.05669975281 0 883617.05669975281 50653172.047193527 0 0 0 0 -49477841.106023788 -35975975.126137495 0 -35975975.126137495 -7347483.2890357971 0 0 0 0 -35850901.291229248 -15528336.237857342 0 -15528336.237857342 394812.88232803345 0 0 0 0 -49611204.714569092 -36361814.278280258 0 -36361814.278280258 -6948148.6979560852 0 0 0 0 -46352329.02721405 -1202960.8393950462 0 -1202960.8393950462 -8408356.5842208862 0 0 0 0 -5753555.6803581752 -270033.64797515795 0 -270033.64797515795 275940.40836462006 0 0 0 0 -793492663.14520645 49315107.754878998 0 49315107.754878998 360356404.83412933 0 0 0 0 548175123.54563522 17784212.269039154 0 17784212.269039154 -926638886.23616028 0 0 0 0 -122885535.7354126 -342047521.64455414 0 -342047521.64455414 -311615644.8164978 0 0 0 0 -535766428.72954559 -244516991.7012558 0 -244516991.7012558 54653767.051933289 0 0 0 0 -66936279.066246033 -10236820.918586731 0 -10236820.918586731 131992968.53473854 0 0 0 0 173102763.40695953 -692302.97299957275 0 -692302.97299957275 147912491.02853012 0 0 0 0 -600269506.05285549 326516909.10539532 0 326516909.10539532 10426676.459335327 0 0 0 0 496246711.48195648 -212093735.71563721 0 -212093735.71563721 -123501032.56575012 0 0 0 0 -22252737.668137606 -18237042.34727148 0 -18237042.34727148 -7546007.6081282739 0 0 0 0 173903373.78852081 225562752.06075287 0 225562752.06075287 305060999.58982086 0 0 0 0 108696902.43518066 91528031.540710449 0 91528031.540710449 135233764.77083588 0 0 0 0 -2557885.451357536 -24670164.86185845 0 -24670164.86185845 -375464.25867457129 0 0 0 0 -56037958.224191666 -110252277.59098434 0 -110252277.59098434 23294605.773475647 0 0 0 0 -29864659.941453934 -68571150.624576569 0 -68571150.624576569 -82239056.262046814 0 0 0 0 -6753604.3025856018 -27147540.65114975 0 -27147540.65114975 -273318457.90679932 0 0 0 0 -40966554.052635193 -101942173.33781052 0 -101942173.33781052 -153393011.78437424 0 0 0 0 -20907150.838756561 20022698.578296661 0 20022698.578296661 -287070.7777633667 0 0 0 0 2054752.6243133545 -184116522.78794861 0 -184116522.78794861 -393119124.13676453 0 0 0 0 72341798.460601807 -243748137.48475266 0 -243748137.48475266 -60110046.054552078 0 0 0 0 -54709482.751209259 -207062105.17341614 0 -207062105.17341614 -67773094.003456116 0 0 0 0 -128176203.49220276 -139947082.03144073 0 -139947082.03144073 -62762233.205459595 0 0 0 0 -43979356.711467743 -188393425.82684326 0 -188393425.82684326 -91840244.801979065 0 0 0 0 -11443665.498691559 -200000153.1405735 0 -200000153.1405735 -205582797.41447449 0 0 0 0 23223828.663873672 -114781849.72419739 0 -114781849.72419739 -168629123.34883881 0 0 0 0 -101617181.95060158 -123652931.43545341 0 -123652931.43545341 -115359777.9053421 0 0 0 0 -246932316.02249146 -108365239.33760071 0 -108365239.33760071 -69248843.241519928 0 0 0 0 -247734903.66959476 -100232522.91656756 0 -100232522.91656756 -51784991.147644043 0 0 0 0 -101673042.10409975 -27895689.999491453 0 -27895689.999491453 -125962423.69947815 0 0 0 0 -107696928.55134583 -122453299.31483078 0 -122453299.31483078 -115401688.49915695 0 0 0 0 -251036153.80832863 -159928473.05363655 0 -159928473.05363655 -70755251.640670776 0 0 0 0 -135612663.00723267 -152537929.36742783 0 -152537929.36742783 -72764525.230239868 0 0 0 0 -152033780.80594063 -135457178.11339951 0 -135457178.11339951 420625.90742492676 0 0 0 0 -174930806.44140625 -95856692.814289093 0 -95856692.814289093 -66813401.251255035 0 0 0 0 -19021066.350086633 -1061155.9494167799 0 -1061155.9494167799 -1198066.3043114683 0 0 0 0 -37717063.383513451 -18957301.174782753 0 -18957301.174782753 601046.35201644897 0 0 0 0 -15918619.79970932 -41071028.692943573 0 -41071028.692943573 -76442399.965389252 0 0 0 0 -86202673.974773407 -156036710.23228836 0 -156036710.23228836 -58069306.60541153 0 0 0 0 -14815151.074195862 27369402.947669983 0 27369402.947669983 18979501.173313141 0 0 0 0 -87123982.57316637 -155287795.38093638 0 -155287795.38093638 195893102.056633 0 0 0 0 -5033659.1659412384 -110938902.69201851 0 -110938902.69201851 146563327.29644394 0 0 0 0 -74427950.07997179 -94154457.58325386 0 -94154457.58325386 364688304.07835388 0 0 0 0 -112914710.83492506 -3934126.8092155457 0 -3934126.8092155457 190668861.51774979 0 0 0 0 -231884380.49509621 -91131828.308391571 0 -91131828.308391571 -85230560.318488121 0 0 0 0 -65396136.55632782 109934905.33689308 0 109934905.33689308 462724984.14941597 0 0 0 0 -10662661.68665079 533062.02647516504 0 533062.02647516504 -1236490.6248545768 0 0 0 0 -172138895.66708565 -129828117.96833706 0 -129828117.96833706 -114087501.53716087 0 0 0 0 -10607172.983012019 -17647131.290910143 0 -17647131.290910143 -4624566.4311158564 0 0 0 0 -24518382.003746033 -12045773.002144814 0 -12045773.002144814 2013780.8035745621 0 0 0 0 123438673.51285553 103385213.57927704 0 103385213.57927704 156256428.67687798 0 0 0 0 -38830741.605469257 292572.02034925297 0 292572.02034925297 -3428582.7355706366 0 0 0 0 -24579525.803253174 -12430317.475942612 0 -12430317.475942612 4744860.1500689983 0 0 0 0 -15700053.644295219 -18979439.128247634 0 -18979439.128247634 -3738245.6867598174 0 0 0 0 -13603024.931663513 -16969861.114740372 0 -16969861.114740372 10452899.78276062 0 0 0 0 688969.0459834449 -6185324.4765379326 0 -6185324.4765379326 -1654204.6116556283 0 0 0 0 -188415940.91332626 171344607.19116974 0 171344607.19116974 239277521.72262001 0 0 0 0 -55786879.870353699 -173881338.42271423 0 -173881338.42271423 339040298.07054138 0 0 0 0 1124618.3335753828 464632.25222369609 0 464632.25222369609 -1681930.0000205766 0 0 0 0 -6412442.892437458 -128661962.07591438 0 -128661962.07591438 206683623.49786377 0 0 0 0 -16300712.640703879 -12308543.289001741 0 -12308543.289001741 -3247515.1414146144 0 0 0 0 8306575.0457318425 -5998964.989672184 0 -5998964.989672184 47986254.379203796 0 0 0 0 -15058235.517807007 -12098153.406072617 0 -12098153.406072617 1562868.7189369202 0 0 0 0 -33978519.621585764 -4220461.9338444453 0 -4220461.9338444453 -3926751.0189434569 0 0 0 0 -9946335.5225372314 29784105.846558571 0 29784105.846558571 724599.65197753906 0 0 0 0 507451374.91485405 -448902250.62748909 0 -448902250.62748909 280414005.98705673 0 0 0 0 -67433257.083255291 75536252.677430153 0 75536252.677430153 893579454.7977829 0 0 0 0 -7413214.6509709051 -2099152.9262809609 0 -2099152.9262809609 1381317.5660449788 0 0 0 0 331004613.5326395 -220886956.29458618 0 -220886956.29458618 33625897.463750839 0 0 0 0 106372593.88415909 -594281679.50298119 0 -594281679.50298119 836375624.48905945 0 0 0 0 -210975315.98413801 -149581085.20307541 0 -149581085.20307541 370918944.04574037 0 0 0 0 -146116715.95450139 -315023101.73327255 0 -315023101.73327255 583012889.9050827 0 0 0 0 -380606412.79600751 -76805840.535381794 0 -76805840.535381794 603193588.45370483 0 0 0 0 -335920111.40364361 198804275.30362892 0 198804275.30362892 1216320660.2070465 0 0 0 0 529165572.36146402 -704010914.83448315 0 -704010914.83448315 584307119.17591095 0 0 0 0 -90796979.212070465 -429862860.75393677 0 -429862860.75393677 1279183368.8241043 0 0 0 0 -198812963.06382334 -1730445.593290329 0 -1730445.593290329 435203400.61927605 0 0 0 0 -76155166.9406147 37047164.867815018 0 37047164.867815018 415922628.54497433 0 0 0 0 53348348.782437325 208528464.21652603 0 208528464.21652603 240352240.73910522 0 0 0 0 -163347145.72154665 -60251170.609083176 0 -60251170.609083176 530660479.04827881 0 0 0 0 -340723086.98282015 71469309.983661652 0 71469309.983661652 615330272.0946064 0 0 0 0 -496500505.91175604 302301035.80256462 0 302301035.80256462 379062373.12402344 0 0 0 0 -276911328.65566331 205091956.49226236 0 205091956.49226236 288536806.70923233 0 0 0 0 -201867459.70894814 196821526.10213089 0 196821526.10213089 254782818.5499382 0 0 0 0 -196111638.07674986 280540863.63432956 0 280540863.63432956 156713364.60861206 0 0 0 0 -64922684.341529846 273607883.78026962 0 273607883.78026962 -218855823.58360481 0 0 0 0 -319167765.23747027 372253415.79128456 0 372253415.79128456 124007988.62867546 0 0 0 0 -29973738.030457735 213084616.83991432 0 213084616.83991432 -117075283.3214035 0 0 0 0 -129834972.31658182 321628746.46943313 0 321628746.46943313 -31568554.937049866 0 0 0 0 -128292655.05453417 365455205.43044615 0 365455205.43044615 -172653546.28460693 0 0 0 0 -500093776.77717495 551029993.42012787 0 551029993.42012787 -105127799.28953171 0 0 0 0 -307237995.52024901 273743741.16770554 0 273743741.16770554 246296843.87729836 0 0 0 0 24280172.139512539 76648469.014198303 0 76648469.014198303 -350914549.24246597 0 0 0 0 -566828338.1602335 478276740.40060806 0 478276740.40060806 -106882227.67603302 0 0 0 0 -65625636.1558351 416068017.22777176 0 416068017.22777176 -623177455.6029892 0 0 0 0 -184933166.44386911 513531857.72898865 0 513531857.72898865 -1176926564.7363262 0 0 0 0 42430702.349143267 193427212.1541872 0 193427212.1541872 -168637756.47106171 0 0 0 0 -28975041.716961384 169078484.75856018 0 169078484.75856018 -165663689.91817474 0 0 0 0 -121572187.46438599 -329787354.83339691 0 -329787354.83339691 425425205.50299072 0 0 0 0 -198658104.23615265 -317433210.25935745 0 -317433210.25935745 65933102.560379028 0 0 0 0 -554323804.57266045 -532253040.97002792 0 -532253040.97002792 332670971.61990547 0 0 0 0 -993408434.80809212 220408586.079216 0 220408586.079216 564618276.43351793 0 0 0 0 -161534042.67059922 -114705582.82778835 0 -114705582.82778835 -43329915.809123993 0 0 0 0 -940607567.13481331 203415818.20213318 0 203415818.20213318 -118686726.87607098 0 0 0 0 -1463712912.2965364 -438298770.29767513 0 -438298770.29767513 -811547271.47005463 0 0 0 0 -1265211100.2386274 1065949717.0625229 0 1065949717.0625229 -601078682.30708313 0 0 0 0 -1896381755.7867641 1092360821.4790001 0 1092360821.4790001 -1232247685.2288694 0 0 0 0 -735699306.13213408 -583671225.40172577 0 -583671225.40172577 -62629006.791488647 0 0 0 0 -950187877.72829533 129785938.29496002 0 129785938.29496002 -244871011.1174736 0 0 0 0 -249766388.21459389 -178534732.97367477 0 -178534732.97367477 -666791188.9783287 0 0 0 0 46855554.058292389 -161762470.1488266 0 -161762470.1488266 -224612350.64705658 0 0 0 0 67732200.263154507 -416523349.19690132 0 -416523349.19690132 370547555.95464706 0 0 0 0 -285433677.81191319 -393338294.17194748 0 -393338294.17194748 135509368.71650696 0 0 0 0 124662662.97994041 -547453200.14900589 0 -547453200.14900589 -65808758.66119194 0 0 0 0 -257287333.86442983 -568586082.03865576 0 -568586082.03865576 325179143.72653198 0 0 0 0 301722508.95104933 -730094551.51498413 0 -730094551.51498413 210683221.69506073 0 0 0 0 111178791.3139267 -499155808.78474617 0 -499155808.78474617 420124670.78551483 0 0 0 0 32555996.807077885 -706964776.50645638 0 -706964776.50645638 536700842.80772018 0 0 0 0 66934251.607366562 -753700971.09353256 0 -753700971.09353256 271135571.22673512 0 0 0 0 387734551.56289959 -545882500.32427597 0 -545882500.32427597 585192316.02701759 0 0 0 0 884718700.89792061 -491908863.75114059 0 -491908863.75114059 287451587.38518524 0 0 0 0 372378604.89577389 -679762970.69004822 0 -679762970.69004822 304057446.55958557 0 0 0 0 419826830.75813055 -346226604.95123672 0 -346226604.95123672 157899134.06318474 0 0 0 0 700593714.68929553 -705489864.14796162 0 -705489864.14796162 433169069.74275208 0 0 0 0 1019278243.2556729 -762590684.4743185 0 -762590684.4743185 297901693.84627533 0 0 0 0 -149181169.32195187 -32442206.492099762 0 -32442206.492099762 113047488.50726318 0 0 0 0 831620643.79366398 -497485506.66821289 0 -497485506.66821289 527071833.93828201 0 0 0 0 130085583.6739502 -104006736.06551075 0 -104006736.06551075 -33275829.095523834 0 0 0 0 -111151145.44255829 480320513.68936157 0 480320513.68936157 -197280042.18145752 0 0 0 0 -4914292.9414450228 -5037451.6545079444 0 -5037451.6545079444 -4364007.8264961336 0 0 0 0 -172498428.7607193 192156676.50962448 0 192156676.50962448 -403471287.58778381 0 0 0 0 -241044278.79805183 246714668.63459396 0 246714668.63459396 163606539.20121765 0 0 0 0 -29354035.635558005 -15210098.179749236 0 -15210098.179749236 8456211.8401538227 0 0 0 0 -87472646.674041748 -133909822.40353584 0 -133909822.40353584 27689678.343727112 0 0 0 0 -21964249.624679565 -23382740.031547546 0 -23382740.031547546 30829053.727088928 0 0 0 0 -296271209.3553009 -87687956.492759705 0 -87687956.492759705 178467889.94060218 0 0 0 0 -218344732.21451187 -21214778.219762802 0 -21214778.219762802 34433708.434165955 0 0 0 0 -297902096.97063446 170781298.97161293 0 170781298.97161293 -69887395.58159256 0 0 0 0 -30693082.543327332 61231550.355278015 0 61231550.355278015 -75652009.249986887 0 0 0 0 -7222126.3232396347 808522.7527425671 0 808522.7527425671 8425194.8541476429 0 0 0 0 -11080380.83906013 -9221173.3206068631 0 -9221173.3206068631 -5317957.4431044776 0 0 0 0 -244854554.4478035 48222109.475059509 0 48222109.475059509 45499774.20413208 0 0 0 0 -215198702.12003708 48198737.753667831 0 48198737.753667831 -17017735.55381012 0 0 0 0 26637548.93447113 194873156.26468277 0 194873156.26468277 54927973.468006134 0 0 0 0 78404101.931907654 114157399.12657928 0 114157399.12657928 -76313320.117977142 0 0 0 0 -336217050.70362854 140489419.07167053 0 140489419.07167053 207791037.43409729 0 0 0 0 -272206161.90470695 -23944878.173843861 0 -23944878.173843861 -15503310.976089478 0 0 0 0 -176029788.24977112 -10366546.338886261 0 -10366546.338886261 -35946403.733032227 0 0 0 0 -10914926.903533936 -26836140.699607849 0 -26836140.699607849 26969834.152481079 0 0 0 0 -5434351.9959716797 -30431428.165363312 0 -30431428.165363312 29171525.818836212 0 0 0 0 -16202820.345550537 -28007892.143054962 0 -28007892.143054962 32880380.515029907 0 0 0 0 -7989555.6428833008 -34379462.991600037 0 -34379462.991600037 32633185.42142868 0 0 0 0 -12346436.292312622 -31934016.28421402 0 -31934016.28421402 32880187.077331543 0 0 0 0 -11150613.004760742 -31312840.083869934 0 -31312840.083869934 32797150.715622187 0 0 0 0 -11052792.600570679 -31347123.012207031 0 -31347123.012207031 31386090.995666504 0 0 0 0 -8530927.7226867676 -30957749.379638672 0 -30957749.379638672 31342637.799959183 0 0 0 0 -10830057.741962433 -32177414.116474748 0 -32177414.116474748 30939143.419006348 0 0 0 0 -10726744.390884399 -30205604.519423723 0 -30205604.519423723 27115710.351577759 0 0 0 0 -8187394.6702880859 -34322773.732902527 0 -34322773.732902527 34134788.326927185 0 0 0 0 -30867031.687285155 -12414904.858484112 0 -12414904.858484112 17474823.73098113 0 0 0 0 -4899641.716506958 -35009628.185680389 0 -35009628.185680389 31643485.029403687 0 0 0 0 -49234389.780807495 -30588427.462562561 0 -30588427.462562561 -89056399.999664307 0 0 0 0 -218443401.19241333 -39226133.349304199 0 -39226133.349304199 -46971130.354370117 0 0 0 0 -12177497.877078205 1659847.9979304019 0 1659847.9979304019 3927780.7344703134 0 0 0 0 -143399207.36434937 -33342801.009037018 0 -33342801.009037018 -48168249.145265579 0 0 0 0 10169104.428182602 57202591.885861397 0 57202591.885861397 -110639155.00747681 0 0 0 0 -82895295.320526123 78834101.283157349 0 78834101.283157349 -37014378.900375366 0 0 0 0 -23687336.26581955 128122974.88150787 0 128122974.88150787 -4756537.6560668945 0 0 0 0 -143974444.16162109 102045822.47410965 0 102045822.47410965 -127141024.87609863 0 0 0 0 -41903422.188476562 24738528.339401245 0 24738528.339401245 -126627082.54759216 0 0 0 0 -134295361.76727295 58756582.670562744 0 58756582.670562744 -115781859.26450348 0 0 0 0 -91432324.08895874 23740137.66217041 0 23740137.66217041 -96235474.487197876 0 0 0 0 -63992387.832077026 84372504.618961334 0 84372504.618961334 -179373961.68609619 0 0 0 0 -65618042.030197144 44603788.219711304 0 44603788.219711304 -202561896.58229065 0 0 0 0 -44009438.33851099 77528286.193517208 0 77528286.193517208 -159390756.11499023 0 0 0 0 -124983634.24124146 -15461039.865318298 0 -15461039.865318298 -188848981.66701126 0 0 0 0 -137918402.43226624 -53459666.183639526 0 -53459666.183639526 11540621.44986856 0 0 0 0 -168521251.15626526 147836639.61433029 0 147836639.61433029 115046999.45134735 0 0 0 0 -250025554.93103027 93161082.263425827 0 93161082.263425827 119963604.14160919 0 0 0 0 -380936491.87185669 -30768250.253765106 0 -30768250.253765106 52632378.790687561 0 0 0 0 -6361007.7399947233 -5731835.2168189092 0 -5731835.2168189092 5157451.5172410067 0 0 0 0 -116790098.37402344 37002614.389541626 0 37002614.389541626 -91730164.524791718 0 0 0 0 -94911312.071716309 39343180.666564941 0 39343180.666564941 -91481815.319381714 0 0 0 0 -3115304.7632980347 -54006649.355503082 0 -54006649.355503082 -42957046.509754181 0 0 0 0 -181852361.921875 -2764124.9862442017 0 -2764124.9862442017 13028619.88202858 0 0 0 0 -52098872.727020264 8519968.5289306641 0 8519968.5289306641 -16387050.200706482 0 0 0 0 -38182996.230443478 81405519.682313919 0 81405519.682313919 622578405.10964966 0 0 0 0 -94184551.834251404 51844109.736812592 0 51844109.736812592 -56962984.712142944 0 0 0 0 -25421359.617483709 -8728288.535250688 0 -8728288.535250688 -260270.04817798361 0 0 0 0 -123880086.50160217 137096632.9264431 0 137096632.9264431 -230713872.70914459 0 0 0 0 -57678138.221725464 24687674.608383179 0 24687674.608383179 -53206145.126028061 0 0 0 0 -51721440.155342102 13939472.645326614 0 13939472.645326614 23219398.84508419 0 0 0 0 32445462.473800659 -31591657.988288879 0 -31591657.988288879 -177757865.71399689 0 0 0 0 25759911.118759155 4585133.684261322 0 4585133.684261322 -214244426.69402218 0 0 0 0 -81137248.892278671 -436037183.42374802 0 -436037183.42374802 496457611.94350719 0 0 0 0 280313518.69638896 -623144988.65178466 0 -623144988.65178466 562514638.80491638 0 0 0 0 -69860756.774436951 11620570.841026306 0 11620570.841026306 50305358.502170563 0 0 0 0 -16835129.39655086 -7607079.7340483256 0 -7607079.7340483256 -763289.21241455339 0 0 0 0 258454514.52106094 -736350598.60997581 0 -736350598.60997581 530016381.43117237 0 0 0 0 -6357561.3141588867 -2516140.8531736722 0 -2516140.8531736722 3202079.7111775354 0 0 0 0 -236339648.64317703 94907625.851884842 0 94907625.851884842 -40429122.717926025 0 0 0 0 -204876593.45872498 39554231.157608032 0 39554231.157608032 -61757198.865310669 0 0 0 0 -5986436370.3279724 -232027550.74558482 0 -232027550.74558482 571869905.15594578 0 0 0 0 -4284309327.0653853 -1455749274.9752879 0 -1455749274.9752879 1148437583.5201261 0 0 0 0 -3215315468.8749084 871124524.23056984 0 871124524.23056984 1350515539.041502 0 0 0 0 -4255925723.1579895 2021829986.3665295 0 2021829986.3665295 121955204.54790175 0 0 0 0 -7012791340.0263977 2852134141.3606377 0 2852134141.3606377 270389579.9432745 0 0 0 0 -2443545745.4422588 821258629.49028695 0 821258629.49028695 -103737976.82360554 0 0 0 0 -6611526989.3293304 -2117849780.4744627 0 -2117849780.4744627 -1533614263.0528176 0 0 0 0 -5984204331.4276276 -804098160.61985445 0 -804098160.61985445 -1244447903.6125481 0 0 0 0 -6352588263.1660004 400665373.96634912 0 400665373.96634912 -4281316640.3460503 0 0 0 0 -6232041353.1128693 34311444.461315721 0 34311444.461315721 -556887989.12007701 0 0 0 0 -5667609099.4033356 -1882609022.004813 0 -1882609022.004813 552281592.06807685 0 0 0 0 -4105130447.8085632 -3270573070.5675821 0 -3270573070.5675821 -1480713578.6181736 0 0 0 0 -1931619952.0457764 1595248180.2901869 0 1595248180.2901869 -1677797516.9541342 0 0 0 0 -7279152159.6459045 -1068688442.9919841 0 -1068688442.9919841 249421114.0141232 0 0 0 0 -10194172.027836092 1606130.3088604594 0 1606130.3088604594 553994.86168211652 0 0 0 0 703663352.14355469 -329932376.47343302 0 -329932376.47343302 -275760260.85239124 0 0 0 0 -2992975394.5709076 -2365039144.8826671 0 -2365039144.8826671 -659829676.57140994 0 0 0 0 -184548988.45400238 -27050853.067930549 0 -27050853.067930549 -703251699.04063654 0 0 0 0 -2317596622.8496628 -897133304.56016827 0 -897133304.56016827 85353596.227778912 0 0 0 0 -541746386.64122009 -1234537720.6579845 0 -1234537720.6579845 -986235184.51013994 0 0 0 0 175163859.110672 97139925.107606322 0 97139925.107606322 -23950748.076395035 0 0 0 0 -266028081.03300476 -354302998.77337337 0 -354302998.77337337 -162096396.13210869 0 0 0 0 -26220625.853453338 4371515.0712595228 0 4371515.0712595228 2866491.2593926168 0 0 0 0 40385789.731910706 10994085.444773674 0 10994085.444773674 118430842.90472364 0 0 0 0 -222314749.33851624 -3816770.3315353394 0 -3816770.3315353394 334231217.87687016 0 0 0 0 -668253523.72998047 42968418.598310769 0 42968418.598310769 1022797747.4845016 0 0 0 0 -39534924.718427658 -145543485.80418059 0 -145543485.80418059 8204680.2183318138 0 0 0 0 -520977.65617244691 2745281.4152535312 0 2745281.4152535312 2926062.6106413305 0 0 0 0 80966696.062805176 215983387.41813922 0 215983387.41813922 -320321455.62241316 0 0 0 0 -2455279934.2984114 707901650.64685178 0 707901650.64685178 12946237.125315905 0 0 0 0 -2546248810.7709656 786573803.33358598 0 786573803.33358598 8302579.0969651043 0 0 0 0 57367249.263519287 -426934173.53281713 0 -426934173.53281713 -248544277.11398458 0 0 0 0 248926843.07842255 -69602341.102197826 0 -69602341.102197826 -840828947.56570625 0 0 0 0 -343997677.66986084 750716196.15474582 0 750716196.15474582 -709261305.83692861 0 0 0 0 40822899.48248291 606166.80269002914 0 606166.80269002914 -131396458.82264137 0 0 0 0 6543731.4559167102 4281804.4679425973 0 4281804.4679425973 3403969.587601502 0 0 0 0 47823075.842102051 -240428775.92792583 0 -240428775.92792583 254473953.3691864 0 0 0 0 -240539.76279067993 -5806559.6199918985 0 -5806559.6199918985 -56035442.870583534 0 0 0 0 -34597526.506156437 24142086.774775311 0 24142086.774775311 18553503.68133495 0 0 0 0 -8814676.3347841315 -21275887.837662056 0 -21275887.837662056 -5842891.202200559 0 0 0 0 -107159186.01573181 -28915350.805521727 0 -28915350.805521727 -1626192.981446147 0 0 0 0 -102499934.62742615 -3786562.9904649258 0 -3786562.9904649258 16590501.454178095 0 0 0 0 -36177863.939808786 -6751052.0096397167 0 -6751052.0096397167 21018451.566065241 0 0 0 0 -126275272.13946533 -57453535.403271317 0 -57453535.403271317 2998167.7484116554 0 0 0 0 13716173.027420044 -59394361.513536096 0 -59394361.513536096 -4951216.6078230143 0 0 0 0 -6302374.6493377686 -43146755.13243866 0 -43146755.13243866 -1479283.6612920761 0 0 0 0 46568073.11328125 -54121603.698359251 0 -54121603.698359251 -129405566.86149365 0 0 0 0 -7493295.3301010132 -74570004.575604439 0 -74570004.575604439 58581021.024433136 0 0 0 0 -178185284.69671631 363128401.81625473 0 363128401.81625473 923546903.107535 0 0 0 0 -37296123.320843682 3961494.3232266298 0 3961494.3232266298 7296399.0012522265 0 0 0 0 -43291023.21181488 -49169587.827093601 0 -49169587.827093601 109178967.48795891 0 0 0 0 -53887044.098640442 504634029.76108265 0 504634029.76108265 678382987.45332313 0 0 0 0 -3811744.2644958496 170020085.15009037 0 170020085.15009037 223941219.87359628 0 0 0 0 -303404992.42109489 228021252.65898937 0 228021252.65898937 216455865.44827515 0 0 0 0 -106608798.60919189 191511907.18161881 0 191511907.18161881 210790911.98549056 0 0 0 0 219389101.80593872 120481112.72023702 0 120481112.72023702 219864764.46443012 0 0 0 0 347032834.86724854 263308613.89184451 0 263308613.89184451 707487896.85952556 0 0 0 0 -90809278.898384094 263166883.73238435 0 263166883.73238435 708099778.66982388 0 0 0 0 118517837.77355957 403934516.43313885 0 403934516.43313885 280657551.21118063 0 0 0 0 -7972600.2891645795 -18743970.618528642 0 -18743970.618528642 2848618.0095484299 0 0 0 0 -303496.8126373291 -77852332.12242721 0 -77852332.12242721 101225774.2046746 0 0 0 0 -170326241.16119385 -133750996.87846214 0 -133750996.87846214 -90330919.406555712 0 0 0 0 -1407853.3346138 -5332431.4289821312 0 -5332431.4289821312 61084.679680946378 0 0 0 0 -113174995.5531311 -62119768.633389696 0 -62119768.633389696 -746411.8662250042 0 0 0 0 -35157573.695167542 -29106815.874495983 0 -29106815.874495983 62040514.197414398 0 0 0 0 -1905672.17484699 -790754.76741303876 0 -790754.76741303876 55240.068510316545 0 0 0 0 -54304536.83366394 56774450.978858948 0 56774450.978858948 13896078.40545857 0 0 0 0 -223113109.13011169 49224193.361818328 0 49224193.361818328 58973922.579443514 0 0 0 0 -34770368.204585686 22568160.757681936 0 22568160.757681936 20109913.894235309 0 0 0 0 -284521639.42407227 24290883.009118631 0 24290883.009118631 241201726.65530843 0 0 0 0 -337988698.57156372 247598254.30092743 0 247598254.30092743 647079516.25762475 0 0 0 0 -30344949.311019897 -8054488.8245481551 0 -8054488.8245481551 38994651.0493325 0 0 0 0 -101414452.98608398 248961541.83906293 0 248961541.83906293 177265556.20343998 0 0 0 0 -67820739.026184082 189426691.32431647 0 189426691.32431647 211779342.64244357 0 0 0 0 -34519828.186408252 20653703.426386531 0 20653703.426386531 21671567.459361974 0 0 0 0 33232350.296356201 107182338.84797652 0 107182338.84797652 85497474.074604928 0 0 0 0 -193888040.82397652 360996049.91131592 0 360996049.91131592 70718282.27104187 0 0 0 0 24868705.657215118 123592108.26812276 0 123592108.26812276 73476819.753049731 0 0 0 0 56732491.419159889 24786293.093770981 0 24786293.093770981 -79721320.007820129 0 0 0 0 -501568937.67304802 36867677.790122986 0 36867677.790122986 739998.66885375977 0 0 0 0 -525278208.26708758 -146399805.34332466 0 -146399805.34332466 22155181.179420471 0 0 0 0 382038813.36014366 88492863.527605057 0 88492863.527605057 162904811.39075851 0 0 0 0 -277058006.1680069 83349238.622383118 0 83349238.622383118 -89704879.357505798 0 0 0 0 2681601.8472753479 3463482.4322234131 0 3463482.4322234131 2239182.3906965852 0 0 0 0 -379892326.32945251 -58859734.856929779 0 -58859734.856929779 -58152002.624538422 0 0 0 0 -421571339.15020561 -129604278.35020828 0 -129604278.35020828 -27079662.321468353 0 0 0 0 -274004541.58039093 -132458302.544487 0 -132458302.544487 -67232438.898345947 0 0 0 0 -405562286.29140663 -205752063.47345734 0 -205752063.47345734 -86033057.012290955 0 0 0 0 -477152395.41689301 -148265554.22188187 0 -148265554.22188187 -40074125.042274475 0 0 0 0 -414199689.69304705 -167448773.88052416 0 -167448773.88052416 -36130422.677864075 0 0 0 0 312030438.45579147 244155842.38348389 0 244155842.38348389 42931749.86000061 0 0 0 0 14588243.860484365 9150470.8787127919 0 9150470.8787127919 3856848.3033867516 0 0 0 0 -175820157.54173946 -8894322.7630195618 0 -8894322.7630195618 -56620041.147689819 0 0 0 0 115024846.02524757 72913031.499952316 0 72913031.499952316 43385758.622619629 0 0 0 0 -540513728.07541275 59349211.069942474 0 59349211.069942474 27911369.251249075 0 0 0 0 -201699799.21196747 4886291.6971359253 0 4886291.6971359253 58013637.574676514 0 0 0 0 124506836.73298073 51808262.144187927 0 51808262.144187927 77131754.485298157 0 0 0 0 -1195824826.8068581 -256473137.4824791 0 -256473137.4824791 57141035.148178101 0 0 0 0 345446750.12677383 -118347050.51410866 0 -118347050.51410866 -159617568.1191082 0 0 0 0 -1210774818.6615543 -498205744.10920715 0 -498205744.10920715 346916438.49127579 0 0 0 0 -602040075.46185112 -725850237.17285728 0 -725850237.17285728 -524663379.49346066 0 0 0 0 -235988959.16202945 -155138331.58577371 0 -155138331.58577371 -139813969.63453674 0 0 0 0 -395997642.49317551 -364995676.78371048 0 -364995676.78371048 -404324558.16238594 0 0 0 0 -52093850.918519974 392730987.72638512 0 392730987.72638512 360732579.7828064 0 0 0 0 -3626330.6943834778 281133.81131282356 0 281133.81131282356 -409448.46127936617 0 0 0 0 -307953039.71298313 518189046.37513542 0 518189046.37513542 405318079.29922104 0 0 0 0 -369576433.6072464 136368195.84329987 0 136368195.84329987 591147332.81563902 0 0 0 0 -394374510.17651463 234025888.66045189 0 234025888.66045189 302081583.76401901 0 0 0 0 -1610692304.8241844 313786523.00272369 0 313786523.00272369 641147576.55981445 0 0 0 0 -288844785.62238216 -102503989.29549313 0 -102503989.29549313 -30167349.431560516 0 0 0 0 -1359624194.6110125 695261405.55966806 0 695261405.55966806 -155438193.63150787 0 0 0 0 -111339782.37402725 -1950442682.367363 0 -1950442682.367363 172568373.66542912 0 0 0 0 -3540868.9133257247 3181413.6876873411 0 3181413.6876873411 3766984.6795018408 0 0 0 0 3269088.965992508 2110273.9384889929 0 2110273.9384889929 816358.96724165045 0 0 0 0 -31544161.089460373 -61608638.35590744 0 -61608638.35590744 -76560265.281806946 0 0 0 0 16466376.755467813 32672588.467713691 0 32672588.467713691 5258084.3246753523 0 0 0 0 -417493637.88626385 -7766275.2148885727 0 -7766275.2148885727 177458377.58808517 0 0 0 0 -9224850.1994611174 16286074.178037088 0 16286074.178037088 14382373.076389022 0 0 0 0 -133645666.88352871 101435129.34173584 0 101435129.34173584 36184003.082744598 0 0 0 0 -184511177.78141069 213691482.94229126 0 213691482.94229126 130769282.15106964 0 0 0 0 -192353559.95695782 214216202.80070496 0 214216202.80070496 265479699.72119141 0 0 0 0 -148223000.12284088 234716939.02221107 0 234716939.02221107 73659449.870788574 0 0 0 0 -148610414.43183136 227483055.52570343 0 227483055.52570343 133799786.87353802 0 0 0 0 -173669770.39875078 169459913.25249672 0 169459913.25249672 5215954.2337532043 0 0 0 0 -52516799.37280941 165746971.5011301 0 165746971.5011301 2029708.1816558838 0 0 0 0 -62738315.719156265 194086757.9113121 0 194086757.9113121 -75675497.20955658 0 0 0 0 -5877653.8490171432 123602773.90354538 0 123602773.90354538 -105632654.95190811 0 0 0 0 -12087666.74596858 87973822.521781206 0 87973822.521781206 -15774206.120155334 0 0 0 0 -33451016.937340975 38118998.337610245 0 38118998.337610245 61575674.310905457 0 0 0 0 8570425.8776092529 23122898.429534912 0 23122898.429534912 21463664.904090881 0 0 0 0 -42680761.925144196 75760830.709636688 0 75760830.709636688 -15527068.942005873 0 0 0 0 -77676471.549665451 136755848.88877106 0 136755848.88877106 -30606368.649477959 0 0 0 0 -62398305.0767169 67010038.737172604 0 67010038.737172604 -19639521.251625061 0 0 0 0 1211994.9200086715 4229247.396950013 0 4229247.396950013 1699552.8878075629 0 0 0 0 -129177460.91398716 88339667.219537735 0 88339667.219537735 2382422.3588752747 0 0 0 0 -13625960.986444034 16679474.0648001 0 16679474.0648001 17688664.406061359 0 0 0 0 22197760.863616943 30998513.522279143 0 30998513.522279143 2884461.559687376 0 0 0 0 -23756157.814453125 34277983.504550695 0 34277983.504550695 83047067.143657804 0 0 0 0 25478548.984710693 76946482.070922732 0 76946482.070922732 71641511.60053587 0 0 0 0 171135181.34127808 -139898199.48291111 0 -139898199.48291111 -249806660.62283802 0 0 0 0 123018543.50302124 120804666.58685541 0 120804666.58685541 -5947690.3105447292 0 0 0 0 112045867.75273132 141420261.87576628 0 141420261.87576628 114821085.47102654 0 0 0 0 23542678.226860046 51658218.936448932 0 51658218.936448932 -15353742.087353468 0 0 0 0 7010999.776222229 31568630.74401477 0 31568630.74401477 141832197.67865324 0 0 0 0 -24982372.399360202 11172879.817807721 0 11172879.817807721 16545474.830477871 0 0 0 0 9899648.5762589574 -45635342.415694237 0 -45635342.415694237 87722608.880949974 0 0 0 0 -29108964.59524525 12480735.84528432 0 12480735.84528432 15568298.637577226 0 0 0 0 -9894435.1935348511 10913222.709160805 0 10913222.709160805 10131072.888908625 0 0 0 0 -18493592.390616629 5612354.2691589324 0 5612354.2691589324 15315786.702911764 0 0 0 0 -138959602.52748108 -63195382.895728022 0 -63195382.895728022 269268990.77033925 0 0 0 0 -35801880.418458909 9757584.0704713687 0 9757584.0704713687 6924970.0185425337 0 0 0 0 -179351961.30026817 31568076.180901051 0 31568076.180901051 114169076.35785151 0 0 0 0 -11453245.244152099 7017892.8517788043 0 7017892.8517788043 9297268.8511542082 0 0 0 0 38112671.866981506 109769418.91759145 0 109769418.91759145 64454820.117820263 0 0 0 0 354260253.15284729 99703531.73998642 0 99703531.73998642 -95441310.39841032 0 0 0 0 479445.95327087492 796308.09816132113 0 796308.09816132113 156622.72732503258 0 0 0 0 -301174545.02035522 238528568.51512319 0 238528568.51512319 374814517.57250011 0 0 0 0 -296923880.9706955 158191714.24929178 0 158191714.24929178 127914474.66215682 0 0 0 0 -54467993.36422348 274567695.92748702 0 274567695.92748702 -50957990.74804163 0 0 0 0 266686683.28130341 980999.99556428194 0 980999.99556428194 6444240.7873535156 0 0 0 0 -12205209.592529297 193997961.16780216 0 193997961.16780216 -4396146.8793897629 0 0 0 0 1544817.85213817 2455624.2566086613 0 2455624.2566086613 757258.87607620051 0 0 0 0 -74372265.9870224 73101434.22443223 0 73101434.22443223 -82836403.739327908 0 0 0 0 26897135.98822403 238892544.1917749 0 238892544.1917749 -103997191.71758699 0 0 0 0 -2457464.8395843506 221525110.77290535 0 221525110.77290535 94216129.972779751 0 0 0 0 276993037.09002686 215478762.11143017 0 215478762.11143017 -74683182.142405272 0 0 0 0 65921607.249603271 141619706.33535838 0 141619706.33535838 -20490272.248719215 0 0 0 0 96383914.789535522 62416875.288040161 0 62416875.288040161 -31220904.516005039 0 0 0 0 41496788.59267807 27640618.638607472 0 27640618.638607472 27722955.144217014 0 0 0 0 -108855650.49655914 34460848.735868812 0 34460848.735868812 183161259.22706699 0 0 0 0 3236588.9920327775 1676457.8969334364 0 1676457.8969334364 539137.01448108698 0 0 0 0 110855452.14549255 39217412.432191372 0 39217412.432191372 -19671963.374446392 0 0 0 0 77337969.174255371 74700987.326529503 0 74700987.326529503 -38699340.465025663 0 0 0 0 85904034.96661377 52670765.938564777 0 52670765.938564777 -26583174.826724291 0 0 0 0 96603500.534515381 51677271.35189414 0 51677271.35189414 -29743337.615695715 0 0 0 0 -9459008.1277313232 43171186.315261841 0 43171186.315261841 34708374.027112007 0 0 0 0 10807512.950126238 5006094.0578107834 0 5006094.0578107834 1291514.9091885579 0 0 0 0 62464054.259353638 27753787.429516196 0 27753787.429516196 4979514.55035007 0 0 0 0 -13400342.433074951 18002313.178040504 0 18002313.178040504 29070792.101797104 0 0 0 0 4110621.7109314427 41456364.859537572 0 41456364.859537572 16545456.416521125 0 0 0 0 19832812.761291504 19731790.723911762 0 19731790.723911762 14664559.323712349 0 0 0 0 6327398.5563412383 4660488.9741138592 0 4660488.9741138592 1661437.7489455249 0 0 0 0 -4091670.0709363557 -552332.02156187594 0 -552332.02156187594 3847430.387471227 0 0 0 0 22024177.055633545 47426955.1299963 0 47426955.1299963 23420493.346384048 0 0 0 0 -5312523.2299880981 842292.31908726692 0 842292.31908726692 4064555.2493319511 0 0 0 0 421945799.9508152 36837827.527618229 0 36837827.527618229 -176766239.1404953 0 0 0 0 -22827963.872516632 254055225.79324812 0 254055225.79324812 -114605488.65168762 0 0 0 0 173422634.9199295 -76371586.116258264 0 -76371586.116258264 -18955067.911989212 0 0 0 0 384555314.70440674 63920867.517936707 0 63920867.517936707 -100306044.41550684 0 0 0 0 259939408.37405396 58680427.94848156 0 58680427.94848156 27695299.056333542 0 0 0 0 589757792.50634766 280610646.11977887 0 280610646.11977887 62258739.917253494 0 0 0 0 195719.70170844346 183009.6528926976 0 183009.6528926976 279832.25169990445 0 0 0 0 -755668178.81018066 31195428.000531197 0 31195428.000531197 -131953954.77570593 0 0 0 0 -343581523.13197327 21802856.563836336 0 21802856.563836336 -142102980.09009707 0 0 0 0 -587916748.82751465 324521000.24092817 0 324521000.24092817 11082431.6293993 0 0 0 0 -846573287.43664551 521443314.4252547 0 521443314.4252547 -292075644.62447548 0 0 0 0 -1448977222.3906059 -80234927.428175509 0 -80234927.428175509 -19702271.928680897 0 0 0 0 -3024445425.2505112 1141907029.6260538 0 1141907029.6260538 -63091466.190989614 0 0 0 0 -3712880746.2116222 -1568749241.8540659 0 -1568749241.8540659 22989101.20605278 0 0 0 0 -1867248352.4638596 -579443492.79544759 0 -579443492.79544759 203743680.87444484 0 0 0 0 -1040904666.1077728 208680705.01637208 0 208680705.01637208 73394427.929951787 0 0 0 0 -477352506.57968903 -25737744.739239752 0 -25737744.739239752 -36461951.366259098 0 0 0 0 235531432.76083374 140176609.21064758 0 140176609.21064758 -16330934.412495673 0 0 0 0 -896535992.35597229 -192866667.26999128 0 -192866667.26999128 369920990.04687262 0 0 0 0 23090915.34500885 131824348.30618498 0 131824348.30618498 88930198.69883734 0 0 0 0 -24655793.325529337 6827890.1268407525 0 6827890.1268407525 1420986.1718237486 0 0 0 0 -718978517.18067169 -481946303.15324241 0 -481946303.15324241 -199860883.23087955 0 0 0 0 -1335689306.9438019 -406448972.47347236 0 -406448972.47347236 287462307.80579805 0 0 0 0 -846009900.00366211 -220286888.93323508 0 -220286888.93323508 124706911.65174028 0 0 0 0 -1304319409.6299477 -450952830.32889783 0 -450952830.32889783 -188246863.07519168 0 0 0 0 -2071331291.3299294 -1381912604.3834031 0 -1381912604.3834031 -432660988.69715708 0 0 0 0 -5965898461.1581402 -3527948056.377368 0 -3527948056.377368 -1602984578.8773689 0 0 0 0 -5980247689.4233551 -1062292980.7875745 0 -1062292980.7875745 853150282.00781298 0 0 0 0 -5911152.3454791754 -232322.34413541295 0 -232322.34413541295 2077310.7473552634 0 0 0 0 -2016839709.8775482 633887173.27716374 0 633887173.27716374 1363616287.3376987 0 0 0 0 -1602254855.4303589 -932841909.03863847 0 -932841909.03863847 174536142.2727735 0 0 0 0 -1612218240.7993774 -980279115.72398794 0 -980279115.72398794 41013269.344822764 0 0 0 0 -3243431.6775882319 504871.43273373321 0 504871.43273373321 479190.94131438574 0 0 0 0 -1183951198.7398682 1942779803.0079699 0 1942779803.0079699 1054981177.121858 0 0 0 0 -5977098493.4899216 -2381993952.7735519 0 -2381993952.7735519 639303745.17519855 0 0 0 0 -2514668775.0573292 -1177732099.0942366 0 -1177732099.0942366 903277880.10353625 0 0 0 0 -4174612782.0146637 234223761.14325437 0 234223761.14325437 2499155295.6898599 0 0 0 0 -3135000573.8171463 1828008511.6506219 0 1828008511.6506219 134333903.17555547 0 0 0 0 -3451498686.2425919 -821604479.9162991 0 -821604479.9162991 3071344273.6480541 0 0 0 0 -4093850638.080658 228598582.56320953 0 228598582.56320953 2497958894.4558263 0 0 0 0 464941389.07628059 2257462730.6151776 0 2257462730.6151776 -631310178.03131342 0 0 0 0 306833155.12762451 1055725055.9802685 0 1055725055.9802685 3427637766.7102833 0 0 0 0 -825760763.38300705 586039388.79106617 0 586039388.79106617 1323329807.3054352 0 0 0 0 2165675871.2587128 -514765809.49961281 0 -514765809.49961281 2080402514.9034729 0 0 0 0 -303198197.68843079 -69573379.53032589 0 -69573379.53032589 2031554997.1584845 0 0 0 0 3242734671.6857605 1803916595.1594858 0 1803916595.1594858 1014857041.7658825 0 0 0 0 1218022365.4967346 2137218430.8394094 0 2137218430.8394094 994312469.13842773 0 0 0 0 844032192.62724686 1745256321.0143328 0 1745256321.0143328 724038812.42383671 0 0 0 0 -1061101549.2803268 2472008218.8794532 0 2472008218.8794532 461414930.95603859 0 0 0 0 -1244725156.7197266 332321806.85857379 0 332321806.85857379 1250468253.2651222 0 0 0 0 -11187218.726952082 5634605.4448832162 0 5634605.4448832162 5780259.0353293587 0 0 0 0 -785969299.05841827 1278820577.5909405 0 1278820577.5909405 -1221177923.9151182 0 0 0 0 -2422281588.6742935 850436098.66362882 0 850436098.66362882 -512655735.06883073 0 0 0 0 -1962486419.0277476 2641031760.8652625 0 2641031760.8652625 -685728162.87924767 0 0 0 0 -2789415251.9059181 1462879274.1188807 0 1462879274.1188807 -1534242507.4343457 0 0 0 0 -5988996483.4015179 1975617529.6337988 0 1975617529.6337988 990470428.98130715 0 0 0 0 -1186359475.3181496 570642132.03105307 0 570642132.03105307 -869180441.56408799 0 0 0 0 -5974578193.9899302 3670824643.0867405 0 3670824643.0867405 -2618983538.9027543 0 0 0 0 -11135143.61774639 5630155.2647618828 0 5630155.2647618828 4511418.9242226221 0 0 0 0 -5918366491.0336704 3725023696.1398153 0 3725023696.1398153 -914381268.34427726 0 0 0 0 -501844698.43652344 1665726491.5552826 0 1665726491.5552826 -4319283331.112401 0 0 0 0 -8996136.7927758619 3469599.8102841852 0 3469599.8102841852 -1254095.2369363401 0 0 0 0 220003508.21084404 221575733.61489236 0 221575733.61489236 -1999141902.1682842 0 0 0 0 -476838603.95976639 1074710545.1676183 0 1074710545.1676183 -1260931522.4345224 0 0 0 0 -825722394.70874023 1366574142.3428249 0 1366574142.3428249 -1491846210.9015899 0 0 0 0 -414834799.5085187 633335559.26317084 0 633335559.26317084 -976420503.16811371 0 0 0 0 -348584299.24188614 301826102.12156796 0 301826102.12156796 -359021873.50657803 0 0 0 0 -114425295.41223717 -53006394.151669025 0 -53006394.151669025 -123258199.49045372 0 0 0 0 17845593.697216034 253285360.76131949 0 253285360.76131949 -792386130.81170392 0 0 0 0 -482709407.26181793 711532086.81560135 0 711532086.81560135 -731784669.14626062 0 0 0 0 -295265589.12677765 447670769.40697861 0 447670769.40697861 -457721329.59561205 0 0 0 0 -195289714.17672729 551882384.06318307 0 551882384.06318307 -939961840.42702866 0 0 0 0 -510415094.28644562 809731711.61910629 0 809731711.61910629 -786454318.96160126 0 0 0 0 -492500229.70087242 728690679.81987262 0 728690679.81987262 -1269397088.9251299 0 0 0 0 -263545686.49013233 761484699.90813446 0 761484699.90813446 -1130651783.3376045 0 0 0 0 -934904010.58866882 875946581.58657742 0 875946581.58657742 -959641610.24276483 0 0 0 0 -6265601861.9696732 680021804.17308617 0 680021804.17308617 906993256.61464429 0 0 0 0 -7137275.9572413219 2299721.9834664585 0 2299721.9834664585 1004160.4350469515 0 0 0 0 696335611.82559204 3297986202.9829359 0 3297986202.9829359 2022614119.6831195 0 0 0 0 -3863745999.470468 -2853577468.4074006 0 -2853577468.4074006 146870629.24181557 0 0 0 0 -844639892.13219261 2050867376.7085028 0 2050867376.7085028 1141064617.7623358 0 0 0 0 -320816216.56410456 3124737693.0928588 0 3124737693.0928588 2014627791.0494385 0 0 0 0 -9380637.0856577531 5426340.3639104627 0 5426340.3639104627 4861552.0247894246 0 0 0 0 -550908927.90883446 1109490586.2361469 0 1109490586.2361469 -1317938860.8370256 0 0 0 0 -645985775.90912247 873864086.79137468 0 873864086.79137468 -998561473.57113457 0 0 0 0 -158755177.62846565 737237444.47728062 0 737237444.47728062 -1220742485.3937979 0 0 0 0 -266123448.57209396 656066813.63010693 0 656066813.63010693 -1124485060.0199084 0 0 0 0 -19378020.377260089 559507653.34646797 0 559507653.34646797 -1655467229.0508938 0 0 0 0 4643126.6497371197 658662909.31712151 0 658662909.31712151 -1246307547.4546337 0 0 0 0 -133626170.75057745 1010203780.4464221 0 1010203780.4464221 -1407133778.0456886 0 0 0 0 -162835601.00003147 766668396.48197091 0 766668396.48197091 -662733834.93026686 0 0 0 0 94924673.558102369 812050844.01613593 0 812050844.01613593 -432186353.17399144 0 0 0 0 160810076.79260206 739388123.96257687 0 739388123.96257687 -679548353.61590338 0 0 0 0 -218003530.94242179 512156272.3426559 0 512156272.3426559 -198897051.17773056 0 0 0 0 -53737072.73117733 825672780.25792146 0 825672780.25792146 -1176207098.6131134 0 0 0 0 -301899350.80663681 792624277.87033939 0 792624277.87033939 -683331598.9612627 0 0 0 0 -155327464.36495209 542107085.12734032 0 542107085.12734032 -809098009.56323075 0 0 0 0 -143283026.85846138 313146102.09196782 0 313146102.09196782 -442869749.89829272 0 0 0 0 -243107551.90405273 635111751.30159831 0 635111751.30159831 -379870602.14538765 0 0 0 0 -76294014.269924641 61349884.081013441 0 61349884.081013441 -163168121.57823014 0 0 0 0 -199892119.70265245 403574176.52338052 0 403574176.52338052 -43638760.605626583 0 0 0 0 -233785399.89895821 470029966.02025485 0 470029966.02025485 -461283177.2891736 0 0 0 0 -195509111.91165924 84567865.90493989 0 84567865.90493989 -59882980.763811111 0 0 0 0 -5959060.712726593 11477612.958837509 0 11477612.958837509 -55631295.927667618 0 0 0 0 -78357122.92133522 100614575.66759396 0 100614575.66759396 -504213782.41778004 0 0 0 0 -100120360.25420666 84246937.950137138 0 84246937.950137138 -82004231.713767052 0 0 0 0 -35432895.657547951 -7658838.4342443943 0 -7658838.4342443943 -49234309.205001831 0 0 0 0 50767810.612047434 -12589952.734164238 0 -12589952.734164238 -35476243.719587803 0 0 0 0 -16268686.877053035 -1924391.0953950924 0 -1924391.0953950924 12395156.736488473 0 0 0 0 16404042.923214108 -52138918.580881357 0 -52138918.580881357 -22155744.563800812 0 0 0 0 34378887.518489122 -24694273.15429163 0 -24694273.15429163 -21877067.683467865 0 0 0 0 -18233870.272024155 18782618.896995544 0 18782618.896995544 -8640689.8679180145 0 0 0 0 -66002824.279234886 99244637.478010654 0 99244637.478010654 -76073063.28492409 0 0 0 0 -38258924.911747336 45897013.213131905 0 45897013.213131905 40531101.773815632 0 0 0 0 -15337852.896255732 60419470.860894203 0 60419470.860894203 11102164.023533583 0 0 0 0 -1808587.3241267889 1567319.7303185235 0 1567319.7303185235 985498.07240814879 0 0 0 0 498065024.86077285 316587212.64272773 0 316587212.64272773 419267484.98641962 0 0 0 0 -43448841.680596828 35132984.102413893 0 35132984.102413893 18208741.241818905 0 0 0 0 -18555685.431069851 53590690.972398877 0 53590690.972398877 -3389643.3400226831 0 0 0 0 -158695748.69156575 518394369.24049973 0 518394369.24049973 649615007.85344958 0 0 0 0 -141243415.42483807 427714136.88823867 0 427714136.88823867 -322368993.6709528 0 0 0 0 -81101242.537863135 163311458.44831109 0 163311458.44831109 191834213.17671013 0 0 0 0 -320529403.91951799 262029088.07387331 0 262029088.07387331 638560968.6273911 0 0 0 0 -51376203.620769501 487051910.48744357 0 487051910.48744357 377294623.16749346 0 0 0 0 -144765910.0077219 250717705.81358981 0 250717705.81358981 603142719.25486135 0 0 0 0 -8884422.7664519995 16383931.210173612 0 16383931.210173612 7639438.0357838599 0 0 0 0 -10096771.055158215 10720375.140909318 0 10720375.140909318 6222434.3980679037 0 0 0 0 -9768454.5391836166 9374912.5216332674 0 9374912.5216332674 5276665.4092693329 0 0 0 0 -18260248.190403938 12786386.955215454 0 12786386.955215454 24274460.018808365 0 0 0 0 -17603390.572035827 45030059.520935535 0 45030059.520935535 -13728832.568885803 0 0 0 0 -8125991.8424846819 14713605.879946735 0 14713605.879946735 3567388.494683159 0 0 0 0 875756.69597148895 17256827.26385498 0 17256827.26385498 -18751584.846497655 0 0 0 0 -2737439.2453105608 3657290.8085258501 0 3657290.8085258501 -290769.47344171186 0 0 0 0 -316251477.5928185 -524332037.2777968 0 -524332037.2777968 810136662.80014038 0 0 0 0 -266112.92156791687 135009555.17221427 0 135009555.17221427 275867081.80482721 0 0 0 0 -973218483.17371941 584439937.49800444 0 584439937.49800444 -232399220.89818335 0 0 0 0 -592665106.86775589 -358244288.65406728 0 -358244288.65406728 -442405185.70063496 0 0 0 0 -497950703.05325985 2400750.0052938461 0 2400750.0052938461 247609058.90680933 0 0 0 0 -675202513.20173931 557404716.67063904 0 557404716.67063904 -457590239.54957056 0 0 0 0 -285319073.03044128 651980546.54940701 0 651980546.54940701 -434673464.54737186 0 0 0 0 -2067865508.0945015 1535017115.3093643 0 1535017115.3093643 -1376851543.3903763 0 0 0 0 -411665600.88977337 471028400.11944199 0 471028400.11944199 -1037865712.2577038 0 0 0 0 -1329283554.8606825 -398164424.44168186 0 -398164424.44168186 -1434165286.6722736 0 0 0 0 -508050647.20446968 399102681.75229263 0 399102681.75229263 -742102725.38816166 0 0 0 0 -811486583.7833271 630663351.06248593 0 630663351.06248593 207467897.34167671 0 0 0 0 -1341372606.7195606 1652262455.307282 0 1652262455.307282 -1747610636.4342589 0 0 0 0 -1293191101.5976334 66557522.39266634 0 66557522.39266634 1734429446.764782 0 0 0 0 1216845.1192526817 719110230.44142532 0 719110230.44142532 -4043977918.1550312 0 0 0 0 -2575786.0924953939 2701390.241525122 0 2701390.241525122 -407476.14929339429 0 0 0 0 77680286.710594177 103133324.25737429 0 103133324.25737429 911185453.89006424 0 0 0 0 -2043981400.764163 838928851.56733847 0 838928851.56733847 1244075585.0427151 0 0 0 0 -883887942.22110558 111415251.1987589 0 111415251.1987589 700378187.46770287 0 0 0 0 -883276260.04655945 81796043.592402399 0 81796043.592402399 1137952298.7576027 0 0 0 0 -1215127839.0455303 220816302.33220577 0 220816302.33220577 785226998.97911787 0 0 0 0 -1127122587.403235 586225540.4423914 0 586225540.4423914 207197705.87002945 0 0 0 0 -833260162.8042593 118917251.2512784 0 118917251.2512784 110527761.18279743 0 0 0 0 -462267535.21866608 191536139.89836705 0 191536139.89836705 42628086.113161087 0 0 0 0 -719982313.57288408 173969701.37604159 0 173969701.37604159 566040763.88793373 0 0 0 0 -783823322.38910866 -11889915.066003084 0 -11889915.066003084 416147888.11919117 0 0 0 0 17815923.874664307 113306668.37439513 0 113306668.37439513 -139797012.15681553 0 0 0 0 -286463504.01636028 -355193769.64887357 0 -355193769.64887357 620065667.5709095 0 0 0 0 -991855.46737871505 128357.25052041234 0 128357.25052041234 267647.27438497858 0 0 0 0 -2761794.4166536666 758102.01107742381 0 758102.01107742381 682995.6622379981 0 0 0 0 -133346534.0792079 177226548.39654386 0 177226548.39654386 728985108.52731466 0 0 0 0 311730567.80618668 275956206.69632542 0 275956206.69632542 444795099.5124383 0 0 0 0 273505254.51173401 273174546.44661331 0 273174546.44661331 713498734.85784388 0 0 0 0 -36902374.419454575 285622432.99425107 0 285622432.99425107 1451470119.5348363 0 0 0 0 -13307994.097007751 115554476.132586 0 115554476.132586 1996024350.447443 0 0 0 0 -25718168.692657471 198829911.20581722 0 198829911.20581722 545358446.07210326 0 0 0 0 311716171.18160248 633580649.69549513 0 633580649.69549513 1224985826.6027112 0 0 0 0 87562868.691989899 -56824160.248140574 0 -56824160.248140574 1036148324.2110023 0 0 0 0 -6848080.2053609211 7596869.4533147123 0 7596869.4533147123 -625190.01617305493 0 0 0 0 510406403.10803223 801484138.42025852 0 801484138.42025852 1181827307.2794952 0 0 0 0 -94399054.44569397 412467019.29116631 0 412467019.29116631 -1452898000.9170017 0 0 0 0 -1430814.4737194516 879160.20663339645 0 879160.20663339645 992487.3915789884 0 0 0 0 54286822.780628204 653953952.17025423 0 653953952.17025423 1586242448.9318948 0 0 0 0 31620331.214249372 423655461.71042728 0 423655461.71042728 -1487880340.9354858 0 0 0 0 -15306946.043575395 1353309.1767043856 0 1353309.1767043856 3178748.1906292411 0 0 0 0 -6032396.3962872243 8677383.3683464192 0 8677383.3683464192 4719624.609450087 0 0 0 0 -157440358.59664154 525240159.66275597 0 525240159.66275597 -1124354099.0874391 0 0 0 0 -172551008.37643576 460260930.85565376 0 460260930.85565376 -1398793522.0134029 0 0 0 0 711089232.92185783 282016928.6070357 0 282016928.6070357 113042152.34622443 0 0 0 0 591026440.81010723 597660401.00228846 0 597660401.00228846 -713111273.07015705 0 0 0 0 -3578463021.4450865 -2040158322.665947 0 -2040158322.665947 -444180802.40420771 0 0 0 0 -3506855661.465167 -3749976778.5722637 0 -3749976778.5722637 -1595983375.506814 0 0 0 0 -3238953732.0526299 -2040662671.3435564 0 -2040662671.3435564 -1075996154.1651421 0 0 0 0 -6833054.6345230062 31917.915542953764 0 31917.915542953764 1267267.7992818493 0 0 0 0 -3457645261.6796174 -1680599004.6702592 0 -1680599004.6702592 -275897403.38633662 0 0 0 0 -538071634.3855567 795764090.25040412 0 795764090.25040412 1307062808.4497378 0 0 0 0 57894955.857395172 165278587.8735137 0 165278587.8735137 1401617523.2046781 0 0 0 0 412401499.65962887 101928383.76830888 0 101928383.76830888 738273970.08174038 0 0 0 0 121130100.30887508 219143394.05505133 0 219143394.05505133 761549659.83838892 0 0 0 0 -247064933.46565056 -211719484.99855357 0 -211719484.99855357 885647536.8100425 0 0 0 0 -1723236804.9468079 924231805.60536242 0 924231805.60536242 154486978.68501878 0 0 0 0 -1055395336.7288589 1025133481.1262558 0 1025133481.1262558 33232471.029283762 0 0 0 0 -6098575.8748779297 395064705.04009497 0 395064705.04009497 112205990.97517127 0 0 0 0 -1782861.5210218169 700901.26776343072 0 700901.26776343072 455620.28533332213 0 0 0 0 -54918412.939570904 132446279.86557904 0 132446279.86557904 1227855741.1491668 0 0 0 0 -2649809499.6299076 -513554098.34411561 0 -513554098.34411561 1270375185.8399401 0 0 0 0 -3110800280.9058743 -624339950.48375392 0 -624339950.48375392 58366218.646683246 0 0 0 0 -8453480.1102364566 4307127.3139990754 0 4307127.3139990754 -296553.38942282577 0 0 0 0 -3089393379.2648525 -393056721.30415773 0 -393056721.30415773 1993534595.0956855 0 0 0 0 -3630918163.2095451 -306288539.29782236 0 -306288539.29782236 -107572199.70882988 0 0 0 0 -2076178960.4220886 462687057.69139183 0 462687057.69139183 230521192.44702721 0 0 0 0 -2008650052.787365 338586440.62997746 0 338586440.62997746 441841448.15865791 0 0 0 0 -2478933385.2153168 110980866.66870844 0 110980866.66870844 540670957.1272738 0 0 0 0 -6477632.6436217409 3577577.2050386565 0 3577577.2050386565 672125.04746511066 0 0 0 0 -5986360749.2347403 -650706663.88713646 0 -650706663.88713646 357090861.44281912 0 0 0 0 -5974609819.1191807 441761202.71723503 0 441761202.71723503 1065320695.8033967 0 0 0 0 -3311971322.2375212 812304492.73908269 0 812304492.73908269 39381393.295367241 0 0 0 0 -3826115697.130434 76192019.905753314 0 76192019.905753314 600985507.88525617 0 0 0 0 -4892913478.6499882 1477686756.6069212 0 1477686756.6069212 833216587.11828029 0 0 0 0 -3940418268.4700737 243359098.9652797 0 243359098.9652797 1366289181.8062272 0 0 0 0 -5429855602.9993553 -1852324716.454725 0 -1852324716.454725 1907032126.4822474 0 0 0 0 -3187459394.2085257 -1599077271.9981375 0 -1599077271.9981375 -709026977.2658186 0 0 0 0 -2727746413.6139126 -622082966.15850067 0 -622082966.15850067 -1223270876.4094238 0 0 0 0 -4932693478.9858122 1527891938.1589167 0 1527891938.1589167 -2011272174.3426154 0 0 0 0 -2850414309.2822952 -1885872851.7280598 0 -1885872851.7280598 -1274191554.9587679 0 0 0 0 -2470339205.0231667 -957553203.02903748 0 -957553203.02903748 -1325073857.5085258 0 0 0 0 -10322106.614770956 3489569.9728962388 0 3489569.9728962388 3220625.7349210214 0 0 0 0 -3069245425.0396662 -1756418514.1109228 0 -1756418514.1109228 -645018432.96060419 0 0 0 0 -2598937513.6965599 -1665698281.5066509 0 -1665698281.5066509 -1087261810.7336521 0 0 0 0 -3245892825.2187014 -1479696500.2090285 0 -1479696500.2090285 -1077995542.5999546 0 0 0 0 -681846.93398883846 315150.29913789686 0 315150.29913789686 1078155.2589946641 0 0 0 0 -16905283.06526947 191547391.67918444 0 191547391.67918444 2230865469.9131951 0 0 0 0 3035544653.510025 3806795444.6921139 0 3806795444.6921139 6503444329.604023 0 0 0 0 -5971897156.9506054 254148447.75403953 0 254148447.75403953 3235158622.0198455 0 0 0 0 -413857.97060155496 6232069.8642758876 0 6232069.8642758876 -1224012.3637984039 0 0 0 0 -577942364.80158281 936686053.10098243 0 936686053.10098243 -1491966370.0000672 0 0 0 0 -3902541788.5446568 -797348119.01803327 0 -797348119.01803327 1996220401.272907 0 0 0 0 -402373577.59678018 385908119.4986763 0 385908119.4986763 248416756.05507278 0 0 0 0 93136253.609774232 154205854.1283474 0 154205854.1283474 294744946.98884535 0 0 0 0 -438550688.56719077 377257350.34243679 0 377257350.34243679 325205281.18352509 0 0 0 0 -575199831.35409641 601034733.73310661 0 601034733.73310661 182660243.09320164 0 0 0 0 -670155276.80817127 403597318.02247238 0 403597318.02247238 277238850.54990005 0 0 0 0 -630045324.66362953 559955072.74805641 0 559955072.74805641 158677247.43560314 0 0 0 0 -562828119.3243475 176016692.24552917 0 176016692.24552917 188694824.92572594 0 0 0 0 -430383401.12854028 20819530.753180504 0 20819530.753180504 369838894.8563385 0 0 0 0 -286141496.7072916 279929368.28512764 0 279929368.28512764 202463204.74638748 0 0 0 0 -161719157.53854656 -224223126.43398666 0 -224223126.43398666 248552400.82781792 0 0 0 0 -274727464.13817883 -304444596.20641136 0 -304444596.20641136 294980426.38150787 0 0 0 0 -414285912.22186089 -73298125.942865372 0 -73298125.942865372 168433393.02113724 0 0 0 0 -223824262.33162212 -316922174.58964062 0 -316922174.58964062 108959188.00680923 0 0 0 0 -264436404.80482721 -267708997.84141731 0 -267708997.84141731 468111818.16812897 0 0 0 0 -45753099.436834335 -352075761.74046707 0 -352075761.74046707 295544318.42676926 0 0 0 0 27312218.12834549 -362006712.44592285 0 -362006712.44592285 457871671.90208673 0 0 0 0 188627424.93684292 -532342000.36622238 0 -532342000.36622238 629911174.87996292 0 0 0 0 -35123690.354703665 179951135.12455559 0 179951135.12455559 226489514.41554165 0 0 0 0 -127791711.35243797 -113352702.89995384 0 -113352702.89995384 423455784.35030746 0 0 0 0 64599419.451700211 -69499196.029554367 0 -69499196.029554367 405471259.15307236 0 0 0 0 13220212.13172102 169875893.12008667 0 169875893.12008667 609498907.42121506 0 0 0 0 380985236.06783867 -327053071.48786449 0 -327053071.48786449 571894930.53300858 0 0 0 0 360069705.44038868 -396204446.41235924 0 -396204446.41235924 1462758696.4266319 0 0 0 0 588152861.33317208 -247780185.80158424 0 -247780185.80158424 596526311.82394028 0 0 0 0 94567414.990665138 -546529033.77368331 0 -546529033.77368331 635489552.772995 0 0 0 0 644123058.76355648 -78676378.60515976 0 -78676378.60515976 786216921.41006851 0 0 0 0 743068828.60224915 -707354404.67168808 0 -707354404.67168808 646554206.28325653 0 0 0 0 241359523.99275208 -909976180.11673164 0 -909976180.11673164 943366652.80647278 0 0 0 0 -113191918.43730879 133755165.48104668 0 133755165.48104668 250269958.26682281 0 0 0 0 55063262.322429657 -397532641.85204506 0 -397532641.85204506 1162011223.0266113 0 0 0 0 -702915.09935566981 1157434.1314094565 0 1157434.1314094565 1443968.6528189871 0 0 0 0 1656214185.2935843 -1242840639.946228 0 -1242840639.946228 725617285.87736511 0 0 0 0 1127535382.1552205 -1118123900.9122581 0 -1118123900.9122581 1250084860.118433 0 0 0 0 580869047.23275483 -516007883.66806412 0 -516007883.66806412 821963399.38936615 0 0 0 0 1565228215.5426493 -727783665.27776098 0 -727783665.27776098 412478101.6002655 0 0 0 0 268770604.90133238 -231410841.10271454 0 -231410841.10271454 522539616.70436382 0 0 0 0 309487945.51452589 -199950698.40697384 0 -199950698.40697384 122770516.5164032 0 0 0 0 -168505459.06884813 20901326.801855087 0 20901326.801855087 439657951.49621964 0 0 0 0 657433114.93401396 -480330034.99255943 0 -480330034.99255943 571317468.28362274 0 0 0 0 152827527.60463381 -5846666.4795398712 0 -5846666.4795398712 699800124.79800415 0 0 0 0 -326447881.51445341 284672931.15674019 0 284672931.15674019 468442648.872612 0 0 0 0 208510811.97640967 -1463839.4677085876 0 -1463839.4677085876 246437237.2820816 0 0 0 0 -278900121.76722813 411980195.78363991 0 411980195.78363991 70029021.237960815 0 0 0 0 -598661244.45466042 289596481.52967834 0 289596481.52967834 262536600.51562119 0 0 0 0 -125843544.65236378 132757737.126091 0 132757737.126091 -100937107.87140656 0 0 0 0 -470423165.31636345 32656322.945730686 0 32656322.945730686 171304270.78720856 0 0 0 0 -435801754.7544899 136472901.55550623 0 136472901.55550623 -513225519.51797485 0 0 0 0 -1054605506.4778786 462430670.15145111 0 462430670.15145111 -34491311.213417053 0 0 0 0 -1175499567.658782 240500523.4220295 0 240500523.4220295 -93249980.773674011 0 0 0 0 -1641764393.0291672 657611063.7290535 0 657611063.7290535 -370223537.58631516 0 0 0 0 -2093967305.2050133 601501987.28223419 0 601501987.28223419 -277136834.1257782 0 0 0 0 -920055212.57225752 157603452.06512833 0 157603452.06512833 -835166925.43464661 0 0 0 0 -3362260232.8149176 610477240.30628204 0 610477240.30628204 -94852669.710670471 0 0 0 0 -2893028178.9950867 414629171.98191833 0 414629171.98191833 -146287751.40997314 0 0 0 0 -2283068157.8277211 72876917.876829147 0 72876917.876829147 -370771345.32080078 0 0 0 0 -54272.014852921799 3561538.47782085 0 3561538.47782085 -1675567.2180264518 0 0 0 0 91727326.792654335 -268022842.17714667 0 -268022842.17714667 -520956094.34557343 0 0 0 0 -77574.544130553491 211420.85282753408 0 211420.85282753408 230648.45650714403 0 0 0 0 -1603610741.785738 173470222.55796432 0 173470222.55796432 -407176138.04126453 0 0 0 0 -2741887526.886097 -304211978.00738144 0 -304211978.00738144 165548199.9603529 0 0 0 0 -5327401.6022422202 2041902.0460872035 0 2041902.0460872035 14094722.932976905 0 0 0 0 -1644665079.5538321 127182134.22532845 0 127182134.22532845 114828750.32228661 0 0 0 0 -1575403384.4780359 58877290.225650787 0 58877290.225650787 127085857.97384644 0 0 0 0 -18939582.22587204 -64198901.947548866 0 -64198901.947548866 177512309.72484875 0 0 0 0 -680840859.82947075 482372406.8173666 0 482372406.8173666 22903094.510128021 0 0 0 0 -597971067.45566165 395736601.61056304 0 395736601.61056304 -120718272.72039032 0 0 0 0 -1055621159.2963371 340002050.26371002 0 340002050.26371002 144794710.37859154 0 0 0 0 -1162804483.2698612 506726331.55019188 0 506726331.55019188 -35218743.39440155 0 0 0 0 75615666.7296464 -28043499.33310318 0 -28043499.33310318 -133482505.88808107 0 0 0 0 -215248255.62036514 57913853.467475891 0 57913853.467475891 -23581665.856356621 0 0 0 0 -6629508.2219231371 10917455.412677344 0 10917455.412677344 2255278.9798945547 0 0 0 0 44642912.907222748 -3434971.0994300842 0 -3434971.0994300842 -18200156.553066254 0 0 0 0 72471539.882772446 114528367.16431242 0 114528367.16431242 -331280320.46631622 0 0 0 0 -31483264.258277893 31646889.268009901 0 31646889.268009901 -14742792.530162513 0 0 0 0 -43349251.276350021 65808306.491744041 0 65808306.491744041 193106648.93173552 0 0 0 0 -258010741.83575058 158231014.72491646 0 158231014.72491646 322466190.92429662 0 0 0 0 202698259.87714577 -428502938.58443427 0 -428502938.58443427 -115818406.76440239 0 0 0 0 71948592.251792908 -296615101.90369105 0 -296615101.90369105 463533141.44076633 0 0 0 0 387536829.64932442 -155356391.51666903 0 -155356391.51666903 -108706763.79140043 0 0 0 0 29012920.17380619 -138888491.80311227 0 -138888491.80311227 23417870.10926342 0 0 0 0 161817494.32182121 -172823773.80496716 0 -172823773.80496716 54968605.688545704 0 0 0 0 76727454.115237236 92921635.297969341 0 92921635.297969341 -466686459.91100931 0 0 0 0 -195545133.69330072 -215592729.90252304 0 -215592729.90252304 -792078157.92415524 0 0 0 0 -905048628.50672913 494991800.42723751 0 494991800.42723751 191418542.03861046 0 0 0 0 -877095852.09191728 279098825.64499962 0 279098825.64499962 129370944.6814003 0 0 0 0 -2696839.101907942 1176893.3686218369 0 1176893.3686218369 8972695.4573111944 0 0 0 0 -906967046.72955132 198342005.30753708 0 198342005.30753708 491281.48679447174 0 0 0 0 -559704630.97912788 234389969.00821066 0 234389969.00821066 74293385.754570007 0 0 0 0 -531741932.27040195 552970545.13486528 0 552970545.13486528 124827685.90730906 0 0 0 0 -655594059.61268616 487999084.21527767 0 487999084.21527767 92208530.23323822 0 0 0 0 -1186140.970140147 1480066.0050781108 0 1480066.0050781108 4253131.1163076069 0 0 0 0 -28054146.638830185 397935482.51109409 0 397935482.51109409 -45238930.89029026 0 0 0 0 12310199.279257774 152324693.09602523 0 152324693.09602523 178794569.24156952 0 0 0 0 931719985.94708347 269543898.30728054 0 269543898.30728054 -374990832.23656082 0 0 0 0 -314651.97612251912 912072.90452530701 0 912072.90452530701 1092908.2378616077 0 0 0 0 -268523635.56326199 599612913.43431211 0 599612913.43431211 -187421664.16160393 0 0 0 0 -418562626.54503441 419628748.7957747 0 419628748.7957747 -72284920.684761047 0 0 0 0 -602549268.12284851 870529534.19653749 0 870529534.19653749 -524242146.94484699 0 0 0 0 609580107.73342514 145563502.66814691 0 145563502.66814691 -482958483.25015831 0 0 0 0 -76216103.565763474 369226679.15139556 0 369226679.15139556 -42101144.462284088 0 0 0 0 -228052986.0474987 323515285.80216122 0 323515285.80216122 136692888.67615461 0 0 0 0 -194890133.11160898 380706443.47940361 0 380706443.47940361 -16376687.932845116 0 0 0 0 -718439109.14006805 330797497.85396361 0 330797497.85396361 301043895.68457985 0 0 0 0 -654465577.24009132 517023435.66972709 0 517023435.66972709 97632328.499490261 0 0 0 0 -341847987.8596983 291349334.07933712 0 291349334.07933712 114066618.75536585 0 0 0 0 -474605177.83054161 380141965.77440524 0 380141965.77440524 84155838.241827011 0 0 0 0 23249472.870545387 -18172166.40370369 0 -18172166.40370369 -214677638.46928582 0 0 0 0 -510266931.84206963 287076597.41535878 0 287076597.41535878 -144229078.71662557 0 0 0 0 -222436742.13548088 315460448.97565222 0 315460448.97565222 -686110586.01784992 0 0 0 0 -128152153.91517258 72609767.172422886 0 72609767.172422886 -81614709.316358924 0 0 0 0 -327734312.78505707 -3714753.8996868134 0 -3714753.8996868134 -387638478.30330896 0 0 0 0 213499695.86039639 501658047.95936394 0 501658047.95936394 -66897168.333161354 0 0 0 0 -148658029.63997841 -219987945.12537885 0 -219987945.12537885 -183159763.78439522 0 0 0 0 -30779402.3864398 -265394134.54534358 0 -265394134.54534358 -960234612.38935566 0 0 0 0 13754160.196349099 -281198471.21329027 0 -281198471.21329027 -1419421123.1546478 0 0 0 0 -589047913.74354935 -157087868.06641841 0 -157087868.06641841 -936991322.59868622 0 0 0 0 -803270305.17007446 334210091.56117582 0 334210091.56117582 -2060268338.6249213 0 0 0 0 -996817665.45051861 -691133687.89194703 0 -691133687.89194703 -1297720618.8809633 0 0 0 0 -1487167451.6153502 22725016.043925524 0 22725016.043925524 -1424893286.6962729 0 0 0 0 -1109682995.4227481 312765185.06386256 0 312765185.06386256 -593135952.99020958 0 0 0 0 -1260577101.4314117 724277458.24129248 0 724277458.24129248 -1611757230.8622947 0 0 0 0 -436353876.04496574 333045102.84562588 0 333045102.84562588 -1421882675.0028651 0 0 0 0 -728520898.68223095 638902470.45263577 0 638902470.45263577 -196718563.26911449 0 0 0 0 -750722296.45486355 404303755.20590401 0 404303755.20590401 -268967196.44535255 0 0 0 0 -1066744256.146616 730250519.05381298 0 730250519.05381298 -604934727.07376552 0 0 0 0 -1298327719.9520602 197292204.63244462 0 197292204.63244462 -250321928.99783897 0 0 0 0 -1123955953.5860124 395407959.24699402 0 395407959.24699402 -103379198.02163219 0 0 0 0 -888453532.796031 219273829.01358581 0 219273829.01358581 28218542.530784607 0 0 0 0 -895628255.94799232 651767327.38307059 0 651767327.38307059 -54122270.79932785 0 0 0 0 -657556013.13207579 482699133.03317404 0 482699133.03317404 65925214.595889091 0 0 0 0 -649737268.19989824 639677991.59916019 0 639677991.59916019 63559800.510176659 0 0 0 0 -500575903.22516537 -374603156.32153654 0 -374603156.32153654 -211333241.14536667 0 0 0 0 -718731324.84356785 -170591628.39935017 0 -170591628.39935017 -34703830.730843544 0 0 0 0 -501602668.04303932 -335645495.94468021 0 -335645495.94468021 -72424200.449058533 0 0 0 0 -254740520.68981361 -364211703.30279255 0 -364211703.30279255 -77789752.357315063 0 0 0 0 -440821649.30409384 -215222707.8007946 0 -215222707.8007946 -32685629.183631897 0 0 0 0 -483160653.08078098 -224051683.95347404 0 -224051683.95347404 92673739.749816895 0 0 0 0 -657115764.06743526 -134466711.60132217 0 -134466711.60132217 159463003.94428825 0 0 0 0 -842777458.79514921 310795774.62464809 0 310795774.62464809 132753781.83330441 0 0 0 0 -525097906.6695509 6997510.3185329437 0 6997510.3185329437 8561981.6769714355 0 0 0 0 -685216168.59311676 -195035227.44064236 0 -195035227.44064236 -225691671.47722816 0 0 0 0 -1000352275.8355033 68230399.929456711 0 68230399.929456711 679001.98901462555 0 0 0 0 -1055463850.5579963 -127052917.53956699 0 -127052917.53956699 -226419073.20436478 0 0 0 0 -1041474369.6006656 -5714864.4171872139 0 -5714864.4171872139 -118001857.85450745 0 0 0 0 -1423459695.6256349 207432898.17238045 0 207432898.17238045 -220046140.97896385 0 0 0 0 -1230107468.7927082 280821673.27947283 0 280821673.27947283 -568372317.76675892 0 0 0 0 -1212671423.9204507 -337141844.53473043 0 -337141844.53473043 -491735780.29089165 0 0 0 0 -919434618.53411674 -538077881.08955479 0 -538077881.08955479 -495195506.44001198 0 0 0 0 -577693937.63586998 -536601222.46190691 0 -536601222.46190691 -759212214.58983994 0 0 0 0 -710127994.96675968 -285929493.9382925 0 -285929493.9382925 -230344710.4459095 0 0 0 0 -437430535.73228836 -399270314.42720652 0 -399270314.42720652 -348346760.65013504 0 0 0 0 -435484923.00706673 -418032298.91384315 0 -418032298.91384315 -663533755.29862309 0 0 0 0 -1077962673.7735672 -872593427.29082656 0 -872593427.29082656 -1402124769.2530386 0 0 0 0 -852167552.83184433 -422782406.2327764 0 -422782406.2327764 -735947274.390517 0 0 0 0 -292499717.08980465 -376839563.8853029 0 -376839563.8853029 -1402268266.595149 0 0 0 0 -2154181056.464941 293466352.39634156 0 293466352.39634156 -568433293.22541475 0 0 0 0 -1944808138.080596 -208833564.62785959 0 -208833564.62785959 -513054784.71827304 0 0 0 0 -3576753843.222724 425387627.30428219 0 425387627.30428219 -950885174.52797484 0 0 0 0 -1708213121.2439842 -21368245.271023989 0 -21368245.271023989 -890509806.70710611 0 0 0 0 -62916081.801036477 40103752.165728569 0 40103752.165728569 -1642954797.9165182 0 0 0 0 -1626942695.0949206 649097260.1310482 0 649097260.1310482 -3573452913.4309025 0 0 0 0 -1579562603.4857316 -1309950617.172297 0 -1309950617.172297 -2606922505.6061611 0 0 0 0 -3427478735.3122611 -1105786953.7217295 0 -1105786953.7217295 -1860790495.2372117 0 0 0 0 -212631850.7463398 -235613697.60302114 0 -235613697.60302114 -1557979682.0125599 0 0 0 0 -695843890.0038991 -183600317.38242722 0 -183600317.38242722 -1597575874.8292971 0 0 0 0 -687529637.58341217 -245986469.35007524 0 -245986469.35007524 -1132264197.8255229 0 0 0 0 -102353525.42479134 367222571.5421381 0 367222571.5421381 -1535294447.8182106 0 0 0 0 -140201452.46504021 201682152.14697838 0 201682152.14697838 -957353086.38675785 0 0 0 0 54977102.872207642 49820354.069293976 0 49820354.069293976 -1131617848.100554 0 0 0 0 -89906910.822853088 307245070.41891384 0 307245070.41891384 -917152930.729599 0 0 0 0 -151269896.21485949 26042242.424210429 0 26042242.424210429 -1012746845.3814039 0 0 0 0 133899805.74198151 -135274366.07763475 0 -135274366.07763475 -863723554.42767 0 0 0 0 44161423.737423897 44874703.002614498 0 44874703.002614498 -809108322.4759655 0 0 0 0 201475668.20018005 27931653.919433117 0 27931653.919433117 -641066080.79279518 0 0 0 0 196600954.27381897 11374844.822945118 0 11374844.822945118 -680957600.62944627 0 0 0 0 270359444.78342247 -119047391.38077021 0 -119047391.38077021 -649326389.71071625 0 0 0 0 144848085.14609528 102105676.01001978 0 102105676.01001978 -832504666.38488865 0 0 0 0 196525284.29167366 -33820074.749233603 0 -33820074.749233603 -707365284.46071148 0 0 0 0 217353593.64812851 -251054757.56967402 0 -251054757.56967402 -650145927.21881676 0 0 0 0 163783758.9974823 -283117907.36537087 0 -283117907.36537087 -665848872.80446875 0 0 0 0 43874817.754358292 -220718696.00183582 0 -220718696.00183582 -591200480.83048058 0 0 0 0 -10219255.08486557 -350287587.14214325 0 -350287587.14214325 -897518005.70802021 0 0 0 0 -122967073.42983437 -225288905.57794094 0 -225288905.57794094 -804128312.5302639 0 0 0 0 -294176714.72160447 -347996232.54592252 0 -347996232.54592252 -858506883.88668418 0 0 0 0 -11004625.653327942 -216519314.9757306 0 -216519314.9757306 -1241670603.491616 0 0 0 0 31257501.902974129 -80490078.413986146 0 -80490078.413986146 -804737329.12824893 0 0 0 0 153608939.07267714 -181212853.33465561 0 -181212853.33465561 -638558049.76132107 0 0 0 0 432721217.01679993 -91091550.086688042 0 -91091550.086688042 -642451141.19525063 0 0 0 0 312396313.00880432 -53204024.650152922 0 -53204024.650152922 -562321098.55233669 0 0 0 0 328845849.62166119 -164891603.75956729 0 -164891603.75956729 -404399302.16823864 0 0 0 0 205685353.25596237 -279340961.06276178 0 -279340961.06276178 -317836872.55868483 0 0 0 0 277710311.21931839 -110497392.50664967 0 -110497392.50664967 -171633735.11339766 0 0 0 0 380755148.12524414 -6396468.9117843509 0 -6396468.9117843509 -415225071.24074519 0 0 0 0 392108754.0576694 -291673679.8530398 0 -291673679.8530398 -784337233.09115601 0 0 0 0 314005078.26370621 -509077518.93722874 0 -509077518.93722874 451458815.24515486 0 0 0 0 469819176.19530869 -259773150.15140247 0 -259773150.15140247 -233983355.57658005 0 0 0 0 344844103.71205521 -578745160.20521164 0 -578745160.20521164 12673725.43921721 0 0 0 0 262276232.16077805 -268088774.86455393 0 -268088774.86455393 42911586.870223999 0 0 0 0 315923813.08894157 -298942769.68464494 0 -298942769.68464494 -368975369.12116718 0 0 0 0 244173415.08032227 -452118649.59130001 0 -452118649.59130001 -11346500.833972931 0 0 0 0 256570186.48950195 -602205661.32179546 0 -602205661.32179546 56018741.755365372 0 0 0 0 299893519.88911438 -540613173.40192032 0 -540613173.40192032 123129678.508564 0 0 0 0 319558001.33560181 -564804895.35818863 0 -564804895.35818863 55342565.400315523 0 0 0 0 512152679.27060604 -359773372.42065883 0 -359773372.42065883 104411390.67240334 0 0 0 0 516578608.73048401 -468775738.32115555 0 -468775738.32115555 43270296.016544342 0 0 0 0 -13829594.453227997 -466808477.68805695 0 -466808477.68805695 -401247574.79928541 0 0 0 0 -41168577.661571503 -485694607.19106388 0 -485694607.19106388 -178317047.23075104 0 0 0 0 -181269265.30572701 -509388365.74817228 0 -509388365.74817228 -733472282.62376022 0 0 0 0 -119684475.14739609 -354679492.23304987 0 -354679492.23304987 -345288517.76349354 0 0 0 0 69120424.97858429 -407584891.38505173 0 -407584891.38505173 -709963577.62605286 0 0 0 0 82176775.160369873 -299664229.87719536 0 -299664229.87719536 -334257607.61646461 0 0 0 0 117280898.15572739 -396932892.00922298 0 -396932892.00922298 -159542194.84717846 0 0 0 0 183839480.2220459 -426406433.52557373 0 -426406433.52557373 -429490579.23620701 0 0 0 0 117813900.31833041 -430176118.8419019 0 -430176118.8419019 -174238739.28533936 0 0 0 0 110136527.17341232 -550617584.37229252 0 -550617584.37229252 -23994101.779327393 0 0 0 0 264059775.91808319 -487783146.10720253 0 -487783146.10720253 -210808784.48427773 0 0 0 0 248196610.12911224 -601409616.62257004 0 -601409616.62257004 80267670.163385391 0 0 0 0 212041353.24162674 -488486593.77412581 0 -488486593.77412581 13880749.475601196 0 0 0 0 7379674.9545783997 -536289187.81066036 0 -536289187.81066036 24584251.940922737 0 0 0 0 -51117359.77789402 -392595019.04373026 0 -392595019.04373026 57887848.928230286 0 0 0 0 -212547120.49471092 -434393655.60676956 0 -434393655.60676956 -390215656.59749031 0 0 0 0 -216977490.83349037 -386965070.59100342 0 -386965070.59100342 -132002188.03740311 0 0 0 0 -282915118.4926796 -343326825.67068672 0 -343326825.67068672 92864235.045860291 0 0 0 0 -79016547.543579102 -477300935.36916924 0 -477300935.36916924 -138949057.55228615 0 0 0 0 -69114414.361167908 -395373867.83395767 0 -395373867.83395767 89770107.155536294 0 0 0 0 -109306215.31869698 -404094112.85367298 0 -404094112.85367298 277839125.13320923 0 0 0 0 59180092.926715851 -475475092.83259201 0 -475475092.83259201 76375398.56055975 0 0 0 0 33047802.949829102 -498445942.77999878 0 -498445942.77999878 223922080.23216248 0 0 0 0 31622325.983720779 -449285044.18129635 0 -449285044.18129635 462836279.66611481 0 0 0 0 -104718413.85081291 -407434878.50008965 0 -407434878.50008965 521138167.8615799 0 0 0 0 76364254.206832886 -419495386.85015869 0 -419495386.85015869 277017826.11800551 0 0 0 0 -14823195.258432388 -572438037.45731568 0 -572438037.45731568 762414187.60905457 0 0 0 0 8115506.3378753662 -416809525.7436409 0 -416809525.7436409 510106185.78418541 0 0 0 0 -17216465.61147213 -443305146.24015427 0 -443305146.24015427 750006182.3276062 0 0 0 0 242670531.32526398 -416253526.64297676 0 -416253526.64297676 467359297.66185379 0 0 0 0 -122848780.20548248 -524958977.81539154 0 -524958977.81539154 1014834344.4539986 0 0 0 0 63461787.269226074 -378182726.32471848 0 -378182726.32471848 785333323.51196671 0 0 0 0 99516193.577549934 -255015850.00720787 0 -255015850.00720787 1030906424.586792 0 0 0 0 -91473304.404205322 -347095461.51372147 0 -347095461.51372147 1033894939.0120953 0 0 0 0 -88022360.319725037 -388608213.0818367 0 -388608213.0818367 1174414369.7552948 0 0 0 0 -125279328.94913101 -563492554.01560974 0 -563492554.01560974 806776847.26355743 0 0 0 0 427093951.77231693 -427167416.79938793 0 -427167416.79938793 875291689.66530609 0 0 0 0 487783092.07953453 -595667345.96115971 0 -595667345.96115971 706914184.95015717 0 0 0 0 220567674.53234863 -539742136.35253143 0 -539742136.35253143 1035721041.3804779 0 0 0 0 272801145.01475525 -525114573.76574707 0 -525114573.76574707 1038302849.0187206 0 0 0 0 1025567908.1766434 -711509938.1067009 0 -711509938.1067009 968737723.76143837 0 0 0 0 361682710.88195801 -559632603.76412582 0 -559632603.76412582 756789311.10241318 0 0 0 0 195547084.6416626 -399499857.95620346 0 -399499857.95620346 625467025.25751185 0 0 0 0 552344396.27807617 -353365362.63459015 0 -353365362.63459015 627814507.62758636 0 0 0 0 414750524.31745148 -503934063.34300041 0 -503934063.34300041 407954729.12358856 0 0 0 0 288488414.35787201 -587304087.58019257 0 -587304087.58019257 537987164.21426773 0 0 0 0 457511100.95341492 -501753876.50777054 0 -501753876.50777054 568570359.02255249 0 0 0 0 291368987.93915558 -567170964.09490585 0 -567170964.09490585 703825241.84980011 0 0 0 0 320665901.67103577 -506784957.70091629 0 -506784957.70091629 407480994.38323975 0 0 0 0 243223152.39457703 -575465012.46847916 0 -575465012.46847916 291218555.38748932 0 0 0 0 306608196.35127068 -603364106.3989985 0 -603364106.3989985 299505051.24738312 0 0 0 0 213923044.43104935 -425558979.87248039 0 -425558979.87248039 252793585.39133835 0 0 0 0 201153910.5662384 -552445580.22005844 0 -552445580.22005844 307098720.6044693 0 0 0 0 278582346.94961596 -462586770.47256613 0 -462586770.47256613 397679983.06718445 0 0 0 0 164569697.63082123 -465749187.22576904 0 -465749187.22576904 56224388.663223267 0 0 0 0 127818948.20681381 -534841936.44735718 0 -534841936.44735718 155609331.71373749 0 0 0 0 264606020.95549774 -501486242.46110916 0 -501486242.46110916 163659050.90279388 0 0 0 0 274157346.40616226 -529334874.97618866 0 -529334874.97618866 144007748.77223587 0 0 0 0 273529436.13454437 -617814708.64527512 0 -617814708.64527512 194145085.09465981 0 0 0 0 221334511.64888763 -520379915.38127136 0 -520379915.38127136 292874594.86840439 0 0 0 0 223666259.39148712 -506587941.61335564 0 -506587941.61335564 350920130.1380806 0 0 0 0 436083626.30447006 -448048713.07271862 0 -448048713.07271862 164913765.85231018 0 0 0 0 184892288.72773361 -416922025.63365173 0 -416922025.63365173 175818118.47674322 0 0 0 0 19876623.786248684 -61187305.347631812 0 -61187305.347631812 94357737.418247223 0 0 0 0 42771086.711433411 -274840489.97757721 0 -274840489.97757721 497291160.67816544 0 0 0 0 63881186.83389473 -235840154.71334743 0 -235840154.71334743 457991768.83359909 0 0 0 0 250536629.97694016 -594688602.18305588 0 -594688602.18305588 519597709.5870285 0 0 0 0 138692598.85682678 -484126215.7567749 0 -484126215.7567749 565504487.6430397 0 0 0 0 266026597.51462555 -592705982.71967888 0 -592705982.71967888 364511738.13880157 0 0 0 0 313512236.71807861 -563793718.60823059 0 -563793718.60823059 495525550.42144775 0 0 0 0 156023369.49321747 -434877667.54979324 0 -434877667.54979324 328167225.90816879 0 0 0 0 171856257.61000061 -553074186.09955597 0 -553074186.09955597 682202087.62541199 0 0 0 0 220759481.7015686 -523682139.07260895 0 -523682139.07260895 669972396.92059708 0 0 0 0 11820672.102355957 -262477766.20089722 0 -262477766.20089722 843556788.22934723 0 0 0 0 -95664058.811431885 -202350677.94328308 0 -202350677.94328308 1004429852.5317383 0 0 0 0 124477288.44823456 -535327443.18773651 0 -535327443.18773651 1404470178.1815948 0 0 0 0 27642737.122467041 -309061693.38873291 0 -309061693.38873291 881398224.06784821 0 0 0 0 -111328123.04799271 -248967492.73388863 0 -248967492.73388863 1408598772.584671 0 0 0 0 -109717704.64976501 -247983779.62543488 0 -247983779.62543488 1387451438.6901855 0 0 0 0 -46523681.279581644 -11090091.425131265 0 -11090091.425131265 7543922.4097769763 0 0 0 0 -54148246.550170898 -1612510.4692115784 0 -1612510.4692115784 -4923249.5410423279 0 0 0 0 -45473536.722930908 -30107889.415172577 0 -30107889.415172577 20424031.238433838 0 0 0 0 -48125586.958312988 -25674187.620368958 0 -25674187.620368958 27542057.111694336 0 0 0 0 -113089333.36833572 -13078997.058997631 0 -13078997.058997631 172167884.91525269 0 0 0 0 -113760454.12617493 -3069733.791595459 0 -3069733.791595459 60910877.704730988 0 0 0 0 -44791148.275505066 -138806460.92770195 0 -138806460.92770195 55254238.197990417 0 0 0 0 -79710934.003051758 -56193682.49325943 0 -56193682.49325943 109863782.2977562 0 0 0 0 -91618313.996398926 -214300412.2618742 0 -214300412.2618742 1647526.4193191528 0 0 0 0 -47677199.607086182 -35287623.942811966 0 -35287623.942811966 13328061.966827393 0 0 0 0 -53213163.158935547 -32526936.338413239 0 -32526936.338413239 23473030.014678955 0 0 0 0 -21314448.125808716 -49611588.140674591 0 -49611588.140674591 19321526.253734589 0 0 0 0 -15329269.457382202 -27706980.730316162 0 -27706980.730316162 -4362188.3886737823 0 0 0 0 -39148539.681400299 -17740389.768768311 0 -17740389.768768311 8216232.821395874 0 0 0 0 -429835344.91883469 979788264.61851692 0 979788264.61851692 129353093.46771669 0 0 0 0 -621952667.21258354 -206149731.35709763 0 -206149731.35709763 -7108759.5800132751 0 0 0 0 50811168.469177246 -466203615.61418533 0 -466203615.61418533 530105462.86389923 0 0 0 0 -1059612.5396677423 -1518400.9657133669 0 -1518400.9657133669 -1795305.6404750906 0 0 0 0 118345667.15791321 -743067078.87285805 0 -743067078.87285805 756276587.65427399 0 0 0 0 -137623796.57939148 -1061165014.5936356 0 -1061165014.5936356 361203735.60902977 0 0 0 0 -255027598.21844101 -939945806.12280655 0 -939945806.12280655 825778096.73127747 0 0 0 0 86450099.505323946 -753261298.64803493 0 -753261298.64803493 923987458.61708832 0 0 0 0 -824414840.95366287 -1261776640.4301949 0 -1261776640.4301949 892091557.37204742 0 0 0 0 -331152681.84926701 -752887751.58521271 0 -752887751.58521271 1399293621.2023087 0 0 0 0 -1182613506.6021719 -348077990.80016136 0 -348077990.80016136 2060349848.7696152 0 0 0 0 808510993.71957779 259698755.52646255 0 259698755.52646255 1356011485.4122314 0 0 0 0 -31495588.904295195 -18670956.562025174 0 -18670956.562025174 -2409182.7731864564 0 0 0 0 88787661.610799789 -642465272.96707726 0 -642465272.96707726 -415383392.30531311 0 0 0 0 932650758.82208252 353058459.18120575 0 353058459.18120575 295844559.41283417 0 0 0 0 436524973.41381073 -818681981.33235931 0 -818681981.33235931 1520994058.6730804 0 0 0 0 100261770.79278564 -627876877.25369263 0 -627876877.25369263 1773407084.6900387 0 0 0 0 3753805.900178818 -11099591.397002559 0 -11099591.397002559 -2213179.5268704016 0 0 0 0 -1291668586.8770447 747674070.81069183 0 747674070.81069183 -91602299.565372467 0 0 0 0 -788146306.36032104 418181232.39089966 0 418181232.39089966 100038728.65015793 0 0 0 0 -133959749.5975647 1064151367.2094498 0 1064151367.2094498 -17759618.288478851 0 0 0 0 -2766375620.9532166 1121098374.1239014 0 1121098374.1239014 681936164.01906776 0 0 0 0 -3115244628.6130981 396782823.42998505 0 396782823.42998505 972498190.22319078 0 0 0 0 -1644266256.4741058 256147681.87825394 0 256147681.87825394 615159722.563797 0 0 0 0 -1970638436.9549255 196760108.49607086 0 196760108.49607086 979547646.46001589 0 0 0 0 -1778578321.1169739 906153530.2567749 0 906153530.2567749 710967200.48452568 0 0 0 0 -1461224239.2207794 714482886.91668892 0 714482886.91668892 416705776.35676575 0 0 0 0 -1512504998.5727234 397781588.73808289 0 397781588.73808289 271998743.68209076 0 0 0 0 -1495823464.5702362 458752777.82886314 0 458752777.82886314 362229030.35379791 0 0 0 0 -947329513.07432556 -84687704.05002594 0 -84687704.05002594 722497142.20166016 0 0 0 0 -1722573352.1981812 632861246.13259602 0 632861246.13259602 10140489.217281342 0 0 0 0 -2684749898.4503784 -130228562.5173645 0 -130228562.5173645 413094112.97038269 0 0 0 0 -1647491737.2313528 208048179.90867218 0 208048179.90867218 430562017.50985718 0 0 0 0 -1646230709.4685364 567437252.09990692 0 567437252.09990692 498469396.88573074 0 0 0 0 -282114930.95535278 -344629994.0075779 0 -344629994.0075779 -30930653.019561768 0 0 0 0 -1316436576.8681641 120317804.23821259 0 120317804.23821259 413096136.0790329 0 0 0 0 -1618664190.6108398 -738360670.51476288 0 -738360670.51476288 229941413.74316406 0 0 0 0 -1785303656.7769165 -685704455.53178406 0 -685704455.53178406 215104803.26755714 0 0 0 0 -1766355534.3417358 -643421317.77916336 0 -643421317.77916336 302353862.13056946 0 0 0 0 -3414175532.3721619 -906203137.06813431 0 -906203137.06813431 271386098.88046837 0 0 0 0 -2377253.2976779789 -1393855.3395974375 0 -1393855.3395974375 881550.93083418533 0 0 0 0 -645895630.68466187 -466583260.23280716 0 -466583260.23280716 -176129330.66135025 0 0 0 0 -339011318.55853271 750312143.11792755 0 750312143.11792755 2070049851.4574585 0 0 0 0 -708862624.63172913 -1096113457.2207394 0 -1096113457.2207394 451971946.50627899 0 0 0 0 -635892471.35984802 -1130959622.3153858 0 -1130959622.3153858 34205083.090820312 0 0 0 0 -1259431666.1598511 -966524963.71630859 0 -966524963.71630859 557394649.58654785 0 0 0 0 -1468443092.8860168 -1348069294.3053379 0 -1348069294.3053379 -116197091.83097839 0 0 0 0 -419291403.59332275 123362844.28722382 0 123362844.28722382 1347199675.5764885 0 0 0 0 -280540943.89245605 -325517834.76735306 0 -325517834.76735306 421051882.45901489 0 0 0 0 -261892862.44326782 -204816554.43789673 0 -204816554.43789673 1138429123.9865723 0 0 0 0 76638653.456082344 -3169682936.4247017 0 -3169682936.4247017 -182511143.10791779 0 0 0 0 -87060890.800842285 92556858.090503693 0 92556858.090503693 750043769.51603317 0 0 0 0 -89729691.198120117 54975816.955272675 0 54975816.955272675 223774233.4051342 0 0 0 0 54465696.461151123 71054221.375535965 0 71054221.375535965 -81688348.119319916 0 0 0 0 -10400266.931922046 -398797.29121022671 0 -398797.29121022671 5409944.1029712409 0 0 0 0 -44049699.147806108 -8522474.8488329574 0 -8522474.8488329574 8344266.2627406381 0 0 0 0 45121484.995437622 143587178.54313087 0 143587178.54313087 280210305.04960632 0 0 0 0 -563672693.55986023 -1008467708.4036674 0 -1008467708.4036674 830410904.17762375 0 0 0 0 685086519.72661591 -60616122.204269409 0 -60616122.204269409 -427341204.95476151 0 0 0 0 -373975097.62612152 -124619507.24547577 0 -124619507.24547577 -1823416.7738876343 0 0 0 0 -66137347.728599548 -69084355.597312927 0 -69084355.597312927 -179129752.13944244 0 0 0 0 -31256896.083425634 -9485579.0743189026 0 -9485579.0743189026 6729198.2551455703 0 0 0 0 43443855.998386383 -133304396.022542 0 -133304396.022542 165769689.60011864 0 0 0 0 -20257881.369060829 2785905.0862339418 0 2785905.0862339418 15090221.508154914 0 0 0 0 629984110.51576614 -309878599.37451315 0 -309878599.37451315 37802596.900584698 0 0 0 0 341780909.23745728 -230817694.29196644 0 -230817694.29196644 23243833.954544067 0 0 0 0 -777615185.51391602 -303571102.67054367 0 -303571102.67054367 45820261.685171127 0 0 0 0 -399658251.34658432 -245972659.55555058 0 -245972659.55555058 -105047697.65270615 0 0 0 0 -724491362.60205078 -356968019.57839203 0 -356968019.57839203 37666387.656639099 0 0 0 0 -1244007322.5740967 -691111723.23925018 0 -691111723.23925018 430117317.71907043 0 0 0 0 -1176653465.9319153 -461791219.65026093 0 -461791219.65026093 253306208.46027565 0 0 0 0 -1250043304.2438812 -776796925.5500412 0 -776796925.5500412 204140098.6873703 0 0 0 0 -958384295.19384766 -736761577.19063568 0 -736761577.19063568 -45359177.917984009 0 0 0 0 -1612731609.9747162 1379650876.4922371 0 1379650876.4922371 174419661.56118393 0 0 0 0 -17748733.174819946 -338561131.68882751 0 -338561131.68882751 -1217335858.1163177 0 0 0 0 -11349421.644364215 -3343069.6095706411 0 -3343069.6095706411 1717052.0835313331 0 0 0 0 -1213579635.8920135 -1179667748.1557388 0 -1179667748.1557388 -257948544.03490829 0 0 0 0 -335709403.69483185 -1703441388.6442757 0 -1703441388.6442757 -3813489993.2912369 0 0 0 0 -1309073795.6660614 -993565299.74103928 0 -993565299.74103928 456149660.69256592 0 0 0 0 896068990.71458435 -1911311379.5840454 0 -1911311379.5840454 -8326720864.490448 0 0 0 0 -2263216871.6943054 -3407237163.7450256 0 -3407237163.7450256 -1995320861.0868378 0 0 0 0 -5596851770.1082153 -3367230041.1481972 0 -3367230041.1481972 4017616007.9649048 0 0 0 0 305602168.54546547 248371561.3742733 0 248371561.3742733 251536768.40781403 0 0 0 0 -40552067.505974136 38221891.925534911 0 38221891.925534911 -26171183.705453381 0 0 0 0 -440244217.90455627 737615119.62183189 0 737615119.62183189 877887754.94269562 0 0 0 0 261846137.34593511 320093704.38442338 0 320093704.38442338 266285344.43737793 0 0 0 0 -2572896390.942215 509505727.41648293 0 509505727.41648293 2551069996.5206375 0 0 0 0 434783364.49558258 309116191.50801849 0 309116191.50801849 230634358.07133865 0 0 0 0 897110369.66428947 691886649.36828995 0 691886649.36828995 535618930.67797089 0 0 0 0 -341301769.98775482 -561333669.21518135 0 -561333669.21518135 1000963563.864357 0 0 0 0 451691510.65757561 218671401.66072369 0 218671401.66072369 193052982.25930786 0 0 0 0 -908193293.87055206 -522499705.50881338 0 -522499705.50881338 -331404012.65319824 0 0 0 0 -1067613830.9379883 -491431146.04514503 0 -491431146.04514503 -186227992.48778915 0 0 0 0 -1391094515.2575531 -626581259.45817947 0 -626581259.45817947 -130799482.2212925 0 0 0 0 -1446197525.077879 -548381621.00227785 0 -548381621.00227785 -14738841.080234528 0 0 0 0 -1333020305.8961945 -949994692.90111542 0 -949994692.90111542 -299923609.30020332 0 0 0 0 -1743751647.7142029 -817374159.21925879 0 -817374159.21925879 -129011409.33384895 0 0 0 0 8327320.6362609863 1688138567.2803421 0 1688138567.2803421 317924584.68713379 0 0 0 0 766934208.07707977 1822753609.2383423 0 1822753609.2383423 -84956836.919815063 0 0 0 0 -4026311.9256071858 1497998.9092816897 0 1497998.9092816897 2419060.8163137026 0 0 0 0 -39035045.348584644 35271117.441946864 0 35271117.441946864 -20432022.619996335 0 0 0 0 -1937031296.9052887 -393232394.32804394 0 -393232394.32804394 -250234484.36768723 0 0 0 0 -1851433239.3703613 -493233792.1086998 0 -493233792.1086998 -140520149.24402618 0 0 0 0 -1793401453.5215302 -136131617.7266407 0 -136131617.7266407 -653874696.91516876 0 0 0 0 26387168.419677734 412204522.57362366 0 412204522.57362366 264424682.05891418 0 0 0 0 -25236775.18157959 -1075254574.3343735 0 -1075254574.3343735 2138496201.209404 0 0 0 0 339689294.04180145 840808470.17611694 0 840808470.17611694 678315782.97102356 0 0 0 0 491629993.3254509 1016802900.8061562 0 1016802900.8061562 -50699214.892654419 0 0 0 0 980991592.45448303 1834006244.5496178 0 1834006244.5496178 -887524610.02345276 0 0 0 0 459544941.10286713 911607734.00735474 0 911607734.00735474 -210931860.63266754 0 0 0 0 456250168.34336472 1324368145.2616081 0 1324368145.2616081 -1923204907.1817703 0 0 0 0 -952710728.43911934 1772499068.5736771 0 1772499068.5736771 -720674667.78511047 0 0 0 0 1347425473.6527367 604583546.86027145 0 604583546.86027145 -211340346.53821564 0 0 0 0 -10229693.150978876 4998713.7128379643 0 4998713.7128379643 9085813.3807051592 0 0 0 0 412933770.07365036 -405450177.84861898 0 -405450177.84861898 87913053.730772972 0 0 0 0 -813053179.00829315 -75953562.69618988 0 -75953562.69618988 -25296904.08057785 0 0 0 0 -1141643548.2684174 -350144979.9158535 0 -350144979.9158535 -4009915.7619247437 0 0 0 0 -1156760282.5716705 -445703874.11891747 0 -445703874.11891747 65923924.068145752 0 0 0 0 -1511447092.9814472 -288255108.66035676 0 -288255108.66035676 -204870994.16433334 0 0 0 0 -1225828825.4028187 -196895696.74157333 0 -196895696.74157333 -276359077.74639893 0 0 0 0 -1462026781.0179291 -403022359.18310356 0 -403022359.18310356 -440571360.06227493 0 0 0 0 -1329143392.1263733 -953502176.68326616 0 -953502176.68326616 -1069721048.3002517 0 0 0 0 -1217965321.1626434 -527402156.21314621 0 -527402156.21314621 -453811589.32016563 0 0 0 0 -1429415282.0718384 -410461832.79162598 0 -410461832.79162598 -1150250017.9598064 0 0 0 0 -1433319234.7789764 -440432865.27206254 0 -440432865.27206254 -465790050.2075386 0 0 0 0 -1362485372.9926605 -1071695014.3244901 0 -1071695014.3244901 -659740839.75217319 0 0 0 0 -1142547767.1192894 -489182213.32738447 0 -489182213.32738447 474269298.41417313 0 0 0 0 -1129979062.7498169 -394617590.13548851 0 -394617590.13548851 -254302308.23375797 0 0 0 0 -884183246.66254044 -262371024.68674862 0 -262371024.68674862 -123883419.65230227 0 0 0 0 1582575212.2539368 -512085692.1674211 0 -512085692.1674211 -15285931.732466459 0 0 0 0 -3232905.5388394394 3089322.9426217526 0 3089322.9426217526 3097760.4587476095 0 0 0 0 401639441.93197632 151136404.33671618 0 151136404.33671618 -17548792.767195225 0 0 0 0 -516527495.76052856 -1631223044.8078663 0 -1631223044.8078663 770035729.42714834 0 0 0 0 -581069513.11024475 -138729771.75852966 0 -138729771.75852966 -880930371.02690315 0 0 0 0 831088614.31003571 -666811812.25452399 0 -666811812.25452399 -880449660.5207777 0 0 0 0 1668406218.0481873 116827866.51161194 0 116827866.51161194 -211992567.21060181 0 0 0 0 -1603612749.0301285 -1385071102.1022472 0 -1385071102.1022472 -373139178.97742462 0 0 0 0 -1701032196.7942047 -1170355956.8727846 0 -1170355956.8727846 -372091753.35070801 0 0 0 0 -36982657.892577745 29194303.121730804 0 29194303.121730804 -15789360.45573654 0 0 0 0 -1732345329.2253723 -1150327855.1817102 0 -1150327855.1817102 -56177007.657984734 0 0 0 0 -1541033061.2533264 -876184119.4673295 0 -876184119.4673295 102846592.6346525 0 0 0 0 -966813853.4349823 -918344920.00265861 0 -918344920.00265861 -115287899.8286922 0 0 0 0 -1596287990.3621864 -1372415532.0543087 0 -1372415532.0543087 13205161.017876625 0 0 0 0 -1367051639.1174469 -1077440423.8426228 0 -1077440423.8426228 276515543.52906537 0 0 0 0 -1143497383.483963 -1301350170.2167907 0 -1301350170.2167907 -112427155.53606129 0 0 0 0 1367218046.7308578 202933739.96687317 0 202933739.96687317 -67427099.200088501 0 0 0 0 1181763130.2926407 -20450826.936134338 0 -20450826.936134338 209611621.86902618 0 0 0 0 -1669947180.254776 -977166240.85609317 0 -977166240.85609317 -2301971313.5183487 0 0 0 0 -1762865669.6014557 -596596646.62236691 0 -596596646.62236691 -10769017.115056992 0 0 0 0 -2627059.719740808 613537.67523165978 0 613537.67523165978 266356.29687876115 0 0 0 0 -18699738.197375964 17839807.138349097 0 17839807.138349097 -11980571.276849065 0 0 0 0 -581877568.56067657 -631530040.56280613 0 -631530040.56280613 -444772961.40003586 0 0 0 0 -305776446.83840179 -917173964.79781818 0 -917173964.79781818 -1299101306.4466653 0 0 0 0 128553451.25667953 -380469207.0627265 0 -380469207.0627265 -680952951.01549721 0 0 0 0 -824032.4566192627 -360373679.36973858 0 -360373679.36973858 -636115432.38188457 0 0 0 0 639503086.79317474 55109918.162635803 0 55109918.162635803 -505896469.95620155 0 0 0 0 -328474312.15656853 -249933021.12285709 0 -249933021.12285709 -864372215.25553131 0 0 0 0 281822362.06787109 337399659.829216 0 337399659.829216 -353202192.30977821 0 0 0 0 731124510.32811737 118169382.69933319 0 118169382.69933319 -357335536.75824738 0 0 0 0 350058385.18374157 60079248.069088936 0 60079248.069088936 -61856025.127670288 0 0 0 0 800750574.64874268 -133861606.10983658 0 -133861606.10983658 537363587.503479 0 0 0 0 1813640520.3016548 -622594777.70556641 0 -622594777.70556641 86641092.7159729 0 0 0 0 1219457451.5594025 8374819.1776809692 0 8374819.1776809692 -282590935.4446106 0 0 0 0 939403518.85446167 30027813.90070343 0 30027813.90070343 -152133487.13361359 0 0 0 0 1340036909.2664566 -165027971.28475189 0 -165027971.28475189 -220280584.65432739 0 0 0 0 844652857.34878159 -199275407.01651382 0 -199275407.01651382 -320618503.74363708 0 0 0 0 988075438.32354546 -400295856.9303236 0 -400295856.9303236 -30936841.943054199 0 0 0 0 1027362327.3598099 -315383774.05506516 0 -315383774.05506516 82271161.02205658 0 0 0 0 915764518.50140095 -141842410.93449402 0 -141842410.93449402 -368440499.48646545 0 0 0 0 1161425217.3703384 -181869925.87828064 0 -181869925.87828064 -370101902.83707047 0 0 0 0 269301647.49452591 -243733742.705513 0 -243733742.705513 -144988346.37887573 0 0 0 0 99400105.239012718 503157462.23949289 0 503157462.23949289 -872397805.12140656 0 0 0 0 -218396883.48826981 590228467.28361702 0 590228467.28361702 -402369833.92059708 0 0 0 0 -1026848739.5857506 847992111.6106205 0 847992111.6106205 -478722187.29488373 0 0 0 0 -1040276971.3167934 374047432.63266563 0 374047432.63266563 -864149955.73244476 0 0 0 0 -1640048918.6675758 -43227275.527832031 0 -43227275.527832031 -833389562.32485962 0 0 0 0 51774227.619721413 337397386.20729065 0 337397386.20729065 -1442652282.723114 0 0 0 0 -3295956501.779789 -2362055114.499588 0 -2362055114.499588 -2236872406.7107506 0 0 0 0 -958528666.97315598 -685447958.4976902 0 -685447958.4976902 -1035216075.7395706 0 0 0 0 -5492052218.6025791 -1122427092.5286407 0 -1122427092.5286407 66983579.333350182 0 0 0 0 -1453450821.7078285 -254547168.46850204 0 -254547168.46850204 -51860844.780281067 0 0 0 0 -265007.33022943977 -2441844.4923353139 0 -2441844.4923353139 -6820996.7893115617 0 0 0 0 231164384.03927338 535006408.07563782 0 535006408.07563782 -3235849718.9676514 0 0 0 0 -172968626.53160524 -2406656471.5857506 0 -2406656471.5857506 -4167909787.0014505 0 0 0 0 -5210031908.4423332 -616939904.72210693 0 -616939904.72210693 -372321209.61646271 0 0 0 0 321680264.82276917 -225725705.2296524 0 -225725705.2296524 -3725886294.13134 0 0 0 0 -2113703221.2147636 1125468305.9209938 0 1125468305.9209938 2501263699.67239 0 0 0 0 -14721566.938684121 -2947450.9243637845 0 -2947450.9243637845 4305247.0351167703 0 0 0 0 509377092.05303872 -489925427.20514202 0 -489925427.20514202 -543543598.87524414 0 0 0 0 -103181330.02287674 223707514.48561287 0 223707514.48561287 698566741.39052296 0 0 0 0 -288490622.12713647 -1680163.229095459 0 -1680163.229095459 565257655.44696045 0 0 0 0 -214878551.99136829 -58293739.661180496 0 -58293739.661180496 465119857.75674057 0 0 0 0 -209664373.06450152 -63723666.968668461 0 -63723666.968668461 364206388.41830063 0 0 0 0 -343095638.20584679 446323125.19776344 0 446323125.19776344 1248826670.4326172 0 0 0 0 -169239123.64060402 8784690.9169158936 0 8784690.9169158936 367368273.16578865 0 0 0 0 -1586232271.0496826 14345090.333851814 0 14345090.333851814 794095630.87723541 0 0 0 0 -607360877.84840465 -778122505.45831394 0 -778122505.45831394 -236854088.90981293 0 0 0 0 -179161452.39709854 1505151382.8739681 0 1505151382.8739681 20868284.30840683 0 0 0 0 -6376836.2334753368 -1098476.1900671944 0 -1098476.1900671944 1711102.529086208 0 0 0 0 1318466831.5283737 218660186.46068954 0 218660186.46068954 -984461078.08768845 0 0 0 0 -73345253.704372406 146489860.80590248 0 146489860.80590248 -352834565.85564423 0 0 0 0 337891262.14025116 -226952126.52645111 0 -226952126.52645111 -23626473.725765228 0 0 0 0 -231741504.11645126 -94909662.406723022 0 -94909662.406723022 493422778.48188019 0 0 0 0 -3630595.5426362231 -5773585.4358619023 0 -5773585.4358619023 1813909.9990790039 0 0 0 0 170346719.58388138 135304114.03555393 0 135304114.03555393 64025776.698493958 0 0 0 0 -165955751.85097504 -743225648.58254051 0 -743225648.58254051 -415850375.93382263 0 0 0 0 -732745022.88408279 -1106810321.7905064 0 -1106810321.7905064 -527489312.75716782 0 0 0 0 57098271.507099152 -425243363.51523972 0 -425243363.51523972 -721206219.82970715 0 0 0 0 -72755177.770051956 -433441274.13557816 0 -433441274.13557816 -306767253.70807648 0 0 0 0 111583511.52110147 -314934375.87656784 0 -314934375.87656784 -76664672.996826172 0 0 0 0 -111422620.16053343 216111568.96094513 0 216111568.96094513 -242519386.67365837 0 0 0 0 -32184081.146889925 -1607728781.4394264 0 -1607728781.4394264 -1433557109.1710758 0 0 0 0 178691717.85702032 -219875224.44708633 0 -219875224.44708633 -2212681075.8861389 0 0 0 0 -547485955.07056522 -1457403979.4894753 0 -1457403979.4894753 -1057656697.5001831 0 0 0 0 -14733970.80696582 -4852624.3774103876 0 -4852624.3774103876 5130545.3922220841 0 0 0 0 -1565982735.8431482 -838685080.23129272 0 -838685080.23129272 1121755685.6388321 0 0 0 0 -6691226.4093956035 -3438418.8877686951 0 -3438418.8877686951 2823330.6982343607 0 0 0 0 -859368801.77075768 -1968291938.6202955 0 -1968291938.6202955 -1821380734.889473 0 0 0 0 -277484067.29866219 -1485965596.5172291 0 -1485965596.5172291 -1061931541.7538376 0 0 0 0 -247087229.60436058 -606593821.73585224 0 -606593821.73585224 -627543925.07922363 0 0 0 0 -1893570108.7533951 -1042863601.6937056 0 -1042863601.6937056 -602191104.12439418 0 0 0 0 -545805858.74668884 -434868314.68998528 0 -434868314.68998528 -567125470.32428932 0 0 0 0 -703584718.06839371 -103926473.45073128 0 -103926473.45073128 -1225509547.3840256 0 0 0 0 -1394773046.6024246 -774743139.79608965 0 -774743139.79608965 -236062681.64066315 0 0 0 0 -518547872.32112122 -653158966.94044685 0 -653158966.94044685 -508051880.56523705 0 0 0 0 -410635909.28747368 -631907193.09036088 0 -631907193.09036088 -503867370.6040535 0 0 0 0 -656556989.02654839 -954403529.49412346 0 -954403529.49412346 -1145787286.2021542 0 0 0 0 -1159770682.5302563 245811543.40039635 0 245811543.40039635 365887420.28315592 0 0 0 0 -311254711.68591166 -77574029.170255065 0 -77574029.170255065 -85247157.223848343 0 0 0 0 -296309205.80398941 566357393.28966331 0 566357393.28966331 339267961.47491646 0 0 0 0 88778841.363823891 -24000319.23299551 0 -24000319.23299551 175208724.25924492 0 0 0 0 -23969095.396118164 207138379.84740734 0 207138379.84740734 26056372.367315292 0 0 0 0 -266893385.5822525 97681722.125803947 0 97681722.125803947 -11205278.352247238 0 0 0 0 7511525.1076951027 82703295.858258486 0 82703295.858258486 -63604245.116802216 0 0 0 0 89766.742597579956 216770177.32744455 0 216770177.32744455 238913683.56701374 0 0 0 0 26023601.497741699 56261152.990105629 0 56261152.990105629 57476369.579211235 0 0 0 0 -194169560.81037998 100143398.29911566 0 100143398.29911566 202862420.13121414 0 0 0 0 -267658203.42705154 -53288582.633644104 0 -53288582.633644104 126455891.19208622 0 0 0 0 -222505190.79786682 64440619.725558281 0 64440619.725558281 78765658.267646313 0 0 0 0 -222846905.4004364 95046609.779947519 0 95046609.779947519 -63302362.131599426 0 0 0 0 -547386711.28057671 -163567497.97448707 0 -163567497.97448707 42180707.658760548 0 0 0 0 -633204053.81200027 -205718995.3421042 0 -205718995.3421042 169711872.92168212 0 0 0 0 -248501843.25079346 -35052406.532280922 0 -35052406.532280922 76300692.433114648 0 0 0 0 -215453142.73623657 -299320450.61929101 0 -299320450.61929101 -71020269.282924175 0 0 0 0 -720407872.19284058 -632585559.44815135 0 -632585559.44815135 -245708327.9508276 0 0 0 0 -458096807.73153877 -384881252.36686206 0 -384881252.36686206 -14570288.741507053 0 0 0 0 322004194.36494446 206984630.96217728 0 206984630.96217728 211684461.13539219 0 0 0 0 -589908057.04563332 -237569469.26439857 0 -237569469.26439857 210408681.16830063 0 0 0 0 -4402286.3763362458 867277.6531522423 0 867277.6531522423 3487395.4238055944 0 0 0 0 588692272.6027832 158247633.22832489 0 158247633.22832489 40994387.710121155 0 0 0 0 293402756.44123077 335757192.43325424 0 335757192.43325424 79014848.156551361 0 0 0 0 354695166.39631271 232227823.99559784 0 232227823.99559784 24100508.059616089 0 0 0 0 320136536.03777504 220249733.51701736 0 220249733.51701736 122545970.23544312 0 0 0 0 355608378.53386497 387235217.62988186 0 387235217.62988186 287970678.47411728 0 0 0 0 -7635899.7791518392 2282428.7800940946 0 2282428.7800940946 5019045.8600752391 0 0 0 0 231488570.38327026 360568413.56492996 0 360568413.56492996 335559522.90883636 0 0 0 0 283026913.07036209 265742035.44620132 0 265742035.44620132 301410321.46154022 0 0 0 0 263322742.64735973 367894283.55976748 0 367894283.55976748 235358641.77737427 0 0 0 0 -161019883.87549889 -11460472.838309288 0 -11460472.838309288 275111326.59640884 0 0 0 0 57323244.352136612 97434982.279705048 0 97434982.279705048 234721495.42397499 0 0 0 0 -191955230.1589632 53978261.43020916 0 53978261.43020916 247408094.59881377 0 0 0 0 55286881.864407539 121569875.65284801 0 121569875.65284801 -111597239.13497543 0 0 0 0 -357458531.60366511 278939247.65300369 0 278939247.65300369 -26657215.829055786 0 0 0 0 -290540914.02105904 3380265.8502383232 0 3380265.8502383232 -148388777.35828924 0 0 0 0 -73272485.809880257 179641456.07138085 0 179641456.07138085 -65207825.626718521 0 0 0 0 10598742.09482193 48821220.112608314 0 48821220.112608314 -52610607.412200704 0 0 0 0 4229644.7720184326 74189392.751543045 0 74189392.751543045 -99312256.773444653 0 0 0 0 -3981445.3709344864 116326143.364977 0 116326143.364977 -2409772.8237886429 0 0 0 0 -96535742.013614655 86712253.292327166 0 86712253.292327166 463004243.99400139 0 0 0 0 24525730.385467529 61368377.305614464 0 61368377.305614464 21788347.258886971 0 0 0 0 -31780274.520653725 124214824.20504671 0 124214824.20504671 200470998.32343435 0 0 0 0 15255220.541311264 41202597.200268745 0 41202597.200268745 224775679.25422668 0 0 0 0 -155592471.64742088 29815491.966150463 0 29815491.966150463 236568639.1569944 0 0 0 0 -27426413.85254322 -8793839.0795108825 0 -8793839.0795108825 14820458.901074808 0 0 0 0 -25549969.838010788 184706846.01602602 0 184706846.01602602 317143564.69952703 0 0 0 0 593816630.73975086 -94216047.627289057 0 -94216047.627289057 -49995923.971561432 0 0 0 0 -43605243.757682204 22084005.88948245 0 22084005.88948245 -14517783.880997162 0 0 0 0 39362146.247284651 460866874.79046524 0 460866874.79046524 -324098626.24527979 0 0 0 0 -1025681925.4917526 1015192957.1396036 0 1015192957.1396036 -626569863.14071465 0 0 0 0 -23413244.936040401 -359802532.69033337 0 -359802532.69033337 -479243378.70510769 0 0 0 0 -8832762.3362519722 -2751982.5186877614 0 -2751982.5186877614 4760994.254570853 0 0 0 0 -392241199.06250763 351140612.64755821 0 351140612.64755821 184522052.96504974 0 0 0 0 -1002851021.000309 899340720.7847929 0 899340720.7847929 41846798.281690598 0 0 0 0 -1680460281.2488027 -423991598.15278268 0 -423991598.15278268 1485281957.4365921 0 0 0 0 346705007.29113388 -139563039.67838287 0 -139563039.67838287 190688548.40463638 0 0 0 0 -714937035.33786798 403758957.46041536 0 403758957.46041536 396034090.27100754 0 0 0 0 -38758617.938647024 33241095.207388654 0 33241095.207388654 -28445148.331358299 0 0 0 0 995230151.84193516 1441970633.500802 0 1441970633.500802 -1426106682.4187393 0 0 0 0 688586400.77449799 100207710.93582153 0 100207710.93582153 60604138.303636551 0 0 0 0 756633515.515028 -296455713.76734114 0 -296455713.76734114 240416722.90604973 0 0 0 0 -1052511067.4535522 -637349113.92443848 0 -637349113.92443848 897148000.00056839 0 0 0 0 672848613.32315063 -595142400.34848022 0 -595142400.34848022 196574265.47905731 0 0 0 0 -150142153.59776306 -213097369.6599884 0 -213097369.6599884 25766178.881741524 0 0 0 0 -250221376.28170776 -324676202.49382019 0 -324676202.49382019 151247916.56006336 0 0 0 0 -397791862.04608154 -14245878.656936646 0 -14245878.656936646 -36679556.24016571 0 0 0 0 -389494358.20611572 -179231829.38887024 0 -179231829.38887024 175424868.54590607 0 0 0 0 267754277.05831909 -107687058.76656437 0 -107687058.76656437 164089505.01507187 0 0 0 0 -21175828.770259425 13981559.197419871 0 13981559.197419871 -3903226.1414974048 0 0 0 0 116294370.58460999 60671420.048901558 0 60671420.048901558 -411383527.26273346 0 0 0 0 -105383555.06567383 146360154.99699783 0 146360154.99699783 -331445763.12156153 0 0 0 0 104521192.3397522 -101241801.16876411 0 -101241801.16876411 -156817906.86590195 0 0 0 0 -344679226.25740051 -141427259.56058502 0 -141427259.56058502 -131658617.64429092 0 0 0 0 -167506563.58496094 -239372951.31644821 0 -239372951.31644821 -225485596.84591293 0 0 0 0 912801952.91821289 -481749683.66983795 0 -481749683.66983795 10546878.704219818 0 0 0 0 -809991.54255696945 456541.11623923481 0 456541.11623923481 1071183.6715533789 0 0 0 0 -544891474.52233887 -153445162.27323151 0 -153445162.27323151 403182481.8024025 0 0 0 0 -171635362.65697861 430605397.85357332 0 430605397.85357332 -643536146.29137802 0 0 0 0 -676588205.63365173 123458080.72320461 0 123458080.72320461 234032639.10108185 0 0 0 0 -177392872.91700745 -139847068.05746651 0 -139847068.05746651 -4405408.7340905666 0 0 0 0 -308627515.48836708 -402532693.44956398 0 -402532693.44956398 263012619.5127182 0 0 0 0 -65635965.222219206 15284424.959244279 0 15284424.959244279 -2074844.7747480017 0 0 0 0 -1341951.0328101758 11221725.485588623 0 11221725.485588623 -716462.78783636168 0 0 0 0 51140413.691390991 131234619.5402813 0 131234619.5402813 1829247.5160974264 0 0 0 0 -292606489.67619896 190707728.53341424 0 190707728.53341424 537372023.33712578 0 0 0 0 -69468395.867207557 12404015.756647646 0 12404015.756647646 4505427.1455525719 0 0 0 0 -377843968.1819458 -550342370.54663277 0 -550342370.54663277 662322685.61706734 0 0 0 0 -153441624.23406982 -249074861.87646198 0 -249074861.87646198 -559317577.68063736 0 0 0 0 -17533042.902324602 2153615.6778613068 0 2153615.6778613068 4177706.1887841979 0 0 0 0 203016219.2901001 -989353069.40628433 0 -989353069.40628433 569207116.79916382 0 0 0 0 534088547.61366272 -527130918.7628212 0 -527130918.7628212 -1244642109.4129715 0 0 0 0 -374099401.48751831 -188404855.46342659 0 -188404855.46342659 123183884.40174103 0 0 0 0 -510133796.02931213 417741806.76072025 0 417741806.76072025 235720186.67088318 0 0 0 0 -1048087997.1923294 -399780789.98459339 0 -399780789.98459339 145304696.19194794 0 0 0 0 45105168.714508057 -53969511.471324921 0 -53969511.471324921 253728285.75772476 0 0 0 0 -181743156.52310181 -651977052.34892273 0 -651977052.34892273 -456820542.03918648 0 0 0 0 -340108666.80543518 -359238944.16992569 0 -359238944.16992569 243941094.46015167 0 0 0 0 208193650.05278015 -324043920.04966164 0 -324043920.04966164 -188757311.8469696 0 0 0 0 187608899.29872322 -588611288.22277415 0 -588611288.22277415 -1331025748.7158928 0 0 0 0 -616909.52969931066 -5060232.782152351 0 -5060232.782152351 -1640920.3420403367 0 0 0 0 -372083024.23278427 14757841.44835639 0 14757841.44835639 57998057.951637268 0 0 0 0 -725722017.99783325 185023103.54603386 0 185023103.54603386 27093681.34371233 0 0 0 0 -5375965.3297020942 -313424.21722343192 0 -313424.21722343192 2418412.8713990916 0 0 0 0 -542308079.74528503 528587625.51450682 0 528587625.51450682 -256698541.41851044 0 0 0 0 1485065.9456787109 -4503757.4668560028 0 -4503757.4668560028 6986547.6899337769 0 0 0 0 -4931262.076437071 -4312387.4164430071 0 -4312387.4164430071 440738.50531433057 0 0 0 0 -123190645.56626892 105883041.8423605 0 105883041.8423605 264618260.3160553 0 0 0 0 -296783.86090087891 -7400324.9048690796 0 -7400324.9048690796 14423432.22177124 0 0 0 0 -4456033.4087453932 -2710197.053691702 0 -2710197.053691702 1974356.2601366648 0 0 0 0 -263582.80987548828 -5006687.0151176453 0 -5006687.0151176453 7043619.8058516979 0 0 0 0 232501943.74810791 -175232876.09612846 0 -175232876.09612846 302522229.28358078 0 0 0 0 -7788511.4710052386 -1183592.4666299 0 -1183592.4666299 4136438.8171435148 0 0 0 0 -77793478.140716553 -314092401.52054024 0 -314092401.52054024 449781698.06623363 0 0 0 0 -618047.44030761719 -1607783.3745307922 0 -1607783.3745307922 25389682.133733749 0 0 0 0 -3667776.9040806442 -2776554.8564867382 0 -2776554.8564867382 1309404.9281584565 0 0 0 0 96815309.929367065 -261625942.76380348 0 -261625942.76380348 191382246.15033722 0 0 0 0 -60766582.604675293 -355149492.74245548 0 -355149492.74245548 194838059.70048141 0 0 0 0 94339221.765777588 -163511571.14093971 0 -163511571.14093971 51306378.534286499 0 0 0 0 -307198501.07454681 -25296913.405288696 0 -25296913.405288696 143947468.35137177 0 0 0 0 -274720426.95067215 -276195281.52251816 0 -276195281.52251816 -150048741.86141205 0 0 0 0 -263851260.92045212 -218092779.49790311 0 -218092779.49790311 71241613.677612305 0 0 0 0 -3648617.5545845591 332495.1448216401 0 332495.1448216401 5056861.8888556138 0 0 0 0 304954016.02230835 251135060.78794861 0 251135060.78794861 111125395.38694763 0 0 0 0 104860264.14652646 -136873359.80959648 0 -136873359.80959648 146278402.93295288 0 0 0 0 172902257.32910156 -395414294.0796051 0 -395414294.0796051 228081141.73024082 0 0 0 0 500551838.72472382 -370185320.55418634 0 -370185320.55418634 130432643.65957642 0 0 0 0 -175299290.42866278 -85502481.35623467 0 -85502481.35623467 78376424.322349548 0 0 0 0 -157768362.55775833 -99079622.245903969 0 -99079622.245903969 47741038.114862442 0 0 0 0 -412488497.8228035 -167336223.09622145 0 -167336223.09622145 89558657.439470291 0 0 0 0 -217487625.89764881 4152235.0384340286 0 4152235.0384340286 130284785.94116974 0 0 0 0 4513422.8072357178 48343027.414089203 0 48343027.414089203 75356096.023224831 0 0 0 0 -62679365.376689911 157516855.38032532 0 157516855.38032532 185315216.60851932 0 0 0 0 -466258479.86035156 1441633099.6246648 0 1441633099.6246648 396019661.56680679 0 0 0 0 -60501249.295033969 14470918.386839259 0 14470918.386839259 2902320.6803541277 0 0 0 0 -117215897.36431026 78499546.205958843 0 78499546.205958843 169501110.29676437 0 0 0 0 -97773993.537944794 62245590.235360146 0 62245590.235360146 127814708.34514523 0 0 0 0 49711548.456241608 168989862.18752766 0 168989862.18752766 163487055.13846827 0 0 0 0 838186223.78260803 -212092467.53553391 0 -212092467.53553391 -57756697.726726532 0 0 0 0 -2078642305.5769958 -644144506.2868309 0 -644144506.2868309 -107635656.86966705 0 0 0 0 -732973392.84489441 1382414334.7086592 0 1382414334.7086592 378722925.16368103 0 0 0 0 -2089208793.0667801 -1242978228.0952835 0 -1242978228.0952835 -1098079026.2482071 0 0 0 0 -1344671.510011375 -1808493.6719264928 0 -1808493.6719264928 -446931.10322703794 0 0 0 0 -717609283.71517944 956880032.48482132 0 956880032.48482132 -503505744.05910492 0 0 0 0 -104733425.45056152 -145210441.74151516 0 -145210441.74151516 -720934328.03147316 0 0 0 0 -1348930293.3773651 198608929.10682487 0 198608929.10682487 105970850.49262238 0 0 0 0 -564358354.20214844 115806933.85228729 0 115806933.85228729 97034903.760801554 0 0 0 0 -1441341.6024901941 -1259298.3896393701 0 -1259298.3896393701 -497946.12672548741 0 0 0 0 149962368.8742981 310797225.28236961 0 310797225.28236961 -237514197.60546494 0 0 0 0 -523749714.62628174 1205133952.3062286 0 1205133952.3062286 527870242.2315712 0 0 0 0 -124149955.31845093 -886644137.87303734 0 -886644137.87303734 200518810.6791811 0 0 0 0 -53024214.044584349 11320361.326867096 0 11320361.326867096 3495516.0884367991 0 0 0 0 -92503310.228603363 36104170.431278229 0 36104170.431278229 129282807.28504372 0 0 0 0 44329420.049346924 216647675.66634369 0 216647675.66634369 75242135.734134674 0 0 0 0 -93121037.450313568 -82714473.03653717 0 -82714473.03653717 -18238061.736301422 0 0 0 0 -47596035.279018402 -4622249.7669124603 0 -4622249.7669124603 6884988.5903835297 0 0 0 0 -78986436.69631958 -43660030.165941238 0 -43660030.165941238 -30246594.563344002 0 0 0 0 -59250112.912033081 -74528192.687976837 0 -74528192.687976837 -50708527.282119751 0 0 0 0 -29998137.793884277 -19780843.673540115 0 -19780843.673540115 -44300316.017964363 0 0 0 0 -22776236.760215759 -30923503.22885704 0 -30923503.22885704 -27925261.925231934 0 0 0 0 77098040.426742554 62616758.45218277 0 62616758.45218277 -48997284.092960358 0 0 0 0 55392766.805746078 -46149282.814800858 0 -46149282.814800858 -159325815.11977005 0 0 0 0 -65564399.537446976 -113319434.06561279 0 -113319434.06561279 -82102883.441804886 0 0 0 0 -4563701.3900502771 -5546307.9936852753 0 -5546307.9936852753 -2357240.1518108305 0 0 0 0 -154250135.6674881 -89528929.149595261 0 -89528929.149595261 -31682906.208913803 0 0 0 0 264377130.6943512 110003649.2011776 0 110003649.2011776 -98314100.34708786 0 0 0 0 -56522927.484985352 -66671356.383533478 0 -66671356.383533478 -28142973.775100708 0 0 0 0 93847824.453979492 12341824.181900024 0 12341824.181900024 147864666.86904907 0 0 0 0 86607659.449523926 -37064512.622779846 0 -37064512.622779846 131318105.79730034 0 0 0 0 73002475.831054688 -63269942.583641052 0 -63269942.583641052 80971277.812562943 0 0 0 0 116366335.7199707 24883296.061889648 0 24883296.061889648 42103373.297233582 0 0 0 0 110309054.15917969 59285573.392372131 0 59285573.392372131 109412952.53011322 0 0 0 0 126161540.31152344 56540329.25409317 0 56540329.25409317 77059604.638923645 0 0 0 0 -1138144.0843777657 -49244124.501691759 0 -49244124.501691759 -30987550.530097961 0 0 0 0 138790658.59405518 -3922416.8170890808 0 -3922416.8170890808 -32778962.780826569 0 0 0 0 -1117163.539855957 -47912065.793704987 0 -47912065.793704987 53459565.5143013 0 0 0 0 75246111.903076172 -54664752.611545563 0 -54664752.611545563 6742554.890838623 0 0 0 0 -129847282.99998474 -72689555.66403389 0 -72689555.66403389 -103926379.21031189 0 0 0 0 -118065828.41424561 -36263870.75138092 0 -36263870.75138092 3103339.3640060425 0 0 0 0 -128446842.97756958 52636445.124293327 0 52636445.124293327 -101881747.37187195 0 0 0 0 50941204.370788574 -58745938.376537323 0 -58745938.376537323 -47512609.246894836 0 0 0 0 -106143795.69009399 813377.12018966675 0 813377.12018966675 -46990753.729665577 0 0 0 0 -327727025.43161011 -212304138.27067566 0 -212304138.27067566 178517812.59440994 0 0 0 0 323426505.01647949 -162011702.37428308 0 -162011702.37428308 -152964906.29436874 0 0 0 0 -394018884.76974487 -202324643.78263474 0 -202324643.78263474 -69630828.597011566 0 0 0 0 -470224832.90689087 -19784130.758666992 0 -19784130.758666992 90602862.369436264 0 0 0 0 -576782886.03840637 83511468.461449623 0 83511468.461449623 29742616.321708679 0 0 0 0 -493322190.15112305 108354938.17589426 0 108354938.17589426 -124697686.57265854 0 0 0 0 -1096902.5408383347 -644931.28883188963 0 -644931.28883188963 854711.42914703861 0 0 0 0 -797438487.30513954 348006110.26631641 0 348006110.26631641 -52273628.635887146 0 0 0 0 -840715082.9223175 22333838.859024048 0 22333838.859024048 130851434.78275299 0 0 0 0 -479777866.13101196 124507911.82172966 0 124507911.82172966 -40962092.787918091 0 0 0 0 -784090629.67005157 333244322.45484734 0 333244322.45484734 -98040745.765701294 0 0 0 0 -84451635.417602539 10894895.218486786 0 10894895.218486786 1684092.166639328 0 0 0 0 -685106.50891652331 -717196.02477160096 0 -717196.02477160096 290353.58952854387 0 0 0 0 -92054517.958709717 26884774.362766266 0 26884774.362766266 -28771390.767586708 0 0 0 0 -78047227.170593262 15300066.230638504 0 15300066.230638504 4510531.8809165955 0 0 0 0 -58066733.204956055 -1485948.9093666077 0 -1485948.9093666077 21872611.073451996 0 0 0 0 -23363414.068771362 -19530811.113993645 0 -19530811.113993645 5509910.8840103149 0 0 0 0 -36524539.109664917 -22698457.555680275 0 -22698457.555680275 34106103.513023376 0 0 0 0 31361073.65385437 -42538219.407987595 0 -42538219.407987595 7000120.7730903625 0 0 0 0 18001464.802627563 -82775449.145521164 0 -82775449.145521164 -2489250.1084213257 0 0 0 0 -43358981.328865051 -47045681.619157791 0 -47045681.619157791 20846118.238903046 0 0 0 0 -36687090.095672607 -45757474.648097992 0 -45757474.648097992 10832105.880411148 0 0 0 0 -42553881.345184326 -112793801.60136032 0 -112793801.60136032 -10976098.452888489 0 0 0 0 -164536622.53689575 -25079323.439826965 0 -25079323.439826965 23879412.644477844 0 0 0 0 -11714746.327590942 -67110538.05610466 0 -67110538.05610466 24433083.577201843 0 0 0 0 73168289.042114258 -58877669.683883667 0 -58877669.683883667 -1033252.9164609909 0 0 0 0 -4643246.8388977051 -5249638.1468763351 0 -5249638.1468763351 -2727890.58177948 0 0 0 0 -1417351.4216240235 -8883551.9743320644 0 -8883551.9743320644 -9151069.4692688212 0 0 0 0 120814145.5610733 -45994598.055581093 0 -45994598.055581093 -6736571.0394325256 0 0 0 0 88835771.454101562 -88666638.851285934 0 -88666638.851285934 35163930.830825806 0 0 0 0 -6740686.0450342745 -3069661.390055947 0 -3069661.390055947 2144984.6417208835 0 0 0 0 -39387119.562438965 -46822938.121116638 0 -46822938.121116638 -49365758.902454376 0 0 0 0 -10997455.735523745 -13332208.209936012 0 -13332208.209936012 -720388.93063249439 0 0 0 0 77290416.251220703 -39909477.365803719 0 -39909477.365803719 3706513.9262390137 0 0 0 0 -5618898.5196228027 22607878.417409897 0 22607878.417409897 154164002.39514923 0 0 0 0 -18039213.872558594 -12154143.040349007 0 -12154143.040349007 134463385.76677895 0 0 0 0 25902598.167907715 -57522244.87751627 0 -57522244.87751627 -250693.85773468018 0 0 0 0 -11212174.320066944 -15486595.204378389 0 -15486595.204378389 -12680046.111715531 0 0 0 0 20846374.44631958 -29312997.989243507 0 -29312997.989243507 -59434082.5440979 0 0 0 0 -1408184.1745472513 -6432999.0290249288 0 -6432999.0290249288 -3727774.3009534739 0 0 0 0 -14429000.157269664 -5276007.4332735017 0 -5276007.4332735017 13746940.662834333 0 0 0 0 -94496940.199737549 -124226025.76459694 0 -124226025.76459694 25082007.95484066 0 0 0 0 -15904272.207961783 -3810650.32428018 0 -3810650.32428018 12841198.450811768 0 0 0 0 -37055315.481201172 -34914857.855998993 0 -34914857.855998993 -5620449.1025314331 0 0 0 0 -64970799.747650146 -51117946.470161438 0 -51117946.470161438 -10673084.513961792 0 0 0 0 -26635604.230285645 -19595526.704737663 0 -19595526.704737663 -56849540.334331512 0 0 0 0 -94171056.509246826 -9203316.8319625854 0 -9203316.8319625854 22352514.306259155 0 0 0 0 -43840319.327209473 -36994308.526309967 0 -36994308.526309967 -4269405.1239547729 0 0 0 0 -38959448.7091856 -1945397.4941905737 0 -1945397.4941905737 7167482.1004562378 0 0 0 0 -38822727.153570175 -51751518.25627017 0 -51751518.25627017 -83830336.814888 0 0 0 0 -3351746.6826815307 206316.34812809154 0 206316.34812809154 3434795.635658253 0 0 0 0 7289002.3821716309 -6082492.8723697662 0 -6082492.8723697662 -651304.58603477478 0 0 0 0 -6973743.9381546378 -2722570.3740119338 0 -2722570.3740119338 3821194.6833785698 0 0 0 0 4462736.0594940186 -15108768.284341812 0 -15108768.284341812 18632218.704308987 0 0 0 0 -539239.79441833496 -2130614.6416158676 0 -2130614.6416158676 9095538.2321624756 0 0 0 0 24258369.79083252 100693785.52074051 0 100693785.52074051 -73968199.227132797 0 0 0 0 -311495673.00463867 -7875265.3045539856 0 -7875265.3045539856 28324101.842690468 0 0 0 0 197665037.50744057 25949509.901433587 0 25949509.901433587 645047.14517974854 0 0 0 0 61779480.991409302 36944258.186413765 0 36944258.186413765 32671543.459854126 0 0 0 0 314008.3865249753 -1398751.7161192652 0 -1398751.7161192652 732790.6980480589 0 0 0 0 1093759.1828994751 -2378650.9287815094 0 -2378650.9287815094 -2767642.9404296875 0 0 0 0 -15591063.318206787 -17524919.73695755 0 -17524919.73695755 9939533.9502906799 0 0 0 0 13441120.196273804 -24834232.00034523 0 -24834232.00034523 -26683939.616357803 0 0 0 0 -34199204.469955444 -60625965.676261902 0 -60625965.676261902 -30078873.412433624 0 0 0 0 -950736338.22790527 -86948204.577804565 0 -86948204.577804565 170552051.43383026 0 0 0 0 -686356695.22068787 242008214.04278183 0 242008214.04278183 -33471566.592796326 0 0 0 0 -1062606.5387709662 -596015.39548227564 0 -596015.39548227564 472106.83779146895 0 0 0 0 -341632700.33569336 -70678099.728378296 0 -70678099.728378296 -76361480.427635193 0 0 0 0 -780137384.62613678 445164058.1984396 0 445164058.1984396 -147481399.00864792 0 0 0 0 -4905340.2220306396 -928061.04118156433 0 -928061.04118156433 12866536.770748138 0 0 0 0 -376598218.99035645 227797766.63622856 0 227797766.63622856 -144615914.38978678 0 0 0 0 -2018390.2277738303 -1914614.4240302034 0 -1914614.4240302034 659847.44959399663 0 0 0 0 -434466514.39439392 135476906.75657892 0 135476906.75657892 50377268.538990021 0 0 0 0 -240312357.92751312 50999083.323708534 0 50999083.323708534 2718678.9952201843 0 0 0 0 -379175274.49960327 192296311.70622253 0 192296311.70622253 -21393352.39632225 0 0 0 0 -484008885.59339905 199454900.24499321 0 199454900.24499321 -14702394.954521179 0 0 0 0 -547156102.62690735 154996009.49307537 0 154996009.49307537 -19284136.024843216 0 0 0 0 -1793389.0882180408 -959366.77248256654 0 -959366.77248256654 1523942.211416658 0 0 0 0 -619028893.23725891 212963409.33087826 0 212963409.33087826 51212661.764842987 0 0 0 0 -557740027.00848389 121265778.74446297 0 121265778.74446297 -70776522.630092621 0 0 0 0 -1730271.6438712776 -1704430.8450256139 0 -1704430.8450256139 578315.29316128418 0 0 0 0 -503642303.61454773 36579221.758687973 0 36579221.758687973 -68291749.834068298 0 0 0 0 -173113086.82881165 142768657.61379147 0 142768657.61379147 861178.19923782349 0 0 0 0 -491061003.79907227 75449242.736496449 0 75449242.736496449 48091464.746547699 0 0 0 0 -365666617.74261475 194393983.9895916 0 194393983.9895916 -48153526.861282349 0 0 0 0 -1252388.965841867 -3370278.9003342651 0 -3370278.9003342651 114803.28029521182 0 0 0 0 -27703318.807720184 -145577199.96149063 0 -145577199.96149063 67681785.303806305 0 0 0 0 -215297086.76846313 48898141.59867692 0 48898141.59867692 84104321.849948883 0 0 0 0 -143238.37668609619 -7618452.88509655 0 -7618452.88509655 10646648.684202194 0 0 0 0 -52851506.74489212 -133686483.4903512 0 -133686483.4903512 -103051179.98064423 0 0 0 0 -7411614.8467280865 -3869446.4182803109 0 -3869446.4182803109 3295138.8882457931 0 0 0 0 -966431427.4931488 188965502.71066284 0 188965502.71066284 65829446.291557312 0 0 0 0 -1189774719.1664619 -156811307.72860718 0 -156811307.72860718 247650026.42049408 0 0 0 0 -1024384455.7216187 -213367189.97620869 0 -213367189.97620869 212546832.1987009 0 0 0 0 -1103489245.4485779 -116343929.45763969 0 -116343929.45763969 252527338.51783943 0 0 0 0 -381534914.32524109 116786773.9415226 0 116786773.9415226 36658923.940361977 0 0 0 0 -1039306297.7788239 -134190291.80682373 0 -134190291.80682373 148470194.34229469 0 0 0 0 -19094.854530788958 -551543.51151720434 0 -551543.51151720434 113336.58916426357 0 0 0 0 -1096100641.2651367 -77043034.414796829 0 -77043034.414796829 137782856.20633221 0 0 0 0 -135430495.24077225 -235456642.52042341 0 -235456642.52042341 -149216426.16973877 0 0 0 0 -488631155.57015228 -362086577.7846241 0 -362086577.7846241 -75303640.9164505 0 0 0 0 -1057210603.4600525 -69505553.246196747 0 -69505553.246196747 70630626.31426239 0 0 0 0 -1655809823.5359955 -19674211.728777885 0 -19674211.728777885 71767841.765048027 0 0 0 0 -1207711176.8378754 364705554.11682367 0 364705554.11682367 -165598318.62042046 0 0 0 0 -546349919.00286865 -318662128.89032745 0 -318662128.89032745 -238699373.23069 0 0 0 0 -859686836.09405518 -122886468.41534233 0 -122886468.41534233 57881495.238830566 0 0 0 0 -1270188560.4837952 -529449141.56170845 0 -529449141.56170845 51487429.488853455 0 0 0 0 -1741312.5539902151 -689317.72629922722 0 -689317.72629922722 482684.95779512217 0 0 0 0 170179007.00603104 131062830.95411849 0 131062830.95411849 -153915503.4285202 0 0 0 0 -363629408.15776062 -115796236.13989449 0 -115796236.13989449 -163606464.98207283 0 0 0 0 -840322926.73902893 115092629.60192585 0 115092629.60192585 -29226052.767509937 0 0 0 0 -841058325.57758331 104431839.12613916 0 104431839.12613916 -154096693.23977089 0 0 0 0 -1137516569.5402832 45545982.922611237 0 45545982.922611237 -331392.79965019226 0 0 0 0 -433024204.7473526 -218384758.29177856 0 -218384758.29177856 -97220041.758392334 0 0 0 0 -120902.21493683755 -215426.82930282876 0 -215426.82930282876 -729984.39514652081 0 0 0 0 -157353803.38462067 65720858.455908775 0 65720858.455908775 -355776380.2678833 0 0 0 0 -877596869.95540619 -274579755.41896009 0 -274579755.41896009 214384675.60239029 0 0 0 0 -990919223.74299622 -123226455.26485634 0 -123226455.26485634 29022525.529329062 0 0 0 0 -997514879.26693344 -159338419.8528676 0 -159338419.8528676 243312519.03513527 0 0 0 0 23433.659545481205 -299995.01272509992 0 -299995.01272509992 -1828229.8900098046 0 0 0 0 -82414779.990486145 163250760.44197083 0 163250760.44197083 -106424721.87244415 0 0 0 0 155502897.2325592 171536940.3012166 0 171536940.3012166 22615106.115694046 0 0 0 0 -167987126.85350037 79554039.837368965 0 79554039.837368965 -2490050.0049152374 0 0 0 0 37791105.222229004 41271218.395719528 0 41271218.395719528 -104150392.18112063 0 0 0 0 23481098.491279602 -115910514.52517891 0 -115910514.52517891 63403174.390892029 0 0 0 0 66372995.954528809 -6889930.3063077927 0 -6889930.3063077927 -86573955.397228241 0 0 0 0 116998861.96870422 -42840221.390855789 0 -42840221.390855789 -89747123.461380959 0 0 0 0 97626528.255508423 -20609315.556371689 0 -20609315.556371689 -101307650.63992596 0 0 0 0 437906845.68170166 -124399492.07608509 0 -124399492.07608509 -69732173.490221977 0 0 0 0 62113618.602748871 -299346367.75544643 0 -299346367.75544643 156023256.57494354 0 0 0 0 -102474965.09095764 -93321262.082353592 0 -93321262.082353592 69156989.466638565 0 0 0 0 -285902413.28311157 -216069573.20872307 0 -216069573.20872307 241401635.41862106 0 0 0 0 -4434235.1536026001 -153863242.39978695 0 -153863242.39978695 102194259.46408081 0 0 0 0 -288634732.56826782 2595931.9573001862 0 2595931.9573001862 136391222.62204838 0 0 0 0 -66112223.517150879 -40760780.090749741 0 -40760780.090749741 144674126.03280544 0 0 0 0 -8245997.1539306641 -190905412.98427582 0 -190905412.98427582 -57118821.43588686 0 0 0 0 -2089376.1152993888 -16454.983247645199 0 -16454.983247645199 2557595.5850922056 0 0 0 0 -254902176.1338501 -2875091492.0498047 0 -2875091492.0498047 1027307292.6282349 0 0 0 0 44968336.072875977 507891002.68092728 0 507891002.68092728 -1192982463.1866608 0 0 0 0 384082424.04010391 -82704816.089350224 0 -82704816.089350224 -30101772.85174942 0 0 0 0 -2241849.263623938 -3609333.4614801332 0 -3609333.4614801332 -57568.540421494283 0 0 0 0 -75517652.922554016 255457685.5272646 0 255457685.5272646 334379966.04414749 0 0 0 0 341108208.95223999 9352568.5619945526 0 9352568.5619945526 -12136919.670166016 0 0 0 0 -4192027.473593995 -13208465.021228887 0 -13208465.021228887 -11812679.478876052 0 0 0 0 264418741.99917603 -324118.77096748352 0 -324118.77096748352 -9740273.6903991699 0 0 0 0 244631680.86776733 -104487700.65323639 0 -104487700.65323639 -29796818.698105812 0 0 0 0 549637.47152709961 -35725021.624443054 0 -35725021.624443054 16004355.285705566 0 0 0 0 1887435.7042503357 -30234049.322018147 0 -30234049.322018147 16042807.959526062 0 0 0 0 -5358228.3588395119 -31409519.679273367 0 -31409519.679273367 23276668.860290527 0 0 0 0 3792106.7430114746 -156457175.69754219 0 -156457175.69754219 -64392430.853737831 0 0 0 0 57508861.763275146 45876241.661587715 0 45876241.661587715 -184357934.27205849 0 0 0 0 73321120.484390259 -51170267.738674164 0 -51170267.738674164 156923599.00572872 0 0 0 0 294415452.78291321 -172042990.34213829 0 -172042990.34213829 -14229809.74016571 0 0 0 0 250296819.7930603 -153600411.06845856 0 -153600411.06845856 -57989666.580368042 0 0 0 0 69499549.414978027 -70254817.346574783 0 -70254817.346574783 -5032428.8328113556 0 0 0 0 214359989.69159698 -159461723.9608922 0 -159461723.9608922 116652210.50711823 0 0 0 0 -40861768.500457764 -188243828.26745415 0 -188243828.26745415 -61982926.903606892 0 0 0 0 -206531034.96505737 55392755.803956985 0 55392755.803956985 -114931973.94853401 0 0 0 0 20205224.678512573 -86016329.303318024 0 -86016329.303318024 104209240.6890564 0 0 0 0 84058763.011444092 -324533256.8646431 0 -324533256.8646431 128034208.65788555 0 0 0 0 -785348.51071353257 -8045.7273601405323 0 -8045.7273601405323 646105.9504379686 0 0 0 0 225472471.70241928 -396280015.5841949 0 -396280015.5841949 6663234.3308410645 0 0 0 0 -3432049.6037336886 -10036067.996564237 0 -10036067.996564237 -11962436.594100328 0 0 0 0 31347692.009063721 -64032078.30242157 0 -64032078.30242157 44679679.862434387 0 0 0 0 63624134.63671875 -49480886.493209839 0 -49480886.493209839 33282533.564167023 0 0 0 0 25097703.894058228 -43187177.674411774 0 -43187177.674411774 53458155.105995178 0 0 0 0 257211163.76370811 172495175.44030121 0 172495175.44030121 114430826.61034584 0 0 0 0 283239669.0160675 -549469944.86452293 0 -549469944.86452293 8071198.492865324 0 0 0 0 -5027565.4917373657 -33526969.451713562 0 -33526969.451713562 24389824.746078491 0 0 0 0 -7145596.4627685547 -34988306.247024536 0 -34988306.247024536 34993619.795114517 0 0 0 0 1431301.6834793091 -41639041.870998383 0 -41639041.870998383 33135553.564811707 0 0 0 0 35208378.507659912 -51987740.661048889 0 -51987740.661048889 26654699.380027771 0 0 0 0 16076688.473945618 -33863009.646272659 0 -33863009.646272659 16257281.968856812 0 0 0 0 1843775.205078125 -43132619.086212158 0 -43132619.086212158 48230614.121757507 0 0 0 0 23044708.272232056 -49062133.488466263 0 -49062133.488466263 36674238.204666138 0 0 0 0 6476670.8179931641 -41507245.112976074 0 -41507245.112976074 34837538.803894043 0 0 0 0 5012375.1410217285 -42267514.197612762 0 -42267514.197612762 42720341.749465942 0 0 0 0 -11733898.161300659 -35901113.674194336 0 -35901113.674194336 39650202.966861725 0 0 0 0 -9193744.6445007324 -31406872.361946106 0 -31406872.361946106 31166838.370502472 0 0 0 0 -7238913.9541320801 -35408924.095947266 0 -35408924.095947266 33563151.478271484 0 0 0 0 -15778921.290193558 -33553799.037102938 0 -33553799.037102938 36272869.845466614 0 0 0 0 -23649307.075885773 -36374461.136614084 0 -36374461.136614084 30090972.224304199 0 0 0 0 -6745207.4926452637 -30483784.878034592 0 -30483784.878034592 8696807.5526275635 0 0 0 0 -10167752.291976929 -27520935.427440643 0 -27520935.427440643 32162535.286869049 0 0 0 0 3880188.9803466797 -37685818.44859314 0 -37685818.44859314 28368359.310493469 0 0 0 0 11571072.52243042 -32359243.169528961 0 -32359243.169528961 31852259.875743866 0 0 0 0 1321767.4660949707 -40009314.563711166 0 -40009314.563711166 26678517.028068542 0 0 0 0 -18278474.244567871 -36842727.56303978 0 -36842727.56303978 11412400.258525848 0 0 0 0 -5519590.4287414551 -25698790.775943756 0 -25698790.775943756 20457443.435058594 0 0 0 0 -30623866.28880512 -17843477.974404931 0 -17843477.974404931 2588594.6682728305 0 0 0 0 -21684612.586151123 -15028986.740831375 0 -15028986.740831375 14176364.330711365 0 0 0 0 107500731.99169111 -122880818.89685011 0 -122880818.89685011 -139999563.3690815 0 0 0 0 -3044296.689323172 -7419302.8149212301 0 -7419302.8149212301 -9252710.4556545429 0 0 0 0 64718574.031173706 -102083090.74838829 0 -102083090.74838829 60036682.802223206 0 0 0 0 9715993.646194458 -65931117.860534668 0 -65931117.860534668 77467775.407595634 0 0 0 0 15957655.602218628 -56543280.259117126 0 -56543280.259117126 47764125.382160187 0 0 0 0 26993570.602462769 -34219214.04413414 0 -34219214.04413414 20917728.037120819 0 0 0 0 -7063113.9346466064 -50471275.779953003 0 -50471275.779953003 7863501.4316253662 0 0 0 0 6514062.8721351624 -52062559.623011589 0 -52062559.623011589 7521516.4823913574 0 0 0 0 59176898.195846558 -6249886.273563385 0 -6249886.273563385 -35243443.654884338 0 0 0 0 18776071.295806885 -94280717.67010498 0 -94280717.67010498 -2162173.0311737061 0 0 0 0 -230194.7986907959 -137984619.20733833 0 -137984619.20733833 -88609224.067359924 0 0 0 0 73194238.822418213 -220420545.17536163 0 -220420545.17536163 890457.28733539581 0 0 0 0 -2681555.1062369496 -4245358.4702742696 0 -4245358.4702742696 -3902782.5423049498 0 0 0 0 308660780.32321167 -362602879.87089539 0 -362602879.87089539 -817917887.95403481 0 0 0 0 68875248.828353882 50862031.111427307 0 50862031.111427307 -443444226.85876465 0 0 0 0 1133703368.187027 -552748114.91569138 0 -552748114.91569138 -71684949.745555878 0 0 0 0 -92286026.810394287 -642222529.53217316 0 -642222529.53217316 141616583.71706557 0 0 0 0 -2604918.4270316586 -139510.61062817276 0 -139510.61062817276 1661579.0804780144 0 0 0 0 190390822.62026501 381253357.9430263 0 381253357.9430263 14874521.953588486 0 0 0 0 -3086013886.8968811 997435497.10396004 0 997435497.10396004 609870962.88652992 0 0 0 0 -1119513813.6459351 1171762675.2140274 0 1171762675.2140274 459342303.4107008 0 0 0 0 -4520017605.0949707 -2010040910.5690155 0 -2010040910.5690155 -3231971489.480011 0 0 0 0 -2498757.8612975925 -46538.640814367682 0 -46538.640814367682 1593887.3522056267 0 0 0 0 -157039391.77145195 702751615.33478081 0 702751615.33478081 223430372.61281586 0 0 0 0 -229809272.12937164 437733873.7468462 0 437733873.7468462 -630222566.89745331 0 0 0 0 447433110.45968628 600111501.69426918 0 600111501.69426918 -381008559.19523621 0 0 0 0 561754542.34712219 874327362.65864563 0 874327362.65864563 254738404.62265015 0 0 0 0 -677346304.48254395 -337332088.36052322 0 -337332088.36052322 535558634.19353485 0 0 0 0 -725346502.61669922 -594605781.32373047 0 -594605781.32373047 -309662313.82601166 0 0 0 0 42213298.491851807 3179078056.7443428 0 3179078056.7443428 891408755.17918396 0 0 0 0 -1493595269.1638794 -1221225541.362175 0 -1221225541.362175 -818076313.95167542 0 0 0 0 -2866467276.0997772 880630012.52934408 0 880630012.52934408 -33038133.215415955 0 0 0 0 -7262939.3094897866 3572069.0606573494 0 3572069.0606573494 -1370625.2430239527 0 0 0 0 -912578113.73828125 -901147965.06210709 0 -901147965.06210709 -1631436132.7987895 0 0 0 0 -568877873.4850769 1097124495.9651031 0 1097124495.9651031 -1191926612.6687121 0 0 0 0 -311046979.62815475 258136759.50398922 0 258136759.50398922 -295251604.34657288 0 0 0 0 -1543170878.9644775 -347663902.4066124 0 -347663902.4066124 154009471.66099548 0 0 0 0 -75355046.762788773 -80421028.533124566 0 -80421028.533124566 -827688359.25645828 0 0 0 0 -756026257.724823 -607020234.18703079 0 -607020234.18703079 -599550443.08777428 0 0 0 0 -3246537067.8223877 -1057628111.0265675 0 -1057628111.0265675 -96942299.708047867 0 0 0 0 -1478609842.1954193 -185951962.46360588 0 -185951962.46360588 291281629.37385559 0 0 0 0 -1429805814.8264923 196986787.52484798 0 196986787.52484798 537863343.20565224 0 0 0 0 -2093296176.9910126 6254652.2566299438 0 6254652.2566299438 627178668.23226166 0 0 0 0 -1484774732.0351639 156979458.06315136 0 156979458.06315136 623353438.30408478 0 0 0 0 -884110637.45654297 -181922892.64849472 0 -181922892.64849472 232334938.37294006 0 0 0 0 -855432360.91891479 -60696488.569980621 0 -60696488.569980621 261363520.68106842 0 0 0 0 -758617702.33099365 -33762885.457321167 0 -33762885.457321167 249902438.87497997 0 0 0 0 -774037945.06640625 -150245465.90010834 0 -150245465.90010834 226883965.65643311 0 0 0 0 -823862200.73725891 495977643.87566185 0 495977643.87566185 229798155.46752644 0 0 0 0 -1534692967.9533081 154538004.06584644 0 154538004.06584644 525381616.94908142 0 0 0 0 -1382204136.6043854 -293084048.2697525 0 -293084048.2697525 -189284076.43080932 0 0 0 0 -939013066.52820206 26449784.052639365 0 26449784.052639365 164379329.11487579 0 0 0 0 -920507572.64512634 155854625.0100975 0 155854625.0100975 246952365.52758026 0 0 0 0 -312288367.27859497 63180808.051202774 0 63180808.051202774 114622956.15705109 0 0 0 0 137476503.26436806 -102142166.83231759 0 -102142166.83231759 -51016207.880908966 0 0 0 0 -323388972.34892273 -20246082.28453064 0 -20246082.28453064 40910555.322925568 0 0 0 0 -20489362.632705688 -140838199.56134129 0 -140838199.56134129 228032371.57483864 0 0 0 0 -304586891.32850647 88514561.375074387 0 88514561.375074387 192358715.90985489 0 0 0 0 101179055.27101135 409909825.14699841 0 409909825.14699841 94265676.52122879 0 0 0 0 -949652435.17970276 398886848.71477032 0 398886848.71477032 209740799.89919662 0 0 0 0 -1213021023.9393463 63789576.793643951 0 63789576.793643951 264935869.24103427 0 0 0 0 
</DataArray>
<DataArray type="Float64" Name="cross_section_updated" format="ascii">
1 1 1 1 1 0.047035905414744963 1 1 1 1 1 1 1 0.049890375119395446 1 1 1 1 0.050189905638585545 1 1 0.044935480466023414 1 1 1 1 0.048078397573837126 1 1 1 1 0.042859111632039398 1 1 1 1 1 1 1 1 1 1 1 1 1 0.050077428920234514 1 1 0.050150701225556475 1 1 1 1 1 0.049175034972963799 1 1 1 1 1 1 1 0.046147567443627351 1 1 1 1 0.046945593457680672 1 1 1 1 1 1 1 1 1 0.046931618599795617 1 1 0.043079073010580865 1 1 0.033136082038767722 1 1 1 1 0.050138498480994512 1 1 1 1 1 1 1 0.033979095829847768 0.050054038987690258 0.058734318883067932 1 1 0.056428506242959683 1 1 1 1 1 0.04408773068516933 1 1 1 1 1 1 1 1 1 1 1 1 1 0.050773449486396185 1 1 1 0.053312908504281144 1 1 1 1 1 1 0.050726389789291212 1 1 1 1 1 1 1 1 1 1 1 1 1 1 1 1 1 1 1 1 1 1 1 1 1 0.050014853869763246 1 1 1 0.0492352899604028 1 1 0.050988754621973512 1 1 1 1 1 1 1 1 1 1 1 0.04957290917200266 1 1 1 1 1 1 1 1 0.048212294158065785 1 1 1 1 1 1 1 1 0.046437805760377426 1 1 1 1 1 1 1 1 1 0.049755269546490954 1 1 1 1 1 1 1 1 1 1 1 1 1 1 1 1 1 1 1 1 1 1 1 0.049984060382915058 1 1 1 0.044212289342411691 1 0.04993209469844119 1 0.048205285592279615 1 1 0.035975558500437585 1 1 1 0.048397267974006605 1 0.047398319102761863 1 0.045425515187456592 1 0.047803979484552922 0.038539960495698758 1 0.045086928278040367 1 1 0.041563964324058386 1 0.045956256424184661 1 1 1 0.048010758901022188 1 0.049059955126677157 0.045968453738985671 1 1 0.045996043305700493 1 1 1 0.049567370205358313 1 0.046915321768570946 0.046931658826207215 0.050567752321777668 1 0.047491549049729478 1 1 1 0.050054945180524904 1 0.047305454124034182 0.046217504832210252 0.050032261601647719 1 1 0.039663257963704276 0.038096038661679391 1 1 1 1 0.034651602690875527 1 0.050088184855401466 1 1 0.048346818986628307 1 1 1 0.049205922782899369 1 0.050159318803244084 0.048647459159277859 0.051068712015220709 1 1 1 0.047689771994065919 1 0.049219437807244935 0.044838422590388963 0.047224300112117909 0.045188153264210384 1 1 1 0.048457392479507089 0.050000493702683391 1 1 0.050916378172373891 0.046650537174354322 0.047285802936812643 1 0.047657341844072013 1 1 1 1 0.050002570433785455 1 1 1 1 1 1 1 0.044180529760698778 1 1 1 1 1 1 0.049382560187845786 0.050001945771809608 1 1 1 0.043987459683741362 1 1 1 0.049968779329941856 1 0.047000256517620298 1 0.053225497405371441 0.039370983579461782 1 1 1 1 0.049044489713833891 1 1 0.038998971349716596 1 1 1 1 0.049943540076982526 1 0.050071715672519543 1 1 1 1 1 0.053250731909112128 0.033840541704011295 1 1 1 1 1 1 1 1 0.050299301577667106 1 1 1 0.051164206879720446 1 1 0.042492709139621346 1 0.050006641219771455 1 1 1 1 1 1 1 1 1 1 1 0.038415415633228187 1 0.049795067353216385 1 0.040962130215171713 1 1 1 0.052034230129052159 1 0.0499865785755845 1 0.049423440201521333 1 1 1 1 1 1 0.04573473695354123 1 0.045352028529055205 1 1 1 0.045721547345286905 1 1 1 0.044345614682577091 1 0.047820692652021803 0.046889834459854202 1 1 1 1 0.040419359495596802 1 1 1 1 0.040521131915492677 0.049140050573827906 1 1 0.05023893996764292 1 0.047786048583903562 1 0.039597679445846523 0.040423326199995752 1 1 1 0.049928341079550319 1 1 1 1 0.045128781156015756 1 1 1 1 1 1 1 1 1 1 1 0.049992900303744453 1 1 1 1 0.039534530349968469 1 1 1 0.04717045258008086 1 0.0500720141474503 0.049980166379104546 0.050000762522647221 1 1 1 0.043065032017039921 0.037531964073243093 1 0.034436621824594282 1 1 0.049693658402627329 1 1 1 1 0.03401546655661352 1 1 1 1 1 1 1 1 1 1 1 0.031811171028501783 0.049866784505735812 1 1 0.041037474890943726 1 1 1 0.050004124722546138 1 1 1 1 1 1 0.038497114504641605 1 1 1 0.056092348919530875 1 1 1 0.04322772607732648 1 1 1 1 1 1 1 1 1 1 1 0.04131619598630009 1 1 1 0.04428347667598577 1 1 1 1 1 1 1 0.049524497799926501 1 1 1 1 1 0.04915855227080957 1 1 1 1 1 1 1 1 1 1 1 1 1 1 1 1 1 1 1 0.025550109861822781 1 1 1 1 0.031005010199323675 1 1 0.042211253680959626 1 1 1 1 1 1 1 0.05007565170707113 1 1 1 1 1 1 1 1 0.050620862197406122 1 0.051035919616051743 1 1 0.029413164704325506 1 1 1 0.030777462363785799 1 1 0.02194139900712843 1 1 1 0.049035858075342498 1 0.045928626793386385 1 1 0.050016196702761466 1 0.022502825791044775 1 1 1 1 1 1 1 1 1 1 1 1 1 1 1 1 1 1 1 1 1 1 0.048687014511028651 1 0.049600451685692826 1 0.049789950510171266 1 1 1 1 1 1 1 1 1 1 1 1 1 1 1 0.049417322126846512 1 1 1 1 1 1 1 1 1 0.049269692384182134 1 1 1 1 1 1 1 1 1 1 1 1 1 1 1 1 1 1 1 1 1 1 1 1 1 1 1 1 1 0.047472813457052447 1 1 0.047650716407676132 1 1 1 0.038475807400721915 0.050338199416735535 1 0.045204494599728723 1 1 1 1 1 0.037911772392476478 1 1 1 1 1 0.039592970256825337 1 1 1 1 1 1 1 1 1 1 1 1 1 1 1 1 1 1 1 1 1 1 1 1 1 1 1 1 1 1 1 1 1 1 1 1 1 1 1 1 1 1 1 1 1 1 1 1 1 0.047388781162485093 1 1 1 1 1 1 1 1 1 1 1 1 1 1 1 0.043177527506362938 1 1 1 1 0.046526466224163079 1 1 1 1 1 1 1 1 1 1 1 1 1 1 1 1 1 1 1 1 1 1 1 1 1 1 1 0.043185538031382545 1 1 0.049007975752591852 1 0.04194573087081719 0.048833858554799325 0.054172949108372365 0.046890627203425891 1 1 0.050102244426442233 1 1 1 1 1 1 1 1 1 1 1 1 1 1 1 1 1 0.039990835716023861 1 1 0.038351665695607204 1 0.045127188693762796 1 1 1 1 0.034193617013447475 1 0.050725853086317309 1 1 1 1 0.049897718714234415 1 1 1 0.047038617539874789 1 1 1 1 1 0.049043948447000066 1 0.043859073464439957 1 1 0.04902929532459642 0.042941943108445513 1 0.046216689472919556 1 1 1 1 1 1 1 1 1 1 1 0.030537292841716288 1 1 1 0.033810002992555904 1 1 1 0.042920240816597663 1 1 0.033441309307203806 0.050132421144466033 0.0499845159201599 1 1 1 1 1 1 1 1 1 1 1 0.049971663197175262 1 1 1 1 1 1 1 1 0.034892851911765811 0.025588705909450022 0.036471103590380617 1 1 1 1 1 1 1 1 0.029374475684102751 0.049858871298673418 1 1 1 0.054041567270270943 1 1 0.04943762150286219 1 1 1 1 1 1 1 1 1 1 1 0.049762374328676827 1 1 1 1 1 1 1 1 0.050044260253412944 1 1 1 1 1 1 1 1 1 1 0.050057415197691718 1 0.040462660469490437 0.033414434994393484 0.049288410589199902 1 1 1 1 1 1 1 0.033244799614612401 0.024597377787336207 1 0.050885245571624847 1 1 1 1 1 0.046024263970590076 1 0.050427559539187532 0.046830977296054552 1 1 1 0.042797044011586183 1 0.039869822886024281 1 1 1 1 0.049976708358980944 1 1 1 1 1 1 1 1 1 1 1 1 1 1 1 1 1 0.042751652766283246 1 1 1 0.035665021723853441 1 1 1 1 1 0.046947377377193102 1 1 1 1 1 1 0.039539044058866879 1 0.04593848854522109 1 1 1 1 1 1 1 1 0.050740065638766631 1 1 1 0.04309780014727424 1 1 1 1 1 1 1 1 1 1 1 1 1 1 1 1 1 1 1 1 1 1 1 1 1 0.052365011609142087 0.050394175444511927 0.031325359312689705 1 1 1 1 0.054714329740051748 1 1 1 1 0.058723756485299303 1 1 1 1 1 1 1 0.046550633083538434 1 1 1 1 1 1 1 1 0.043854807810903271 1 1 1 1 1 1 1 1 1 1 1 1 0.045640477241889778 1 1 1 1 1 1 0.049551337016577907 1 1 1 1 1 1 1 1 0.053020669476226245 1 1 1 0.037354994038893877 1 1 1 1 1 1 1 1 1 1 1 1 0.047304174727364839 1 1 1 1 1 1 1 1 1 1 1 1 1 1 1 1 1 1 1 1 1 1 1 1 1 1 1 1 1 1 1 1 1 1 1 1 1 1 1 1 1 1 1 1 1 1 1 0.049810627542791211 1 1 1 1 1 1 1 1 1 1 1 1 1 1 1 1 1 1 1 1 1 1 1 1 0.047087658279837269 1 1 1 1 1 1 1 1 1 1 0.046320368188787778 1 1 0.043843429517998203 1 1 1 1 1 1 1 1 1 0.041948150206442353 1 0.04066917084405193 1 1 1 1 0.043385301483082193 1 1 0.034051767942994658 1 0.048200461963501293 1 1 1 1 1 0.042117635884498683 1 1 1 1 1 1 1 1 0.041294146583020164 1 1 1 1 1 1 1 1 1 1 1 1 1 1 0.032619061956285583 1 0.038455903334837484 0.052473940801960869 1 1 1 1 1 0.050873210981454392 1 1 1 1 1 1 1 1 1 1 1 1 1 1 1 0.043586616940107306 1 1 1 1 1 1 1 1 1 1 1 1 1 1 1 1 0.049598362122858702 1 1 1 1 1 0.029150835284703559 0.048464137074182442 1 1 0.033876715016568179 1 1 1 1 1 1 1 1 1 1 0.050980690605690292 1 1 1 1 1 1 1 1 1 0.048914533606190677 1 0.016936704481522714 1 1 1 1 1 0.049908952440541353 1 1 1 1 0.015595203048996586 1 1 1 0.050189219938496836 1 1 1 0.015465358294690052 1 1 0.053567647700105803 1 1 1 1 1 1 1 1 1 1 1 1 1 1 1 1 0.04930462616757994 1 1 1 1 1 1 1 0.052642110626011346 1 1 1 1 1 1 1 1 1 1 1 1 1 1 1 1 1 1 1 1 1 1 1 1 1 1 1 0.0083369108019481913 1 1 1 1 0.051099048079078287 1 1 1 0.08287772980821366 1 1 1 1 1 1 1 1 1 0.079952278398206844 1 0.049990630031746239 1 1 1 1 1 1 1 1 1 1 1 1 1 1 1 1 1 1 0.049953305105440514 0.021900962920490229 1 1 1 0.055005973351640536 1 1 0.034236026300950309 1 1 0.040463607492204706 1 1 1 0.049010755022827431 1 1 0.046430704486833008 1 1 1 1 1 1 1 1 1 1 1 1 1 1 1 1 1 1 1 1 0.048609117145686123 1 0.046886338023807275 1 1 1 1 1 1 1 1 1 1 1 0.04369260772267243 1 0.044530489454084929 1 1 1 0.03256883319899772 1 1 1 1 1 0.04916378581479177 1 1 1 1 1 1 0.038520971713194165 1 1 1 1 1 1 1 1 1 1 1 0.032431230149981491 1 1 1 1 1 1 1 1 0.038336664949691089 1 1 1 0.04601145372896781 1 1 0.02661358880932873 1 1 1 1 1 0.048635688656258849 1 1 1 1 1 1 1 1 1 0.049865271894543955 1 1 0.039739979002717939 1 0.042632996456753142 1 0.047163836134150518 0.04770467401832057 0.049259667959874069 1 0.049899411344776899 1 1 1 1 1 1 0.045996544365357807 1 1 1 1 1 1 0.049547512291948689 1 1 1 1 1 1 1 0.046337009789148446 1 1 1 1 0.047032888751744363 1 1 1 1 1 0.040810606239174617 1 0.049928551313302802 1 1 1 1 1 1 1 1 1 1 0.049163370225159771 1 1 1 1 1 1 1 0.026568109189220764 1 1 1 1 1 1 1 0.050010683470150946 1 0.049331450747282436 1 1 1 1 1 1 1 1 0.032695912256803045 1 1 1 0.0077173152704698017 0.050115552379655114 1 1 1 1 1 0.034209461587560205 0.050501937427953281 1 0.038533719005269598 1 1 0.049292883895616403 1 1 0.026068488619925598 1 1 1 1 1 1 1 1 0.023599396795310361 1 1 1 1 1 0.03102667289404562 1 1 1 1 -3.2230337149163901e-10 1 1 0.003298698121472779 1 1 1 1 1 1 1 1 1 1 1 1 1 1 1 1 1 1 1 1 1 1 1 1 1 1 1 1 1 1 1 1 1 1 1 1 1 1 1 1 1 0.052189630993713404 1 1 0.049891134292380221 1 1 1 1 1 0.045501310295244797 1 1 1 1 0.051262315143028911 1 1 1 1 1 1 1 1 1 1 1 1 1 1 1 1 1 1 1 1 1 1 1 1 0.046602084359041 1 1 1 0.048595704751062688 1 1 1 1 1 1 0.049451349893029115 1 1 1 1 1 1 1 1 1 1 1 0.04818269894524474 1 0.055751841473969332 0.043236680507227537 1 1 0.048494392650304703 1 1 1 1 1 1 1 1 1 1 1 0.04391883632713401 1 1 0.045645260102962139 1 1 1 1 1 1 1 1 1 1 1 1 1 1 1 0.046171278968253335 1 1 1 1 1 1 1 0.049806402485587604 1 0.047538821330794394 1 1 1 1 0.055557553774935528 1 0.049609907438610733 1 1 1 1 1 1 1 1 1 0.047222499713267842 1 1 1 1 1 1 1 1 1 1 1 1 1 1 1 1 1 0.053029492631454449 1 1 1 1 1 1 1 1 1 1 1 1 1 1 1 1 1 1 1 1 1 1 1 1 1 0.050199289869625456 0.04967716917876086 1 1 1 1 1 1 1 1 1 1 1 0.049622196410005925 1 1 1 1 0.051794266958215693 1 1 1 1 0.050847001659041838 1 1 1 1 1 1 1 1 0.046556770590559141 1 1 1 1 1 1 1 1 1 0.048775917671869999 1 1 1 1 1 1 1 1 1 1 1 1 1 1 1 1 1 1 1 1 0.041907376447721231 1 1 1 1 1 1 1 1 1 1 1 1 1 1 0.050516355346343043 1 0.049520410784857846 1 1 1 1 1 1 1 1 0.049392364906311714 1 1 0.048971760677886965 1 1 1 1 1 1 1 1 1 1 1 1 1 1 1 1 1 1 1 1 1 1 1 1 1 1 1 1 1 1 1 1 1 1 1 1 0.049738017700173658 1 1 0.049556146676446464 1 1 1 1 0.059169604599091076 1 0.028781653351524994 1 1 0.033704026660594293 1 0.046199149263765629 1 1 1 1 1 0.048316834325393784 1 1 1 1 1 1 1 1 1 1 1 1 0.045894738339146576 1 1 1 0.06480885643350548 1 1 1 1 1 1 1 1 1 0.036212237564432571 1 1 1 1 0.037891713506204558 0.057868960624928856 1 1 1 1 1 1 1 1 0.049688758041565424 1 1 1 1 1 0.051486400936950977 1 1 1 0.051760296625813537 1 1 1 0.045109405124871244 1 1 1 1 0.052021928119981686 1 1 1 1 1 1 1 1 1 1 1 1 1 1 0.047404514945392578 1 1 1 1 1 1 0.059736504388566335 1 0.049604976237222639 0.049994310850107936 1 0.078562058144369756 1 0.040129234023577258 1 1 1 1 0.05010668433275671 1 1 1 1 0.050506095798192777 1 1 1 1 1 1 1 1 1 0.048147559496700361 1 1 1 1 1 1 1 1 1 1 1 1 1 1 0.046029874435072199 1 1 1 0.049961086778410511 1 1 1 0.049961604261877526 1 0.049973925921739673 1 1 1 1 1 1 1 1 1 1 1 1 1 1 1 1 0.04665569588618329 1 1 1 1 1 1 0.039185250093994303 1 1 1 1 1 1 1 1 1 1 1 1 1 1 1 1 1 1 0.024689786040351436 1 1 1 1 1 1 1 1 1 1 1 1 1 1 1 1 1 1 1 1 1 1 1 1 1 1 1 1 1 1 1 1 1 1 0.050359332245600699 1 1 1 1 0.049147189071650346 1 1 1 1 1 1 1 0.029334322525728207 1 1 1 1 1 1 1 1 1 0.050253983040909792 1 1 0.017870785889000349 1 1 1 1 1 0.049986763445381159 1 1 1 0.049343472599948368 1 1 0.046833565275080147 1 1 1 1 1 1 1 1 1 1 1 1 1 1 1 1 1 1 1 1 0.043383811501190819 1 1 1 1 1 1 1 1 1 1 0.043302689005137535 0.037595067159203008 1 0.0068605754291474613 1 1 1 1 1 2.2099167669431541e-09 1 1 1 1 0.046085634783137749 1 1 1 1 1 0.050423498829157726 1 0.050006111099256387 1 1 0.054303307990027111 1 1 1 1 1 1 1 1 0.051431565830284715 1 1 1 1 1 1 0.049376832518594954 1 1 1 1 1 1 0.048616665258209735 1 1 1 1 0.04621789356294724 1 1 0.050122273287082263 1 0.04443840078364554 1 1 0.049757187523330519 1 1 1 1 1 1 0.04871118545874295 1 1 1 1 0.049877329645977755 1 1 1 1 1 1 1 1 0.046173570939938485 0.043033048053246162 1 1 1 1 1 1 1 1 0.048838345170517293 1 1 1 1 1 1 0.049465472590790739 1 1 1 1 1 1 1 0.045938469109043381 1 1 1 0.040257092539778855 1 1 1 1 1 1 1 1 1 1 1 1 0.050497766969303061 1 1 1 1 0.047296514199488084 1 1 0.049759738811642348 1 1 1 1 0.051622029189833808 1 1 1 0.049954043352495939 0.052929771483682345 1 1 1 0.048847145572137915 1 1 1 0.051363615763175989 1 1 1 1 1 1 1 1 1 0.052811769829226099 1 1 1 0.050004579554013863 1 1 1 1 1 1 1 1 1 1 1 1 0.05454968734190669 1 0.049725701458238167 1 1 0.049661551692755844 1 1 0.049137072370104645 1 1 1 1 1 1 1 0.049972993594727663 1 1 1 1 1 0.05005363454610897 1 0.049812522268296772 1 1 1 0.061429266277451142 0.034268456288797641 1 0.044984257301895404 0.05806562794760093 1 0.053082117731198974 1 1 1 1 1 1 0.049540691350492876 1 0.034972236648777071 1 1 1 1 1 1 1 1 1 1 1 1 1 0.05010908658584539 1 1 0.041385394465446479 1 0.048535183667038122 1 1 0.035752545899091964 1 1 1 0.047809237141787655 0.048188335207098684 1 1 0.035253546454527378 1 1 1 1 1 1 1 1 1 1 1 1 1 1 1 1 1 1 1 1 1 1 1 0.050686576404211661 0.050070383640040877 1 0.049395853571089943 1 0.045896549787782126 1 1 0.049999751072331455 0.054535450080489246 1 1 0.050005468218099758 1 1 0.046657473642265024 1 1 0.051764418974213695 1 0.045687768222891681 1 1 1 1 0.050075141558713523 1 1 1 1 0.049333019252816343 1 0.048113546207078209 0.047803746164301372 1 0.050231788059067958 1 1 0.037542564224116684 0.049458359917408122 1 1 1 0.045072469524661929 1 1 1 1 0.041237599614776757 0.049532195254324417 1 1 1 1 1 0.050521779232267916 1 1 1 1 1 1 1 1 1 1 1 0.051936429103794465 1 0.050064468474255247 1 0.046282157538338642 1 1 0.050004019512646658 1 0.043845694685282266 1 1 1 1 1 1 1 1 0.047376216864012749 1 1 0.051759601124306387 1 1 1 1 0.050000493031445978 1 1 1 1 1 1 1 1 1 1 1 1 0.04812189944661048 1 1 1 1 1 1 1 1 1 1 1 0.049817749388046201 1 1 1 1 1 1 0.049960627042839392 1 0.05143288857298145 1 1 0.049484511761507421 1 1 1 1 1 1 1 1 1 1 1 1 1 1 1 1 1 0.049570414884999921 0.041285140764069209 1 1 1 0.05011637123575919 1 1 0.040077942300608474 1 1 1 1 1 1 1 1 1 1 1 1 1 1 1 1 1 1 1 1 1 1 1 1 1 0.049995491105530032 0.044577978388015284 1 1 1 1 1 1 1 1 1 1 1 0.043553840671149112 1 1 1 1 1 1 1 1 1 1 1 1 1 1 1 1 1 1 1 1 1 1 1 1 1 1 1 1 1 1 1 1 1 0.049877092350446531 1 1 1 1 1 0.049853562784176852 1 1 0.051089516574376825 1 1 0.04204802261423729 0.056184758050499883 1 1 1 1 1 1 1 1 1 1 1 1 1 0.055477970163955392 1 1 0.05036142119302657 1 1 1 1 1 1 0.050001406799227599 1 1 0.05466720645169789 1 1 1 1 1 1 1 1 1 1 1 1 1 0.050276316772636623 1 1 1 1 1 1 1 0.050002160333268993 1 1 1 1 1 1 1 1 1 1 1 1 0.04994538696784688 1 1 0.049984759925007491 1 1 1 1 1 1 1 1 1 1 1 1 1 1 1 1 1 1 1 1 0.049566191789377628 1 1 0.05001520557881229 1 0.049947467579356294 1 1 1 0.049994503929165449 1 1 0.045495904122909638 1 0.048427747659145787 1 1 1 0.046615816018023573 1 1 1 1 0.049872400559900144 1 1 1 1 1 1 1 0.04963265663448635 1 1 1 0.048425089405346983 1 1 1 1 1 1 1 1 1 1 1 1 0.049761461453548275 1 1 1 1 1 1 1 1 0.048276405049835894 1 1 1 1 1 1 1 1 1 1 1 0.047160156187908725 1 1 1 1 1 1 1 1 1 1 1 1 1 1 1 1 1 1 1 0.046201044987142698 0.048945792764467123 1 1 1 0.049571217748341459 1 1 1 1 1 1 1 1 1 1 1 1 0.049787825121747967 1 1 1 1 1 1 1 1 1 0.049350712437729302 1 1 1 1 1 1 1 1 1 1 1 1 1 1 1 1 0.033607339746394849 1 0.04919288640670641 1 1 1 1 1 0.037309296615970308 1 1 1 1 0.048445859987347795 1 1 1 0.050008665373723407 1 1 1 0.047621694810878488 1 1 1 1 1 1 1 1 1 0.046722412302405564 1 1 1 0.041337724609594548 1 1 0.048293372836446385 1 1 1 1 1 1 0.049152656551282134 1 1 1 1 1 1 1 1 0.046335102611859608 1 1 1 0.048410307928204457 1 1 1 1 1 1 1 1 1 1 1 1 1 1 1 1 1 1 1 1 1 1 1 1 1 1 1 0.049432813816509054 1 1 1 1 1 1 1 0.049552490041658473 1 1 1 1 1 1 1 1 1 1 1 1 1 1 1 1 1 1 1 1 1 1 1 1 1 0.050272498208027178 1 0.050029407144699972 1 1 1 1 1 1 0.050591349278853684 1 1 1 0.050585078689901947 1 1 0.051673044433480649 1 1 1 1 1 1 1 1 1 1 1 1 0.034758437803633212 1 1 1 1 1 0.038595096675967361 1 1 1 1 1 1 1 1 1 1 1 1 1 0.050348258215526437 1 1 1 0.050058854220349475 1 1 1 1 1 1 1 1 1 1 1 1 0.05018932883425975 0.047923611230494351 1 1 1 1 0.050210349051341793 1 1 1 1 1 1 1 1 1 0.05012921942418757 0.04174937421709006 1 1 1 1 1 0.03948963063251093 1 1 1 1 1 0.04956990993829706 1 1 1 1 1 0.050027144667391749 1 0.053156813558552028 1 1 1 1 0.047080895592874247 1 0.051856193176603088 1 0.048868174071217262 0.04998731188991043 1 1 1 1 1 1 1 0.050107725725854868 0.048536611408336858 1 1 1 1 1 1 0.050001847930841545 0.039512348735428415 0.047734747480018408 1 0.050740276922474979 0.052107784676814463 1 1 1 0.05043920878294153 1 1 1 1 1 0.041101105256784926 0.047443340313530091 0.050001134367768221 1 0.051845760227457932 1 1 1 0.049996374217905891 1 0.039277585384169506 0.049918130711927973 1 1 1 1 1 1 1 0.047557709919544278 0.052869928361363575 1 1 0.037591796043971767 0.030696974745190758 0.05707206905544681 1 1 1 1 1 1 1 1 1 1 1 1 1 1 1 1 1 1 1 1 1 1 1 1 1 1 1 1 1 1 1 1 1 1 1 1 1 1 1 1 0.049979340690217949 1 1 1 1 1 1 1 1 1 1 0.04926865557239013 1 1 1 1 1 1 0.047884512094092224 1 1 0.047498971107623605 1 1 1 1 1 1 1 1 1 1 1 1 1 0.050069426379617525 1 0.05095828179716206 1 1 1 1 0.046928883590674542 1 1 1 0.026938720206345482 1 1 0.027200720169525128 1 1 1 0.049998164835847458 1 1 0.049863406672784161 1 1 1 1 1 0.049936006629180914 1 1 1 1 1 1 1 0.04998431270871314 1 1 1 1 1 1 1 0.027994558420052926 1 1 0.029363889841044141 1 1 1 1 0.04928968616410262 1 0.049902475218041788 1 1 1 1 1 0.047559425257261312 1 1 1 1 0.049213894458789764 1 1 1 1 1 1 0.047544775450311508 0.03721837978082404 1 1 1 1 1 0.043630168629234037 1 1 0.030543136699348564 1 1 1 1 1 1 1 1 1 1 0.034280018407561286 1 1 1 1 1 1 1 1 1 1 1 1 1 1 1 1 1 1 0.044706160100737191 1 1 1 1 1 1 0.050418573604152105 1 1 1 1 1 1 1 0.074883369473053865 0.051515885570432178 1 1 1 1 0.050214623591458021 1 1 1 1 1 1 1 0.060667610555396399 1 1 0.048991352361381892 1 0.028900804301370729 0.058300373380186822 0.037648047319399199 1 1 1 1 1 1 0.048950769861254476 1 1 1 1 1 0.050013613559228419 1 1 1 1 0.041899741690897371 1 1 1 0.070068854813771009 1 1 1 0.046023896546396111 1 1 1 1 1 1 1 1 1 1 1 1 1 1 1 1 1 1 1 1 1 1 1 1 1 0.036058801641082737 1 1 1 1 1 1 1 0.049884210945253367 1 0.042247637642348276 1 1 1 1 1 1 0.031270182355438797 1 1 0.048180056478844359 1 1 1 0.049899329884762006 1 1 0.0418395689870312 1 1 1 1 1 0.050175533348547338 1 1 1 0.050073257239631339 0.047969514000288642 1 1 1 1 1 1 1 1 1 1 1 1 0.053078535112304391 1 1 1 1 1 1 1 1 1 0.060827520475380946 1 1 1 1 1 0.050140354851019392 0.045319778246803534 1 1 1 1 1 1 1 1 1 0.048979255779757355 1 1 1 1 1 1 1 1 0.047035174692729873 1 1 1 1 1 1 1 1 1 1 1 1 1 1 1 1 1 1 0.048799874562353143 1 1 1 1 0.047224963967700109 1 0.048978084400661273 1 0.049890783694809773 1 1 1 1 1 1 1 1 1 1 1 1 1 1 1 1 1 0.050492971221107893 1 1 1 1 1 0.042944075269357382 1 1 1 0.052618853536997821 0.040477034413382462 1 1 1 1 1 0.046786077693239003 1 1 1 1 0.052380088617228503 1 1 1 1 1 1 1 1 0.043710630360061974 1 1 1 1 1 1 1 0.046520816478099643 1 1 1 1 1 1 1 1 1 0.050600737407684872 1 1 1 1 1 1 1 1 1 1 1 1 1 1 1 1 1 1 0.050091073020404199 1 1 1 1 1 1 1 1 1 1 1 1 1 0.0486863438052084 1 1 1 1 1 1 0.049569022057248426 1 1 0.047924794683655181 1 1 0.049413840295652108 1 1 1 1 1 1 1 1 1 1 1 1 1 1 1 1 1 1 1 1 1 1 1 1 1 1 0.050040596609511281 1 0.050953035578434731 1 0.049997061722522079 0.05000105750548179 1 1 1 0.044285391687826012 1 1 1 1 1 1 1 1 1 0.050312668866282592 0.046291762239088832 1 0.031647745870218874 1 1 1 1 1 1 1 1 1 1 1 1 1 1 0.050000899262931428 1 0.055767579629440289 0.054285544187771637 1 0.042539326020928969 1 1 1 1 1 1 1 1 1 0.055279522398265571 0.05129782334485411 1 1 1 1 1 1 1 1 1 1 1 1 1 1 1 1 1 1 1 1 1 1 0.04589678124233549 1 1 1 1 1 0.052116476857336842 1 1 1 1 1 0.057128907892184153 1 1 1 0.037595789145674893 1 1 1 1 1 1 1 1 1 0.036860946447775725 1 1 1 1 0.032427571600730946 1 1 1 1 1 1 0.071422461227184944 1 1 1 1 1 1 1 0.04897861475503839 1 1 1 1 0.072263511863644658 1 1 1 1 1 1 1 1 1 1 0.045632759214793428 1 1 1 1 0.032043683804879985 1 1 1 0.038265212402700449 1 1 1 1 1 0.038981328393918234 1 1 1 1 1 1 1 1 1 1 1 1 1 1 0.0479915401838562 0.025279126531800533 1 1 0.030411955833593369 1 1 1 1 1 1 1 0.04937414279963695 1 1 1 1 1 1 0.046235250378119111 1 1 1 1 1 1 1 1 1 1 1 1 1 1 1 1 1 1 1 1 1 1 1 0.039537069462850169 1 1 1 1 1 1 1 1 0.049866631107170614 1 1 1 1 0.050215123324667529 1 1 1 1 1 0.034329017779479783 1 0.050086676139009405 1 0.046948337916272474 1 1 1 1 1 1 1 0.050329270879982846 1 1 1 0.032933952764553936 1 1 1 1 1 0.044924135787236086 1 1 1 1 1 0.050718605893931804 1 0.04844794206535525 1 1 0.047945081942562869 1 0.053801125538214957 1 1 1 1 1 0.04732100489436155 1 1 1 0.042296213835273835 1 1 1 1 1 1 1 1 1 1 0.051120931795177307 1 1 1 1 1 1 1 1 1 1 1 1 1 1 1 1 1 1 1 1 1 1 0.043934721316519695 1 1 1 1 1 1 1 1 1 1 1 1 1 1 1 1 1 1 0.034968009323118124 1 1 1 0.029528975161291028 1 1 1 1 1 1 0.013840001590673407 1 1 1 0.044951143345553168 0.043992162204980013 1 0.026220844301101786 1 0.048322950848908044 0.037214906525009243 1 0.039450074716573927 1 1 0.040105728673880757 1 1 0.054450602287502217 0.039277061358685493 1 1 1 1 1 1 1 1 0.045485017799497554 1 0.045770732666655815 1 1 1 1 1 1 1 1 1 1 1 1 1 1 1 1 1 1 1 1 1 1 0.043422388440733733 1 1 1 1 1 1 1 1 0.041005003324195703 1 1 0.049901106558271888 1 1 0.040301169505688378 0.051376496220609011 1 1 0.050525157084877349 1 1 1 1 1 1 1 1 1 1 1 1 1 1 1 1 1 1 1 1 1 1 1 1 1 1 1 1 1 1 1 1 1 1 1 1 1 1 1 0.0012485542014920026 1 0.006134574170260693 1 1 1 1 1 1 1 1 1 1 1 1 1 1 1 1 1 1 1 1 1 1 1 1 1 1 1 1 1 1 1 1 1 1 1 1 1 1 1 1 0.034716084074654943 1 1 0.030699406308600966 1 1 1 1 1 0.050854950574022728 1 0.048514910795780589 1 1 0.049060037661480538 1 1 1 1 1 1 0.057613128928473062 1 1 1 1 1 1 1 1 1 1 1 0.050073440976286132 1 1 0.040155356431956224 -5.0083878710971419e-10 1 -9.1614382963581265e-11 1 1 0.051333673900407648 1 1 1 1 6.4039375798768949e-11 1 1 1 1 1 1 1 1 1 0.049449193544504319 1 0.030467627468045079 1 1 1 1 1 1 1 0.048040942350221584 1 0.059837870998170187 1 1 1 1 1 1 1 1 1 0.05040935651615587 1 0.056858835694042334 1 1 1 1 1 1 1 1 1 1 0.051327389964384754 1 1 1 0.029458078172045085 1 1 0.050002416358817102 1 1 0.0075910976829721699 1 1 1 1 0.023533298413622894 1 1 1 0.049844818238403685 1 1 1 1 1 1 1 1 1 1 1 1 1 1 0.040845699916921441 1 1 1 1 1 1 0.045013855213326383 1 0.05991303194832797 1 -1.5940610637033004e-08 1 1 1 0.059537998289589923 1 1 1 1 1 1 1 1 4.9952592479085567e-09 1 1 1 1 1 0.049243835078328094 1 1 1.283719176792264e-08 1 1 1 1 1 1 1 1 1 0.02113957366434608 1 1 1 0.039161883010892434 1 1 1 1 1 1 0.0091473133140623324 1 1 1 1 1 1 1 1 1 1 1 1 1 1 1 1 1 1 1 1 1 1 1 1 1 1 1 1 1 1 1 0.0420350172910283 1 1 1 1 1 0.047680137464881672 1 1 0.050266172313344404 0.045855982541860685 1 1 1 1 0.043768748306027318 1 1 1 1 1 0.046355025048603241 1 1 1 1 1 1 1 1 1 1 1 1 1 1 1 1 0.046808266299246455 1 1 1 1 1 1 1 1 0.046316384033823037 0.04150722368048599 1 1 1 1 1 1 0.042551685565668115 1 1 1 1 0.044305667618551162 1 1 1 1 1 1 1 1 1 1 1 1 1 1 1 1 1 1 1 1 1 1 1 1 0.042233571032454287 1 1 0.047006820040672442 1 1 1 1 1 1 1 1 1 1 1 1 1 1 1 1 1 1 1 1 1 1 1 1 1 1 1 0.043887695484676484 1 0.043722686134966562 1 1 1 1 1 0.037620356411527868 1 1 1 1 1 1 1 1 1 1 1 1 1 1 1 1 1 1 1 1 0.039463337346031163 0.045962650898105445 1 0.037263457727989099 1 1 1 1 1 1 1 1 1 1 1 1 1 1 1 1 0.037976292417855446 1 1 1 0.04459103251622118 1 1 1 1 1 1 1 1 1 1 1 1 1 0.043897670276561322 1 1 1 1 1 1 1 1 1 1 1 1 1 1 1 1 1 1 1 1 1 1 1.0533001103263384e-09 1 1 1 1 1 1 1 1 1 1 1 1 1 0.0011394801776866068 1 0.022412906795163487 1 1 0.031500203834786585 0.0077021107449741187 1 1 1 1 1 1 1 1 1 1 1 1 1 1 1 1 1 1 1 1 0.053175165967564816 1 1 0.018821520936603761 1 1 1 0.049399209606014766 1 1 1 1 1 1 0.02132739522828786 1 1 1 0.048976832979046481 1 1 1 1 1 1 1 1 0.049846269936789554 1 1 0.047286405950964512 1 1 0.039377356639014566 1 0.039413832596556023 1 1 1 1 0.037463108231593045 0.015686745899077655 1 1 0.051232877542791516 0.017063243966053077 1 1 0.04081504826725791 1 1 1 1 0.048177330839869588 1 1 0.042704279951432805 0.054034775528726313 1 0.049990260076645018 1 1 1 1 1 1 1 1 1 1 1 1 1 1 1 1 1 1 1 1 0.052619912305432934 1 1 1 1 0.04952451898176996 1 1 1 1 0.050383106512090284 0.049921139573650804 1 1 1 1 1 1 1 1 1 1 1 1 0.049922426373224249 1 1 1 0.030004264480308858 1 1 1 1 1 1 1 0.024829901057117475 1 1 1 0.052659353949589677 1 1 0.049494976702795554 0.051810623010731527 1 1 1 0.02246730369099894 1 1 1 0.050560386297203767 1 1 1 1 1 1 1 1 1 1 1 1 1 1 1 1 1 1 0.049473991595771157 1 1 1 1 1 1 1 1 1 1 1 1 1 1 1 1 1 1 0.050457270011528332 0.048471181022865038 1 1 1 1 1 0.047478234788492078 0.051913743215795137 1 0.046337542037239353 1 1 1 1 1 1 1 1 1 0.0061813309054661869 1 1 1 0.012215512090810648 1 1 1 1 1 1 1 1 1 1 1 1 1 1 0.00040657590515955425 1 1 1 1 1 1 1 0.024945254566911407 1 1 0.018474315625543601 1 1 1 1 1 1 0.018969219959370523 1 1 1 1 0.013556760025102315 1 1 1 1 1 1 0.054874352911551606 1 1 1 1 1 1 1 1 0.050459023916398629 0.02435637692905606 1 1 1 0.042386251704810869 0.047615616603516611 1 1 1 1 1 0.04751758448431917 1 1 1 1 1 1 0.048676588869631651 1 1 1 1 0.049507288373046084 1 1 1 1 1 0.049380380567028731 1 1 1 1 0.06006863050269947 1 1 1 1 1 1 1 1 1 1 1 1 1 1 1 1 1 1 1 1 1 1 1 1 1 0.050155825325721735 1 1 1 1 0.010169882490890214 1 0.041047188700367422 1 -7.9170854941357227e-10 1 1 0.043482679706714267 1 1 0.051275203341570458 1 1 0.050749500065123979 1 1 1 1 1 1 0.064193253071931911 1 1 0.058054781444631491 1 0.045499582203011132 0.050640337776289721 0.05441765396701824 1 1 0.045640052220707147 1 0.046546193324828108 0.046034047595525665 1 1 1 0.050036469550796304 1 0.05003732485192755 1 1 1 1 1 1 0.043323576656556943 1 1 1 0.050074116342829197 1 1 1 1 1 1 1 0.044285484062957257 1 1 1 0.038672347628590648 1 0.075509796641029261 0.069561342726201861 1 1 1 1 1 1 1 0.048436106051520295 1 1 1 1 1 1 1 1 0.050807969175205893 0.041829821800491947 1 1 1 1 0.037600875996858678 1 1 0.037392487828039569 1 1 1 0.050001903706921612 1 1 1 0.040475705654879977 0.045848084429888726 1 1 1 1 0.050609518881506298 1 1 1 1 1 0.045493306353735725 0.041084110059298434 1 1 1 1 1 1 1 1 1 1 1 1 1 1 1 1 1 1 1 1 1 1 1 1 1 1 1 1 1 1 1 0.045987563356444709 1 1 1 0.049761872782998172 1 1 1 1 1 1 1 1 1 1 1 1 1 1 1 0.041500171552704079 1 0.050859443581801042 0.056459219500184031 1 1 0.039931346908903237 1 1 1 1 1 1 1 1 1 1 1 1 1 1 1 1 1 1 1 1 1 1 1 0.051434557325078165 1 1 0.042913307215804275 0.04988667141372366 1 1 1 1 1 1 1 0.045731171997586938 1 1 1 0.053850438730667638 1 1 1 1 0.050809679104754604 0.050268785569149071 1 1 1 1 1 1 1 0.040040058303573933 1 1 1 1 0.043571992519866737 1 1 1 1 0.048988713456902505 1 1 1 1 1 1 1 1 1 1 1 1 1 1 1 1 1 1 1 0.051345519791532596 1 1 1 1 1 1 1 1 1 1 1 1 1 1 1 1 0.051965968263319881 1 1 1 0.050679606532606419 1 1 1 1 1 1 1 1 1 0.047703011080137622 1 1 1 1 1 1 1 1 1 1 1 1 1 1 1 1 1 1 1 1 1 0.048277334347472133 1 1 1 1 1 1 1 1 1 1 1 1 1 1 1 1 1 0.045372134785270947 1 1 1 1 1 0.050258735278224435 1 1 1 1 1 1 1 1 1 1 1 1 1 1 1 1 1 1 1 1 1 1 1 1 1 1 1 0.050716873351977686 1 1 0.068155350613511662 1 1 1 0.071631290316363505 1 1 1 1 1 1 1 1 1 1 1 1 1 1 1 0.076814878967487954 1 0.044081441389689391 1 1 1 1 1 1 1 1 1 0.070055037874342835 1 1 1 1 1 1 1 1 1 0.052962355165925561 0.06191979656359238 1 1 1 1 1 1 1 1 1 1 1 1 1 1 1 1 1 1 1 1 1 1 1 1 1 1 1 1 1 1 1 1 1 1 1 1 1 1 1 1 1 1 1 1 1 1 1 1 1 1 1 1 1 1 1 1 1 1 1 1 1 1 1 1 1 1 1 1 1 1 1 0.052596653096015383 1 1 1 1 1 1 0.057455709672819287 1 1 1 1 1 1 1 1 1 0.053730555921829119 1 0.057821411742729451 1 1 1 1 1 1 1 1 1 1 1 1 1 1 1 1 1 1 1 1 1 1 1 1 1 1 1 1 1 1 1 1 1 1 0.047192554413728174 1 1 1 0.046961536709383835 0.051676211811055695 1 1 1 1 1 1 1 1 1 1 1 1 1 1 1 1 1 1 1 1 1 1 0.048641123628845123 0.048069656152870767 1 1 1 1 1 1 1 1 0.053789300219420487 1 1 1 1 1 1 0.052296674805118501 1 1 1 1 1 0.047992337612868329 1 1 1 1 0.049260404794894748 1 1 1 0.063997847960726273 1 1 1 0.058269689484498288 1 1 0.053205850540267718 1 1 1 1 1 1 1 1 1 1 1 1 1 0.048961118557055067 1 1 1 1 1 1 1 1 0.046975447856474631 1 1 1 1 1 1 1 1 1 1 1 0.049749799156426758 1 1 1 0.049889268055525626 1 1 1 1 0.046722182426651687 1 1 1 1 1 1 1 1 0.048099556932965401 1 0.053083524151561021 1 1 0.042007390059350704 1 1 1 1 1 0.05000219866271248 1 1 1 1 1 1 1 1 1 1 1 1 0.048782939631457585 1 1 1 1 1 1 1 1 1 0.047139794123165366 1 1 1 1 1 1 0.050490059237147972 1 1 1 1 1 1 1 0.048705920778179423 1 1 1 1 1 0.04748886040963704 1 1 1 1 1 1 1 1 1 1 1 1 1 1 1 1 1 1 1 1 1 1 1 1 1 1 1 1 1 1 1 1 1 1 1 1 1 1 1 1 1 1 1 1 1 1 1 0.049260575399415439 1 0.048661750655181808 1 1 1 1 1 1 1 1 1 1 1 1 1 1 0.050183460202270241 1 1 1 1 1 1 1 1 1 1 1 1 1 1 1 0.043207230808784372 1 1 0.048178951970121106 1 0.054480301384688956 1 1 1 1 1 0.047836833512897324 1 1 1 1 1 1 1 1 1 1 1 1 1 1 1 1 1 1 1 1 0.04028134864273239 1 1 1 1 1 1 1 1 1 1 1 0.041340344466454959 1 0.049582478139384822 1 1 0.043590043578288995 1 0.026857905971873951 1 1 1 1 1 1 1 0.050086810132285935 1 0.037703775963682934 1 1 1 1 0.038806190859691857 1 1 1 1 0.048689115056157257 0.047617371242743553 1 1 0.057273295246274468 1 1 1 1 1 1 1 1 1 1 1 1 1 1 1 1 0.050554145592832243 1 1 1 1 1 1 1 1 1 1 1 1 1 1 0.051631299694015316 1 0.049644971868595608 1 1 1 1 1 1 1 0.027828979531820348 1 0.026874764381401975 1 1 1 1 1 1 1 1 1 0.049806164662278066 0.03136888773421713 1 1 1 0.032289715588788306 1 1 1 1 0.021989635155196235 1 0.036649739954227184 1 1 0.050816585270741489 1 0.02138568624038633 0.02187778736970079 0.049606693353450748 1 1 0.049994481915258571 1 1 1 0.048505223694303184 0.040607799986974946 0.05267024694632523 1 1 1 1 1 1 1 1 1 1 1 0.051112838231831242 1 1 1 1 1 1 0.02239103903754909 1 1 1 0.04988549379449092 1 1 1 1 1 1 1 1 0.050311653419117447 1 1 1 0.050086112716400684 1 1 1 1 1 1 1 1 1 1 1 1 1 1 1 1 1 1 1 1 1 1 1 1 1 1 1 1 1 1 1 1 1 1 1 1 1 1 1 1 1 1 1 1 1 1 1 1 1 1 1 1 1 1 1 1 1 1 1 1 0.046042448993329127 1 1 1 1 1 0.039966597527677179 1 1 1 1 0.046517171465507864 1 1 1 0.035804612074787322 1 1 1 1 1 1 1 1 1 1 1 1 1 1 1 1 1 1 1 1 1 1 1 1 1 1 1 1 1 1 1 1 1 1 1 1 1 1 1 1 0.044095924611929953 1 1 0.035118651129448022 1 1 1 1 1 1 1 0.05079609313522733 1 1 1 1 1 1 1 1 1 1 1 0.053869327497126515 1 1 0.049841125548689982 1 0.04443446764987613 1 1 1 0.030311380891850901 1 1 1 1 1 1 1 1 0.050426126074641517 1 1 1 1 0.051088366507639565 1 1 1 1 0.032820826979784008 1 0.04558331089610828 1 1 1 1 1 1 1 1 1 1 1 1 0.044143874475843739 1 0.037999121594771687 1 1 1 1 1 1 1 1 1 1 1 1 1 0.049303802994236104 1 1 1 1 1 1 1 1 1 0.048469228983265708 1 1 1 0.049165425989029614 1 1 1 1 1 1 1 1 1 1 1 1 1 1 1 1 1 1 1 1 1 1 1 1 1 1 1 1 1 1 1 1 1 1 1 0.046632544476721105 1 1 0.050057967965769085 1 1 1 1 0.046674468594830473 1 1 1 1 1 1 1 1 1 1 1 1 1 1 1 0.045958231916049877 1 1 1 1 1 1 1 1 1 0.048539341804954353 1 0.048146551251442453 1 1 1 1 1 1 1 0.048091812054719102 1 1 1 1 1 1 1 1 1 1 1 1 1 1 0.046785884810254169 1 1 1 1 1 1 1 1 1 1 1 0.042184180234034835 1 1 1 1 1 1 1 1 1 1 1 1 1 1 1 1 1 1 1 1 1 1 1 0.050468141519626836 1 0.050944074016819836 1 1 1 1 1 1 0.043046943062621468 1 0.045422228821823243 1 1 1 0.043768157919243891 1 1 1 0.052614065557789608 1 1 1 0.044228810192448169 1 1 0.052987603960903733 1 1 1 1 1 1 1 0.051505069153067545 1 1 1 1 1 1 1 0.034823729943864998 1 1 1 1 1 1 1 1 1 1 1 1 1 0.046780520547165548 1 1 1 1 1 1 1 1 0.033910655084188931 1 1 1 1 1 1 1 1 1 1 1 1 1 1 1 1 1 1 1 1 0.039001456757390862 1 1 1 1 1 1 1 1 1 1 1 1 1 1 1 1 1 1 1 1 1 1 1 1 1 1 1 1 1 1 1 1 1 1 1 1 1 1 1 1 1 1 1 1 1 1 1 1 1 1 0.051731297302689092 1 0.042795127805135245 1 1 1 0.048894811159999066 1 1 0.050363879235340796 0.041288700992855198 1 0.055496236538897618 1 1 1 1 1 1 1 1 1 1 1 1 1 1 1 1 1 1 1 1 1 1 1 1 1 1 1 1 1 1 1 1 1 1 1 0.050628019479544595 1 1 1 1 0.053429608567899856 1 1 0.046136584774324647 1 1 1 0.04769403781467528 1 1 1 1 0.056627149122479604 1 0.049845842760912119 0.036216502299137684 1 1 1 1 0.038094298512878072 1 1 1 0.058492515235834847 1 1 1 0.045105690692056381 1 1 1 1 1 1 0.050100346333514068 1 1 1 1 1 1 1 1 1 1 1 1 1 1 1 1 1 1 1 1 0.052372647195725611 1 1 1 1 1 1 1 1 1 1 1 1 1 1 1 1 1 1 0.050863750267446883 1 1 0.052368017271047146 1 1 0.021635521922098701 1 1 1 1 1 1 1 1 1 1 1 0.054089727166419924 1 1 1 1 0.049235138551226312 1 1 1 1 0.044590834049533054 1 1 1 0.046175750978927683 1 1 1 1 1 1 1 1 1 1 1 1 1 1 1 1 1 1 1 1 1 1 1 1 1 0.04855171435679756 1 1 1 1 1 1 1 1 0.046183622401094332 1 1 1 0.024062045377615235 1 1 1 1 1 1 1 1 1 1 1 1 1 1 1 1 1 1 1 1 1 1 1 1 0.053611358031181292 1 1 1 0.045718592457432615 1 1 1 1 1 1 1 1 0.053452331020417562 1 1 0.047370399980587799 1 1 1 1 0.049293399386174955 1 1 1 1 1 1 1 0.024574153209800345 1 0.054842994387893453 1 1 0.059328868064087464 1 1 0.018059654894970439 0.049986158877019626 1 1 1 1 1 1 1 1 1 1 1 1 1 1 1 1 1 1 1 1 1 0.038886612649680533 1 1 1 1 0.031630842182200448 1 1 1 1 1 1 1 1 1 1 1 1 1 0.043761781157856963 1 1 0.049846108219563548 1 1 1 1 1 1 1 1 1 1 1 1 1 1 1 1 1 1 1 1 1 1 1 1 1 1 1 1 1 1 1 1 1 1 1 1 1 1 1 1 1 1 1 1 1 1 1 1 1 1 1 1 1 1 1 1 1 1 1 1 1 1 1 1 1 1 1 1 1 1 1 1 1 1 1 1 1 1 1 1 1 1 1 1 1 1 1 1 1 1 1 1 1 1 1 1 1 1 1 1 1 1 1 1 1 1 1 1 1 1 1 1 1 1 1 1 1 1 1 1 1 1 1 1 1 1 1 1 0.051471093463339286 1 1 1 1 1 1 1 0.05162973463802191 1 1 1 1 1 1 1 1 1 0.053941670904395229 1 0.038396720826915871 1 1 1 0.044806482115370916 1 1 0.042690086473934137 1 1 1 1 1 1 1 1 1 1 1 1 1 1 1 1 1 1 1 1 1 1 1 1 1 1 1 1 1 1 1 1 1 1 1 1 1 0.052776464721394648 1 1 0.04313272213430068 0.056901712768962616 1 1 0.050827380223251312 1 1 0.031000022858774318 1 1 1 0.035394406832477909 1 1 1 1 1 1 1 1 1 0.044802525430366516 1 1 1 1 1 1 0.05065082414417689 1 1 1 1 1 1 1 1 1 1 1 1 1 1 1 1 1 1 1 1 1 1 1 1 1 1 1 1 1 1 1 0.052581449862980523 1 1 1 1 1 1 1 1 1 1 1 1 1 1 1 1 1 1 1 1 1 1 1 1 1 1 1 1 1 1 1 1 1 1 1 1 1 1 1 1 1 1 1 1 1 1 0.032868668426466012 1 0.048994520423192599 1 1 1 1 0.049821311763506945 1 1 1 1 0.034859629460902528 1 1 1 1 0.050288144185009251 1 1 1 1 1 1 1 1 0.048637401701706877 1 1 0.049262148477709579 1 0.049605483413300108 1 1 1 1 0.048037498059501874 1 1 0.047986932105719637 0.043208423287388109 1 1 1 1 1 1 0.049907264523785216 1 1 1 1 1 1 1 1 1 1 0.048236516857453282 0.036186259265145237 1 1 1 1 1 0.035648743981417791 1 1 0.048907676677737461 1 1 1 1 0.047458576354558815 1 1 0.049995639451394548 1 1 1 1 1 1 1 1 1 1 1 1 1 1 1 1 1 1 1 1 1 1 1 1 1 1 1 1 1 0.049861490407426837 1 0.049959354237703188 1 1 1 1 1 1 1 1 1 1 1 1 1 0.050047868892094699 1 1 1 1 0.024327160547694293 0.023623822361337421 1 1 1 1 1 1 1 1 1 1 1 1 1 1 1 1 1 1 1 1 1 1 1 1 1 1 1 1 1 1 1 1 1 1 1 1 1 1 1 1 1 1 0.049911975533758639 1 1 1 0.049864106641663922 1 1 1 1 1 1 1 1 1 1 1 1 1 1 1 1 1 1 1 1 0.025132216700116478 1 1 0.026072235502528254 1 1 1 1 1 1 1 1 1 0.049997857865051482 1 1 1 1 1 0.032103282669692625 1 1 1 1 1 0.050150862208944304 1 0.050130994050616606 1 1 1 1 1 1 1 1 1 1 1 1 1 0.045329185583173323 1 1 1 0.040630142227806136 0.0336574507191649 1 1 1 1 1 1 1 1 0.049998156598588119 1 1 0.037729704199891717 1 1 0.049995415473270452 0.044708786296730835 1 1 1 1 1 0.05009016430399657 1 1 1 1 1 1 1 0.048590906943250411 1 1 0.046779897590332853 0.049001184762033315 1 1 1 1 1 1 0.039867103446341756 0.053314927114266872 1 1 1 0.045997460006697952 1 1 1 1 1 1 1 0.046478354395265341 1 1 1 1 1 1 1 1 1 1 1 1 1 1 1 1 1 1 1 1 1 1 1 1 1 1 0.033358010837894726 1 1 1 1 1 1 1 0.049873793516674106 1 1 1 1 1 1 1 1 1 1 1 0.032192735852570091 1 1 1 1 1 1 1 1 0.046182247239917193 1 1 1 1 1 1 1 1 1 1 1 1 1 1 1 1 0.046181427800590855 1 1 1 0.047683811924187913 1 1 1 1 1 0.040548904750539905 1 1 1 1 1 1 1 1 1 1 1 1 1 1 0.050811387855801568 1 1 1 1 0.052773737499108936 1 1 0.055336613379409115 1 1 1 1 1 0.049997845346150899 1 1 1 1 1 1 1 1 1 1 1 1 1 1 0.049631583192597986 1 0.055868226252384995 1 1 1 0.048124043997084635 1 0.04758175973734996 1 0.046573127849695681 1 1 1 1 1 1 0.049792023015722824 0.041786547766559531 1 1 1 1 1 1 0.040782594811298881 1 0.049096566579167125 1 1 1 1 1 1 1 1 1 1 1 1 1 1 1 1 1 0.039575115892394958 1 1 1 0.050321401232492388 0.040051858278393179 1 1 1 1 1 0.047618738778009796 1 1 0.049817875759514962 0.049006852837866571 1 1 1 1 1 1 1 1 1 1 1 1 1 1 1 1 1 1 1 1 1 1 1 1 1 1 1 1 1 1 1 1 1 1 1 1 1 1 1 1 1 1 1 1 0.056033734250972279 1 1 0.040029523791095659 0.043641441297289085 0.049381070932182324 1 1 1 1 1 1 0.050497831108786771 1 1 1 1 1 1 1 1 1 0.049476447516551579 1 1 1 0.050848517138375064 1 1 1 1 1 1 1 1 1 1 1 1 1 1 1 1 1 1 1 1 0.048111551365136104 1 1 1 1 0.04884509688102745 1 1 1 1 1 1 1 1 1 1 1 1 1 1 1 1 1 1 1 1 1 1 1 1 1 1 1 1 1 1 1 1 1 1 0.05110677908682381 1 0.049306778775129907 1 1 1 1 1 1 1 1 0.048584524630026257 1 1 1 0.052284772138489026 1 0.049277745854896325 1 1 1 1 1 1 1 1 0.035052991052090893 1 1 1 1 0.0439487168014768 1 1 1 1 0.050161983440987275 1 1 1 1 1 1 1 0.04773220919370047 1 1 1 1 0.048748218804378407 1 1 1 1 1 1 1 1 1 1 1 1 1 1 1 1 1 1 1 1 1 1 1 1 1 1 1 1 1 1 1 1 1 1 1 1 1 1 1 1 1 1 1 1 1 1 0.048413960793125106 1 1 1 1 0.049992533949465567 0.049189399789198403 1 1 0.048285404193378761 0.048139716137109718 1 1 1 1 1 1 1 1 1 1 1 1 1 1 1 1 1 1 1 0.049166592058187228 1 1 1 0.049784682483460352 0.049996893567575293 1 1 1 1 1 1 1 1 1 1 1 1 1 1 1 1 1 1 1 1 1 1 1 1 1 1 1 0.049439698681032013 1 1 1 1 1 1 1 0.050254359462101932 1 1 1 1 1 1 1 1 1 1 1 1 1 1 1 0.051518903528301352 1 1 1 1 1 1 1 1 0.04886468487946026 1 0.050910757692881212 0.047066093779691127 1 1 1 1 1 1 1 1 1 1 1 1 0.048498435315729255 1 1 1 1 1 1 1 1 1 1 1 1 1 1 1 1 1 1 0.033138797697460962 1 1 1 0.047762925088600389 1 1 1 1 1 1 1 1 0.049245344922940471 1 1 1 1 1 1 1 1 1 1 1 1 1 1 1 0.046751620544693881 1 1 1 0.048866889027564503 1 1 1 1 1 1 1 1 1 1 1 1 1 1 1 1 1 1 1 1 1 1 1 1 1 1 1 1 1 1 1 1 1 0.048986852418774797 1 0.049546617701905292 1 1 1 1 1 1 1 1 0.050044220140181006 1 1 1 1 1 1 1 1 1 0.050247438256672106 1 1 0.05007639113152472 1 1 1 1 1 0.050062783006798992 1 1 1 1 0.050022374053428853 1 1 1 1 0.051130791323875172 1 1 1 0.049886117241880301 1 0.052363920988659995 1 1 0.051033309752080258 1 1 1 1 1 1 1 1 1 1 1 1 1 1 0.050007712829951874 1 1 0.049984704723081391 1 0.050024904686253854 1 1 1 0.04995520703843756 1 1 0.054383479919391881 1 1 1 1 0.048402108752223116 1 0.048724488514143433 1 1 1 1 1 1 0.049526492322928925 1 0.049659391917879998 1 1 1 1 1 0.027828535105646202 1 1 1 1 0.048641649295760668 1 1 1 1 1 1 0.028560589975080139 1 1 1 1 1 1 1 1 1 1 1 1 1 1 1 1 1 1 1 1 1 1 1 1 1 1 1 1 1 1 1 1 1 0.049887304134016958 0.050000951995907303 1 1 1 1 1 1 1 1 1 1 0.02780329418743209 1 1 0.048939805819857386 0.030766602212829675 1 0.050031508412764047 1 1 1 1 1 1 1 0.030339435316590405 1 1 1 1 1 1 1 1 1 1 1 1 0.051475738798233431 1 1 1 1 0.050534179780138189 1 1 1 1 1 1 1 1 1 1 1 1 0.046488151770670415 1 1 1 1 1 1 1 1 1 1 1 1 1 1 1 1 1 0.046872959442327056 1 1 1 1 1 0.049052763638568142 1 1 1 0.043063133817279893 1 1 1 1 1 1 0.045392623693055648 1 0.04547088644257144 1 1 1 0.047012117022197715 1 1 1 1 1 1 1 1 1 0.041529932829249945 1 1 0.049928202852776417 1 1 1 1 1 1 1 0.048164820596866206 1 1 1 1 1 1 1 1 1 1 1 1 1 0.052365548983540566 1 1 0.049490569563300092 1 1 1 1 1 1 0.05016396254575585 1 1 1 1 1 1 0.0379377246562062 1 1 1 1 1 1 1 0.032911289541328867 1 1 1 1 1 1 1 1 1 1 1 1 1 1 1 1 1 1 1 1 1 1 0.048837461131857926 1 1 1 1 1 1 1 1 1 1 0.042876368711317003 1 1 1 1 0.043371822515351384 0.048773137669719038 1 1 1 1 0.048828289140329398 1 1 1 1 1 1 1 1 1 0.048949643263236503 1 1 1 1 1 1 1 1 1 1 1 0.041503876182105139 1 1 1 0.046129397520027537 1 1 1 0.046743003018536365 1 1 1 1 1 1 1 1 1 1 1 1 0.042459565784864151 1 1 1 1 1 0.050017813206654237 1 1 0.050104356707110824 1 1 1 1 1 1 1 1 1 1 1 1 1 1 0.042796468842615162 1 1 1 1 1 1 1 0.030806318877963451 1 1 1 0.023410276475975766 1 1 1 1 1 0.050188957208859138 1 1 1 1 1 1 1 1 1 0.050102413708402557 1 1 1 1 1 1 1 1 0.019502224934121765 1 1 1 1 1 0.048038495701306874 1 1 1 1 1 1 1 0.049286441448241368 1 1 1 1 1 1 1 1 1 1 1 1 1 1 1 1 1 1 1 1 1 1 1 1 1 1 1 1 1 1 1 1 1 1 1 1 1 1 1 1 1 1 1 1 1 1 1 1 0.045835330721090459 1 1 1 1 1 1 1 0.048361676576335222 1 1 1 1 1 1 1 1 1 1 1 1 1 1 1 1 1 1 1 1 1 1 0.049587519653202308 0.049241294193975549 1 1 0.045103368763282192 0.037419019204053411 1 1 1 1 1 1 1 0.030849209804952565 1 1 1 1 1 1 1 1 1 1 1 1 1 1 0.049940709188318042 1 1 1 1 1 1 1 1 0.050053725055078283 1 1 0.049838226075929387 1 1 1 0.049497743959697672 1 1 1 1 1 1 1 1 1 1 1 1 1 1 1 1 1 1 1 1 1 1 1 1 1 1 1 1 0.050254782976019624 1 1 1 1 1 1 1 1 0.050023130300300797 1 1 1 1 1 1 0.051117913989454498 0.050081705545363564 1 1 1 1 0.049958662330739631 1 1 0.050375533227089299 1 1 0.051755529693065419 1 1 1 1 1 1 0.04999276664143873 1 1 1 1 1 1 1 1 0.049997211563056268 1 1 1 1 1 1 1 1 1 1 1 0.049988992996233481 1 1 0.049991778248543256 1 1 1 1 1 1 1 0.050029106642058105 1 1 1 0.049959005800618808 1 0.049839198444513101 1 0.04999859728834237 1 1 1 1 1 1 1 1 1 1 1 1 1 1 1 1 1 0.049821286271006161 1 0.050000386816553999 1 1 1 1 1 1 1 1 1 1 0.04972979177819823 1 1 1 1 1 1 1 0.049685456520318624 1 1 1 0.050005790689750251 1 0.045183725341223904 0.045837493627014586 1 1 0.040864236483897781 1 1 1 1 0.047463465058125209 1 1 1 0.045276338079622919 1 1 1 0.044915996750471185 1 0.040769322402531838 0.05175180411522786 1 1 1 1 1 1 0.039485397731024025 1 1 1 1 1 1 1 1 0.05646679019130213 0.049998073634157508 0.05342419164086272 1 0.059927398083156856 1 1 0.036115514223140827 0.049998576224158112 1 1 0.017231248911984229 1 1 1 1 1 1 1 1 1 1 1 0.050035952713664192 1 1 1 1 1 1 1 1 1 1 1 1 1 0.051906699102815167 0.055079303350037412 1 1 1 1 0.05273805802437307 1 1 1 0.04724756338791497 1 1 1 1 1 0.052964230977449574 0.050003731628623135 1 1 1 0.04645979487659424 1 1 1 1 1 1 1 1 1 1 1 1 1 1 1 0.048339907653856748 1 1 1 0.048058899106063181 1 1 1 0.04920235512566426 1 1 1 1 1 1 0.04357819965573885 1 1 1 1 1 0.044848557292510069 1 1 1 1 1 1 1 1 0.049983916099519361 1 1 1 1 1 1 1 1 1 0.049943451234712929 1 1 1 1 0.049980863640896732 1 0.049966415030465783 1 1 0.050843131528927436 1 0.048354547386282073 1 1 1 1 1 1 0.049019819189470362 1 0.049969614431290277 0.048961977003589494 1 1 1 1 1 1 1 1 0.042099724630637089 1 0.049618325212697226 1 0.049903129308161841 1 0.050636055462993913 1 1 1 1 1 1 1 1 1 1 1 0.0491068511412108 1 1 1 0.049151708342353342 1 1 1 1 1 1 1 1 0.050044857201142517 1 1 1 1 1 1 1 1 1 0.049130626446629251 1 1 1 1 0.042026552445368195 1 1 0.029747418696431216 1 1 1 1 1 1 1 1 1 0.020146957592383205 1 1 1 0.0230821710506523 1 1 1 1 1 1 1 1 1 1 1 1 1 1 1 1 1 1 1 0.019520520858393016 1 1 1 1 1 1 1 1 1 1 0.050708718978182785 1 1 1 1 1 1 1 1 1 1 1 1 1 1 1 1 1 1 1 1 1 1 1 1 1 1 1 1 1 1 1 1 1 1 1 1 1 1 1 1 1 1 1 1 1 0.055813137316558292 0.049937722540603746 1 1 1 1 1 1 1 1 1 1 1 1 1 0.057696237461378488 0.034654052724906029 1 1 1 0.038733344145577359 1 1 0.054616707309918827 1 1 1 0.060286074643620804 1 1 1 0.056642103854209494 1 1 1 1 1 1 1 1 0.049294872841754871 1 1 0.050962442286380354 1 0.044081746565644966 0.050254602018472566 1 1 1 1 1 1 0.052602963093891272 1 0.046464416050813542 0.050428726935342616 0.050124092971857437 1 1 0.048277612843745592 1 1 0.054495001360423283 0.054379329038291901 1 1 1 1 1 1 1 1 1 1 1 1 1 1 1 1 1 1 1 1 1 0.019310939580406791 1 1 1 1 1 1 1 1 1 0.04938638159298589 1 1 1 1 1 1 1 0.047929028482847427 0.019682709522937158 1 1 1 1 1 1 1 1 1 1 1 1 1 1 1 1 1 1 1 1 1 1 1 0.051227683315470576 1 0.04996562755379462 1 1 1 1 1 1 1 0.052180239084907563 1 1 1 0.041786232264573654 0.016618656260894007 1 1 0.044895821392522253 1 1 1 1 0.04308001988409127 1 1 1 0.020667169547499413 1 1 1 0.05337650513934563 1 1 1 1 1 1 1 1 1 0.058276429592324805 0.043626473675293424 1 1 1 1 1 0.054153620322485399 1 1 0.045013940519455217 0.058897030909964204 0.056236340930366828 1 1 1 1 1 0.021435797176248092 1 1 1 1 1 1 1 1 1 0.049205186432457554 1 0.049662170011063426 1 1 1 1 1 1 1 1 1 1 1 1 1 1 1 1 1 1 1 1 1 1 1 1 0.047142064904944811 1 1 1 1 0.051925146051072853 0.04142079089921185 1 1 1 0.056578734568884896 1 1 1 1 1 1 1 1 1 1 1 1 1 1 1 1 0.030521074899148598 1 1 1 0.049920686780429407 1 1 0.024789521277831905 1 1 1 1 1 1 1 1 1 1 1 1 1 0.035884438116863093 1 1 0.038760492980084313 1 1 1 0.032991973153713369 1 0.048471374054759875 1 0.049449005721353773 1 0.055737278566226851 0.034557696828992068 0.049845740875429943 1 1 1 1 1 1 1 1 0.04833614446270984 1 1 1 1 1 1 1 1 0.025981123933551169 1 1 0.063059282779319797 1 1 1 1 1 1 1 1 1 1 1 1 1 1 1 1 1 1 1 1 1 0.037918526536592216 1 1 1 1 1 1 1 1 1 1 0.042481703096774792 1 0.052867820716425803 1 1 0.045865888330736654 1 0.036228049678413851 1 0.050109683278641105 1 1 0.050160506797887278 1 0.032414596799898276 1 1 0.047182253487103476 1 1 1 0.051473379780618007 1 1 1 1 1 1 1 1 1 1 1 1 1 1 1 1 1 1 1 1 1 1 1 1 1 1 1 1 1 1 1 1 1 1 1 1 1 1 1 1 1 1 1 1 1 1 1 1 1 1 1 1 1 1 1 1 1 1 1 1 1 0.042317891148958224 1 1 0.034201412127042093 1 1 1 1 1 1 0.054753588334273171 0.036148274037391084 1 1 1 1 1 1 1 1 1 1 1 1 1 1 1 1 1 1 0.040457021316507108 1 1 1 0.049808612032446881 1 1 1 1 1 1 1 1 1 1 1 1 1 1 1 1 0.050031515273791419 1 1 1 1 1 1 1 0.032766199877877988 1 1 1 1 1 1 1 1 0.03690549079135183 1 0.049460924992136737 1 1 1 1 1 1 1 1 1 1 1 1 1 1 1 1 0.041735254252540793 1 1 1 1 1 1 1 0.028714488728255237 1 1 1 1 0.051895778224067393 1 1 1 1 1 1 1 0.057421846506872626 1 1 0.036077271940794395 0.050519026638884482 1 1 0.026199194338286581 1 1 1 1 1 1 0.020137349260069968 1 1 1 1 1 1 1 1 1 0.056644370856983144 1 1 0.049803801118855011 1 1 0.050199599785936883 1 1 0.038050739877141859 1 1 1 1 1 0.040360358249872066 1 1 1 1 1 1 1 1 0.04967837628501863 1 1 1 1 1 1 1 0.048974832973642662 1 1 1 1 1 1 1 1 1 1 1 1 0.047385211591018495 1 1 1 1 1 1 1 0.050400193819563559 0.050225972536763502 1 0.082128641427046678 1 0.057511376070866052 1 1 1 1 1 1 1 1 1 1 1 1 1 1 1 0.050006233148957295 1 0.059932581871566568 1 1 1 1 1 1 1 1 0.028320491527711385 1 0.046542311621447258 1 0.060419817032208306 1 0.020076153327156433 1 0.050921057590425631 1 1 0.049935420381029876 1 1 1 1 1 0.050014495487708366 1 1 1 1 1 1 1 1 0.049790825753462671 1 1 1 1 1 0.049345559369580766 1 1 0.081745310167749635 1 0.049033867492555561 0.053034924369158021 1 1 1 1 1 1 1 1 0.050074242785998715 1 1 1 1 1 1 1 1 1 1 1 1 1 0.029311663579256197 1 1 1 1 1 1 1 0.048361990180647983 1 1 1 0.048364295828276699 1 1 1 1 1 1 1 1 1 1 1 1 1 1 1 1 1 0.050797227612604551 1 1 1 1 1 1 1 0.050422056806647124 1 1 0.042198892615470183 1 1 1 1 1 1 1 1 1 1 1 1 1 1 1 0.044088309423138086 1 1 1 1 0.051217295289150755 1 1 1 1 1 1 1 1 1 1 1 1 1 1 1 1 1 1 1 1 1 1 1 1 1 0.05982025482231261 1 1 1 1 1 1 0.050398566994473058 1 1 1 1 1 1 1 1 1 0.058761146791025377 0.040636355432014243 1 1 1 0.041635827451623614 1 0.051063021631429985 1 1 1 1 1 1 1 1 1 1 1 1 1 1 1 0.047082412786884541 1 1 1 1 1 1 1 1 1 1 1 1 0.049238503546035324 0.047935151621577875 1 1 1 1 1 1 1 1 0.042114400796071129 1 1 0.050304082976816211 1 1 0.038153883402090603 0.055304802482526505 1 1 1 1 1 1 1 0.044909926328846245 1 1 1 1 1 1 1 1 1 0.048696648075542553 1 1 1 0.048291248404729578 1 1 1 1 1 0.049299325277263974 1 1 1 1 1 1 1 1 1 1 1 1 0.05117194409240905 1 1 1 0.050715934757814607 1 1 1 0.045775909517800653 1 1 1 1 1 1 1 1 1 1 1 1 1 1 1 1 1 1 1 1 1 1 1 1 1 1 1 1 1 1 1 1 0.051541133744834336 1 1 1 1 1 1 1 1 1 1 1 1 1 1 1 1 1 1 1 1 1 1 1 1 0.048366368807175604 1 0.049911724001318991 1 1 0.060964130223728111 1 1 1 1 1 1 1 1 1 0.043318780917442422 1 1 1 1 1 1 1 1 1 1 1 1 1 1 0.056992021393704968 1 1 1 1 0.053234834342998069 1 1 1 0.050785286691866098 1 1 1 1 1 1 1 1 1 1 1 1 1 1 1 1 1 1 1 1 1 1 1 1 1 1 1 1 1 1 1 1 1 1 1 1 1 1 1 1 1 1 1 1 1 1 1 1 1 1 1 1 1 1 1 1 1 1 1 1 1 1 1 1 1 1 1 1 1 1 1 1 1 1 1 1 1 1 1 1 1 1 1 1 1 1 1 1 1 1 1 1 1 1 1 1 1 1 1 1 1 1 1 1 1 1 1 1 1 1 1 1 1 1 1 1 1 1 1 1 1 1 1 1 1 1 1 1 1 1 1 1 1 1 1 1 1 1 1 1 1 1 1 1 1 1 1 1 1 1 1 1 1 1 1 1 1 1 1 1 1 1 1 1 1 1 1 1 1 1 1 1 1 1 1 1 1 1 1 1 1 1 1 1 1 1 1 1 1 0.01183657860666474 1 1 1 1 1 1 1 1 1 1 1 1 1 1 1 1 0.047665486809390006 1 1 1 1 1 1 1 1 0.025450858539651702 1 1 1 1 0.05134346121312873 1 1 1 1 1 1 1 1 1 1 1 1 1 1 1 1 1 1 1 1 1 1 0.048515885043572779 1 1 1 1 1 1 1 1 1 1 1 1 1 0.054272006753653144 0.014158377729780243 1 1 1 1 1 0.024078183893025649 1 0.06149917381685864 1 1 1 1 1 1 1 1 1 1 1 0.040597530279767619 1 1 1 1 1 1 1 0.00033575598226059239 1 1 1 1 1 1 1 1 1 1 1 1 1 1 1 0.048282207724438767 0.0060840557015403411 1 1 1 1 1 1 1 1 1 1 1 1 0.056544764822688061 1 1 1 1 1 1 1 1 1 1 1 1 1 1 1 1 0.052070967832975032 1 1 1 1 1 1 1 0.013413855632422185 1 1 1 1 1 1 1 1 1 1 0.049698961770087924 0.027004424185545627 1 1 1 1 1 1 1 1 1 1 1 1 1 1 1 1 1 1 1 1 1 1 1 1 1 1 1 1 1 1 0.044100579565038725 1 1 1 1 1 0.041015812182534042 1 1 1 1 1 1 1 1 1 1 0.046016388839704631 1 1 1 1 0.051487510110261897 1 1 1 1 1 1 1 1 1 1 0.041931616968148393 1 0.046932193625318988 1 1 1 1 1 1 1 1 1 1 1 1 1 1 1 1 1 1 1 1 1 1 1 1 1 1 1 1 1 1 1 0.049081245669507445 1 1 1 1 1 0.047363453393946209 1 1 1 1 1 1 1 1 1 1 1 1 1 1 1 1 1 1 0.045480821046637337 1 1 0.017742146802982972 1 1 1 0.048482221018043684 1 1 1 1 1 0.0027228459198429585 1 1 1 1 1 1 1 1 1 1 0.034925985875847075 1 1 1 1 1 1 0.050933346468082501 1 1 1 1 1 8.8500786213363547e-10 0.050266448559958508 1 1 0.0044783468377412455 1 1 0.047622280832094278 1 1 1 1 1 1 1 1 1 1 0.047536344729511203 1 1 0.046851387196014754 1 1 0.044707001356548773 1 1 0.045788764953722638 1 1 0.052355014822702162 1 1 0.046274672168725862 1 1 1 1 1 1 0.053763054172548425 1 1 1 1 1 1 1 1 1 1 1 0.0073784317226463017 1 1 1 1 1 1 1 0.047911267011417832 1 1 1 1 0.050151182488035143 1 1 1 0.013896453064760318 1 1 1 1 1 1 1 1 1 1 1 0.050708647149316013 1 1 1 1 1 1 1 1 1 1 1 1 1 1 1 1 1 1 1 1 1 1 1 1 0.050037848418069325 1 1 1 1 1 0.049951437863532504 1 1 1 1 1 1 1 1 1 1 1 1 1 1 0.047869620356683192 1 1 0.051697800784601566 1 0.034453144855648224 1 1 1 1 0.028325878538093624 1 0.050466642806384771 0.057584344125836608 1 0.055630499290447347 1 1 1 1 1 1 1 0.049960822431729203 1 0.05160346569494572 1 1 1 1 1 1 0.049411229157497266 1 1 1 1 1 1 0.049297754098864853 1 1 1 1 0.047950297790537846 1 1 1 1 1 0.050201810963825165 1 1 0.049796290323328309 1 1 1 1 0.046878381283822497 1 1 1 1 0.05078038537390369 1 1 1 1 1 1 0.049648896498149221 1 1 1 1 1 1 1 1 1 0.048463777995864536 1 1 1 1 1 1 0.049458850293176031 1 1 1 1 0.048944006012957342 1 1 1 1 1 1 1 1 1 1 1 1 1 1 1 1 0.050461040563615209 1 1 1 0.050710061991791816 1 1 0.032822256686204823 1 1 1 1 1 1 1 1 1 1 1 1 1 1 1 1 0.049907282360072337 1 0.035494848409653945 1 1 1 1 1 1 1 1 1 1 1 1 1 1 1 1 1 1 1 1 1 1 1 1 1 1 0.028859666516491661 1 1 0.038919270337880618 1 1 1 1 1 1 1 1 1 1 0.043983498422048857 1 1 1 1 0.04942244719215777 1 1 1 1 0.049515164832085387 1 1 1 1 1 1 1 1 1 0.044684882476654045 1 1 1 1 1 1 1 1 1 1 1 1 1 1 1 1 1 1 1 1 1 1 1 1 1 1 1 1 
</DataArray>
</CellData>
</Piece>
</UnstructuredGrid>
</VTKFile>
