<?xml version="1.0"?>
<VTKFile type="UnstructuredGrid" version="0.1" byte_order="LittleEndian">
<UnstructuredGrid>
<Piece NumberOfPoints="30618" NumberOfCells="10744">
<Points>
<DataArray type="Float64" NumberOfComponents="3" format="ascii">
-0.49427958746526202 -0.49999999999999512 0 -0.4943900888896422 -0.47349089190363358 0 -0.49427958746526202 -0.49999999999999512 0 -0.5 -0.5 0 -0.4943900888896422 -0.47349089190363358 0 -0.5 -0.5 0 -0.4943900888896422 -0.47349089190363358 0 -0.5 -0.44150235328842258 0 -0.49427958746526202 -0.49999999999999512 0 -0.4943900888896422 -0.47349089190363358 0 -0.48436842240857858 -0.48714093788813112 0 -0.49427958746526202 -0.49999999999999512 0 -0.47650045540741742 -0.5 0 -0.48436842240857858 -0.48714093788813112 0 -0.4943900888896422 -0.47349089190363358 0 -0.47066899942757451 -0.47576530412887819 0 -0.48436842240857858 -0.48714093788813112 0 -0.47066899942757451 -0.47576530412887819 0 -0.47650045540741742 -0.5 0 -0.48436842240857858 -0.48714093788813112 0 -0.47066899942757451 -0.47576530412887819 0 -0.45872132334957288 -0.49999999999999928 0 -0.45242967983978871 -0.4846708604340636 0 -0.47066899942757451 -0.47576530412887819 0 -0.47650045540741742 -0.5 0 -0.45872132334957288 -0.49999999999999928 0 -0.47066899942757451 -0.47576530412887819 0 -0.45872132334957288 -0.49999999999999928 0 -0.47066899942757451 -0.47576530412887819 0 -0.45242967983978871 -0.4846708604340636 0 -0.45249717469141032 -0.46588444847215849 0 -0.43763952177061649 -0.47770500498713542 0 -0.45242967983978871 -0.4846708604340636 0 -0.45249717469141032 -0.46588444847215849 0 -0.43763952177061649 -0.47770500498713542 0 -0.44291044788006362 -0.49999999999999939 0 -0.45242967983978871 -0.4846708604340636 0 -0.43763952177061649 -0.47770500498713542 0 -0.44291044788006362 -0.49999999999999939 0 -0.45872132334957288 -0.49999999999999928 0 -0.44291044788006362 -0.49999999999999939 0 -0.45242967983978871 -0.4846708604340636 0 -0.44838221886832419 -0.4464230337388379 0 -0.4323685956611692 -0.45541000997427139 0 -0.435988539966085 -0.44148905847597392 0 -0.44838221886832419 -0.4464230337388379 0 -0.44213238819953832 -0.43491600865963681 0 -0.435988539966085 -0.44148905847597392 0 -0.44838221886832419 -0.4464230337388379 0 -0.45249717469141032 -0.46588444847215849 0 -0.45755175660874181 -0.45423607616472811 0 -0.44838221886832419 -0.4464230337388379 0 -0.45249717469141032 -0.46588444847215849 0 -0.4323685956611692 -0.45541000997427139 0 -0.43763952177061649 -0.47770500498713542 0 -0.45249717469141032 -0.46588444847215849 0 -0.4323685956611692 -0.45541000997427139 0 -0.47066899942757451 -0.47576530412887819 0 -0.45249717469141032 -0.46588444847215849 0 -0.4675747862741928 -0.45726336772241771 0 -0.45249717469141032 -0.46588444847215849 0 -0.45755175660874181 -0.45423607616472811 0 -0.4675747862741928 -0.45726336772241771 0 -0.44838221886832419 -0.4464230337388379 0 -0.46897642374787268 -0.44262015471777721 0 -0.45660235518767722 -0.42786105997071933 0 -0.44838221886832419 -0.4464230337388379 0 -0.45755175660874181 -0.45423607616472811 0 -0.46897642374787268 -0.44262015471777721 0 -0.45755175660874181 -0.45423607616472811 0 -0.4675747862741928 -0.45726336772241771 0 -0.46897642374787268 -0.44262015471777721 0 -0.4943900888896422 -0.47349089190363358 0 -0.5 -0.44150235328842258 0 -0.49450059031402238 -0.44698178380727199 0 -0.46897642374787268 -0.44262015471777721 0 -0.48473746643246862 -0.43972512984246093 0 -0.48043585850414389 -0.43127077967876992 0 -0.46897642374787268 -0.44262015471777721 0 -0.4826166755055763 -0.45153060825775743 0 -0.48473746643246862 -0.43972512984246093 0 -0.4675747862741928 -0.45726336772241771 0 -0.46897642374787268 -0.44262015471777721 0 -0.4826166755055763 -0.45153060825775743 0 -0.47066899942757451 -0.47576530412887819 0 -0.4826166755055763 -0.45153060825775743 0 -0.4943900888896422 -0.47349089190363358 0 -0.47066899942757451 -0.47576530412887819 0 -0.4826166755055763 -0.45153060825775743 0 -0.47066899942757451 -0.47576530412887819 0 -0.4675747862741928 -0.45726336772241771 0 -0.4826166755055763 -0.45153060825775743 0 -0.4943900888896422 -0.47349089190363358 0 -0.49450059031402238 -0.44698178380727199 0 -0.4943900888896422 -0.47349089190363358 0 -0.4826166755055763 -0.45153060825775743 0 -0.49450059031402238 -0.44698178380727199 0 -0.4826166755055763 -0.45153060825775743 0 -0.48473746643246862 -0.43972512984246093 0 -0.49450059031402238 -0.44698178380727199 0 -0.5 -0.44150235328842258 0 -0.49461109173840262 -0.42047267571091063 0 -0.5 -0.39656953661894012 0 -0.49450059031402238 -0.44698178380727199 0 -0.49461109173840262 -0.42047267571091063 0 -0.48473746643246862 -0.43972512984246093 0 -0.49461109173840262 -0.42047267571091063 0 -0.48043585850414389 -0.43127077967876992 0 -0.5 -0.44150235328842258 0 -0.49450059031402238 -0.44698178380727199 0 -0.49461109173840262 -0.42047267571091063 0 -0.48473746643246862 -0.43972512984246093 0 -0.49450059031402238 -0.44698178380727199 0 -0.49461109173840262 -0.42047267571091063 0 -0.49461109173840262 -0.42047267571091063 0 -0.4947215931627828 -0.39396356761454909 0 -0.49461109173840262 -0.42047267571091063 0 -0.48393842445605872 -0.40713040098299402 0 -0.4947215931627828 -0.39396356761454909 0 -0.49461109173840262 -0.42047267571091063 0 -0.48393842445605872 -0.40713040098299402 0 -0.47214510592166908 -0.41939033492402211 0 -0.48393842445605872 -0.40713040098299402 0 -0.47214510592166908 -0.41939033492402211 0 -0.47427590700138023 -0.39469502568249409 0 -0.46897642374787268 -0.44262015471777721 0 -0.47214510592166908 -0.41939033492402211 0 -0.48043585850414389 -0.43127077967876992 0 -0.49461109173840262 -0.42047267571091063 0 -0.47214510592166908 -0.41939033492402211 0 -0.48043585850414389 -0.43127077967876992 0 -0.5 -0.39656953661894012 0 -0.4947215931627828 -0.39396356761454909 0 -0.48030453056746109 -0.36861144308094029 0 -0.49461109173840262 -0.42047267571091063 0 -0.5 -0.39656953661894012 0 -0.4947215931627828 -0.39396356761454909 0 -0.48393842445605872 -0.40713040098299402 0 -0.4947215931627828 -0.39396356761454909 0 -0.47427590700138023 -0.39469502568249409 0 -0.47427590700138023 -0.39469502568249409 0 -0.48030453056746109 -0.36861144308094029 0 -0.4947215931627828 -0.39396356761454909 0 -0.47427590700138023 -0.39469502568249409 0 -0.48030453056746109 -0.36861144308094029 0 -0.47427590700138023 -0.39469502568249409 0 -0.46334377193483078 -0.37842983215876019 0 -0.48030453056746109 -0.36861144308094029 0 -0.46334377193483078 -0.37842983215876019 0 -0.45726543839001688 -0.40541672899881109 0 -0.44416021803808919 -0.38243724496113263 0 -0.47427590700138023 -0.39469502568249409 0 -0.46334377193483078 -0.37842983215876019 0 -0.45726543839001688 -0.40541672899881109 0 -0.45726543839001688 -0.40541672899881109 0 -0.43814282409564848 -0.40387353522152758 0 -0.44416021803808919 -0.38243724496113263 0 -0.43814282409564848 -0.40387353522152758 0 -0.44416021803808919 -0.38243724496113263 0 -0.4329908326547659 -0.40007252460533121 0 -0.43814282409564848 -0.40387353522152758 0 -0.44416021803808919 -0.38243724496113263 0 -0.46897642374787268 -0.44262015471777721 0 -0.47214510592166908 -0.41939033492402211 0 -0.45660235518767722 -0.42786105997071933 0 -0.47214510592166908 -0.41939033492402211 0 -0.47427590700138023 -0.39469502568249409 0 -0.45726543839001688 -0.40541672899881109 0 -0.47214510592166908 -0.41939033492402211 0 -0.45726543839001688 -0.40541672899881109 0 -0.45660235518767722 -0.42786105997071933 0 -0.45726543839001688 -0.40541672899881109 0 -0.45660235518767722 -0.42786105997071933 0 -0.44309263043645408 -0.41812298423377797 0 -0.45726543839001688 -0.40541672899881109 0 -0.43814282409564848 -0.40387353522152758 0 -0.44309263043645408 -0.41812298423377797 0 -0.43814282409564848 -0.40387353522152758 0 -0.44309263043645408 -0.41812298423377797 0 -0.43209373842114163 -0.42530092927673752 0 -0.44838221886832419 -0.4464230337388379 0 -0.45660235518767722 -0.42786105997071933 0 -0.44213238819953832 -0.43491600865963681 0 -0.45660235518767722 -0.42786105997071933 0 -0.44213238819953832 -0.43491600865963681 0 -0.43132710435572019 -0.42815377149591122 0 -0.45660235518767722 -0.42786105997071933 0 -0.44309263043645408 -0.41812298423377797 0 -0.43132710435572019 -0.42815377149591122 0 -0.45660235518767722 -0.42786105997071933 0 -0.43132710435572019 -0.42815377149591122 0 -0.44213238819953832 -0.43491600865963681 0 -0.42986244815509678 -0.43337144475258638 0 -0.435988539966085 -0.44148905847597392 0 -0.44213238819953832 -0.43491600865963681 0 -0.42986244815509678 -0.43337144475258638 0 -0.43132710435572019 -0.42815377149591122 0 -0.42986244815509678 -0.43337144475258638 0 -0.43132710435572019 -0.42815377149591122 0 -0.42986244815509678 -0.43337144475258638 0 -0.42494843276815808 -0.42822764260015772 0 -0.42026026496879931 -0.43681168621285732 0 -0.42986244815509678 -0.43337144475258638 0 -0.42494843276815808 -0.42822764260015772 0 -0.43132710435572019 -0.42815377149591122 0 -0.42494843276815808 -0.42822764260015772 0 -0.43209373842114163 -0.42530092927673752 0 -0.42214799869492048 -0.41876725226122891 0 -0.42494843276815808 -0.42822764260015772 0 -0.43209373842114163 -0.42530092927673752 0 -0.42494843276815808 -0.42822764260015772 0 -0.43209373842114163 -0.42530092927673752 0 -0.43132710435572019 -0.42815377149591122 0 -0.42494843276815808 -0.42822764260015772 0 -0.43132710435572019 -0.42815377149591122 0 -0.44309263043645408 -0.41812298423377797 0 -0.43209373842114163 -0.42530092927673752 0 -0.43132710435572019 -0.42815377149591122 0 -0.43209373842114163 -0.42530092927673752 0 -0.43132710435572019 -0.42815377149591122 0 -0.43814282409564848 -0.40387353522152758 0 -0.43209373842114163 -0.42530092927673752 0 -0.43814282409564848 -0.40387353522152758 0 -0.43209373842114163 -0.42530092927673752 0 -0.42736227186559528 -0.41250939947999687 0 -0.43814282409564848 -0.40387353522152758 0 -0.42736227186559528 -0.41250939947999687 0 -0.42798743510346321 -0.40461924019690898 0 -0.42736227186559528 -0.41250939947999687 0 -0.42214799869492048 -0.41876725226122891 0 -0.41643936301280282 -0.409986040443582 0 -0.42736227186559528 -0.41250939947999687 0 -0.41643936301280282 -0.409986040443582 0 -0.42798743510346321 -0.40461924019690898 0 -0.43209373842114163 -0.42530092927673752 0 -0.42736227186559528 -0.41250939947999687 0 -0.42214799869492048 -0.41876725226122891 0 -0.41643936301280282 -0.409986040443582 0 -0.41319678457753078 -0.41966526467231158 0 -0.40068754056194861 -0.4128492080837643 0 -0.41643936301280282 -0.409986040443582 0 -0.40443020735863072 -0.40194112054031811 0 -0.40068754056194861 -0.4128492080837643 0 -0.42214799869492048 -0.41876725226122891 0 -0.41643936301280282 -0.409986040443582 0 -0.41319678457753078 -0.41966526467231158 0 -0.42494843276815808 -0.42822764260015772 0 -0.42026026496879931 -0.43681168621285732 0 -0.40375973713816599 -0.43690652084804732 0 -0.42494843276815808 -0.42822764260015772 0 -0.40375973713816599 -0.43690652084804732 0 -0.42494843276815808 -0.42822764260015772 0 -0.40375973713816599 -0.43690652084804732 0 -0.40176058784982421 -0.42849617997282502 0 -0.42494843276815808 -0.42822764260015772 0 -0.40176058784982421 -0.42849617997282502 0 -0.42494843276815808 -0.42822764260015772 0 -0.41319678457753078 -0.41966526467231158 0 -0.40176058784982421 -0.42849617997282502 0 -0.42494843276815808 -0.42822764260015772 0 -0.42214799869492048 -0.41876725226122891 0 -0.41319678457753078 -0.41966526467231158 0 -0.4329908326547659 -0.40007252460533121 0 -0.41903857325144328 -0.37691094697715488 0 -0.4329908326547659 -0.40007252460533121 0 -0.4179168883199279 -0.39116430956604842 0 -0.41903857325144328 -0.37691094697715488 0 -0.4326994291400702 -0.38209416684564063 0 -0.4329908326547659 -0.40007252460533121 0 -0.41903857325144328 -0.37691094697715488 0 -0.44416021803808919 -0.38243724496113263 0 -0.4326994291400702 -0.38209416684564063 0 -0.4329908326547659 -0.40007252460533121 0 -0.4326994291400702 -0.38209416684564063 0 -0.41903857325144328 -0.37691094697715488 0 -0.43460809261598232 -0.36895595083894339 0 -0.44416021803808919 -0.38243724496113263 0 -0.4326994291400702 -0.38209416684564063 0 -0.43460809261598232 -0.36895595083894339 0 -0.4329908326547659 -0.40007252460533121 0 -0.42169055226689678 -0.40123550737599678 0 -0.4179168883199279 -0.39116430956604842 0 -0.43814282409564848 -0.40387353522152758 0 -0.4329908326547659 -0.40007252460533121 0 -0.42798743510346321 -0.40461924019690898 0 -0.4329908326547659 -0.40007252460533121 0 -0.42798743510346321 -0.40461924019690898 0 -0.42169055226689678 -0.40123550737599678 0 -0.41643936301280282 -0.409986040443582 0 -0.42798743510346321 -0.40461924019690898 0 -0.42169055226689678 -0.40123550737599678 0 -0.40637138740796802 -0.39517449182144659 0 -0.4179168883199279 -0.39116430956604842 0 -0.40139199175968793 -0.38592718468705428 0 -0.41643936301280282 -0.409986040443582 0 -0.42169055226689678 -0.40123550737599678 0 -0.41336967967324528 -0.3999002939494784 0 -0.41643936301280282 -0.409986040443582 0 -0.41336967967324528 -0.3999002939494784 0 -0.40443020735863072 -0.40194112054031811 0 -0.41336967967324528 -0.3999002939494784 0 -0.40637138740796802 -0.39517449182144659 0 -0.40443020735863072 -0.40194112054031811 0 -0.41336967967324528 -0.3999002939494784 0 -0.40637138740796802 -0.39517449182144659 0 -0.4179168883199279 -0.39116430956604842 0 -0.42169055226689678 -0.40123550737599678 0 -0.41336967967324528 -0.3999002939494784 0 -0.4179168883199279 -0.39116430956604842 0 -0.4179168883199279 -0.39116430956604842 0 -0.40139199175968793 -0.38592718468705428 0 -0.4179168883199279 -0.39116430956604842 0 -0.41012997258942652 -0.38146265356513281 0 -0.40139199175968793 -0.38592718468705428 0 -0.4179168883199279 -0.39116430956604842 0 -0.41596140559408717 -0.38148427669336471 0 -0.41903857325144328 -0.37691094697715488 0 -0.4179168883199279 -0.39116430956604842 0 -0.41264357953851821 -0.38144664688815172 0 -0.41596140559408717 -0.38148427669336471 0 -0.4179168883199279 -0.39116430956604842 0 -0.41264357953851821 -0.38144664688815172 0 -0.41012997258942652 -0.38146265356513281 0 -0.41404820471788178 -0.37946069571912022 0 -0.41012997258942652 -0.38146265356513281 0 -0.41264357953851821 -0.38144664688815172 0 -0.41404820471788178 -0.37946069571912022 0 -0.41012997258942652 -0.38146265356513281 0 -0.41404820471788178 -0.37946069571912022 0 -0.41012997258942652 -0.38146265356513281 0 -0.40173768300816198 -0.36643993149899518 0 -0.41264357953851821 -0.38144664688815172 0 -0.41012997258942652 -0.38146265356513281 0 -0.41404820471788178 -0.37946069571912022 0 -0.41903857325144328 -0.37691094697715488 0 -0.41404820471788178 -0.37946069571912022 0 -0.41596140559408717 -0.38148427669336471 0 -0.41903857325144328 -0.37691094697715488 0 -0.41264357953851821 -0.38144664688815172 0 -0.41404820471788178 -0.37946069571912022 0 -0.41596140559408717 -0.38148427669336471 0 -0.41404820471788178 -0.37946069571912022 0 -0.41596140559408717 -0.38148427669336471 0 -0.41012997258942652 -0.38146265356513281 0 -0.39138945824891558 -0.38158199336868193 0 -0.40139199175968793 -0.38592718468705428 0 -0.39138945824891558 -0.38158199336868193 0 -0.40139199175968793 -0.38592718468705428 0 -0.38146018706309692 -0.39611102053173108 0 -0.41012997258942652 -0.38146265356513281 0 -0.39138945824891558 -0.38158199336868193 0 -0.40173768300816198 -0.36643993149899518 0 -0.41012997258942652 -0.38146265356513281 0 -0.39138945824891558 -0.38158199336868193 0 -0.41012997258942652 -0.38146265356513281 0 -0.40139199175968793 -0.38592718468705428 0 -0.39138945824891558 -0.38158199336868193 0 -0.40139199175968793 -0.38592718468705428 0 -0.40139199175968793 -0.38592718468705428 0 -0.39499960735806972 -0.39650442224569948 0 -0.38146018706309692 -0.39611102053173108 0 -0.40139199175968793 -0.38592718468705428 0 -0.38146018706309692 -0.39611102053173108 0 -0.40637138740796802 -0.39517449182144659 0 -0.39499960735806972 -0.39650442224569948 0 -0.40443020735863072 -0.40194112054031811 0 -0.40637138740796802 -0.39517449182144659 0 -0.40139199175968793 -0.38592718468705428 0 -0.39499960735806972 -0.39650442224569948 0 -0.39499960735806972 -0.39650442224569948 0 -0.40443020735863072 -0.40194112054031811 0 -0.39652584119055362 -0.40342912424259242 0 -0.40443020735863072 -0.40194112054031811 0 -0.39652584119055362 -0.40342912424259242 0 -0.40068754056194861 -0.4128492080837643 0 -0.39652584119055362 -0.40342912424259242 0 -0.38735877636819388 -0.40059869056111858 0 -0.38983809416569087 -0.40758335385593009 0 -0.39499960735806972 -0.39650442224569948 0 -0.39652584119055362 -0.40342912424259242 0 -0.38735877636819388 -0.40059869056111858 0 -0.38156916822041892 -0.40603200008561519 0 -0.38178229459812563 -0.40298695858946171 0 -0.38983809416569087 -0.40758335385593009 0 -0.38178229459812563 -0.40298695858946171 0 -0.38012172885428602 -0.39806952235009457 0 -0.38983809416569087 -0.40758335385593009 0 -0.38735877636819388 -0.40059869056111858 0 -0.38012172885428602 -0.39806952235009457 0 -0.38983809416569087 -0.40758335385593009 0 -0.38012172885428602 -0.39806952235009457 0 -0.38983809416569087 -0.40758335385593009 0 -0.38012172885428602 -0.39806952235009457 0 -0.37209094330423159 -0.40089808531996213 0 -0.37629487057870992 -0.40149067916431569 0 -0.38012172885428602 -0.39806952235009457 0 -0.37209094330423159 -0.40089808531996213 0 -0.38156916822041892 -0.40603200008561519 0 -0.38178229459812563 -0.40298695858946171 0 -0.37856432677971441 -0.40327293704996398 0 -0.38156916822041892 -0.40603200008561519 0 -0.37602613074463359 -0.40570926791912437 0 -0.37856432677971441 -0.40327293704996398 0 -0.37602613074463359 -0.40570926791912437 0 -0.37856432677971441 -0.40327293704996398 0 -0.37629487057870992 -0.40149067916431569 0 -0.37856432677971441 -0.40327293704996398 0 -0.37629487057870992 -0.40149067916431569 0 -0.37881815497051818 -0.39997697960570461 0 -0.37629487057870992 -0.40149067916431569 0 -0.37881815497051818 -0.39997697960570461 0 -0.38012172885428602 -0.39806952235009457 0 -0.37881815497051818 -0.39997697960570461 0 -0.38012172885428602 -0.39806952235009457 0 -0.38178229459812563 -0.40298695858946171 0 -0.37881815497051818 -0.39997697960570461 0 -0.38012172885428602 -0.39806952235009457 0 -0.38178229459812563 -0.40298695858946171 0 -0.37856432677971441 -0.40327293704996398 0 -0.37881815497051818 -0.39997697960570461 0 -0.38012172885428602 -0.39806952235009457 0 -0.37610551335983561 -0.39413702328477918 0 -0.37209094330423159 -0.40089808531996213 0 -0.38146018706309692 -0.39611102053173108 0 -0.37610551335983561 -0.39413702328477918 0 -0.38353069879127127 -0.38163203803623119 0 -0.38146018706309692 -0.39611102053173108 0 -0.38012172885428602 -0.39806952235009457 0 -0.37610551335983561 -0.39413702328477918 0 -0.38146018706309692 -0.39611102053173108 0 -0.38012172885428602 -0.39806952235009457 0 -0.38012172885428602 -0.39806952235009457 0 -0.37610551335983561 -0.39413702328477918 0 -0.39499960735806972 -0.39650442224569948 0 -0.38735877636819388 -0.40059869056111858 0 -0.38146018706309692 -0.39611102053173108 0 -0.38735877636819388 -0.40059869056111858 0 -0.38146018706309692 -0.39611102053173108 0 -0.38012172885428602 -0.39806952235009457 0 -0.39138945824891558 -0.38158199336868193 0 -0.38146018706309692 -0.39611102053173108 0 -0.38146018706309692 -0.39611102053173108 0 -0.38353069879127127 -0.38163203803623119 0 -0.38775448495095949 -0.38160514091903242 0 -0.39138945824891558 -0.38158199336868193 0 -0.38146018706309692 -0.39611102053173108 0 -0.38775448495095949 -0.38160514091903242 0 -0.37610551335983561 -0.39413702328477918 0 -0.38353069879127127 -0.38163203803623119 0 -0.38353069879127127 -0.38163203803623119 0 -0.36791003929668897 -0.37531597356073781 0 -0.38353069879127127 -0.38163203803623119 0 -0.37576852049830373 -0.37424143402576782 0 -0.36791003929668897 -0.37531597356073781 0 -0.38353069879127127 -0.38163203803623119 0 -0.38775448495095949 -0.38160514091903242 0 -0.39138945824891558 -0.38158199336868193 0 -0.38775448495095949 -0.38160514091903242 0 -0.39082733033514372 -0.43553780059387093 0 -0.40375973713816599 -0.43690652084804732 0 -0.40176058784982421 -0.42849617997282502 0 -0.41319678457753078 -0.41966526467231158 0 -0.40176058784982421 -0.42849617997282502 0 -0.40068754056194861 -0.4128492080837643 0 -0.40176058784982421 -0.42849617997282502 0 -0.40068754056194861 -0.4128492080837643 0 -0.38796072571873202 -0.41787067674187572 0 -0.40068754056194861 -0.4128492080837643 0 -0.38796072571873202 -0.41787067674187572 0 -0.38983809416569087 -0.40758335385593009 0 -0.39652584119055362 -0.40342912424259242 0 -0.40068754056194861 -0.4128492080837643 0 -0.38983809416569087 -0.40758335385593009 0 -0.38156916822041892 -0.40603200008561519 0 -0.38983809416569087 -0.40758335385593009 0 -0.38249496913699632 -0.41100015469591239 0 -0.38796072571873202 -0.41787067674187572 0 -0.38983809416569087 -0.40758335385593009 0 -0.38249496913699632 -0.41100015469591239 0 -0.38156916822041892 -0.40603200008561519 0 -0.37602613074463359 -0.40570926791912437 0 -0.38249496913699632 -0.41100015469591239 0 -0.38796072571873202 -0.41787067674187572 0 -0.38249496913699632 -0.41100015469591239 0 -0.37441041966644201 -0.41853044649732968 0 -0.38796072571873202 -0.41787067674187572 0 -0.37857274293149029 -0.42876471734549271 0 -0.37441041966644201 -0.41853044649732968 0 -0.39082733033514372 -0.43553780059387093 0 -0.37857274293149029 -0.42876471734549271 0 -0.38257104150817378 -0.44558539909593659 0 -0.40176058784982421 -0.42849617997282502 0 -0.38796072571873202 -0.41787067674187572 0 -0.37857274293149029 -0.42876471734549271 0 -0.40176058784982421 -0.42849617997282502 0 -0.37857274293149029 -0.42876471734549271 0 -0.39082733033514372 -0.43553780059387093 0 -0.40176058784982421 -0.42849617997282502 0 -0.37857274293149029 -0.42876471734549271 0 -0.37857274293149029 -0.42876471734549271 0 -0.38257104150817378 -0.44558539909593659 0 -0.36466736862266619 -0.43929361107495862 0 -0.40375973713816599 -0.43690652084804732 0 -0.38257104150817378 -0.44558539909593659 0 -0.40375973713816599 -0.43690652084804732 0 -0.38257104150817378 -0.44558539909593659 0 -0.39873322217020901 -0.44879301705899238 0 -0.38257104150817378 -0.44558539909593659 0 -0.39873322217020901 -0.44879301705899238 0 -0.39185116602312342 -0.46040899195533008 0 -0.39082733033514372 -0.43553780059387093 0 -0.40375973713816599 -0.43690652084804732 0 -0.38257104150817378 -0.44558539909593659 0 -0.39873322217020901 -0.44879301705899238 0 -0.40884565752670138 -0.44739205870809717 0 -0.40642776429331862 -0.45699343118294727 0 -0.40375973713816599 -0.43690652084804732 0 -0.39873322217020901 -0.44879301705899238 0 -0.40884565752670138 -0.44739205870809717 0 -0.39185116602312342 -0.46040899195533008 0 -0.40182839360969391 -0.46973105278735439 0 -0.40642776429331862 -0.45699343118294727 0 -0.39873322217020901 -0.44879301705899238 0 -0.39185116602312342 -0.46040899195533008 0 -0.40642776429331862 -0.45699343118294727 0 -0.38257104150817378 -0.44558539909593659 0 -0.39185116602312342 -0.46040899195533008 0 -0.3749125057523493 -0.4641870694620962 0 -0.39185116602312342 -0.46040899195533008 0 -0.38739682711329992 -0.47637139398093842 0 -0.3749125057523493 -0.4641870694620962 0 -0.38739682711329992 -0.47637139398093842 0 -0.36650464836053492 -0.47758333459014829 0 -0.3749125057523493 -0.4641870694620962 0 -0.38739682711329992 -0.47637139398093842 0 -0.38649563617076049 -0.5 0 -0.36650464836053492 -0.47758333459014829 0 -0.38649563617076049 -0.5 0 -0.40221786754911548 -0.48468690862955621 0 -0.41470304202541208 -0.5 0 -0.38739682711329992 -0.47637139398093842 0 -0.38649563617076049 -0.5 0 -0.40221786754911548 -0.48468690862955621 0 -0.39185116602312342 -0.46040899195533008 0 -0.38739682711329992 -0.47637139398093842 0 -0.40182839360969391 -0.46973105278735439 0 -0.38739682711329992 -0.47637139398093842 0 -0.40221786754911548 -0.48468690862955621 0 -0.40182839360969391 -0.46973105278735439 0 -0.40221786754911548 -0.48468690862955621 0 -0.40182839360969391 -0.46973105278735439 0 -0.41640034518153801 -0.4710884416934209 0 -0.40221786754911548 -0.48468690862955621 0 -0.41640034518153801 -0.4710884416934209 0 -0.41470304202541208 -0.5 0 -0.43763952177061649 -0.47770500498713542 0 -0.44291044788006362 -0.49999999999999939 0 -0.41470304202541208 -0.5 0 -0.43763952177061649 -0.47770500498713542 0 -0.41640034518153801 -0.4710884416934209 0 -0.41470304202541208 -0.5 0 -0.43763952177061649 -0.47770500498713542 0 -0.41640034518153801 -0.4710884416934209 0 -0.4323685956611692 -0.45541000997427139 0 -0.43763952177061649 -0.47770500498713542 0 -0.4323685956611692 -0.45541000997427139 0 -0.41640034518153801 -0.4710884416934209 0 -0.4323685956611692 -0.45541000997427139 0 -0.41872867018542492 -0.45179192289975101 0 -0.4323685956611692 -0.45541000997427139 0 -0.435988539966085 -0.44148905847597392 0 -0.42615181293618792 -0.44307742131274741 0 -0.42986244815509678 -0.43337144475258638 0 -0.435988539966085 -0.44148905847597392 0 -0.42615181293618792 -0.44307742131274741 0 -0.42986244815509678 -0.43337144475258638 0 -0.42026026496879931 -0.43681168621285732 0 -0.42615181293618792 -0.44307742131274741 0 -0.4323685956611692 -0.45541000997427139 0 -0.42615181293618792 -0.44307742131274741 0 -0.41872867018542492 -0.45179192289975101 0 -0.41872867018542492 -0.45179192289975101 0 -0.41657889384638791 -0.4424754015507481 0 -0.40884565752670138 -0.44739205870809717 0 -0.42026026496879931 -0.43681168621285732 0 -0.40375973713816599 -0.43690652084804732 0 -0.41657889384638791 -0.4424754015507481 0 -0.42615181293618792 -0.44307742131274741 0 -0.41872867018542492 -0.45179192289975101 0 -0.41657889384638791 -0.4424754015507481 0 -0.42026026496879931 -0.43681168621285732 0 -0.42615181293618792 -0.44307742131274741 0 -0.41657889384638791 -0.4424754015507481 0 -0.40375973713816599 -0.43690652084804732 0 -0.41657889384638791 -0.4424754015507481 0 -0.40884565752670138 -0.44739205870809717 0 -0.41872867018542492 -0.45179192289975101 0 -0.40884565752670138 -0.44739205870809717 0 -0.40642776429331862 -0.45699343118294727 0 -0.41640034518153801 -0.4710884416934209 0 -0.41872867018542492 -0.45179192289975101 0 -0.40642776429331862 -0.45699343118294727 0 -0.40182839360969391 -0.46973105278735439 0 -0.41640034518153801 -0.4710884416934209 0 -0.40642776429331862 -0.45699343118294727 0 -0.45211818340539273 -0.26309076008929921 0 -0.44165736388207272 -0.25360003737878889 0 -0.46465652818918263 -0.24483730068029039 0 -0.45211818340539273 -0.26309076008929921 0 -0.44165736388207272 -0.25360003737878889 0 -0.43680511815892142 -0.2660007677910407 0 -0.45211818340539273 -0.26309076008929921 0 -0.43957983862160288 -0.2813442194983079 0 -0.45211818340539273 -0.26309076008929921 0 -0.45386615352933152 -0.26317791563468229 0 -0.44300193479902689 -0.28147468360283379 0 -0.45211818340539273 -0.26309076008929921 0 -0.43957983862160288 -0.2813442194983079 0 -0.44300193479902689 -0.28147468360283379 0 -0.45386615352933152 -0.26317791563468229 0 -0.44300193479902689 -0.28147468360283379 0 -0.45211818340539273 -0.26309076008929921 0 -0.43957983862160288 -0.2813442194983079 0 -0.43680511815892142 -0.2660007677910407 0 -0.46540099386590911 -0.27613459344745273 0 -0.45386615352933152 -0.26317791563468229 0 -0.47789920225856231 -0.2654141115859287 0 -0.46540099386590911 -0.27613459344745273 0 -0.45386615352933152 -0.26317791563468229 0 -0.44300193479902689 -0.28147468360283379 0 -0.45211818340539273 -0.26309076008929921 0 -0.45386615352933152 -0.26317791563468229 0 -0.46465652818918263 -0.24483730068029039 0 -0.45211818340539273 -0.26309076008929921 0 -0.46465652818918263 -0.24483730068029039 0 -0.45386615352933152 -0.26317791563468229 0 -0.46465652818918263 -0.24483730068029039 0 -0.45386615352933152 -0.26317791563468229 0 -0.47789920225856231 -0.2654141115859287 0 -0.46465652818918263 -0.24483730068029039 0 -0.47789920225856231 -0.2654141115859287 0 -0.48570939693172899 -0.24902992718248729 0 -0.46465652818918263 -0.24483730068029039 0 -0.47789920225856231 -0.2654141115859287 0 -0.4909021497975728 -0.26136593096020788 0 -0.48570939693172899 -0.24902992718248729 0 -0.4909021497975728 -0.26136593096020788 0 -0.5 -0.25150281007534703 0 -0.5 -0.27951687499706851 0 -0.4909021497975728 -0.26136593096020788 0 -0.5 -0.25150281007534703 0 -0.48570939693172899 -0.24902992718248729 0 -0.47789920225856231 -0.2654141115859287 0 -0.5 -0.27951687499706851 0 -0.48508449486424082 -0.28732415172015657 0 -0.47789920225856231 -0.2654141115859287 0 -0.4909021497975728 -0.26136593096020788 0 -0.5 -0.27951687499706851 0 -0.46540099386590911 -0.27613459344745273 0 -0.47789920225856231 -0.2654141115859287 0 -0.48508449486424082 -0.28732415172015657 0 -0.46540099386590911 -0.27613459344745273 0 -0.4692524708352519 -0.29304891184013099 0 -0.48508449486424082 -0.28732415172015657 0 -0.4692524708352519 -0.29304891184013099 0 -0.48508449486424082 -0.28732415172015657 0 -0.48342094646859679 -0.29729694551662461 0 -0.5 -0.27951687499706851 0 -0.5 -0.30753093991878988 0 -0.49616219239740023 -0.30000131546641939 0 -0.5 -0.27951687499706851 0 -0.48508449486424082 -0.28732415172015657 0 -0.49616219239740023 -0.30000131546641939 0 -0.48508449486424082 -0.28732415172015657 0 -0.49616219239740023 -0.30000131546641939 0 -0.48342094646859679 -0.29729694551662461 0 -0.49616219239740023 -0.30000131546641939 0 -0.47988752038114357 -0.30743937284698208 0 -0.49124767326547109 -0.32126458797290303 0 -0.49616219239740023 -0.30000131546641939 0 -0.47988752038114357 -0.30743937284698208 0 -0.48342094646859679 -0.29729694551662461 0 -0.49616219239740023 -0.30000131546641939 0 -0.49124767326547109 -0.32126458797290303 0 -0.5 -0.30753093991878988 0 -0.49616219239740023 -0.30000131546641939 0 -0.49124767326547109 -0.32126458797290303 0 -0.4692524708352519 -0.29304891184013099 0 -0.47988752038114357 -0.30743937284698208 0 -0.46289418455034459 -0.31569959279366661 0 -0.4692524708352519 -0.29304891184013099 0 -0.47988752038114357 -0.30743937284698208 0 -0.48342094646859679 -0.29729694551662461 0 -0.4692524708352519 -0.29304891184013099 0 -0.46289418455034459 -0.31569959279366661 0 -0.4692524708352519 -0.29304891184013099 0 -0.45610231338702439 -0.30058860430122147 0 -0.46289418455034459 -0.31569959279366661 0 -0.45610231338702439 -0.30058860430122147 0 -0.44586848524951039 -0.31314063422893113 0 -0.46289418455034459 -0.31569959279366661 0 -0.46540099386590911 -0.27613459344745273 0 -0.45701344915610581 -0.28694014007387803 0 -0.44300193479902689 -0.28147468360283379 0 -0.46540099386590911 -0.27613459344745273 0 -0.4692524708352519 -0.29304891184013099 0 -0.45701344915610581 -0.28694014007387803 0 -0.4692524708352519 -0.29304891184013099 0 -0.45610231338702439 -0.30058860430122147 0 -0.45701344915610581 -0.28694014007387803 0 -0.45610231338702439 -0.30058860430122147 0 -0.44300193479902689 -0.28147468360283379 0 -0.43213771606872631 -0.29977145157098772 0 -0.43957983862160288 -0.2813442194983079 0 -0.44300193479902689 -0.28147468360283379 0 -0.43213771606872631 -0.29977145157098772 0 -0.45610231338702439 -0.30058860430122147 0 -0.45701344915610581 -0.28694014007387803 0 -0.44300193479902689 -0.28147468360283379 0 -0.44300193479902689 -0.28147468360283379 0 -0.43213771606872631 -0.29977145157098772 0 -0.45610231338702439 -0.30058860430122147 0 -0.43213771606872631 -0.29977145157098772 0 -0.45610231338702439 -0.30058860430122147 0 -0.44586848524951039 -0.31314063422893113 0 -0.43213771606872631 -0.29977145157098772 0 -0.44586848524951039 -0.31314063422893113 0 -0.44476508916493912 -0.32800798766852468 0 -0.46289418455034459 -0.31569959279366661 0 -0.44586848524951039 -0.31314063422893113 0 -0.44476508916493912 -0.32800798766852468 0 -0.43268999707831379 -0.32114889215997511 0 -0.44476508916493912 -0.32800798766852468 0 -0.45653589826543722 -0.33835027374720222 0 -0.43854709093312078 -0.34551838447463762 0 -0.44476508916493912 -0.32800798766852468 0 -0.43854709093312078 -0.34551838447463762 0 -0.43403437847741988 -0.33354869747312299 0 -0.45653589826543722 -0.33835027374720222 0 -0.47228809685679413 -0.34052311598912072 0 -0.46825538305703029 -0.35176440759005828 0 -0.45653589826543722 -0.33835027374720222 0 -0.47506093156469842 -0.3287229684348516 0 -0.47228809685679413 -0.34052311598912072 0 -0.44476508916493912 -0.32800798766852468 0 -0.45653589826543722 -0.33835027374720222 0 -0.46289418455034459 -0.31569959279366661 0 -0.45653589826543722 -0.33835027374720222 0 -0.46289418455034459 -0.31569959279366661 0 -0.47506093156469842 -0.3287229684348516 0 -0.45653589826543722 -0.33835027374720222 0 -0.46289418455034459 -0.31569959279366661 0 -0.4772725774404144 -0.31828163051210079 0 -0.49124767326547109 -0.32126458797290303 0 -0.47506093156469842 -0.3287229684348516 0 -0.47988752038114357 -0.30743937284698208 0 -0.46289418455034459 -0.31569959279366661 0 -0.4772725774404144 -0.31828163051210079 0 -0.46289418455034459 -0.31569959279366661 0 -0.4772725774404144 -0.31828163051210079 0 -0.47506093156469842 -0.3287229684348516 0 -0.47988752038114357 -0.30743937284698208 0 -0.4772725774404144 -0.31828163051210079 0 -0.49124767326547109 -0.32126458797290303 0 -0.5 -0.30753093991878988 0 -0.49124767326547109 -0.32126458797290303 0 -0.49999999999999961 -0.33554500484051131 0 -0.49124767326547109 -0.32126458797290303 0 -0.48633315413354011 -0.3425278604793861 0 -0.49124767326547109 -0.32126458797290303 0 -0.49999999999999961 -0.33554500484051131 0 -0.48633315413354011 -0.3425278604793861 0 -0.49999999999999961 -0.33554500484051131 0 -0.48633315413354011 -0.3425278604793861 0 -0.48633315413354011 -0.3425278604793861 0 -0.47506093156469842 -0.3287229684348516 0 -0.47228809685679413 -0.34052311598912072 0 -0.49124767326547109 -0.32126458797290303 0 -0.48633315413354011 -0.3425278604793861 0 -0.47506093156469842 -0.3287229684348516 0 -0.48633315413354011 -0.3425278604793861 0 -0.47228809685679413 -0.34052311598912072 0 -0.46825538305703029 -0.35176440759005828 0 -0.49999999999999961 -0.33554500484051131 0 -0.48633315413354011 -0.3425278604793861 0 -0.48030453056746109 -0.36861144308094029 0 -0.48633315413354011 -0.3425278604793861 0 -0.48030453056746109 -0.36861144308094029 0 -0.46825538305703029 -0.35176440759005828 0 -0.48633315413354011 -0.3425278604793861 0 -0.46825538305703029 -0.35176440759005828 0 -0.48633315413354011 -0.3425278604793861 0 -0.48030453056746109 -0.36861144308094029 0 -0.5 -0.39656953661894012 0 -0.49999999999999961 -0.33554500484051131 0 -0.48030453056746109 -0.36861144308094029 0 -0.46334377193483078 -0.37842983215876019 0 -0.48030453056746109 -0.36861144308094029 0 -0.46825538305703029 -0.35176440759005828 0 -0.46334377193483078 -0.37842983215876019 0 -0.46825538305703029 -0.35176440759005828 0 -0.45017761198052331 -0.36100095470073579 0 -0.45653589826543722 -0.33835027374720222 0 -0.45017761198052331 -0.36100095470073579 0 -0.45653589826543722 -0.33835027374720222 0 -0.46825538305703029 -0.35176440759005828 0 -0.45017761198052331 -0.36100095470073579 0 -0.46825538305703029 -0.35176440759005828 0 -0.45017761198052331 -0.36100095470073579 0 -0.45653589826543722 -0.33835027374720222 0 -0.43854709093312078 -0.34551838447463762 0 -0.45017761198052331 -0.36100095470073579 0 -0.43854709093312078 -0.34551838447463762 0 -0.45017761198052331 -0.36100095470073579 0 -0.43688840964749209 -0.35781554759345557 0 -0.45017761198052331 -0.36100095470073579 0 -0.43460809261598232 -0.36895595083894339 0 -0.43688840964749209 -0.35781554759345557 0 -0.45017761198052331 -0.36100095470073579 0 -0.43460809261598232 -0.36895595083894339 0 -0.44416021803808919 -0.38243724496113263 0 -0.45017761198052331 -0.36100095470073579 0 -0.43460809261598232 -0.36895595083894339 0 -0.44416021803808919 -0.38243724496113263 0 -0.45017761198052331 -0.36100095470073579 0 -0.46334377193483078 -0.37842983215876019 0 -0.44416021803808919 -0.38243724496113263 0 -0.45017761198052331 -0.36100095470073579 0 -0.41903857325144328 -0.37691094697715488 0 -0.43460809261598232 -0.36895595083894339 0 -0.42422084306034402 -0.35578690035950972 0 -0.41903857325144328 -0.37691094697715488 0 -0.43460809261598232 -0.36895595083894339 0 -0.43460809261598232 -0.36895595083894339 0 -0.43688840964749209 -0.35781554759345557 0 -0.42422084306034402 -0.35578690035950972 0 -0.43854709093312078 -0.34551838447463762 0 -0.42422084306034402 -0.35578690035950972 0 -0.42013533673330578 -0.33951952558935461 0 -0.43854709093312078 -0.34551838447463762 0 -0.43688840964749209 -0.35781554759345557 0 -0.42422084306034402 -0.35578690035950972 0 -0.40758067638829881 -0.35789015901873489 0 -0.42013533673330578 -0.33951952558935461 0 -0.42422084306034402 -0.35578690035950972 0 -0.40758067638829881 -0.35789015901873489 0 -0.42013533673330578 -0.33951952558935461 0 -0.40758067638829881 -0.35789015901873489 0 -0.4025685708709531 -0.34956976676792401 0 -0.42013533673330578 -0.33951952558935461 0 -0.41903857325144328 -0.37691094697715488 0 -0.40758067638829881 -0.35789015901873489 0 -0.40173768300816198 -0.36643993149899518 0 -0.41404820471788178 -0.37946069571912022 0 -0.41903857325144328 -0.37691094697715488 0 -0.40173768300816198 -0.36643993149899518 0 -0.41903857325144328 -0.37691094697715488 0 -0.42422084306034402 -0.35578690035950972 0 -0.40758067638829881 -0.35789015901873489 0 -0.41903857325144328 -0.37691094697715488 0 -0.40758067638829881 -0.35789015901873489 0 -0.41404820471788178 -0.37946069571912022 0 -0.40173768300816198 -0.36643993149899518 0 -0.39138945824891558 -0.38158199336868193 0 -0.38775448495095949 -0.38160514091903242 0 -0.39609514899832238 -0.36047185746617882 0 -0.39138945824891558 -0.38158199336868193 0 -0.40173768300816198 -0.36643993149899518 0 -0.39609514899832238 -0.36047185746617882 0 -0.40758067638829881 -0.35789015901873489 0 -0.40173768300816198 -0.36643993149899518 0 -0.40758067638829881 -0.35789015901873489 0 -0.40173768300816198 -0.36643993149899518 0 -0.39609514899832238 -0.36047185746617882 0 -0.40173768300816198 -0.36643993149899518 0 -0.39609514899832238 -0.36047185746617882 0 -0.39138945824891558 -0.38158199336868193 0 -0.40173768300816198 -0.36643993149899518 0 -0.38353069879127127 -0.38163203803623119 0 -0.38775448495095949 -0.38160514091903242 0 -0.39609514899832238 -0.36047185746617882 0 -0.38353069879127127 -0.38163203803623119 0 -0.39609514899832238 -0.36047185746617882 0 -0.37576852049830373 -0.37424143402576782 0 -0.37576852049830373 -0.37424143402576782 0 -0.38980029292032681 -0.3538138263344407 0 -0.39609514899832238 -0.36047185746617882 0 -0.37576852049830373 -0.37424143402576782 0 -0.38980029292032681 -0.3538138263344407 0 -0.38353069879127127 -0.38163203803623119 0 -0.39609514899832238 -0.36047185746617882 0 -0.37576852049830373 -0.37424143402576782 0 -0.38980029292032681 -0.3538138263344407 0 -0.37245563567842283 -0.36342144099550278 0 -0.37501505732771462 -0.35270295609204683 0 -0.38980029292032681 -0.3538138263344407 0 -0.37245563567842283 -0.36342144099550278 0 -0.37501505732771462 -0.35270295609204683 0 -0.38980029292032681 -0.3538138263344407 0 -0.37630104444955431 -0.33953575302191552 0 -0.38980029292032681 -0.3538138263344407 0 -0.3874425906513701 -0.34245666632481359 0 -0.37630104444955431 -0.33953575302191552 0 -0.38980029292032681 -0.3538138263344407 0 -0.37630104444955431 -0.33953575302191552 0 -0.38980029292032681 -0.3538138263344407 0 -0.39796499687501963 -0.34192756105832428 0 -0.3874425906513701 -0.34245666632481359 0 -0.38980029292032681 -0.3538138263344407 0 -0.39796499687501963 -0.34192756105832428 0 -0.38980029292032681 -0.3538138263344407 0 -0.4025685708709531 -0.34956976676792401 0 -0.39796499687501963 -0.34192756105832428 0 -0.39609514899832238 -0.36047185746617882 0 -0.38980029292032681 -0.3538138263344407 0 -0.4025685708709531 -0.34956976676792401 0 -0.39609514899832238 -0.36047185746617882 0 -0.38980029292032681 -0.3538138263344407 0 -0.40758067638829881 -0.35789015901873489 0 -0.4025685708709531 -0.34956976676792401 0 -0.39609514899832238 -0.36047185746617882 0 -0.4025685708709531 -0.34956976676792401 0 -0.40758067638829881 -0.35789015901873489 0 -0.39609514899832238 -0.36047185746617882 0 -0.4025685708709531 -0.34956976676792401 0 -0.4025685708709531 -0.34956976676792401 0 -0.39796499687501963 -0.34192756105832428 0 -0.39796499687501963 -0.34192756105832428 0 -0.38707883306085727 -0.32310268074594539 0 -0.39302444192435521 -0.32665020523696531 0 -0.39796499687501963 -0.34192756105832428 0 -0.41250324535641603 -0.32076261998282041 0 -0.39796499687501963 -0.34192756105832428 0 -0.38707883306085727 -0.32310268074594539 0 -0.39796499687501963 -0.34192756105832428 0 -0.39861901303234393 -0.32526976222302811 0 -0.41250324535641603 -0.32076261998282041 0 -0.4025685708709531 -0.34956976676792401 0 -0.39796499687501963 -0.34192756105832428 0 -0.4173531434698371 -0.32467060916945428 0 -0.39796499687501963 -0.34192756105832428 0 -0.39302444192435521 -0.32665020523696531 0 -0.39861901303234393 -0.32526976222302811 0 -0.39796499687501963 -0.34192756105832428 0 -0.3874425906513701 -0.34245666632481359 0 -0.38570402836057949 -0.33454952488457412 0 -0.39796499687501963 -0.34192756105832428 0 -0.38570402836057949 -0.33454952488457412 0 -0.38707883306085727 -0.32310268074594539 0 -0.3874425906513701 -0.34245666632481359 0 -0.38570402836057949 -0.33454952488457412 0 -0.37630104444955431 -0.33953575302191552 0 -0.38570402836057949 -0.33454952488457412 0 -0.38257566477560778 -0.32750665689071978 0 -0.38707883306085727 -0.32310268074594539 0 -0.38570402836057949 -0.33454952488457412 0 -0.37746168828861648 -0.32880316406910598 0 -0.37630104444955431 -0.33953575302191552 0 -0.38570402836057949 -0.33454952488457412 0 -0.37746168828861648 -0.32880316406910598 0 -0.38257566477560778 -0.32750665689071978 0 -0.38707883306085727 -0.32310268074594539 0 -0.37576395745092178 -0.3050725196501074 0 -0.38707883306085727 -0.32310268074594539 0 -0.37576395745092178 -0.3050725196501074 0 -0.37719713711566749 -0.31197748083789167 0 -0.37972485618422192 -0.31952152903519548 0 -0.38707883306085727 -0.32310268074594539 0 -0.37719713711566749 -0.31197748083789167 0 -0.37972485618422192 -0.31952152903519548 0 -0.37719713711566749 -0.31197748083789167 0 -0.37456534516798468 -0.31943469669369101 0 -0.37972485618422192 -0.31952152903519548 0 -0.38027246529026432 -0.32317389825498388 0 -0.37456534516798468 -0.31943469669369101 0 -0.37746168828861648 -0.32880316406910598 0 -0.38027246529026432 -0.32317389825498388 0 -0.37456534516798468 -0.31943469669369101 0 -0.37746168828861648 -0.32880316406910598 0 -0.38257566477560778 -0.32750665689071978 0 -0.38027246529026432 -0.32317389825498388 0 -0.37972485618422192 -0.31952152903519548 0 -0.38027246529026432 -0.32317389825498388 0 -0.38707883306085727 -0.32310268074594539 0 -0.38257566477560778 -0.32750665689071978 0 -0.38027246529026432 -0.32317389825498388 0 -0.38707883306085727 -0.32310268074594539 0 -0.3895493280880703 -0.32181092315052368 0 -0.38707883306085727 -0.32310268074594539 0 -0.39302444192435521 -0.32665020523696531 0 -0.3895493280880703 -0.32181092315052368 0 -0.38817922209955419 -0.31487003622919818 0 -0.39292420471281692 -0.32089260507692741 0 -0.3895493280880703 -0.32181092315052368 0 -0.3854068594836183 -0.31441721296606712 0 -0.38817922209955419 -0.31487003622919818 0 -0.3895493280880703 -0.32181092315052368 0 -0.38707883306085727 -0.32310268074594539 0 -0.3854068594836183 -0.31441721296606712 0 -0.38817922209955419 -0.31487003622919818 0 -0.39233623022453079 -0.31589900304218349 0 -0.38828454910218052 -0.30906118598004451 0 -0.39233623022453079 -0.31589900304218349 0 -0.39756756003884308 -0.31679974746756201 0 -0.39292420471281692 -0.32089260507692741 0 -0.38817922209955419 -0.31487003622919818 0 -0.39233623022453079 -0.31589900304218349 0 -0.39292420471281692 -0.32089260507692741 0 -0.39233623022453079 -0.31589900304218349 0 -0.39756756003884308 -0.31679974746756201 0 -0.39384318992161488 -0.31092517799495939 0 -0.39756756003884308 -0.31679974746756201 0 -0.39292420471281692 -0.32089260507692741 0 -0.39861901303234393 -0.32526976222302811 0 -0.3895493280880703 -0.32181092315052368 0 -0.39302444192435521 -0.32665020523696531 0 -0.39292420471281692 -0.32089260507692741 0 -0.39302444192435521 -0.32665020523696531 0 -0.39292420471281692 -0.32089260507692741 0 -0.39861901303234393 -0.32526976222302811 0 -0.39756756003884308 -0.31679974746756201 0 -0.39861901303234393 -0.32526976222302811 0 -0.41250324535641603 -0.32076261998282041 0 -0.39756756003884308 -0.31679974746756201 0 -0.41250324535641603 -0.32076261998282041 0 -0.39943253357619768 -0.3092473730742562 0 -0.4173531434698371 -0.32467060916945428 0 -0.41250324535641603 -0.32076261998282041 0 -0.42704149383781292 -0.2995976789073167 0 -0.39796499687501963 -0.34192756105832428 0 -0.4173531434698371 -0.32467060916945428 0 -0.41250324535641603 -0.32076261998282041 0 -0.4025685708709531 -0.34956976676792401 0 -0.4173531434698371 -0.32467060916945428 0 -0.42013533673330578 -0.33951952558935461 0 -0.4025685708709531 -0.34956976676792401 0 -0.4173531434698371 -0.32467060916945428 0 -0.4173531434698371 -0.32467060916945428 0 -0.42013533673330578 -0.33951952558935461 0 -0.43268999707831379 -0.32114889215997511 0 -0.42013533673330578 -0.33951952558935461 0 -0.43268999707831379 -0.32114889215997511 0 -0.42013533673330578 -0.33951952558935461 0 -0.43403437847741988 -0.33354869747312299 0 -0.43268999707831379 -0.32114889215997511 0 -0.43854709093312078 -0.34551838447463762 0 -0.42013533673330578 -0.33951952558935461 0 -0.43403437847741988 -0.33354869747312299 0 -0.44476508916493912 -0.32800798766852468 0 -0.43403437847741988 -0.33354869747312299 0 -0.43268999707831379 -0.32114889215997511 0 -0.4173531434698371 -0.32467060916945428 0 -0.43268999707831379 -0.32114889215997511 0 -0.43213771606872631 -0.29977145157098772 0 -0.44586848524951039 -0.31314063422893113 0 -0.43268999707831379 -0.32114889215997511 0 -0.43213771606872631 -0.29977145157098772 0 -0.4173531434698371 -0.32467060916945428 0 -0.43213771606872631 -0.29977145157098772 0 -0.4173531434698371 -0.32467060916945428 0 -0.42704149383781292 -0.2995976789073167 0 -0.43213771606872631 -0.29977145157098772 0 -0.42704149383781292 -0.2995976789073167 0 -0.43213771606872631 -0.29977145157098772 0 -0.43957983862160288 -0.2813442194983079 0 -0.42704149383781292 -0.2995976789073167 0 -0.41620122749958632 -0.28481054703811581 0 -0.43957983862160288 -0.2813442194983079 0 -0.42704149383781292 -0.2995976789073167 0 -0.43213771606872631 -0.29977145157098772 0 -0.43957983862160288 -0.2813442194983079 0 -0.42704149383781292 -0.2995976789073167 0 -0.42704149383781292 -0.2995976789073167 0 -0.40925521843592683 -0.29219363385722402 0 -0.40193077426190232 -0.29874144532295899 0 -0.42704149383781292 -0.2995976789073167 0 -0.41620122749958632 -0.28481054703811581 0 -0.40925521843592683 -0.29219363385722402 0 -0.41620122749958632 -0.28481054703811581 0 -0.4064106314034665 -0.28786033749410611 0 -0.40925521843592683 -0.29219363385722402 0 -0.41620122749958632 -0.28481054703811581 0 -0.4064106314034665 -0.28786033749410611 0 -0.40459857025975621 -0.28097081354976228 0 -0.42704149383781292 -0.2995976789073167 0 -0.40193077426190232 -0.29874144532295899 0 -0.41250324535641603 -0.32076261998282041 0 -0.42704149383781292 -0.2995976789073167 0 -0.40193077426190232 -0.29874144532295899 0 -0.41250324535641603 -0.32076261998282041 0 -0.42704149383781292 -0.2995976789073167 0 -0.41250324535641603 -0.32076261998282041 0 -0.39943253357619768 -0.3092473730742562 0 -0.40193077426190232 -0.29874144532295899 0 -0.40193077426190232 -0.29874144532295899 0 -0.39397115466413868 -0.30315074537586811 0 -0.37682005468599161 -0.29788521173860111 0 -0.39943253357619768 -0.3092473730742562 0 -0.40193077426190232 -0.29874144532295899 0 -0.39397115466413868 -0.30315074537586811 0 -0.39756756003884308 -0.31679974746756201 0 -0.39943253357619768 -0.3092473730742562 0 -0.39384318992161488 -0.31092517799495939 0 -0.39943253357619768 -0.3092473730742562 0 -0.39515669063330172 -0.30691697672544133 0 -0.39384318992161488 -0.31092517799495939 0 -0.39943253357619768 -0.3092473730742562 0 -0.39397115466413868 -0.30315074537586811 0 -0.39515669063330172 -0.30691697672544133 0 -0.39515669063330172 -0.30691697672544133 0 -0.39384318992161488 -0.31092517799495939 0 -0.39024404857921102 -0.30572650089527997 0 -0.39397115466413868 -0.30315074537586811 0 -0.39515669063330172 -0.30691697672544133 0 -0.39024404857921102 -0.30572650089527997 0 -0.39384318992161488 -0.31092517799495939 0 -0.38828454910218052 -0.30906118598004451 0 -0.39024404857921102 -0.30572650089527997 0 -0.39233623022453079 -0.31589900304218349 0 -0.39384318992161488 -0.31092517799495939 0 -0.38828454910218052 -0.30906118598004451 0 -0.38817922209955419 -0.31487003622919818 0 -0.38828454910218052 -0.30906118598004451 0 -0.37682005468599161 -0.29788521173860111 0 -0.3854068594836183 -0.31441721296606712 0 -0.38817922209955419 -0.31487003622919818 0 -0.37682005468599161 -0.29788521173860111 0 -0.39397115466413868 -0.30315074537586811 0 -0.39024404857921102 -0.30572650089527997 0 -0.37682005468599161 -0.29788521173860111 0 -0.40193077426190232 -0.29874144532295899 0 -0.37682005468599161 -0.29788521173860111 0 -0.38707883306085727 -0.32310268074594539 0 -0.3854068594836183 -0.31441721296606712 0 -0.37682005468599161 -0.29788521173860111 0 -0.38707883306085727 -0.32310268074594539 0 -0.37682005468599161 -0.29788521173860111 0 -0.37576395745092178 -0.3050725196501074 0 -0.38707883306085727 -0.32310268074594539 0 -0.37682005468599161 -0.29788521173860111 0 -0.38828454910218052 -0.30906118598004451 0 -0.39024404857921102 -0.30572650089527997 0 -0.37682005468599161 -0.29788521173860111 0 -0.40193077426190232 -0.29874144532295899 0 -0.37682005468599161 -0.29788521173860111 0 -0.38727793942999461 -0.29143138054805301 0 -0.37682005468599161 -0.29788521173860111 0 -0.37992505739110077 -0.285327891268156 0 -0.37089355010314762 -0.28331705945197572 0 -0.37682005468599161 -0.29788521173860111 0 -0.37992505739110077 -0.285327891268156 0 -0.38727793942999461 -0.29143138054805301 0 -0.38727793942999461 -0.29143138054805301 0 -0.3924898948206727 -0.28599182426682918 0 -0.38684870024465262 -0.28019709009285709 0 -0.37992505739110077 -0.285327891268156 0 -0.38727793942999461 -0.29143138054805301 0 -0.38684870024465262 -0.28019709009285709 0 -0.3924898948206727 -0.28599182426682918 0 -0.39318539860325191 -0.27833553320660309 0 -0.38684870024465262 -0.28019709009285709 0 -0.3924898948206727 -0.28599182426682918 0 -0.39946484360203771 -0.29301209464503369 0 -0.39318539860325191 -0.27833553320660309 0 -0.38727793942999461 -0.29143138054805301 0 -0.3924898948206727 -0.28599182426682918 0 -0.39529086302865168 -0.29229418619571867 0 -0.40193077426190232 -0.29874144532295899 0 -0.38727793942999461 -0.29143138054805301 0 -0.39529086302865168 -0.29229418619571867 0 -0.3924898948206727 -0.28599182426682918 0 -0.39529086302865168 -0.29229418619571867 0 -0.39946484360203771 -0.29301209464503369 0 -0.4064106314034665 -0.28786033749410611 0 -0.40925521843592683 -0.29219363385722402 0 -0.39946484360203771 -0.29301209464503369 0 -0.40925521843592683 -0.29219363385722402 0 -0.40193077426190232 -0.29874144532295899 0 -0.39946484360203771 -0.29301209464503369 0 -0.40193077426190232 -0.29874144532295899 0 -0.39529086302865168 -0.29229418619571867 0 -0.39946484360203771 -0.29301209464503369 0 -0.4064106314034665 -0.28786033749410611 0 -0.39946484360203771 -0.29301209464503369 0 -0.40459857025975621 -0.28097081354976228 0 -0.40459857025975621 -0.28097081354976228 0 -0.39871653422275 -0.26477063034798642 0 -0.40644367116261759 -0.26933550009943341 0 -0.39946484360203771 -0.29301209464503369 0 -0.40459857025975621 -0.28097081354976228 0 -0.39871653422275 -0.26477063034798642 0 -0.39946484360203771 -0.29301209464503369 0 -0.39871653422275 -0.26477063034798642 0 -0.39946484360203771 -0.29301209464503369 0 -0.39318539860325191 -0.27833553320660309 0 -0.39871653422275 -0.26477063034798642 0 -0.39318539860325191 -0.27833553320660309 0 -0.38840702012614647 -0.26770602668030929 0 -0.39871653422275 -0.26477063034798642 0 -0.39318539860325191 -0.27833553320660309 0 -0.38684870024465262 -0.28019709009285709 0 -0.38840702012614647 -0.26770602668030929 0 -0.38684870024465262 -0.28019709009285709 0 -0.38840702012614647 -0.26770602668030929 0 -0.37812768531643998 -0.2740521224023964 0 -0.38840702012614647 -0.26770602668030929 0 -0.37812768531643998 -0.2740521224023964 0 -0.37969836118369482 -0.26041778922000308 0 -0.37992505739110077 -0.285327891268156 0 -0.37812768531643998 -0.2740521224023964 0 -0.37089355010314762 -0.28331705945197572 0 -0.37992505739110077 -0.285327891268156 0 -0.38684870024465262 -0.28019709009285709 0 -0.37812768531643998 -0.2740521224023964 0 -0.37969836118369482 -0.26041778922000308 0 -0.39442967684708991 -0.25208667127465478 0 -0.37872015884544641 -0.2435614714605657 0 -0.37969836118369482 -0.26041778922000308 0 -0.36999160380854529 -0.25160890498862648 0 -0.37872015884544641 -0.2435614714605657 0 -0.38840702012614647 -0.26770602668030929 0 -0.37969836118369482 -0.26041778922000308 0 -0.39442967684708991 -0.25208667127465478 0 -0.37969836118369482 -0.26041778922000308 0 -0.39442967684708991 -0.25208667127465478 0 -0.39442967684708991 -0.25208667127465478 0 -0.39871653422275 -0.26477063034798642 0 -0.39796822484346261 -0.23652916605093899 0 -0.40220594800304021 -0.25293233307518609 0 -0.39871653422275 -0.26477063034798642 0 -0.40644367116261759 -0.26933550009943341 0 -0.40220594800304021 -0.25293233307518609 0 -0.39871653422275 -0.26477063034798642 0 -0.39796822484346261 -0.23652916605093899 0 -0.40220594800304021 -0.25293233307518609 0 -0.40644367116261759 -0.26933550009943341 0 -0.39871653422275 -0.26477063034798642 0 -0.39796822484346261 -0.23652916605093899 0 -0.38840702012614647 -0.26770602668030929 0 -0.39442967684708991 -0.25208667127465478 0 -0.39871653422275 -0.26477063034798642 0 -0.40220594800304021 -0.25293233307518609 0 -0.41459928595597673 -0.25790967448939001 0 -0.40644367116261759 -0.26933550009943341 0 -0.40220594800304021 -0.25293233307518609 0 -0.41459928595597673 -0.25790967448939001 0 -0.41466813127082142 -0.24184035413310251 0 -0.41459928595597673 -0.25790967448939001 0 -0.42775875008346192 -0.25507980811954323 0 -0.41466813127082142 -0.24184035413310251 0 -0.41459928595597673 -0.25790967448939001 0 -0.42191992925994232 -0.27036037701968468 0 -0.42775875008346192 -0.25507980811954323 0 -0.40644367116261759 -0.26933550009943341 0 -0.41206191028808969 -0.27659566112432887 0 -0.42191992925994232 -0.27036037701968468 0 -0.40459857025975621 -0.28097081354976228 0 -0.40644367116261759 -0.26933550009943341 0 -0.41206191028808969 -0.27659566112432887 0 -0.41620122749958632 -0.28481054703811581 0 -0.40459857025975621 -0.28097081354976228 0 -0.41206191028808969 -0.27659566112432887 0 -0.41620122749958632 -0.28481054703811581 0 -0.41206191028808969 -0.27659566112432887 0 -0.42191992925994232 -0.27036037701968468 0 -0.41459928595597673 -0.25790967448939001 0 -0.40644367116261759 -0.26933550009943341 0 -0.42191992925994232 -0.27036037701968468 0 -0.43957983862160288 -0.2813442194983079 0 -0.42191992925994232 -0.27036037701968468 0 -0.43680511815892142 -0.2660007677910407 0 -0.43957983862160288 -0.2813442194983079 0 -0.41620122749958632 -0.28481054703811581 0 -0.42191992925994232 -0.27036037701968468 0 -0.44165736388207272 -0.25360003737878889 0 -0.43680511815892142 -0.2660007677910407 0 -0.42775875008346192 -0.25507980811954323 0 -0.42191992925994232 -0.27036037701968468 0 -0.43680511815892142 -0.2660007677910407 0 -0.42775875008346192 -0.25507980811954323 0 -0.32577683519746242 -0.25897579210934468 0 -0.30798481169360081 -0.26465381523239789 0 -0.31421725341188372 -0.24977587129631751 0 -0.32577683519746242 -0.25897579210934468 0 -0.31511343508082401 -0.27781322935613839 0 -0.33065211668571071 -0.27437360408278932 0 -0.32577683519746242 -0.25897579210934468 0 -0.31511343508082401 -0.27781322935613839 0 -0.30798481169360081 -0.26465381523239789 0 -0.31511343508082401 -0.27781322935613839 0 -0.33065211668571071 -0.27437360408278932 0 -0.32673865940135971 -0.29036850998253821 0 -0.33065211668571071 -0.27437360408278932 0 -0.3425640544848888 -0.26114950363554529 0 -0.3458528524608297 -0.27955870857394483 0 -0.32577683519746242 -0.25897579210934468 0 -0.33065211668571071 -0.27437360408278932 0 -0.3425640544848888 -0.26114950363554529 0 -0.32577683519746242 -0.25897579210934468 0 -0.3425640544848888 -0.26114950363554529 0 -0.34161545739809862 -0.2441761224370865 0 -0.3425640544848888 -0.26114950363554529 0 -0.35707845064694121 -0.24935767075674509 0 -0.34161545739809862 -0.2441761224370865 0 -0.3425640544848888 -0.26114950363554529 0 -0.3649670455202999 -0.26874890716535171 0 -0.35707845064694121 -0.24935767075674509 0 -0.3649670455202999 -0.26874890716535171 0 -0.35707845064694121 -0.24935767075674509 0 -0.37969836118369482 -0.26041778922000308 0 -0.36999160380854529 -0.25160890498862648 0 -0.3649670455202999 -0.26874890716535171 0 -0.36999160380854529 -0.25160890498862648 0 -0.3649670455202999 -0.26874890716535171 0 -0.35707845064694121 -0.24935767075674509 0 -0.37969836118369482 -0.26041778922000308 0 -0.3649670455202999 -0.26874890716535171 0 -0.3649670455202999 -0.26874890716535171 0 -0.3458528524608297 -0.27955870857394483 0 -0.37089355010314762 -0.28331705945197572 0 -0.37812768531643998 -0.2740521224023964 0 -0.3649670455202999 -0.26874890716535171 0 -0.37089355010314762 -0.28331705945197572 0 -0.3649670455202999 -0.26874890716535171 0 -0.37089355010314762 -0.28331705945197572 0 -0.37812768531643998 -0.2740521224023964 0 -0.37969836118369482 -0.26041778922000308 0 -0.3649670455202999 -0.26874890716535171 0 -0.3649670455202999 -0.26874890716535171 0 -0.3458528524608297 -0.27955870857394483 0 -0.3425640544848888 -0.26114950363554529 0 -0.3649670455202999 -0.26874890716535171 0 -0.3458528524608297 -0.27955870857394483 0 -0.3458528524608297 -0.27955870857394483 0 -0.35490209917173382 -0.29713784607450577 0 -0.33298414365747597 -0.29639048041041038 0 -0.3458528524608297 -0.27955870857394483 0 -0.37089355010314762 -0.28331705945197572 0 -0.35490209917173382 -0.29713784607450577 0 -0.35490209917173382 -0.29713784607450577 0 -0.33298414365747597 -0.29639048041041038 0 -0.37682005468599161 -0.29788521173860111 0 -0.37089355010314762 -0.28331705945197572 0 -0.35490209917173382 -0.29713784607450577 0 -0.37682005468599161 -0.29788521173860111 0 -0.37089355010314762 -0.28331705945197572 0 -0.37682005468599161 -0.29788521173860111 0 -0.35490209917173382 -0.29713784607450577 0 -0.37682005468599161 -0.29788521173860111 0 -0.36188894867209143 -0.31041699320339777 0 -0.35490209917173382 -0.29713784607450577 0 -0.37576395745092178 -0.3050725196501074 0 -0.36188894867209143 -0.31041699320339777 0 -0.37031507652163809 -0.31287943285871039 0 -0.37576395745092178 -0.3050725196501074 0 -0.37719713711566749 -0.31197748083789167 0 -0.37031507652163809 -0.31287943285871039 0 -0.37682005468599161 -0.29788521173860111 0 -0.37576395745092178 -0.3050725196501074 0 -0.36188894867209143 -0.31041699320339777 0 -0.36188894867209143 -0.31041699320339777 0 -0.35490209917173382 -0.29713784607450577 0 -0.34709214139205768 -0.31270838654372951 0 -0.35490209917173382 -0.29713784607450577 0 -0.34179204247812539 -0.30372858581904438 0 -0.34709214139205768 -0.31270838654372951 0 -0.35490209917173382 -0.29713784607450577 0 -0.34179204247812539 -0.30372858581904438 0 -0.33298414365747597 -0.29639048041041038 0 -0.33218978569123447 -0.30867763024753198 0 -0.34179204247812539 -0.30372858581904438 0 -0.34709214139205768 -0.31270838654372951 0 -0.33218978569123447 -0.30867763024753198 0 -0.34179204247812539 -0.30372858581904438 0 -0.33298414365747597 -0.29639048041041038 0 -0.33218978569123447 -0.30867763024753198 0 -0.33298414365747597 -0.29639048041041038 0 -0.32551389594434832 -0.29891105756718273 0 -0.3458528524608297 -0.27955870857394483 0 -0.32673865940135971 -0.29036850998253821 0 -0.3458528524608297 -0.27955870857394483 0 -0.33298414365747597 -0.29639048041041038 0 -0.32673865940135971 -0.29036850998253821 0 -0.33065211668571071 -0.27437360408278932 0 -0.3458528524608297 -0.27955870857394483 0 -0.32673865940135971 -0.29036850998253821 0 -0.33298414365747597 -0.29639048041041038 0 -0.32673865940135971 -0.29036850998253821 0 -0.32551389594434832 -0.29891105756718273 0 -0.32673865940135971 -0.29036850998253821 0 -0.31615320843671613 -0.29356321322440693 0 -0.32551389594434832 -0.29891105756718273 0 -0.31511343508082401 -0.27781322935613839 0 -0.32673865940135971 -0.29036850998253821 0 -0.31615320843671613 -0.29356321322440693 0 -0.31615320843671613 -0.29356321322440693 0 -0.31950368253495531 -0.30555545397102613 0 -0.30878428388507118 -0.30170417431472779 0 -0.31950368253495531 -0.30555545397102613 0 -0.3116392313269683 -0.31227800665128408 0 -0.30878428388507118 -0.30170417431472779 0 -0.31950368253495531 -0.30555545397102613 0 -0.32244955285570731 -0.31946983399639112 0 -0.3116392313269683 -0.31227800665128408 0 -0.33218978569123447 -0.30867763024753198 0 -0.31950368253495531 -0.30555545397102613 0 -0.32244955285570731 -0.31946983399639112 0 -0.33218978569123447 -0.30867763024753198 0 -0.31950368253495531 -0.30555545397102613 0 -0.32551389594434832 -0.29891105756718273 0 -0.31615320843671613 -0.29356321322440693 0 -0.31950368253495531 -0.30555545397102613 0 -0.32551389594434832 -0.29891105756718273 0 -0.32244955285570731 -0.31946983399639112 0 -0.30629799224095122 -0.32640742927921629 0 -0.3116392313269683 -0.31227800665128408 0 -0.32244955285570731 -0.31946983399639112 0 -0.32074380139974629 -0.33343701228721029 0 -0.30629799224095122 -0.32640742927921629 0 -0.32244955285570731 -0.31946983399639112 0 -0.32074380139974629 -0.33343701228721029 0 -0.33561670872011118 -0.32538867032004731 0 -0.32074380139974629 -0.33343701228721029 0 -0.33040605641151349 -0.34939015350577979 0 -0.304947043925899 -0.34335287533409059 0 -0.32074380139974629 -0.33343701228721029 0 -0.33267344648675012 -0.33694306544023261 0 -0.33040605641151349 -0.34939015350577979 0 -0.32074380139974629 -0.33343701228721029 0 -0.33267344648675012 -0.33694306544023261 0 -0.33561670872011118 -0.32538867032004731 0 -0.33267344648675012 -0.33694306544023261 0 -0.34392721941562959 -0.33955642564789279 0 -0.33040605641151349 -0.34939015350577979 0 -0.33561670872011118 -0.32538867032004731 0 -0.349287455364583 -0.32600753078393868 0 -0.34392721941562959 -0.33955642564789279 0 -0.33267344648675012 -0.33694306544023261 0 -0.33561670872011118 -0.32538867032004731 0 -0.34392721941562959 -0.33955642564789279 0 -0.33218978569123447 -0.30867763024753198 0 -0.33561670872011118 -0.32538867032004731 0 -0.34709214139205768 -0.31270838654372951 0 -0.33218978569123447 -0.30867763024753198 0 -0.32244955285570731 -0.31946983399639112 0 -0.33561670872011118 -0.32538867032004731 0 -0.33561670872011118 -0.32538867032004731 0 -0.34709214139205768 -0.31270838654372951 0 -0.349287455364583 -0.32600753078393868 0 -0.36188894867209143 -0.31041699320339777 0 -0.349287455364583 -0.32600753078393868 0 -0.36280179597878331 -0.32525767970938912 0 -0.36188894867209143 -0.31041699320339777 0 -0.34709214139205768 -0.31270838654372951 0 -0.349287455364583 -0.32600753078393868 0 -0.36188894867209143 -0.31041699320339777 0 -0.36280179597878331 -0.32525767970938912 0 -0.37031507652163809 -0.31287943285871039 0 -0.37746168828861648 -0.32880316406910598 0 -0.36280179597878331 -0.32525767970938912 0 -0.37456534516798468 -0.31943469669369101 0 -0.36280179597878331 -0.32525767970938912 0 -0.37456534516798468 -0.31943469669369101 0 -0.37031507652163809 -0.31287943285871039 0 -0.37719713711566749 -0.31197748083789167 0 -0.37456534516798468 -0.31943469669369101 0 -0.37031507652163809 -0.31287943285871039 0 -0.37630104444955431 -0.33953575302191552 0 -0.36280179597878331 -0.32525767970938912 0 -0.35900277781907919 -0.33873387737807908 0 -0.37630104444955431 -0.33953575302191552 0 -0.35900277781907919 -0.33873387737807908 0 -0.3662355090989915 -0.348226851570058 0 -0.37746168828861648 -0.32880316406910598 0 -0.37630104444955431 -0.33953575302191552 0 -0.36280179597878331 -0.32525767970938912 0 -0.37630104444955431 -0.33953575302191552 0 -0.36280179597878331 -0.32525767970938912 0 -0.349287455364583 -0.32600753078393868 0 -0.36280179597878331 -0.32525767970938912 0 -0.35900277781907919 -0.33873387737807908 0 -0.349287455364583 -0.32600753078393868 0 -0.35900277781907919 -0.33873387737807908 0 -0.34392721941562959 -0.33955642564789279 0 -0.34392721941562959 -0.33955642564789279 0 -0.34378478126742867 -0.35168705731137051 0 -0.35474622765707731 -0.3530842238088211 0 -0.34378478126742867 -0.35168705731137051 0 -0.35474622765707731 -0.3530842238088211 0 -0.34605962158549469 -0.3647174262829882 0 -0.35474622765707731 -0.3530842238088211 0 -0.34605962158549469 -0.3647174262829882 0 -0.35474622765707731 -0.3530842238088211 0 -0.3645004591251928 -0.35797240650737622 0 -0.3557305472228397 -0.36248105220686111 0 -0.35900277781907919 -0.33873387737807908 0 -0.34392721941562959 -0.33955642564789279 0 -0.35474622765707731 -0.3530842238088211 0 -0.35900277781907919 -0.33873387737807908 0 -0.35474622765707731 -0.3530842238088211 0 -0.3662355090989915 -0.348226851570058 0 -0.35474622765707731 -0.3530842238088211 0 -0.3662355090989915 -0.348226851570058 0 -0.3645004591251928 -0.35797240650737622 0 -0.37501505732771462 -0.35270295609204683 0 -0.3662355090989915 -0.348226851570058 0 -0.3645004591251928 -0.35797240650737622 0 -0.37501505732771462 -0.35270295609204683 0 -0.3645004591251928 -0.35797240650737622 0 -0.37245563567842283 -0.36342144099550278 0 -0.37501505732771462 -0.35270295609204683 0 -0.37630104444955431 -0.33953575302191552 0 -0.3662355090989915 -0.348226851570058 0 -0.35160698284412462 -0.37014915498247181 0 -0.36791003929668897 -0.37531597356073781 0 -0.3617394449023093 -0.36648204945264778 0 -0.35160698284412462 -0.37014915498247181 0 -0.36791003929668897 -0.37531597356073781 0 -0.37245563567842283 -0.36342144099550278 0 -0.3617394449023093 -0.36648204945264778 0 -0.36791003929668897 -0.37531597356073781 0 -0.37576852049830373 -0.37424143402576782 0 -0.37245563567842283 -0.36342144099550278 0 -0.36791003929668897 -0.37531597356073781 0 -0.3645004591251928 -0.35797240650737622 0 -0.3617394449023093 -0.36648204945264778 0 -0.3557305472228397 -0.36248105220686111 0 -0.3645004591251928 -0.35797240650737622 0 -0.37245563567842283 -0.36342144099550278 0 -0.3617394449023093 -0.36648204945264778 0 -0.35474622765707731 -0.3530842238088211 0 -0.3557305472228397 -0.36248105220686111 0 -0.34605962158549469 -0.3647174262829882 0 -0.3617394449023093 -0.36648204945264778 0 -0.35160698284412462 -0.37014915498247181 0 -0.3557305472228397 -0.36248105220686111 0 -0.35160698284412462 -0.37014915498247181 0 -0.3557305472228397 -0.36248105220686111 0 -0.34605962158549469 -0.3647174262829882 0 -0.34605962158549469 -0.3647174262829882 0 -0.34384142010082153 -0.36768806715090302 0 -0.34148886242004811 -0.36564807466747679 0 -0.34605962158549469 -0.3647174262829882 0 -0.34384142010082153 -0.36768806715090302 0 -0.35160698284412462 -0.37014915498247181 0 -0.34384142010082153 -0.36768806715090302 0 -0.3473193197300139 -0.3757558619871843 0 -0.35160698284412462 -0.37014915498247181 0 -0.34384142010082153 -0.36768806715090302 0 -0.35160698284412462 -0.37014915498247181 0 -0.34605962158549469 -0.3647174262829882 0 -0.35160698284412462 -0.37014915498247181 0 -0.34605962158549469 -0.3647174262829882 0 -0.34384142010082153 -0.36768806715090302 0 -0.34384142010082153 -0.36768806715090302 0 -0.3394050004453173 -0.36792428240374231 0 -0.33667947897576161 -0.37727942084292682 0 -0.34384142010082153 -0.36768806715090302 0 -0.33667947897576161 -0.37727942084292682 0 -0.34384142010082153 -0.36768806715090302 0 -0.3473193197300139 -0.3757558619871843 0 -0.33667947897576161 -0.37727942084292682 0 -0.32081326145083022 -0.36031614808850881 0 -0.33667947897576161 -0.37727942084292682 0 -0.3394050004453173 -0.36792428240374231 0 -0.33336643958396978 -0.36601612799497002 0 -0.33667947897576161 -0.37727942084292682 0 -0.33336643958396978 -0.36601612799497002 0 -0.32081326145083022 -0.36031614808850881 0 -0.33667947897576161 -0.37727942084292682 0 -0.33132451367914112 -0.3606866026678322 0 -0.33336643958396978 -0.36601612799497002 0 -0.32081326145083022 -0.36031614808850881 0 -0.33132451367914112 -0.3606866026678322 0 -0.33336643958396978 -0.36601612799497002 0 -0.33697234037925838 -0.36236486777317728 0 -0.34605962158549469 -0.3647174262829882 0 -0.33697234037925838 -0.36236486777317728 0 -0.34148886242004811 -0.36564807466747679 0 -0.3394050004453173 -0.36792428240374231 0 -0.33697234037925838 -0.36236486777317728 0 -0.34148886242004811 -0.36564807466747679 0 -0.3394050004453173 -0.36792428240374231 0 -0.33336643958396978 -0.36601612799497002 0 -0.33697234037925838 -0.36236486777317728 0 -0.34384142010082153 -0.36768806715090302 0 -0.3394050004453173 -0.36792428240374231 0 -0.34148886242004811 -0.36564807466747679 0 -0.34605962158549469 -0.3647174262829882 0 -0.33040605641151349 -0.34939015350577979 0 -0.34378478126742867 -0.35168705731137051 0 -0.34605962158549469 -0.3647174262829882 0 -0.33040605641151349 -0.34939015350577979 0 -0.34605962158549469 -0.3647174262829882 0 -0.33697234037925838 -0.36236486777317728 0 -0.33040605641151349 -0.34939015350577979 0 -0.34392721941562959 -0.33955642564789279 0 -0.34378478126742867 -0.35168705731137051 0 -0.33040605641151349 -0.34939015350577979 0 -0.33132451367914112 -0.3606866026678322 0 -0.33697234037925838 -0.36236486777317728 0 -0.33040605641151349 -0.34939015350577979 0 -0.33040605641151349 -0.34939015350577979 0 -0.32081326145083022 -0.36031614808850881 0 -0.304947043925899 -0.34335287533409059 0 -0.32081326145083022 -0.36031614808850881 0 -0.304947043925899 -0.34335287533409059 0 -0.33132451367914112 -0.3606866026678322 0 -0.33040605641151349 -0.34939015350577979 0 -0.32081326145083022 -0.36031614808850881 0 -0.32440986188565729 -0.37270080156259489 0 -0.32081326145083022 -0.36031614808850881 0 -0.31106328263090982 -0.36800475596674848 0 -0.32440986188565729 -0.37270080156259489 0 -0.32081326145083022 -0.36031614808850881 0 -0.33667947897576161 -0.37727942084292682 0 -0.32440986188565729 -0.37270080156259489 0 -0.31106328263090982 -0.36800475596674848 0 -0.31317375432424149 -0.38208007184035081 0 -0.31106328263090982 -0.36800475596674848 0 -0.30477466129399572 -0.35837215094430408 0 -0.2945929359319488 -0.36760614731534108 0 -0.32081326145083022 -0.36031614808850881 0 -0.31106328263090982 -0.36800475596674848 0 -0.30477466129399572 -0.35837215094430408 0 -0.2945929359319488 -0.36760614731534108 0 -0.31317375432424149 -0.38208007184035081 0 -0.31106328263090982 -0.36800475596674848 0 -0.2945929359319488 -0.36760614731534108 0 -0.31317375432424149 -0.38208007184035081 0 -0.30477466129399572 -0.35837215094430408 0 -0.29245678253039098 -0.35258082801683138 0 -0.2945929359319488 -0.36760614731534108 0 -0.32081326145083022 -0.36031614808850881 0 -0.30477466129399572 -0.35837215094430408 0 -0.304947043925899 -0.34335287533409059 0 -0.30477466129399572 -0.35837215094430408 0 -0.29245678253039098 -0.35258082801683138 0 -0.304947043925899 -0.34335287533409059 0 -0.29245678253039098 -0.35258082801683138 0 -0.27601211753965582 -0.35313222279033191 0 -0.28440521569258082 -0.34149228361744682 0 -0.29245678253039098 -0.35258082801683138 0 -0.2945929359319488 -0.36760614731534108 0 -0.27601211753965582 -0.35313222279033191 0 -0.29245678253039098 -0.35258082801683138 0 -0.28440521569258082 -0.34149228361744682 0 -0.304947043925899 -0.34335287533409059 0 -0.2945929359319488 -0.36760614731534108 0 -0.27987861861344199 -0.36674592141788198 0 -0.27601211753965582 -0.35313222279033191 0 -0.2945929359319488 -0.36760614731534108 0 -0.27601211753965582 -0.35313222279033191 0 -0.2945929359319488 -0.36760614731534108 0 -0.27987861861344199 -0.36674592141788198 0 -0.2808665902171914 -0.38228580422035652 0 -0.26678221966742222 -0.3646399338773868 0 -0.2808665902171914 -0.38228580422035652 0 -0.27987861861344199 -0.36674592141788198 0 -0.26678221966742222 -0.3646399338773868 0 -0.2808665902171914 -0.38228580422035652 0 -0.27987861861344199 -0.36674592141788198 0 -0.26678221966742222 -0.3646399338773868 0 -0.27601211753965582 -0.35313222279033191 0 -0.26678221966742222 -0.3646399338773868 0 -0.25938421221386299 -0.38242260424217978 0 -0.2452998416640946 -0.36477673389921211 0 -0.25269784911765092 -0.34699406353441858 0 -0.27601211753965582 -0.35313222279033191 0 -0.25743129914736268 -0.33865829826532268 0 -0.26678221966742222 -0.3646399338773868 0 -0.25269784911765092 -0.34699406353441858 0 -0.27601211753965582 -0.35313222279033191 0 -0.26678221966742222 -0.3646399338773868 0 -0.25269784911765092 -0.34699406353441858 0 -0.26678221966742222 -0.3646399338773868 0 -0.25269784911765092 -0.34699406353441858 0 -0.2452998416640946 -0.36477673389921211 0 -0.27601211753965582 -0.35313222279033191 0 -0.25743129914736268 -0.33865829826532268 0 -0.27601211753965582 -0.35313222279033191 0 -0.27044436538280059 -0.34111632069956299 0 -0.25743129914736268 -0.33865829826532268 0 -0.27601211753965582 -0.35313222279033191 0 -0.27044436538280059 -0.34111632069956299 0 -0.28440521569258082 -0.34149228361744682 0 -0.27621603835147168 -0.33027839755104138 0 -0.27044436538280059 -0.34111632069956299 0 -0.28440521569258082 -0.34149228361744682 0 -0.27621603835147168 -0.33027839755104138 0 -0.26858322842119509 -0.33433735121453573 0 -0.26421331744216298 -0.32943061110636401 0 -0.27621603835147168 -0.33027839755104138 0 -0.26858322842119509 -0.33433735121453573 0 -0.27044436538280059 -0.34111632069956299 0 -0.26858322842119509 -0.33433735121453573 0 -0.27044436538280059 -0.34111632069956299 0 -0.26348614366539269 -0.33464536090729041 0 -0.25269784911765092 -0.34699406353441858 0 -0.2601150759189611 -0.3291651954159735 0 -0.25269784911765092 -0.34699406353441858 0 -0.2601150759189611 -0.3291651954159735 0 -0.25743129914736268 -0.33865829826532268 0 -0.27044436538280059 -0.34111632069956299 0 -0.26348614366539269 -0.33464536090729041 0 -0.25743129914736268 -0.33865829826532268 0 -0.26348614366539269 -0.33464536090729041 0 -0.2601150759189611 -0.3291651954159735 0 -0.25743129914736268 -0.33865829826532268 0 -0.26858322842119509 -0.33433735121453573 0 -0.26348614366539269 -0.33464536090729041 0 -0.26421331744216298 -0.32943061110636401 0 -0.26348614366539269 -0.33464536090729041 0 -0.26421331744216298 -0.32943061110636401 0 -0.2601150759189611 -0.3291651954159735 0 -0.25993101682886932 -0.31889206187407287 0 -0.25469452373499762 -0.30722313484128749 0 -0.2494260049788683 -0.31746489113439402 0 -0.2601150759189611 -0.3291651954159735 0 -0.25993101682886932 -0.31889206187407287 0 -0.2494260049788683 -0.31746489113439402 0 -0.26421331744216298 -0.32943061110636401 0 -0.2601150759189611 -0.3291651954159735 0 -0.25993101682886932 -0.31889206187407287 0 -0.26421331744216298 -0.32943061110636401 0 -0.25993101682886932 -0.31889206187407287 0 -0.27321460887603632 -0.30942632982525498 0 -0.27621603835147168 -0.33027839755104138 0 -0.28908082640096788 -0.32638960257967248 0 -0.27321460887603632 -0.30942632982525498 0 -0.26421331744216298 -0.32943061110636401 0 -0.27321460887603632 -0.30942632982525498 0 -0.28908082640096788 -0.32638960257967248 0 -0.27321460887603632 -0.30942632982525498 0 -0.27621603835147168 -0.33027839755104138 0 -0.26421331744216298 -0.32943061110636401 0 -0.27321460887603632 -0.30942632982525498 0 -0.28908082640096788 -0.32638960257967248 0 -0.29608772242085762 -0.30837888524759871 0 -0.27321460887603632 -0.30942632982525498 0 -0.28908082640096788 -0.32638960257967248 0 -0.28440521569258082 -0.34149228361744682 0 -0.304947043925899 -0.34335287533409059 0 -0.27621603835147168 -0.33027839755104138 0 -0.28908082640096788 -0.32638960257967248 0 -0.28440521569258082 -0.34149228361744682 0 -0.28908082640096788 -0.32638960257967248 0 -0.304947043925899 -0.34335287533409059 0 -0.32074380139974629 -0.33343701228721029 0 -0.304947043925899 -0.34335287533409059 0 -0.30629799224095122 -0.32640742927921629 0 -0.28908082640096788 -0.32638960257967248 0 -0.304947043925899 -0.34335287533409059 0 -0.30629799224095122 -0.32640742927921629 0 -0.30629799224095122 -0.32640742927921629 0 -0.3116392313269683 -0.31227800665128408 0 -0.29608772242085762 -0.30837888524759871 0 -0.28908082640096788 -0.32638960257967248 0 -0.30629799224095122 -0.32640742927921629 0 -0.29608772242085762 -0.30837888524759871 0 -0.30878428388507118 -0.30170417431472779 0 -0.30257535950331932 -0.29121923704559499 0 -0.29608772242085762 -0.30837888524759871 0 -0.3116392313269683 -0.31227800665128408 0 -0.30878428388507118 -0.30170417431472779 0 -0.29608772242085762 -0.30837888524759871 0 -0.31511343508082401 -0.27781322935613839 0 -0.31615320843671613 -0.29356321322440693 0 -0.30257535950331932 -0.29121923704559499 0 -0.31615320843671613 -0.29356321322440693 0 -0.30878428388507118 -0.30170417431472779 0 -0.30257535950331932 -0.29121923704559499 0 -0.31511343508082401 -0.27781322935613839 0 -0.30257535950331932 -0.29121923704559499 0 -0.30186967514470631 -0.27796386812733742 0 -0.30257535950331932 -0.29121923704559499 0 -0.28167541002104313 -0.29062322282537112 0 -0.29608772242085762 -0.30837888524759871 0 -0.30257535950331932 -0.29121923704559499 0 -0.28167541002104313 -0.29062322282537112 0 -0.30186967514470631 -0.27796386812733742 0 -0.28167541002104313 -0.29062322282537112 0 -0.29608772242085762 -0.30837888524759871 0 -0.27321460887603632 -0.30942632982525498 0 -0.28167541002104313 -0.29062322282537112 0 -0.27321460887603632 -0.30942632982525498 0 -0.28167541002104313 -0.29062322282537112 0 -0.27321460887603632 -0.30942632982525498 0 -0.25754389589834492 -0.29267207960278718 0 -0.27321460887603632 -0.30942632982525498 0 -0.25469452373499762 -0.30722313484128749 0 -0.25754389589834492 -0.29267207960278718 0 -0.27321460887603632 -0.30942632982525498 0 -0.25754389589834492 -0.29267207960278718 0 -0.25469452373499762 -0.30722313484128749 0 -0.25754389589834492 -0.29267207960278718 0 -0.24072416822125611 -0.30184362229434508 0 -0.25993101682886932 -0.31889206187407287 0 -0.27321460887603632 -0.30942632982525498 0 -0.25469452373499762 -0.30722313484128749 0 -0.28167541002104313 -0.29062322282537112 0 -0.25754389589834492 -0.29267207960278718 0 -0.26609549321717318 -0.27038600033383992 0 -0.28167541002104313 -0.29062322282537112 0 -0.26609549321717318 -0.27038600033383992 0 -0.29013621116605032 -0.27182011582548737 0 -0.25754389589834492 -0.29267207960278718 0 -0.26609549321717318 -0.27038600033383992 0 -0.24718685023563691 -0.27875123027958087 0 -0.26609549321717318 -0.27038600033383992 0 -0.2483490975252734 -0.26098873334868322 0 -0.24718685023563691 -0.27875123027958087 0 -0.26609549321717318 -0.27038600033383992 0 -0.2483490975252734 -0.26098873334868322 0 -0.2582168116042447 -0.2439014490639565 0 -0.26609549321717318 -0.27038600033383992 0 -0.28073519909821221 -0.25162370631188929 0 -0.2582168116042447 -0.2439014490639565 0 -0.26609549321717318 -0.27038600033383992 0 -0.28073519909821221 -0.25162370631188929 0 -0.29013621116605032 -0.27182011582548737 0 -0.28073519909821221 -0.25162370631188929 0 -0.29013621116605032 -0.27182011582548737 0 -0.29859701231105729 -0.25301700882560368 0 -0.29013621116605032 -0.27182011582548737 0 -0.29859701231105729 -0.25301700882560368 0 -0.28167541002104313 -0.29062322282537112 0 -0.29013621116605032 -0.27182011582548737 0 -0.28167541002104313 -0.29062322282537112 0 -0.29013621116605032 -0.27182011582548737 0 -0.30186967514470631 -0.27796386812733742 0 -0.29013621116605032 -0.27182011582548737 0 -0.30186967514470631 -0.27796386812733742 0 -0.30798481169360081 -0.26465381523239789 0 -0.31511343508082401 -0.27781322935613839 0 -0.30186967514470631 -0.27796386812733742 0 -0.30798481169360081 -0.26465381523239789 0 -0.29013621116605032 -0.27182011582548737 0 -0.30798481169360081 -0.26465381523239789 0 -0.29859701231105729 -0.25301700882560368 0 -0.30798481169360081 -0.26465381523239789 0 -0.29859701231105729 -0.25301700882560368 0 -0.31421725341188372 -0.24977587129631751 0 -0.33796228302189513 -0.4595255727132167 0 -0.33234589271538922 -0.44480996408757179 0 -0.32640026466812011 -0.46081896178250181 0 -0.33796228302189513 -0.4595255727132167 0 -0.33234589271538922 -0.44480996408757179 0 -0.35319602351827412 -0.45776170704885039 0 -0.33796228302189513 -0.4595255727132167 0 -0.32640026466812011 -0.46081896178250181 0 -0.33318196746883988 -0.47121638454265508 0 -0.33796228302189513 -0.4595255727132167 0 -0.33318196746883988 -0.47121638454265508 0 -0.34642386304625039 -0.46572223054776302 0 -0.33234589271538922 -0.44480996408757179 0 -0.35319602351827412 -0.45776170704885039 0 -0.34417399017822298 -0.44321594322297297 0 -0.33234589271538922 -0.44480996408757179 0 -0.35319602351827412 -0.45776170704885039 0 -0.33234589271538922 -0.44480996408757179 0 -0.34417399017822298 -0.44321594322297297 0 -0.3357600199570368 -0.42926052953436999 0 -0.33234589271538922 -0.44480996408757179 0 -0.3114957619125025 -0.43185822112629579 0 -0.33234589271538922 -0.44480996408757179 0 -0.31256905993156642 -0.45599936109409522 0 -0.3094409967240645 -0.4445248742670016 0 -0.33234589271538922 -0.44480996408757179 0 -0.3114957619125025 -0.43185822112629579 0 -0.3094409967240645 -0.4445248742670016 0 -0.31256905993156642 -0.45599936109409522 0 -0.32640026466812011 -0.46081896178250181 0 -0.31594212020290968 -0.47254352647497072 0 -0.32640026466812011 -0.46081896178250181 0 -0.31594212020290968 -0.47254352647497072 0 -0.33318196746883988 -0.47121638454265508 0 -0.33234589271538922 -0.44480996408757179 0 -0.31256905993156642 -0.45599936109409522 0 -0.32640026466812011 -0.46081896178250181 0 -0.31594212020290968 -0.47254352647497072 0 -0.32571643119753041 -0.48341426386358383 0 -0.33318196746883988 -0.47121638454265508 0 -0.31594212020290968 -0.47254352647497072 0 -0.32571643119753041 -0.48341426386358383 0 -0.3142379471820072 -0.49087834217350051 0 -0.32571643119753041 -0.48341426386358383 0 -0.3142379471820072 -0.49087834217350051 0 -0.33008082446145748 -0.5 0 -0.3142379471820072 -0.49087834217350051 0 -0.33008082446145748 -0.5 0 -0.30187341860680589 -0.5 0 -0.33008082446145748 -0.5 0 -0.33835912005968188 -0.48593346247900621 0 -0.35828823031610901 -0.5 0 -0.32571643119753041 -0.48341426386358383 0 -0.33008082446145748 -0.5 0 -0.33835912005968188 -0.48593346247900621 0 -0.33835912005968188 -0.48593346247900621 0 -0.33318196746883988 -0.47121638454265508 0 -0.35033712925844102 -0.47766396546025452 0 -0.33318196746883988 -0.47121638454265508 0 -0.35033712925844102 -0.47766396546025452 0 -0.34642386304625039 -0.46572223054776302 0 -0.32571643119753041 -0.48341426386358383 0 -0.33835912005968188 -0.48593346247900621 0 -0.33318196746883988 -0.47121638454265508 0 -0.35033712925844102 -0.47766396546025452 0 -0.36650464836053492 -0.47758333459014829 0 -0.36063794808603339 -0.46630538924086617 0 -0.35033712925844102 -0.47766396546025452 0 -0.36063794808603339 -0.46630538924086617 0 -0.34642386304625039 -0.46572223054776302 0 -0.33835912005968188 -0.48593346247900621 0 -0.35033712925844102 -0.47766396546025452 0 -0.35828823031610901 -0.5 0 -0.35033712925844102 -0.47766396546025452 0 -0.35828823031610901 -0.5 0 -0.36650464836053492 -0.47758333459014829 0 -0.38649563617076049 -0.5 0 -0.35828823031610901 -0.5 0 -0.36650464836053492 -0.47758333459014829 0 -0.36650464836053492 -0.47758333459014829 0 -0.3749125057523493 -0.4641870694620962 0 -0.36063794808603339 -0.46630538924086617 0 -0.38257104150817378 -0.44558539909593659 0 -0.3749125057523493 -0.4641870694620962 0 -0.36138234587818158 -0.45426427734382602 0 -0.3749125057523493 -0.4641870694620962 0 -0.36138234587818158 -0.45426427734382602 0 -0.36063794808603339 -0.46630538924086617 0 -0.36063794808603339 -0.46630538924086617 0 -0.35319602351827412 -0.45776170704885039 0 -0.34642386304625039 -0.46572223054776302 0 -0.36138234587818158 -0.45426427734382602 0 -0.35319602351827412 -0.45776170704885039 0 -0.35413130606104948 -0.44909707738868448 0 -0.36138234587818158 -0.45426427734382602 0 -0.36063794808603339 -0.46630538924086617 0 -0.35319602351827412 -0.45776170704885039 0 -0.33796228302189513 -0.4595255727132167 0 -0.35319602351827412 -0.45776170704885039 0 -0.34642386304625039 -0.46572223054776302 0 -0.34917789899954887 -0.43960621791601218 0 -0.34417399017822298 -0.44321594322297297 0 -0.3478317041277888 -0.43428891422125909 0 -0.34417399017822298 -0.44321594322297297 0 -0.35413130606104948 -0.44909707738868448 0 -0.35160182111049931 -0.44318126090920129 0 -0.34917789899954887 -0.43960621791601218 0 -0.34417399017822298 -0.44321594322297297 0 -0.35160182111049931 -0.44318126090920129 0 -0.34917789899954887 -0.43960621791601218 0 -0.35160182111049931 -0.44318126090920129 0 -0.35310408058168441 -0.43773875331061518 0 -0.35319602351827412 -0.45776170704885039 0 -0.34417399017822298 -0.44321594322297297 0 -0.35413130606104948 -0.44909707738868448 0 -0.36138234587818158 -0.45426427734382602 0 -0.35413130606104948 -0.44909707738868448 0 -0.3593008871480341 -0.44528990622411457 0 -0.35413130606104948 -0.44909707738868448 0 -0.35597289875446148 -0.442541016596669 0 -0.3593008871480341 -0.44528990622411457 0 -0.35597289875446148 -0.442541016596669 0 -0.3593008871480341 -0.44528990622411457 0 -0.35811375488379049 -0.43887755417772267 0 -0.35413130606104948 -0.44909707738868448 0 -0.35597289875446148 -0.442541016596669 0 -0.35160182111049931 -0.44318126090920129 0 -0.35597289875446148 -0.442541016596669 0 -0.35160182111049931 -0.44318126090920129 0 -0.35310408058168441 -0.43773875331061518 0 -0.35597289875446148 -0.442541016596669 0 -0.35310408058168441 -0.43773875331061518 0 -0.35811375488379049 -0.43887755417772267 0 -0.3593008871480341 -0.44528990622411457 0 -0.35811375488379049 -0.43887755417772267 0 -0.36466736862266619 -0.43929361107495862 0 -0.38257104150817378 -0.44558539909593659 0 -0.36138234587818158 -0.45426427734382602 0 -0.36466736862266619 -0.43929361107495862 0 -0.38257104150817378 -0.44558539909593659 0 -0.36138234587818158 -0.45426427734382602 0 -0.36138234587818158 -0.45426427734382602 0 -0.3593008871480341 -0.44528990622411457 0 -0.36466736862266619 -0.43929361107495862 0 -0.37857274293149029 -0.42876471734549271 0 -0.37441041966644201 -0.41853044649732968 0 -0.35538489801315631 -0.42903325471815951 0 -0.37857274293149029 -0.42876471734549271 0 -0.36466736862266619 -0.43929361107495862 0 -0.35538489801315631 -0.42903325471815951 0 -0.37857274293149029 -0.42876471734549271 0 -0.35538489801315631 -0.42903325471815951 0 -0.35811375488379049 -0.43887755417772267 0 -0.36466736862266619 -0.43929361107495862 0 -0.35620302754573391 -0.43383251126704991 0 -0.34839752669874718 -0.41300385642212029 0 -0.37209094330423159 -0.40089808531996213 0 -0.37441041966644201 -0.41853044649732968 0 -0.36549953895739912 -0.41199887396496521 0 -0.35538489801315631 -0.42903325471815951 0 -0.38249496913699632 -0.41100015469591239 0 -0.36549953895739912 -0.41199887396496521 0 -0.37602613074463359 -0.40570926791912437 0 -0.38249496913699632 -0.41100015469591239 0 -0.36549953895739912 -0.41199887396496521 0 -0.38249496913699632 -0.41100015469591239 0 -0.37441041966644201 -0.41853044649732968 0 -0.36549953895739912 -0.41199887396496521 0 -0.36549953895739912 -0.41199887396496521 0 -0.35538489801315631 -0.42903325471815951 0 -0.36549953895739912 -0.41199887396496521 0 -0.34839752669874718 -0.41300385642212029 0 -0.37209094330423159 -0.40089808531996213 0 -0.36549953895739912 -0.41199887396496521 0 -0.37209094330423159 -0.40089808531996213 0 -0.36549953895739912 -0.41199887396496521 0 -0.34839752669874718 -0.41300385642212029 0 -0.35538489801315631 -0.42903325471815951 0 -0.36549953895739912 -0.41199887396496521 0 -0.34839752669874718 -0.41300385642212029 0 -0.34839752669874718 -0.41300385642212029 0 -0.35538489801315631 -0.42903325471815951 0 -0.3357600199570368 -0.42926052953436999 0 -0.3478317041277888 -0.43428891422125909 0 -0.35538489801315631 -0.42903325471815951 0 -0.3357600199570368 -0.42926052953436999 0 -0.35538489801315631 -0.42903325471815951 0 -0.3357600199570368 -0.42926052953436999 0 -0.34917789899954887 -0.43960621791601218 0 -0.35310408058168441 -0.43773875331061518 0 -0.3478317041277888 -0.43428891422125909 0 -0.35310408058168441 -0.43773875331061518 0 -0.3478317041277888 -0.43428891422125909 0 -0.35306161513742162 -0.43384008959340059 0 -0.3478317041277888 -0.43428891422125909 0 -0.35306161513742162 -0.43384008959340059 0 -0.35538489801315631 -0.42903325471815951 0 -0.36466736862266619 -0.43929361107495862 0 -0.35620302754573391 -0.43383251126704991 0 -0.35538489801315631 -0.42903325471815951 0 -0.35306161513742162 -0.43384008959340059 0 -0.35620302754573391 -0.43383251126704991 0 -0.35538489801315631 -0.42903325471815951 0 -0.35310408058168441 -0.43773875331061518 0 -0.35306161513742162 -0.43384008959340059 0 -0.35620302754573391 -0.43383251126704991 0 -0.35310408058168441 -0.43773875331061518 0 -0.35811375488379049 -0.43887755417772267 0 -0.35620302754573391 -0.43383251126704991 0 -0.38353069879127127 -0.38163203803623119 0 -0.36346481754360999 -0.38175981779097429 0 -0.36791003929668897 -0.37531597356073781 0 -0.38353069879127127 -0.38163203803623119 0 -0.36346481754360999 -0.38175981779097429 0 -0.35160698284412462 -0.37014915498247181 0 -0.36346481754360999 -0.38175981779097429 0 -0.36791003929668897 -0.37531597356073781 0 -0.37610551335983561 -0.39413702328477918 0 -0.38353069879127127 -0.38163203803623119 0 -0.36346481754360999 -0.38175981779097429 0 -0.37610551335983561 -0.39413702328477918 0 -0.36346481754360999 -0.38175981779097429 0 -0.37610551335983561 -0.39413702328477918 0 -0.36346481754360999 -0.38175981779097429 0 -0.36560529781313122 -0.39247463880062672 0 -0.36346481754360999 -0.38175981779097429 0 -0.36560529781313122 -0.39247463880062672 0 -0.35703052239811178 -0.39769881565512172 0 -0.36560529781313122 -0.39247463880062672 0 -0.37209094330423159 -0.40089808531996213 0 -0.35703052239811178 -0.39769881565512172 0 -0.37610551335983561 -0.39413702328477918 0 -0.36560529781313122 -0.39247463880062672 0 -0.37209094330423159 -0.40089808531996213 0 -0.37610551335983561 -0.39413702328477918 0 -0.37209094330423159 -0.40089808531996213 0 -0.37602613074463359 -0.40570926791912437 0 -0.36549953895739912 -0.41199887396496521 0 -0.37209094330423159 -0.40089808531996213 0 -0.37602613074463359 -0.40570926791912437 0 -0.37629487057870992 -0.40149067916431569 0 -0.37209094330423159 -0.40089808531996213 0 -0.34839752669874718 -0.41300385642212029 0 -0.37209094330423159 -0.40089808531996213 0 -0.35703052239811178 -0.39769881565512172 0 -0.34839752669874718 -0.41300385642212029 0 -0.3475034212371978 -0.3977809036938752 0 -0.34022546423947331 -0.40183860272453797 0 -0.34839752669874718 -0.41300385642212029 0 -0.3475034212371978 -0.3977809036938752 0 -0.35703052239811178 -0.39769881565512172 0 -0.3475034212371978 -0.3977809036938752 0 -0.35703052239811178 -0.39769881565512172 0 -0.34623045780510991 -0.38749079344634257 0 -0.3475034212371978 -0.3977809036938752 0 -0.34623045780510991 -0.38749079344634257 0 -0.34159335278245839 -0.39476168625962771 0 -0.36346481754360999 -0.38175981779097429 0 -0.35703052239811178 -0.39769881565512172 0 -0.34623045780510991 -0.38749079344634257 0 -0.36346481754360999 -0.38175981779097429 0 -0.3473193197300139 -0.3757558619871843 0 -0.34100389918575219 -0.38190284916864559 0 -0.35160698284412462 -0.37014915498247181 0 -0.36346481754360999 -0.38175981779097429 0 -0.3473193197300139 -0.3757558619871843 0 -0.36346481754360999 -0.38175981779097429 0 -0.34100389918575219 -0.38190284916864559 0 -0.36346481754360999 -0.38175981779097429 0 -0.34623045780510991 -0.38749079344634257 0 -0.34100389918575219 -0.38190284916864559 0 -0.35160698284412462 -0.37014915498247181 0 -0.36346481754360999 -0.38175981779097429 0 -0.32440986188565729 -0.37270080156259489 0 -0.33318997219566882 -0.38195260834254191 0 -0.33667947897576161 -0.37727942084292682 0 -0.33318997219566882 -0.38195260834254191 0 -0.33667947897576161 -0.37727942084292682 0 -0.33318997219566882 -0.38195260834254191 0 -0.33667947897576161 -0.37727942084292682 0 -0.34100389918575219 -0.38190284916864559 0 -0.33318997219566882 -0.38195260834254191 0 -0.34100389918575219 -0.38190284916864559 0 -0.3473193197300139 -0.3757558619871843 0 -0.33667947897576161 -0.37727942084292682 0 -0.34100389918575219 -0.38190284916864559 0 -0.33667947897576161 -0.37727942084292682 0 -0.34100389918575219 -0.38190284916864559 0 -0.34623045780510991 -0.38749079344634257 0 -0.34100389918575219 -0.38190284916864559 0 -0.33841102596855821 -0.38947760426078792 0 -0.34623045780510991 -0.38749079344634257 0 -0.33841102596855821 -0.38947760426078792 0 -0.34159335278245839 -0.39476168625962771 0 -0.33318997219566882 -0.38195260834254191 0 -0.34100389918575219 -0.38190284916864559 0 -0.33841102596855821 -0.38947760426078792 0 -0.34623045780510991 -0.38749079344634257 0 -0.34100389918575219 -0.38190284916864559 0 -0.33318997219566882 -0.38195260834254191 0 -0.33841102596855821 -0.38947760426078792 0 -0.33274337939295218 -0.39158473010557698 0 -0.33318997219566882 -0.38195260834254191 0 -0.32576874152179608 -0.39189120557203078 0 -0.33318997219566882 -0.38195260834254191 0 -0.33274337939295218 -0.39158473010557698 0 -0.32576874152179608 -0.39189120557203078 0 -0.32912841244855839 -0.39450829284968242 0 -0.33559639466195301 -0.39722052717259471 0 -0.32788006366677641 -0.40250098545199881 0 -0.32912841244855839 -0.39450829284968242 0 -0.33274337939295218 -0.39158473010557698 0 -0.32576874152179608 -0.39189120557203078 0 -0.32912841244855839 -0.39450829284968242 0 -0.33559639466195301 -0.39722052717259471 0 -0.33274337939295218 -0.39158473010557698 0 -0.33841102596855821 -0.38947760426078792 0 -0.33559639466195301 -0.39722052717259471 0 -0.33274337939295218 -0.39158473010557698 0 -0.33841102596855821 -0.38947760426078792 0 -0.33559639466195301 -0.39722052717259471 0 -0.34159335278245839 -0.39476168625962771 0 -0.3475034212371978 -0.3977809036938752 0 -0.34159335278245839 -0.39476168625962771 0 -0.34022546423947331 -0.40183860272453797 0 -0.33559639466195301 -0.39722052717259471 0 -0.34159335278245839 -0.39476168625962771 0 -0.34022546423947331 -0.40183860272453797 0 -0.33559639466195301 -0.39722052717259471 0 -0.34022546423947331 -0.40183860272453797 0 -0.32788006366677641 -0.40250098545199881 0 -0.34022546423947331 -0.40183860272453797 0 -0.32788006366677641 -0.40250098545199881 0 -0.32831963194254171 -0.41418371360508938 0 -0.32788006366677641 -0.40250098545199881 0 -0.32576874152179608 -0.39189120557203078 0 -0.3082417371863363 -0.41536357078805991 0 -0.32576874152179608 -0.39189120557203078 0 -0.3082417371863363 -0.41536357078805991 0 -0.31067345205079122 -0.40297304657430971 0 -0.32576874152179608 -0.39189120557203078 0 -0.3082417371863363 -0.41536357078805991 0 -0.32576874152179608 -0.39189120557203078 0 -0.31035600328023122 -0.39454309529492188 0 -0.31067345205079122 -0.40297304657430971 0 -0.32912841244855839 -0.39450829284968242 0 -0.32788006366677641 -0.40250098545199881 0 -0.32576874152179608 -0.39189120557203078 0 -0.32912841244855839 -0.39450829284968242 0 -0.32576874152179608 -0.39189120557203078 0 -0.33318997219566882 -0.38195260834254191 0 -0.31317375432424149 -0.38208007184035081 0 -0.32440986188565729 -0.37270080156259489 0 -0.33318997219566882 -0.38195260834254191 0 -0.31317375432424149 -0.38208007184035081 0 -0.33318997219566882 -0.38195260834254191 0 -0.32576874152179608 -0.39189120557203078 0 -0.31317375432424149 -0.38208007184035081 0 -0.32576874152179608 -0.39189120557203078 0 -0.31317375432424149 -0.38208007184035081 0 -0.31035600328023122 -0.39454309529492188 0 -0.32576874152179608 -0.39189120557203078 0 -0.31317375432424149 -0.38208007184035081 0 -0.34417399017822298 -0.44321594322297297 0 -0.3478317041277888 -0.43428891422125909 0 -0.3357600199570368 -0.42926052953436999 0 -0.34839752669874718 -0.41300385642212029 0 -0.34022546423947331 -0.40183860272453797 0 -0.32831963194254171 -0.41418371360508938 0 -0.34839752669874718 -0.41300385642212029 0 -0.33226633429983238 -0.42124583038635088 0 -0.34839752669874718 -0.41300385642212029 0 -0.3357600199570368 -0.42926052953436999 0 -0.33226633429983238 -0.42124583038635088 0 -0.34839752669874718 -0.41300385642212029 0 -0.32831963194254171 -0.41418371360508938 0 -0.33226633429983238 -0.42124583038635088 0 -0.34839752669874718 -0.41300385642212029 0 -0.32831963194254171 -0.41418371360508938 0 -0.32831963194254171 -0.41418371360508938 0 -0.33226633429983238 -0.42124583038635088 0 -0.32271744639311822 -0.42156188657798022 0 -0.32788006366677641 -0.40250098545199881 0 -0.32831963194254171 -0.41418371360508938 0 -0.3082417371863363 -0.41536357078805991 0 -0.32831963194254171 -0.41418371360508938 0 -0.3142906732686378 -0.42168422233663161 0 -0.3082417371863363 -0.41536357078805991 0 -0.32831963194254171 -0.41418371360508938 0 -0.3082417371863363 -0.41536357078805991 0 -0.32831963194254171 -0.41418371360508938 0 -0.32271744639311822 -0.42156188657798022 0 -0.3142906732686378 -0.42168422233663161 0 -0.33234589271538922 -0.44480996408757179 0 -0.31613514190091718 -0.42948780435058093 0 -0.3114957619125025 -0.43185822112629579 0 -0.33234589271538922 -0.44480996408757179 0 -0.3357600199570368 -0.42926052953436999 0 -0.31613514190091718 -0.42948780435058093 0 -0.3142906732686378 -0.42168422233663161 0 -0.31613514190091718 -0.42948780435058093 0 -0.30783454039896002 -0.42958393323736038 0 -0.32271744639311822 -0.42156188657798022 0 -0.3142906732686378 -0.42168422233663161 0 -0.31613514190091718 -0.42948780435058093 0 -0.3357600199570368 -0.42926052953436999 0 -0.31613514190091718 -0.42948780435058093 0 -0.33226633429983238 -0.42124583038635088 0 -0.32271744639311822 -0.42156188657798022 0 -0.31613514190091718 -0.42948780435058093 0 -0.3357600199570368 -0.42926052953436999 0 -0.33226633429983238 -0.42124583038635088 0 -0.31613514190091718 -0.42948780435058093 0 -0.33226633429983238 -0.42124583038635088 0 -0.31613514190091718 -0.42948780435058093 0 -0.31613514190091718 -0.42948780435058093 0 -0.3114957619125025 -0.43185822112629579 0 -0.3114957619125025 -0.43185822112629579 0 -0.30783454039896002 -0.42958393323736038 0 -0.29634270858520939 -0.43960043062412468 0 -0.31613514190091718 -0.42948780435058093 0 -0.3114957619125025 -0.43185822112629579 0 -0.30783454039896002 -0.42958393323736038 0 -0.30331343782522491 -0.42196360581309772 0 -0.30783454039896002 -0.42958393323736038 0 -0.29157272882734891 -0.41634310820889481 0 -0.3114957619125025 -0.43185822112629579 0 -0.30783454039896002 -0.42958393323736038 0 -0.3114957619125025 -0.43185822112629579 0 -0.29634270858520939 -0.43960043062412468 0 -0.31613514190091718 -0.42948780435058093 0 -0.30783454039896002 -0.42958393323736038 0 -0.3142906732686378 -0.42168422233663161 0 -0.30331343782522491 -0.42196360581309772 0 -0.30783454039896002 -0.42958393323736038 0 -0.3142906732686378 -0.42168422233663161 0 -0.30331343782522491 -0.42196360581309772 0 -0.3082417371863363 -0.41536357078805991 0 -0.3082417371863363 -0.41536357078805991 0 -0.29157272882734891 -0.41634310820889481 0 -0.30331343782522491 -0.42196360581309772 0 -0.3082417371863363 -0.41536357078805991 0 -0.29157272882734891 -0.41634310820889481 0 -0.3082417371863363 -0.41536357078805991 0 -0.30512179815010648 -0.41267440077236472 0 -0.29157272882734891 -0.41634310820889481 0 -0.30331343782522491 -0.42196360581309772 0 -0.3082417371863363 -0.41536357078805991 0 -0.3082417371863363 -0.41536357078805991 0 -0.30512179815010648 -0.41267440077236472 0 -0.31067345205079122 -0.40297304657430971 0 -0.30512179815010648 -0.41267440077236472 0 -0.29157272882734891 -0.41634310820889481 0 -0.29482814950023328 -0.40830219942147938 0 -0.30783454039896002 -0.42958393323736038 0 -0.29157272882734891 -0.41634310820889481 0 -0.28412874470879912 -0.41485830032050902 0 -0.28962387683982849 -0.40671118620829788 0 -0.28412874470879912 -0.41485830032050902 0 -0.27887794756246431 -0.39894882893499961 0 -0.29157272882734891 -0.41634310820889481 0 -0.28962387683982849 -0.40671118620829788 0 -0.29482814950023328 -0.40830219942147938 0 -0.29157272882734891 -0.41634310820889481 0 -0.28962387683982849 -0.40671118620829788 0 -0.28412874470879912 -0.41485830032050902 0 -0.30783454039896002 -0.42958393323736038 0 -0.28525385456372598 -0.42984543912842699 0 -0.30783454039896002 -0.42958393323736038 0 -0.28412874470879912 -0.41485830032050902 0 -0.28525385456372598 -0.42984543912842699 0 -0.30783454039896002 -0.42958393323736038 0 -0.28525385456372598 -0.42984543912842699 0 -0.29634270858520939 -0.43960043062412468 0 -0.30783454039896002 -0.42958393323736038 0 -0.28412874470879912 -0.41485830032050902 0 -0.2945929359319488 -0.36760614731534108 0 -0.31317375432424149 -0.38208007184035081 0 -0.29702017227071648 -0.3821829380303548 0 -0.31317375432424149 -0.38208007184035081 0 -0.29702017227071648 -0.3821829380303548 0 -0.30212301116225498 -0.3917042965809297 0 -0.31317375432424149 -0.38208007184035081 0 -0.29702017227071648 -0.3821829380303548 0 -0.31317375432424149 -0.38208007184035081 0 -0.30212301116225498 -0.3917042965809297 0 -0.31035600328023122 -0.39454309529492188 0 -0.29702017227071648 -0.3821829380303548 0 -0.30212301116225498 -0.3917042965809297 0 -0.29299419418364941 -0.39748010249636018 0 -0.30212301116225498 -0.3917042965809297 0 -0.3038789801154857 -0.40039296044417289 0 -0.29299419418364941 -0.39748010249636018 0 -0.30212301116225498 -0.3917042965809297 0 -0.31035600328023122 -0.39454309529492188 0 -0.3038789801154857 -0.40039296044417289 0 -0.31035600328023122 -0.39454309529492188 0 -0.31067345205079122 -0.40297304657430971 0 -0.3038789801154857 -0.40039296044417289 0 -0.30512179815010648 -0.41267440077236472 0 -0.31067345205079122 -0.40297304657430971 0 -0.3038789801154857 -0.40039296044417289 0 -0.30512179815010648 -0.41267440077236472 0 -0.29482814950023328 -0.40830219942147938 0 -0.29299419418364941 -0.39748010249636018 0 -0.30512179815010648 -0.41267440077236472 0 -0.3038789801154857 -0.40039296044417289 0 -0.29299419418364941 -0.39748010249636018 0 -0.30512179815010648 -0.41267440077236472 0 -0.29299419418364941 -0.39748010249636018 0 -0.29299419418364941 -0.39748010249636018 0 -0.2808665902171914 -0.38228580422035652 0 -0.27887794756246431 -0.39894882893499961 0 -0.28962387683982849 -0.40671118620829788 0 -0.29482814950023328 -0.40830219942147938 0 -0.29299419418364941 -0.39748010249636018 0 -0.28962387683982849 -0.40671118620829788 0 -0.29299419418364941 -0.39748010249636018 0 -0.27887794756246431 -0.39894882893499961 0 -0.2945929359319488 -0.36760614731534108 0 -0.29702017227071648 -0.3821829380303548 0 -0.2808665902171914 -0.38228580422035652 0 -0.29702017227071648 -0.3821829380303548 0 -0.29299419418364941 -0.39748010249636018 0 -0.2808665902171914 -0.38228580422035652 0 -0.29702017227071648 -0.3821829380303548 0 -0.2808665902171914 -0.38228580422035652 0 -0.29299419418364941 -0.39748010249636018 0 -0.2808665902171914 -0.38228580422035652 0 -0.2808665902171914 -0.38228580422035652 0 -0.25938421221386299 -0.38242260424217978 0 -0.2808665902171914 -0.38228580422035652 0 -0.26988792475303891 -0.39094747620029929 0 -0.25938421221386299 -0.38242260424217978 0 -0.26678221966742222 -0.3646399338773868 0 -0.2808665902171914 -0.38228580422035652 0 -0.25938421221386299 -0.38242260424217978 0 -0.2808665902171914 -0.38228580422035652 0 -0.26988792475303891 -0.39094747620029929 0 -0.27887794756246431 -0.39894882893499961 0 -0.26988792475303891 -0.39094747620029929 0 -0.27887794756246431 -0.39894882893499961 0 -0.26042294901863672 -0.40013266740365983 0 -0.28412874470879912 -0.41485830032050902 0 -0.27887794756246431 -0.39894882893499961 0 -0.26042294901863672 -0.40013266740365983 0 -0.26988792475303891 -0.39094747620029929 0 -0.26042294901863672 -0.40013266740365983 0 -0.25938421221386299 -0.38242260424217978 0 -0.26042294901863672 -0.40013266740365983 0 -0.25613810139819221 -0.41434132836670989 0 -0.2431093376423632 -0.40266188506415568 0 -0.26042294901863672 -0.40013266740365983 0 -0.25938421221386299 -0.38242260424217978 0 -0.23671715332847421 -0.38540703448681102 0 -0.28525385456372598 -0.42984543912842699 0 -0.26866387832805422 -0.43084198424433162 0 -0.28118965525791628 -0.44734264012195318 0 -0.28525385456372598 -0.42984543912842699 0 -0.26866387832805422 -0.43084198424433162 0 -0.27009367185483962 -0.41675208124042978 0 -0.28412874470879912 -0.41485830032050902 0 -0.28525385456372598 -0.42984543912842699 0 -0.27009367185483962 -0.41675208124042978 0 -0.28412874470879912 -0.41485830032050902 0 -0.26042294901863672 -0.40013266740365983 0 -0.28412874470879912 -0.41485830032050902 0 -0.26042294901863672 -0.40013266740365983 0 -0.27009367185483962 -0.41675208124042978 0 -0.26866387832805422 -0.43084198424433162 0 -0.27009367185483962 -0.41675208124042978 0 -0.25613810139819221 -0.41434132836670989 0 -0.25613810139819221 -0.41434132836670989 0 -0.25359928648481211 -0.43037401697981981 0 -0.24230037244337599 -0.4175018590364884 0 -0.26042294901863672 -0.40013266740365983 0 -0.27009367185483962 -0.41675208124042978 0 -0.25613810139819221 -0.41434132836670989 0 -0.26866387832805422 -0.43084198424433162 0 -0.25613810139819221 -0.41434132836670989 0 -0.26866387832805422 -0.43084198424433162 0 -0.25613810139819221 -0.41434132836670989 0 -0.25359928648481211 -0.43037401697981981 0 -0.26866387832805422 -0.43084198424433162 0 -0.25359928648481211 -0.43037401697981981 0 -0.2656706707878026 -0.4425776952979022 0 -0.25359928648481211 -0.43037401697981981 0 -0.25354060653463212 -0.44613406553729051 0 -0.2656706707878026 -0.4425776952979022 0 -0.25359928648481211 -0.43037401697981981 0 -0.25354060653463212 -0.44613406553729051 0 -0.2438451496940687 -0.43907002470141299 0 -0.25354060653463212 -0.44613406553729051 0 -0.26694214283005818 -0.45462217802476412 0 -0.2656706707878026 -0.4425776952979022 0 -0.25354060653463212 -0.44613406553729051 0 -0.25269463040220203 -0.46190171592757828 0 -0.26694214283005818 -0.45462217802476412 0 -0.25269463040220203 -0.46190171592757828 0 -0.26694214283005818 -0.45462217802476412 0 -0.27127733714919139 -0.47586075624730118 0 -0.25269463040220203 -0.46190171592757828 0 -0.26694214283005818 -0.45462217802476412 0 -0.26694214283005818 -0.45462217802476412 0 -0.28051910777735523 -0.46464962051151848 0 -0.27127733714919139 -0.47586075624730118 0 -0.26694214283005818 -0.45462217802476412 0 -0.28051910777735523 -0.46464962051151848 0 -0.28118965525791628 -0.44734264012195318 0 -0.26866387832805422 -0.43084198424433162 0 -0.2656706707878026 -0.4425776952979022 0 -0.28118965525791628 -0.44734264012195318 0 -0.26866387832805422 -0.43084198424433162 0 -0.28118965525791628 -0.44734264012195318 0 -0.26694214283005818 -0.45462217802476412 0 -0.2656706707878026 -0.4425776952979022 0 -0.28118965525791628 -0.44734264012195318 0 -0.26694214283005818 -0.45462217802476412 0 -0.28118965525791628 -0.44734264012195318 0 -0.28525385456372598 -0.42984543912842699 0 -0.28118965525791628 -0.44734264012195318 0 -0.29634270858520939 -0.43960043062412468 0 -0.28118965525791628 -0.44734264012195318 0 -0.29634270858520939 -0.43960043062412468 0 -0.28118965525791628 -0.44734264012195318 0 -0.29634270858520939 -0.43960043062412468 0 -0.29945124434374348 -0.45131555945098001 0 -0.28118965525791628 -0.44734264012195318 0 -0.2977138012199616 -0.4691104911477269 0 -0.28118965525791628 -0.44734264012195318 0 -0.29945124434374348 -0.45131555945098001 0 -0.2977138012199616 -0.4691104911477269 0 -0.28051910777735523 -0.46464962051151848 0 -0.28118965525791628 -0.44734264012195318 0 -0.2977138012199616 -0.4691104911477269 0 -0.31256905993156642 -0.45599936109409522 0 -0.29945124434374348 -0.45131555945098001 0 -0.2977138012199616 -0.4691104911477269 0 -0.31256905993156642 -0.45599936109409522 0 -0.31594212020290968 -0.47254352647497072 0 -0.2977138012199616 -0.4691104911477269 0 -0.31256905993156642 -0.45599936109409522 0 -0.3094409967240645 -0.4445248742670016 0 -0.29945124434374348 -0.45131555945098001 0 -0.3114957619125025 -0.43185822112629579 0 -0.29634270858520939 -0.43960043062412468 0 -0.3094409967240645 -0.4445248742670016 0 -0.29634270858520939 -0.43960043062412468 0 -0.3094409967240645 -0.4445248742670016 0 -0.29945124434374348 -0.45131555945098001 0 -0.3142379471820072 -0.49087834217350051 0 -0.29783156266692112 -0.48522413338081982 0 -0.30187341860680589 -0.5 0 -0.3142379471820072 -0.49087834217350051 0 -0.29783156266692112 -0.48522413338081982 0 -0.2977138012199616 -0.4691104911477269 0 -0.31594212020290968 -0.47254352647497072 0 -0.3142379471820072 -0.49087834217350051 0 -0.2977138012199616 -0.4691104911477269 0 -0.3142379471820072 -0.49087834217350051 0 -0.2977138012199616 -0.4691104911477269 0 -0.28051910777735523 -0.46464962051151848 0 -0.2977138012199616 -0.4691104911477269 0 -0.28547260242964922 -0.47631203701584812 0 -0.29783156266692112 -0.48522413338081982 0 -0.2977138012199616 -0.4691104911477269 0 -0.28547260242964922 -0.47631203701584812 0 -0.28547260242964922 -0.47631203701584812 0 -0.28986004389618147 -0.48981979656702318 0 -0.27127733714919139 -0.47586075624730118 0 -0.29783156266692112 -0.48522413338081982 0 -0.28547260242964922 -0.47631203701584812 0 -0.28986004389618147 -0.48981979656702318 0 -0.30187341860680589 -0.5 0 -0.28986004389618147 -0.48981979656702318 0 -0.2736660127521543 -0.5 0 -0.29783156266692112 -0.48522413338081982 0 -0.30187341860680589 -0.5 0 -0.28986004389618147 -0.48981979656702318 0 -0.28986004389618147 -0.48981979656702318 0 -0.2736660127521543 -0.5 0 -0.27127733714919139 -0.47586075624730118 0 -0.2736660127521543 -0.5 0 -0.27127733714919139 -0.47586075624730118 0 -0.25894985238314572 -0.48237709588318323 0 -0.28986004389618147 -0.48981979656702318 0 -0.27127733714919139 -0.47586075624730118 0 -0.28051910777735523 -0.46464962051151848 0 -0.28547260242964922 -0.47631203701584812 0 -0.27127733714919139 -0.47586075624730118 0 -0.25269463040220203 -0.46190171592757828 0 -0.25894985238314572 -0.48237709588318323 0 -0.2452663440960669 -0.48013845744446582 0 -0.25269463040220203 -0.46190171592757828 0 -0.27127733714919139 -0.47586075624730118 0 -0.25269463040220203 -0.46190171592757828 0 -0.27127733714919139 -0.47586075624730118 0 -0.25894985238314572 -0.48237709588318323 0 -0.2736660127521543 -0.5 0 -0.25894985238314572 -0.48237709588318323 0 -0.2518449375161152 -0.49398454979657291 0 -0.2736660127521543 -0.5 0 -0.2518449375161152 -0.49398454979657291 0 -0.24545860689750271 -0.5 0 -0.25894985238314572 -0.48237709588318323 0 -0.2518449375161152 -0.49398454979657291 0 -0.2452663440960669 -0.48013845744446582 0 -0.2518449375161152 -0.49398454979657291 0 -0.2307928657777267 -0.48891641965364391 0 -0.2518449375161152 -0.49398454979657291 0 -0.2452663440960669 -0.48013845744446582 0 -0.2307928657777267 -0.48891641965364391 0 -0.2518449375161152 -0.49398454979657291 0 -0.24545860689750271 -0.5 0 -0.2307928657777267 -0.48891641965364391 0 -0.2452663440960669 -0.48013845744446582 0 -0.23121771222076951 -0.4728750027191454 0 -0.2307928657777267 -0.48891641965364391 0 -0.25269463040220203 -0.46190171592757828 0 -0.2452663440960669 -0.48013845744446582 0 -0.23121771222076951 -0.4728750027191454 0 -0.23121771222076951 -0.4728750027191454 0 -0.2307928657777267 -0.48891641965364391 0 -0.20974079403933829 -0.48384828951071468 0 -0.23121771222076951 -0.4728750027191454 0 -0.2159840481136181 -0.46956363033528908 0 -0.20974079403933829 -0.48384828951071468 0 -0.23121771222076951 -0.4728750027191454 0 -0.20974079403933829 -0.48384828951071468 0 -0.24545860689750271 -0.5 0 -0.2307928657777267 -0.48891641965364391 0 -0.21725120104285109 -0.5 0 -0.2307928657777267 -0.48891641965364391 0 -0.20974079403933829 -0.48384828951071468 0 -0.2307928657777267 -0.48891641965364391 0 -0.21725120104285109 -0.5 0 -0.20974079403933829 -0.48384828951071468 0 -0.25354060653463212 -0.44613406553729051 0 -0.25269463040220203 -0.46190171592757828 0 -0.23721599773282709 -0.450274407782012 0 -0.25354060653463212 -0.44613406553729051 0 -0.2438451496940687 -0.43907002470141299 0 -0.23721599773282709 -0.450274407782012 0 -0.2438451496940687 -0.43907002470141299 0 -0.23721599773282709 -0.450274407782012 0 -0.2347235744381061 -0.43699032632131868 0 -0.25269463040220203 -0.46190171592757828 0 -0.23721599773282709 -0.450274407782012 0 -0.23097902662785419 -0.46071537305467791 0 -0.25269463040220203 -0.46190171592757828 0 -0.23121771222076951 -0.4728750027191454 0 -0.23097902662785419 -0.46071537305467791 0 -0.25269463040220203 -0.46190171592757828 0 -0.23121771222076951 -0.4728750027191454 0 -0.25269463040220203 -0.46190171592757828 0 -0.23721599773282709 -0.450274407782012 0 -0.23097902662785419 -0.46071537305467791 0 -0.22320557245757189 -0.45136192584780271 0 -0.2159840481136181 -0.46956363033528908 0 -0.23121771222076951 -0.4728750027191454 0 -0.23097902662785419 -0.46071537305467791 0 -0.2159840481136181 -0.46956363033528908 0 -0.23721599773282709 -0.450274407782012 0 -0.23097902662785419 -0.46071537305467791 0 -0.22320557245757189 -0.45136192584780271 0 -0.22320557245757189 -0.45136192584780271 0 -0.22173736506345271 -0.43864709963644488 0 -0.21698213822720461 -0.43284430329106749 0 -0.22320557245757189 -0.45136192584780271 0 -0.21698213822720461 -0.43284430329106749 0 -0.23721599773282709 -0.450274407782012 0 -0.22320557245757189 -0.45136192584780271 0 -0.22173736506345271 -0.43864709963644488 0 -0.23721599773282709 -0.450274407782012 0 -0.22173736506345271 -0.43864709963644488 0 -0.23721599773282709 -0.450274407782012 0 -0.22173736506345271 -0.43864709963644488 0 -0.2347235744381061 -0.43699032632131868 0 -0.22320557245757189 -0.45136192584780271 0 -0.20700894554624619 -0.45681697418164519 0 -0.21698213822720461 -0.43284430329106749 0 -0.20700894554624619 -0.45681697418164519 0 -0.19303707249135671 -0.43059430015364047 0 -0.21698213822720461 -0.43284430329106749 0 -0.20700894554624619 -0.45681697418164519 0 -0.21698213822720461 -0.43284430329106749 0 -0.22320557245757189 -0.45136192584780271 0 -0.20700894554624619 -0.45681697418164519 0 -0.2159840481136181 -0.46956363033528908 0 -0.20700894554624619 -0.45681697418164519 0 -0.19703575286528649 -0.48078964507222238 0 -0.18502875603026461 -0.46494473610867582 0 -0.20700894554624619 -0.45681697418164519 0 -0.18502875603026461 -0.46494473610867582 0 -0.18271469687031749 -0.44845454828740711 0 -0.20700894554624619 -0.45681697418164519 0 -0.18271469687031749 -0.44845454828740711 0 -0.19303707249135671 -0.43059430015364047 0 -0.21725120104285109 -0.5 0 -0.20974079403933829 -0.48384828951071468 0 -0.19199021277984149 -0.49291766423347888 0 -0.20700894554624619 -0.45681697418164519 0 -0.2159840481136181 -0.46956363033528908 0 -0.19703575286528649 -0.48078964507222238 0 -0.2159840481136181 -0.46956363033528908 0 -0.20974079403933829 -0.48384828951071468 0 -0.19703575286528649 -0.48078964507222238 0 -0.20974079403933829 -0.48384828951071468 0 -0.19703575286528649 -0.48078964507222238 0 -0.20700894554624619 -0.45681697418164519 0 -0.19703575286528649 -0.48078964507222238 0 -0.21725120104285109 -0.5 0 -0.19199021277984149 -0.49291766423347888 0 -0.18904379518819939 -0.49999999999999578 0 -0.20974079403933829 -0.48384828951071468 0 -0.19703575286528649 -0.48078964507222238 0 -0.19199021277984149 -0.49291766423347888 0 -0.20974079403933829 -0.48384828951071468 0 -0.19199021277984149 -0.49291766423347888 0 -0.19703575286528649 -0.48078964507222238 0 -0.19199021277984149 -0.49291766423347888 0 -0.1806501400470899 -0.48733198327772198 0 -0.19703575286528649 -0.48078964507222238 0 -0.19199021277984149 -0.49291766423347888 0 -0.19199021277984149 -0.49291766423347888 0 -0.18904379518819939 -0.49999999999999578 0 -0.19199021277984149 -0.49291766423347888 0 -0.17812866439603481 -0.49999999999999267 0 -0.19199021277984149 -0.49291766423347888 0 -0.18904379518819939 -0.49999999999999578 0 -0.17812866439603481 -0.49999999999999267 0 -0.19199021277984149 -0.49291766423347888 0 -0.1806501400470899 -0.48733198327772198 0 -0.17812866439603481 -0.49999999999999267 0 -0.1806501400470899 -0.48733198327772198 0 -0.17812866439603481 -0.49999999999999267 0 -0.16526627315450881 -0.48681942287300078 0 -0.17812866439603481 -0.49999999999999267 0 -0.16526627315450881 -0.48681942287300078 0 -0.15384562597277671 -0.5 0 -0.16526627315450881 -0.48681942287300078 0 -0.15867829181438209 -0.47351517086903511 0 -0.14808882950896779 -0.48760950596642599 0 -0.16526627315450881 -0.48681942287300078 0 -0.15867829181438209 -0.47351517086903511 0 -0.17205258504960549 -0.47477513270279981 0 -0.15867829181438209 -0.47351517086903511 0 -0.17205258504960549 -0.47477513270279981 0 -0.1689107827671488 -0.46150338438528649 0 -0.19703575286528649 -0.48078964507222238 0 -0.17205258504960549 -0.47477513270279981 0 -0.19703575286528649 -0.48078964507222238 0 -0.17205258504960549 -0.47477513270279981 0 -0.18502875603026461 -0.46494473610867582 0 -0.19703575286528649 -0.48078964507222238 0 -0.1806501400470899 -0.48733198327772198 0 -0.17205258504960549 -0.47477513270279981 0 -0.1806501400470899 -0.48733198327772198 0 -0.16526627315450881 -0.48681942287300078 0 -0.17205258504960549 -0.47477513270279981 0 -0.17205258504960549 -0.47477513270279981 0 -0.18502875603026461 -0.46494473610867582 0 -0.1689107827671488 -0.46150338438528649 0 -0.18502875603026461 -0.46494473610867582 0 -0.18271469687031749 -0.44845454828740711 0 -0.1689107827671488 -0.46150338438528649 0 -0.18271469687031749 -0.44845454828740711 0 -0.16138963394859521 -0.44868252298987232 0 -0.1689107827671488 -0.46150338438528649 0 -0.18271469687031749 -0.44845454828740711 0 -0.16138963394859521 -0.44868252298987232 0 -0.16224644553901921 -0.42839564420087312 0 -0.16138963394859521 -0.44868252298987232 0 -0.1689107827671488 -0.46150338438528649 0 -0.15360073288972831 -0.45864819535392959 0 -0.15867829181438209 -0.47351517086903511 0 -0.1689107827671488 -0.46150338438528649 0 -0.15360073288972831 -0.45864819535392959 0 -0.15867829181438209 -0.47351517086903511 0 -0.14088984691242101 -0.46372891927135518 0 -0.15360073288972831 -0.45864819535392959 0 -0.14088984691242101 -0.46372891927135518 0 -0.15360073288972831 -0.45864819535392959 0 -0.14071409195337639 -0.4434269833400809 0 -0.16138963394859521 -0.44868252298987232 0 -0.15360073288972831 -0.45864819535392959 0 -0.14071409195337639 -0.4434269833400809 0 -0.16138963394859521 -0.44868252298987232 0 -0.14071409195337639 -0.4434269833400809 0 -0.16224644553901921 -0.42839564420087312 0 -0.14071409195337639 -0.4434269833400809 0 -0.11918173836773351 -0.45845832247928869 0 -0.14071409195337639 -0.4434269833400809 0 -0.11918173836773351 -0.45845832247928869 0 -0.1184149235461696 -0.43970471758753887 0 -0.14088984691242101 -0.46372891927135518 0 -0.14071409195337639 -0.4434269833400809 0 -0.11918173836773351 -0.45845832247928869 0 -0.14088984691242101 -0.46372891927135518 0 -0.1272556728232932 -0.47013049556587211 0 -0.11918173836773351 -0.45845832247928869 0 -0.13278436477725561 -0.4823434472460234 0 -0.1272556728232932 -0.47013049556587211 0 -0.1161667412357628 -0.47599129326682099 0 -0.14088984691242101 -0.46372891927135518 0 -0.13278436477725561 -0.4823434472460234 0 -0.1272556728232932 -0.47013049556587211 0 -0.13278436477725561 -0.4823434472460234 0 -0.12956258754951869 -0.5 0 -0.14808882950896779 -0.48760950596642599 0 -0.12956258754951869 -0.5 0 -0.15384562597277671 -0.5 0 -0.14808882950896779 -0.48760950596642599 0 -0.16526627315450881 -0.48681942287300078 0 -0.15384562597277671 -0.5 0 -0.14808882950896779 -0.48760950596642599 0 -0.15867829181438209 -0.47351517086903511 0 -0.14088984691242101 -0.46372891927135518 0 -0.13278436477725561 -0.4823434472460234 0 -0.15867829181438209 -0.47351517086903511 0 -0.13278436477725561 -0.4823434472460234 0 -0.14808882950896779 -0.48760950596642599 0 -0.15867829181438209 -0.47351517086903511 0 -0.13278436477725561 -0.4823434472460234 0 -0.15300746566076209 -0.38310001254620968 0 -0.12942966304821441 -0.38325015625522552 0 -0.14208280055258729 -0.40634727148710198 0 -0.15300746566076209 -0.38310001254620968 0 -0.14208280055258729 -0.40634727148710198 0 -0.1624749046322673 -0.40200193298372783 0 -0.15300746566076209 -0.38310001254620968 0 -0.12942966304821441 -0.38325015625522552 0 -0.15300746566076209 -0.38310001254620968 0 -0.12942966304821441 -0.38325015625522552 0 -0.13644034466196819 -0.36544341997203661 0 -0.12942966304821441 -0.38325015625522552 0 -0.14208280055258729 -0.40634727148710198 0 -0.1246151037146196 -0.40215144471962733 0 -0.13370262722300191 -0.42485153358840111 0 -0.14208280055258729 -0.40634727148710198 0 -0.1246151037146196 -0.40215144471962733 0 -0.14071409195337639 -0.4434269833400809 0 -0.13370262722300191 -0.42485153358840111 0 -0.1184149235461696 -0.43970471758753887 0 -0.14071409195337639 -0.4434269833400809 0 -0.13370262722300191 -0.42485153358840111 0 -0.16224644553901921 -0.42839564420087312 0 -0.14071409195337639 -0.4434269833400809 0 -0.16224644553901921 -0.42839564420087312 0 -0.14208280055258729 -0.40634727148710198 0 -0.16224644553901921 -0.42839564420087312 0 -0.1624749046322673 -0.40200193298372783 0 -0.13370262722300191 -0.42485153358840111 0 -0.14208280055258729 -0.40634727148710198 0 -0.16224644553901921 -0.42839564420087312 0 -0.16224644553901921 -0.42839564420087312 0 -0.180697604208819 -0.40923231675122879 0 -0.1624749046322673 -0.40200193298372783 0 -0.18271469687031749 -0.44845454828740711 0 -0.16224644553901921 -0.42839564420087312 0 -0.19303707249135671 -0.43059430015364047 0 -0.16224644553901921 -0.42839564420087312 0 -0.180697604208819 -0.40923231675122879 0 -0.19303707249135671 -0.43059430015364047 0 -0.180697604208819 -0.40923231675122879 0 -0.1624749046322673 -0.40200193298372783 0 -0.17658526827330981 -0.3829498688371939 0 -0.180697604208819 -0.40923231675122879 0 -0.17658526827330981 -0.3829498688371939 0 -0.19000778267581911 -0.39514046875386671 0 -0.15300746566076209 -0.38310001254620968 0 -0.1624749046322673 -0.40200193298372783 0 -0.17658526827330981 -0.3829498688371939 0 -0.15300746566076209 -0.38310001254620968 0 -0.17658526827330981 -0.3829498688371939 0 -0.17658526827330981 -0.3829498688371939 0 -0.20016307088585741 -0.38279972512817662 0 -0.19000778267581911 -0.39514046875386671 0 -0.17658526827330981 -0.3829498688371939 0 -0.20016307088585741 -0.38279972512817662 0 -0.20016307088585741 -0.38279972512817662 0 -0.19000778267581911 -0.39514046875386671 0 -0.2085726045565329 -0.4078220142096215 0 -0.180697604208819 -0.40923231675122879 0 -0.19000778267581911 -0.39514046875386671 0 -0.2085726045565329 -0.4078220142096215 0 -0.20016307088585741 -0.38279972512817662 0 -0.2085726045565329 -0.4078220142096215 0 -0.20016307088585741 -0.38279972512817662 0 -0.2161772785324636 -0.38269774647594651 0 -0.2085726045565329 -0.4078220142096215 0 -0.2161772785324636 -0.38269774647594651 0 -0.2085726045565329 -0.4078220142096215 0 -0.22410163367487609 -0.3935296463770066 0 -0.20016307088585741 -0.38279972512817662 0 -0.2161772785324636 -0.38269774647594651 0 -0.20016307088585741 -0.38279972512817662 0 -0.2161772785324636 -0.38269774647594651 0 -0.2146411550785581 -0.37365584976636601 0 -0.2161772785324636 -0.38269774647594651 0 -0.22424182443051541 -0.37765757455433779 0 -0.2146411550785581 -0.37365584976636601 0 -0.180697604208819 -0.40923231675122879 0 -0.19303707249135671 -0.43059430015364047 0 -0.2085726045565329 -0.4078220142096215 0 -0.2085726045565329 -0.4078220142096215 0 -0.21698213822720461 -0.43284430329106749 0 -0.2268496457778397 -0.40912566888893942 0 -0.2085726045565329 -0.4078220142096215 0 -0.21698213822720461 -0.43284430329106749 0 -0.19303707249135671 -0.43059430015364047 0 -0.2085726045565329 -0.4078220142096215 0 -0.21698213822720461 -0.43284430329106749 0 -0.21698213822720461 -0.43284430329106749 0 -0.22992583861702739 -0.42769779631454868 0 -0.2268496457778397 -0.40912566888893942 0 -0.22173736506345271 -0.43864709963644488 0 -0.22992583861702739 -0.42769779631454868 0 -0.2347235744381061 -0.43699032632131868 0 -0.22173736506345271 -0.43864709963644488 0 -0.21698213822720461 -0.43284430329106749 0 -0.22992583861702739 -0.42769779631454868 0 -0.22992583861702739 -0.42769779631454868 0 -0.2268496457778397 -0.40912566888893942 0 -0.24230037244337599 -0.4175018590364884 0 -0.21698213822720461 -0.43284430329106749 0 -0.2268496457778397 -0.40912566888893942 0 -0.2268496457778397 -0.40912566888893942 0 -0.24230037244337599 -0.4175018590364884 0 -0.2431093376423632 -0.40266188506415568 0 -0.25613810139819221 -0.41434132836670989 0 -0.24230037244337599 -0.4175018590364884 0 -0.2431093376423632 -0.40266188506415568 0 -0.22992583861702739 -0.42769779631454868 0 -0.24230037244337599 -0.4175018590364884 0 -0.24089352108315501 -0.42926230317217479 0 -0.25359928648481211 -0.43037401697981981 0 -0.24230037244337599 -0.4175018590364884 0 -0.24089352108315501 -0.42926230317217479 0 -0.25359928648481211 -0.43037401697981981 0 -0.2438451496940687 -0.43907002470141299 0 -0.24089352108315501 -0.42926230317217479 0 -0.22992583861702739 -0.42769779631454868 0 -0.24089352108315501 -0.42926230317217479 0 -0.2347235744381061 -0.43699032632131868 0 -0.2438451496940687 -0.43907002470141299 0 -0.24089352108315501 -0.42926230317217479 0 -0.2347235744381061 -0.43699032632131868 0 -0.2161772785324636 -0.38269774647594651 0 -0.23219148617906979 -0.38259576782371391 0 -0.22424182443051541 -0.37765757455433779 0 -0.2161772785324636 -0.38269774647594651 0 -0.23219148617906979 -0.38259576782371391 0 -0.22410163367487609 -0.3935296463770066 0 -0.2161772785324636 -0.38269774647594651 0 -0.23219148617906979 -0.38259576782371391 0 -0.23219148617906979 -0.38259576782371391 0 -0.22410163367487609 -0.3935296463770066 0 -0.23671715332847421 -0.38540703448681102 0 -0.23219148617906979 -0.38259576782371391 0 -0.22424182443051541 -0.37765757455433779 0 -0.23334431644894679 -0.37067442711117121 0 -0.23219148617906979 -0.38259576782371391 0 -0.22424182443051541 -0.37765757455433779 0 -0.2268496457778397 -0.40912566888893942 0 -0.23671715332847421 -0.38540703448681102 0 -0.2268496457778397 -0.40912566888893942 0 -0.22410163367487609 -0.3935296463770066 0 -0.23671715332847421 -0.38540703448681102 0 -0.2085726045565329 -0.4078220142096215 0 -0.2268496457778397 -0.40912566888893942 0 -0.22410163367487609 -0.3935296463770066 0 -0.2268496457778397 -0.40912566888893942 0 -0.2431093376423632 -0.40266188506415568 0 -0.23671715332847421 -0.38540703448681102 0 -0.26042294901863672 -0.40013266740365983 0 -0.2431093376423632 -0.40266188506415568 0 -0.23671715332847421 -0.38540703448681102 0 -0.26042294901863672 -0.40013266740365983 0 -0.23671715332847421 -0.38540703448681102 0 -0.25938421221386299 -0.38242260424217978 0 -0.23671715332847421 -0.38540703448681102 0 -0.23790183421053479 -0.38255940426400398 0 -0.25938421221386299 -0.38242260424217978 0 -0.23790183421053479 -0.38255940426400398 0 -0.25938421221386299 -0.38242260424217978 0 -0.23790183421053479 -0.38255940426400398 0 -0.2452998416640946 -0.36477673389921211 0 -0.23219148617906979 -0.38259576782371391 0 -0.23671715332847421 -0.38540703448681102 0 -0.23790183421053479 -0.38255940426400398 0 -0.23219148617906979 -0.38259576782371391 0 -0.23671715332847421 -0.38540703448681102 0 -0.23671715332847421 -0.38540703448681102 0 -0.23790183421053479 -0.38255940426400398 0 -0.23219148617906979 -0.38259576782371391 0 -0.23790183421053479 -0.38255940426400398 0 -0.23334431644894679 -0.37067442711117121 0 -0.23219148617906979 -0.38259576782371391 0 -0.23790183421053479 -0.38255940426400398 0 -0.2452998416640946 -0.36477673389921211 0 -0.23334431644894679 -0.37067442711117121 0 -0.236612272716479 -0.35196393625907768 0 -0.23790183421053479 -0.38255940426400398 0 -0.2452998416640946 -0.36477673389921211 0 -0.23790183421053479 -0.38255940426400398 0 -0.2452998416640946 -0.36477673389921211 0 -0.23334431644894679 -0.37067442711117121 0 -0.22424182443051541 -0.37765757455433779 0 -0.23334431644894679 -0.37067442711117121 0 -0.2233560944082246 -0.363712965125564 0 -0.23334431644894679 -0.37067442711117121 0 -0.2233560944082246 -0.363712965125564 0 -0.236612272716479 -0.35196393625907768 0 -0.22424182443051541 -0.37765757455433779 0 -0.2233560944082246 -0.363712965125564 0 -0.2146411550785581 -0.37365584976636601 0 -0.2233560944082246 -0.363712965125564 0 -0.22090871978274521 -0.34750939462453567 0 -0.236612272716479 -0.35196393625907768 0 -0.25269784911765092 -0.34699406353441858 0 -0.2452998416640946 -0.36477673389921211 0 -0.25269784911765092 -0.34699406353441858 0 -0.2452998416640946 -0.36477673389921211 0 -0.236612272716479 -0.35196393625907768 0 -0.25269784911765092 -0.34699406353441858 0 -0.2601150759189611 -0.3291651954159735 0 -0.2357068878863986 -0.32570661601735368 0 -0.25269784911765092 -0.34699406353441858 0 -0.236612272716479 -0.35196393625907768 0 -0.2357068878863986 -0.32570661601735368 0 -0.25269784911765092 -0.34699406353441858 0 -0.2357068878863986 -0.32570661601735368 0 -0.2601150759189611 -0.3291651954159735 0 -0.2357068878863986 -0.32570661601735368 0 -0.2494260049788683 -0.31746489113439402 0 -0.2357068878863986 -0.32570661601735368 0 -0.2494260049788683 -0.31746489113439402 0 -0.24072416822125611 -0.30184362229434508 0 -0.2357068878863986 -0.32570661601735368 0 -0.2119173650848751 -0.32804843985645959 0 -0.21871592665514519 -0.30441916850028972 0 -0.2357068878863986 -0.32570661601735368 0 -0.21871592665514519 -0.30441916850028972 0 -0.22090871978274521 -0.34750939462453567 0 -0.236612272716479 -0.35196393625907768 0 -0.2357068878863986 -0.32570661601735368 0 -0.22090871978274521 -0.34750939462453567 0 -0.2357068878863986 -0.32570661601735368 0 -0.2119173650848751 -0.32804843985645959 0 -0.22090871978274521 -0.34750939462453567 0 -0.2119173650848751 -0.32804843985645959 0 -0.20038300345158319 -0.34252625431289602 0 -0.2119173650848751 -0.32804843985645959 0 -0.19064882261902269 -0.32209845877770238 0 -0.21871592665514519 -0.30441916850028972 0 -0.2119173650848751 -0.32804843985645959 0 -0.19064882261902269 -0.32209845877770238 0 -0.20038300345158319 -0.34252625431289602 0 -0.19064882261902269 -0.32209845877770238 0 -0.20038300345158319 -0.34252625431289602 0 -0.1786038551756757 -0.34069824763179102 0 -0.20038300345158319 -0.34252625431289602 0 -0.19095175091145111 -0.35539174743908392 0 -0.20926750713572939 -0.36141123754780358 0 -0.20038300345158319 -0.34252625431289602 0 -0.19095175091145111 -0.35539174743908392 0 -0.1786038551756757 -0.34069824763179102 0 -0.20016307088585741 -0.38279972512817662 0 -0.19095175091145111 -0.35539174743908392 0 -0.20926750713572939 -0.36141123754780358 0 -0.17658526827330981 -0.3829498688371939 0 -0.20016307088585741 -0.38279972512817662 0 -0.19095175091145111 -0.35539174743908392 0 -0.20016307088585741 -0.38279972512817662 0 -0.19095175091145111 -0.35539174743908392 0 -0.20016307088585741 -0.38279972512817662 0 -0.20926750713572939 -0.36141123754780358 0 -0.2146411550785581 -0.37365584976636601 0 -0.2233560944082246 -0.363712965125564 0 -0.20926750713572939 -0.36141123754780358 0 -0.2146411550785581 -0.37365584976636601 0 -0.2233560944082246 -0.363712965125564 0 -0.22090871978274521 -0.34750939462453567 0 -0.20926750713572939 -0.36141123754780358 0 -0.22090871978274521 -0.34750939462453567 0 -0.20038300345158319 -0.34252625431289602 0 -0.20926750713572939 -0.36141123754780358 0 -0.23269942211958819 -0.26632599736311829 0 -0.2113475615474098 -0.26183595308539898 0 -0.22937054978906041 -0.24331512362502869 0 -0.2483490975252734 -0.26098873334868322 0 -0.23269942211958819 -0.26632599736311829 0 -0.22937054978906041 -0.24331512362502869 0 -0.2483490975252734 -0.26098873334868322 0 -0.24718685023563691 -0.27875123027958087 0 -0.23269942211958819 -0.26632599736311829 0 -0.24718685023563691 -0.27875123027958087 0 -0.23269942211958819 -0.26632599736311829 0 -0.22621925119092889 -0.28512311723799683 0 -0.23269942211958819 -0.26632599736311829 0 -0.22621925119092889 -0.28512311723799683 0 -0.2113475615474098 -0.26183595308539898 0 -0.24718685023563691 -0.27875123027958087 0 -0.22621925119092889 -0.28512311723799683 0 -0.24072416822125611 -0.30184362229434508 0 -0.25754389589834492 -0.29267207960278718 0 -0.24718685023563691 -0.27875123027958087 0 -0.24072416822125611 -0.30184362229434508 0 -0.25469452373499762 -0.30722313484128749 0 -0.2494260049788683 -0.31746489113439402 0 -0.24072416822125611 -0.30184362229434508 0 -0.22621925119092889 -0.28512311723799683 0 -0.24072416822125611 -0.30184362229434508 0 -0.21871592665514519 -0.30441916850028972 0 -0.2357068878863986 -0.32570661601735368 0 -0.24072416822125611 -0.30184362229434508 0 -0.21871592665514519 -0.30441916850028972 0 -0.21871592665514519 -0.30441916850028972 0 -0.20172496542389179 -0.28313172098322592 0 -0.18547182867621881 -0.29890397395307688 0 -0.19064882261902269 -0.32209845877770238 0 -0.21871592665514519 -0.30441916850028972 0 -0.18547182867621881 -0.29890397395307688 0 -0.20172496542389179 -0.28313172098322592 0 -0.17865973542483601 -0.28159672660659713 0 -0.18547182867621881 -0.29890397395307688 0 -0.22621925119092889 -0.28512311723799683 0 -0.21871592665514519 -0.30441916850028972 0 -0.20172496542389179 -0.28313172098322592 0 -0.21871592665514519 -0.30441916850028972 0 -0.20172496542389179 -0.28313172098322592 0 -0.22621925119092889 -0.28512311723799683 0 -0.20172496542389179 -0.28313172098322592 0 -0.2113475615474098 -0.26183595308539898 0 -0.20172496542389179 -0.28313172098322592 0 -0.2113475615474098 -0.26183595308539898 0 -0.18473400419263841 -0.26184427346616201 0 -0.20172496542389179 -0.28313172098322592 0 -0.18473400419263841 -0.26184427346616201 0 -0.20172496542389179 -0.28313172098322592 0 -0.18473400419263841 -0.26184427346616201 0 -0.17865973542483601 -0.28159672660659713 0 -0.2113475615474098 -0.26183595308539898 0 -0.18473400419263841 -0.26184427346616201 0 -0.1994177047143332 -0.2432145052078287 0 -0.18473400419263841 -0.26184427346616201 0 -0.15229660666407671 -0.25401824511238591 0 -0.16774304296138501 -0.24055682594909811 0 -0.18473400419263841 -0.26184427346616201 0 -0.1593348892574955 -0.27433293932196051 0 -0.15229660666407671 -0.25401824511238591 0 -0.18473400419263841 -0.26184427346616201 0 -0.16774304296138501 -0.24055682594909811 0 -0.18473400419263841 -0.26184427346616201 0 -0.1593348892574955 -0.27433293932196051 0 -0.17865973542483601 -0.28159672660659713 0 -0.1593348892574955 -0.27433293932196051 0 -0.17865973542483601 -0.28159672660659713 0 -0.1628273235241636 -0.29929742573166879 0 -0.17865973542483601 -0.28159672660659713 0 -0.18547182867621881 -0.29890397395307688 0 -0.1628273235241636 -0.29929742573166879 0 -0.18547182867621881 -0.29890397395307688 0 -0.1628273235241636 -0.29929742573166879 0 -0.16388410446163609 -0.32460269768425593 0 -0.1628273235241636 -0.29929742573166879 0 -0.13242221189995379 -0.30543756500551722 0 -0.16388410446163609 -0.32460269768425593 0 -0.13242221189995379 -0.30543756500551722 0 -0.14127367617284931 -0.28459822767558379 0 -0.1188334035936548 -0.28113848219864679 0 -0.1628273235241636 -0.29929742573166879 0 -0.13242221189995379 -0.30543756500551722 0 -0.14127367617284931 -0.28459822767558379 0 -0.1593348892574955 -0.27433293932196051 0 -0.1628273235241636 -0.29929742573166879 0 -0.14127367617284931 -0.28459822767558379 0 -0.1593348892574955 -0.27433293932196051 0 -0.14127367617284931 -0.28459822767558379 0 -0.132950552588979 -0.26278472612012599 0 -0.14127367617284931 -0.28459822767558379 0 -0.132950552588979 -0.26278472612012599 0 -0.1188334035936548 -0.28113848219864679 0 -0.132950552588979 -0.26278472612012599 0 -0.1192340303868117 -0.24478318800158869 0 -0.13450504990001219 -0.2438564190910647 0 -0.132950552588979 -0.26278472612012599 0 -0.15229660666407671 -0.25401824511238591 0 -0.13450504990001219 -0.2438564190910647 0 -0.1593348892574955 -0.27433293932196051 0 -0.132950552588979 -0.26278472612012599 0 -0.15229660666407671 -0.25401824511238591 0 -0.15300746566076209 -0.38310001254620968 0 -0.17658526827330981 -0.3829498688371939 0 -0.16187875486605491 -0.35541355732776547 0 -0.17658526827330981 -0.3829498688371939 0 -0.19095175091145111 -0.35539174743908392 0 -0.16187875486605491 -0.35541355732776547 0 -0.19095175091145111 -0.35539174743908392 0 -0.16187875486605491 -0.35541355732776547 0 -0.1786038551756757 -0.34069824763179102 0 -0.19064882261902269 -0.32209845877770238 0 -0.1786038551756757 -0.34069824763179102 0 -0.16388410446163609 -0.32460269768425593 0 -0.19064882261902269 -0.32209845877770238 0 -0.18547182867621881 -0.29890397395307688 0 -0.16388410446163609 -0.32460269768425593 0 -0.16187875486605491 -0.35541355732776547 0 -0.1786038551756757 -0.34069824763179102 0 -0.16388410446163609 -0.32460269768425593 0 -0.13242221189995379 -0.30543756500551722 0 -0.16388410446163609 -0.32460269768425593 0 -0.13821757510299509 -0.3384513750534191 0 -0.13242221189995379 -0.30543756500551722 0 -0.13821757510299509 -0.3384513750534191 0 -0.1101747460075988 -0.32953608121607292 0 -0.16187875486605491 -0.35541355732776547 0 -0.16388410446163609 -0.32460269768425593 0 -0.13821757510299509 -0.3384513750534191 0 -0.13821757510299509 -0.3384513750534191 0 -0.13644034466196819 -0.36544341997203661 0 -0.1196241940514999 -0.3542658853942362 0 -0.16187875486605491 -0.35541355732776547 0 -0.13821757510299509 -0.3384513750534191 0 -0.13644034466196819 -0.36544341997203661 0 -0.15300746566076209 -0.38310001254620968 0 -0.16187875486605491 -0.35541355732776547 0 -0.13644034466196819 -0.36544341997203661 0 -0.12942966304821441 -0.38325015625522552 0 -0.13644034466196819 -0.36544341997203661 0 -0.1177797586078463 -0.37381446098417098 0 -0.13644034466196819 -0.36544341997203661 0 -0.1177797586078463 -0.37381446098417098 0 -0.1196241940514999 -0.3542658853942362 0 -0.1177797586078463 -0.37381446098417098 0 -0.10407214500130089 -0.36661499140206938 0 -0.1196241940514999 -0.3542658853942362 0 -0.1177797586078463 -0.37381446098417098 0 -0.10407214500130089 -0.36661499140206938 0 -0.1034929330021967 -0.38313049756236911 0 -0.10407214500130089 -0.36661499140206938 0 -0.092143069441117886 -0.37288061806212591 0 -0.1034929330021967 -0.38313049756236911 0 -0.10407214500130089 -0.36661499140206938 0 -0.092143069441117886 -0.37288061806212591 0 -0.090292011953311629 -0.3597231114641114 0 -0.10407214500130089 -0.36661499140206938 0 -0.10297576120334009 -0.35054559799579871 0 -0.1196241940514999 -0.3542658853942362 0 -0.10297576120334009 -0.35054559799579871 0 -0.091874738774876785 -0.34065851114568052 0 -0.090292011953311629 -0.3597231114641114 0 -0.10407214500130089 -0.36661499140206938 0 -0.10297576120334009 -0.35054559799579871 0 -0.090292011953311629 -0.3597231114641114 0 -0.10297576120334009 -0.35054559799579871 0 -0.1196241940514999 -0.3542658853942362 0 -0.1101747460075988 -0.32953608121607292 0 -0.13821757510299509 -0.3384513750534191 0 -0.1196241940514999 -0.3542658853942362 0 -0.1101747460075988 -0.32953608121607292 0 -0.1101747460075988 -0.32953608121607292 0 -0.085227450549862166 -0.32028838060126541 0 -0.10233633129899709 -0.29788694174330338 0 -0.1101747460075988 -0.32953608121607292 0 -0.091874738774876785 -0.34065851114568052 0 -0.085227450549862166 -0.32028838060126541 0 -0.10297576120334009 -0.35054559799579871 0 -0.1101747460075988 -0.32953608121607292 0 -0.091874738774876785 -0.34065851114568052 0 -0.091874738774876785 -0.34065851114568052 0 -0.085227450549862166 -0.32028838060126541 0 -0.076063335717399538 -0.33750887212749098 0 -0.085227450549862166 -0.32028838060126541 0 -0.063011241542060503 -0.32804507108198161 0 -0.072947339386401744 -0.29815403057856332 0 -0.063011241542060503 -0.32804507108198161 0 -0.076063335717399538 -0.33750887212749098 0 -0.056103847272524453 -0.34401699257208418 0 -0.085227450549862166 -0.32028838060126541 0 -0.063011241542060503 -0.32804507108198161 0 -0.076063335717399538 -0.33750887212749098 0 -0.076063335717399538 -0.33750887212749098 0 -0.071250752086046532 -0.35335887697158019 0 -0.056103847272524453 -0.34401699257208418 0 -0.071250752086046532 -0.35335887697158019 0 -0.076899216694667677 -0.36865863427987439 0 -0.059008804616476777 -0.3736816009534113 0 -0.071250752086046532 -0.35335887697158019 0 -0.076899216694667677 -0.36865863427987439 0 -0.090292011953311629 -0.3597231114641114 0 -0.076899216694667677 -0.36865863427987439 0 -0.092143069441117886 -0.37288061806212591 0 -0.090292011953311629 -0.3597231114641114 0 -0.091874738774876785 -0.34065851114568052 0 -0.071250752086046532 -0.35335887697158019 0 -0.090292011953311629 -0.3597231114641114 0 -0.091874738774876785 -0.34065851114568052 0 -0.076063335717399538 -0.33750887212749098 0 -0.071250752086046532 -0.35335887697158019 0 -0.10928029933534041 -0.25911330461652088 0 -0.093765691765433312 -0.25258281812082478 0 -0.1064059993424292 -0.23999004584722569 0 -0.10928029933534041 -0.25911330461652088 0 -0.093765691765433312 -0.25258281812082478 0 -0.091378819945462819 -0.27405960529517892 0 -0.132950552588979 -0.26278472612012599 0 -0.10928029933534041 -0.25911330461652088 0 -0.1192340303868117 -0.24478318800158869 0 -0.132950552588979 -0.26278472612012599 0 -0.10928029933534041 -0.25911330461652088 0 -0.1188334035936548 -0.28113848219864679 0 -0.10928029933534041 -0.25911330461652088 0 -0.1188334035936548 -0.28113848219864679 0 -0.091378819945462819 -0.27405960529517892 0 -0.13242221189995379 -0.30543756500551722 0 -0.1101747460075988 -0.32953608121607292 0 -0.10233633129899709 -0.29788694174330338 0 -0.1188334035936548 -0.28113848219864679 0 -0.10233633129899709 -0.29788694174330338 0 -0.091378819945462819 -0.27405960529517892 0 -0.13242221189995379 -0.30543756500551722 0 -0.1188334035936548 -0.28113848219864679 0 -0.10233633129899709 -0.29788694174330338 0 -0.085227450549862166 -0.32028838060126541 0 -0.10233633129899709 -0.29788694174330338 0 -0.072947339386401744 -0.29815403057856332 0 -0.10233633129899709 -0.29788694174330338 0 -0.072947339386401744 -0.29815403057856332 0 -0.072947339386401744 -0.29815403057856332 0 -0.068721828444096633 -0.2698787542887045 0 -0.051386271478722378 -0.27925540101153468 0 -0.10233633129899709 -0.29788694174330338 0 -0.072947339386401744 -0.29815403057856332 0 -0.091378819945462819 -0.27405960529517892 0 -0.091378819945462819 -0.27405960529517892 0 -0.068721828444096633 -0.2698787542887045 0 -0.079465288233698042 -0.25846821731041458 0 -0.072947339386401744 -0.29815403057856332 0 -0.091378819945462819 -0.27405960529517892 0 -0.068721828444096633 -0.2698787542887045 0 -0.068721828444096633 -0.2698787542887045 0 -0.065421878849430556 -0.25167039592025259 0 -0.079465288233698042 -0.25846821731041458 0 -0.093765691765433312 -0.25258281812082478 0 -0.091378819945462819 -0.27405960529517892 0 -0.079465288233698042 -0.25846821731041458 0 -0.093765691765433312 -0.25258281812082478 0 -0.079465288233698042 -0.25846821731041458 0 -0.078278243085297239 -0.23951664672932549 0 -0.036856198389287782 -0.25899730250271491 0 -0.027326811110253871 -0.25121816526868662 0 -0.040785035177160277 -0.24958968680164759 0 -0.036856198389287782 -0.25899730250271491 0 -0.03708476385319625 -0.2699613192856723 0 -0.027769846617742091 -0.26444130564156609 0 -0.036856198389287782 -0.25899730250271491 0 -0.051314535188086402 -0.25977603551600209 0 -0.03708476385319625 -0.2699613192856723 0 -0.036856198389287782 -0.25899730250271491 0 -0.051314535188086402 -0.25977603551600209 0 -0.040785035177160277 -0.24958968680164759 0 -0.051314535188086402 -0.25977603551600209 0 -0.052406799216804557 -0.24459198769464191 0 -0.040785035177160277 -0.24958968680164759 0 -0.068721828444096633 -0.2698787542887045 0 -0.065421878849430556 -0.25167039592025259 0 -0.051314535188086402 -0.25977603551600209 0 -0.065421878849430556 -0.25167039592025259 0 -0.051314535188086402 -0.25977603551600209 0 -0.052406799216804557 -0.24459198769464191 0 -0.068721828444096633 -0.2698787542887045 0 -0.051314535188086402 -0.25977603551600209 0 -0.051386271478722378 -0.27925540101153468 0 -0.051386271478722378 -0.27925540101153468 0 -0.03708476385319625 -0.2699613192856723 0 -0.030508603843899348 -0.2838920637904252 0 -0.051314535188086402 -0.25977603551600209 0 -0.051386271478722378 -0.27925540101153468 0 -0.03708476385319625 -0.2699613192856723 0 -0.051386271478722378 -0.27925540101153468 0 -0.043558347473806387 -0.2984211194138231 0 -0.030508603843899348 -0.2838920637904252 0 -0.072947339386401744 -0.29815403057856332 0 -0.051386271478722378 -0.27925540101153468 0 -0.043558347473806387 -0.2984211194138231 0 -0.072947339386401744 -0.29815403057856332 0 -0.043558347473806387 -0.2984211194138231 0 -0.072947339386401744 -0.29815403057856332 0 -0.043558347473806387 -0.2984211194138231 0 -0.051420852876661483 -0.31380047181538612 0 -0.043558347473806387 -0.2984211194138231 0 -0.051420852876661483 -0.31380047181538612 0 -0.030582351458593698 -0.31403506648659951 0 -0.014169355561211039 -0.29868820824908299 0 -0.030582351458593698 -0.31403506648659951 0 -0.0093546214437348063 -0.3154421594820554 0 -0.043558347473806387 -0.2984211194138231 0 -0.014169355561211039 -0.29868820824908299 0 -0.030582351458593698 -0.31403506648659951 0 -0.043558347473806387 -0.2984211194138231 0 -0.014169355561211039 -0.29868820824908299 0 -0.014169355561211039 -0.29868820824908299 0 -0.0093546214437348063 -0.3154421594820554 0 0.0025702240157044749 -0.30194718224499639 0 -0.014169355561211039 -0.29868820824908299 0 0.0025702240157044749 -0.30194718224499639 0 0.001953977901653102 -0.28749824366549498 0 -0.014169355561211039 -0.29868820824908299 0 -0.01355692824822796 -0.28271954505438091 0 0.001953977901653102 -0.28749824366549498 0 -0.01355692824822796 -0.28271954505438091 0 -0.002131649244152236 -0.27375645946249172 0 0.001953977901653102 -0.28749824366549498 0 -0.014169355561211039 -0.29868820824908299 0 -0.01355692824822796 -0.28271954505438091 0 -0.030508603843899348 -0.2838920637904252 0 -0.043558347473806387 -0.2984211194138231 0 -0.014169355561211039 -0.29868820824908299 0 -0.030508603843899348 -0.2838920637904252 0 -0.01355692824822796 -0.28271954505438091 0 -0.030508603843899348 -0.2838920637904252 0 -0.0232959564482321 -0.27430678972805739 0 -0.03708476385319625 -0.2699613192856723 0 -0.030508603843899348 -0.2838920637904252 0 -0.0232959564482321 -0.27430678972805739 0 -0.03708476385319625 -0.2699613192856723 0 -0.0232959564482321 -0.27430678972805739 0 -0.027769846617742091 -0.26444130564156609 0 -0.0232959564482321 -0.27430678972805739 0 -0.01453475649827142 -0.26699160201657218 0 -0.027769846617742091 -0.26444130564156609 0 -0.0232959564482321 -0.27430678972805739 0 -0.01264771782334753 -0.27382178896806042 0 -0.01453475649827142 -0.26699160201657218 0 -0.01355692824822796 -0.28271954505438091 0 -0.0232959564482321 -0.27430678972805739 0 -0.01264771782334753 -0.27382178896806042 0 -0.01355692824822796 -0.28271954505438091 0 -0.01264771782334753 -0.27382178896806042 0 -0.002131649244152236 -0.27375645946249172 0 -0.002131649244152236 -0.27375645946249172 0 -0.0028944004114581372 -0.26277522582270341 0 0.0049597396345670026 -0.26452376434945218 0 -0.002131649244152236 -0.27375645946249172 0 -0.0081433199175628083 -0.26887389345264789 0 -0.0028944004114581372 -0.26277522582270341 0 -0.01264771782334753 -0.27382178896806042 0 -0.002131649244152236 -0.27375645946249172 0 -0.0081433199175628083 -0.26887389345264789 0 -0.01264771782334753 -0.27382178896806042 0 -0.0081433199175628083 -0.26887389345264789 0 -0.01453475649827142 -0.26699160201657218 0 -0.0081433199175628083 -0.26887389345264789 0 -0.01453475649827142 -0.26699160201657218 0 -0.012379740604400009 -0.25371681360357518 0 -0.0081433199175628083 -0.26887389345264789 0 -0.012379740604400009 -0.25371681360357518 0 -0.0081433199175628083 -0.26887389345264789 0 -0.0050603712554523096 -0.25502580822232418 0 -0.012379740604400009 -0.25371681360357518 0 -0.0081433199175628083 -0.26887389345264789 0 -0.0028944004114581372 -0.26277522582270341 0 -0.0050603712554523096 -0.25502580822232418 0 -0.0028944004114581372 -0.26277522582270341 0 -0.0050603712554523096 -0.25502580822232418 0 0.0049597396345670026 -0.26452376434945218 0 -0.0050603712554523096 -0.25502580822232418 0 -0.012379740604400009 -0.25371681360357518 0 -0.01487672558591642 -0.24478309253466149 0 -0.01453475649827142 -0.26699160201657218 0 -0.027326811110253871 -0.25121816526868662 0 -0.01453475649827142 -0.26699160201657218 0 -0.027769846617742091 -0.26444130564156609 0 -0.027326811110253871 -0.25121816526868662 0 -0.01453475649827142 -0.26699160201657218 0 -0.012379740604400009 -0.25371681360357518 0 -0.027326811110253871 -0.25121816526868662 0 -0.036856198389287782 -0.25899730250271491 0 -0.027769846617742091 -0.26444130564156609 0 -0.027326811110253871 -0.25121816526868662 0 -0.039399855887372083 -0.348894598899534 0 -0.034096369460313788 -0.36339656310703322 0 -0.051971925864546728 -0.35666972650072859 0 -0.039399855887372083 -0.348894598899534 0 -0.034096369460313788 -0.36339656310703322 0 -0.026210886027733249 -0.34369915139989571 0 -0.039399855887372083 -0.348894598899534 0 -0.034096369460313788 -0.36339656310703322 0 -0.034096369460313788 -0.36339656310703322 0 -0.059008804616476777 -0.3736816009534113 0 -0.034096369460313788 -0.36339656310703322 0 -0.059008804616476777 -0.3736816009534113 0 -0.054792379857709787 -0.38521108099946061 0 -0.071250752086046532 -0.35335887697158019 0 -0.059008804616476777 -0.3736816009534113 0 -0.051971925864546728 -0.35666972650072859 0 -0.034096369460313788 -0.36339656310703322 0 -0.059008804616476777 -0.3736816009534113 0 -0.051971925864546728 -0.35666972650072859 0 -0.039399855887372083 -0.348894598899534 0 -0.056103847272524453 -0.34401699257208418 0 -0.051971925864546728 -0.35666972650072859 0 -0.071250752086046532 -0.35335887697158019 0 -0.056103847272524453 -0.34401699257208418 0 -0.051971925864546728 -0.35666972650072859 0 -0.063011241542060503 -0.32804507108198161 0 -0.056103847272524453 -0.34401699257208418 0 -0.04119870814000013 -0.33100814093665459 0 -0.063011241542060503 -0.32804507108198161 0 -0.072947339386401744 -0.29815403057856332 0 -0.051420852876661483 -0.31380047181538612 0 -0.063011241542060503 -0.32804507108198161 0 -0.051420852876661483 -0.31380047181538612 0 -0.04119870814000013 -0.33100814093665459 0 -0.04119870814000013 -0.33100814093665459 0 -0.030582351458593698 -0.31403506648659951 0 -0.022582582343139011 -0.32698802181857289 0 -0.051420852876661483 -0.31380047181538612 0 -0.04119870814000013 -0.33100814093665459 0 -0.030582351458593698 -0.31403506648659951 0 -0.039399855887372083 -0.348894598899534 0 -0.04119870814000013 -0.33100814093665459 0 -0.026210886027733249 -0.34369915139989571 0 -0.039399855887372083 -0.348894598899534 0 -0.056103847272524453 -0.34401699257208418 0 -0.04119870814000013 -0.33100814093665459 0 -0.04119870814000013 -0.33100814093665459 0 -0.026210886027733249 -0.34369915139989571 0 -0.022582582343139011 -0.32698802181857289 0 -0.026210886027733249 -0.34369915139989571 0 -0.022582582343139011 -0.32698802181857289 0 -0.008605873932596356 -0.33624452634938418 0 -0.030582351458593698 -0.31403506648659951 0 -0.022582582343139011 -0.32698802181857289 0 -0.0093546214437348063 -0.3154421594820554 0 -0.022582582343139011 -0.32698802181857289 0 -0.0093546214437348063 -0.3154421594820554 0 -0.008605873932596356 -0.33624452634938418 0 -0.0093546214437348063 -0.3154421594820554 0 -0.008605873932596356 -0.33624452634938418 0 0.0035141492887302548 -0.32519051246028208 0 -0.0019921573348008 -0.35014241775074068 0 -0.018044263397557131 -0.35676949042888739 0 -0.0042332821090469977 -0.36931681778231101 0 -0.0019921573348008 -0.35014241775074068 0 -0.018044263397557131 -0.35676949042888739 0 -0.008605873932596356 -0.33624452634938418 0 -0.0019921573348008 -0.35014241775074068 0 -0.018044263397557131 -0.35676949042888739 0 -0.026210886027733249 -0.34369915139989571 0 -0.008605873932596356 -0.33624452634938418 0 -0.018044263397557131 -0.35676949042888739 0 -0.034096369460313788 -0.36339656310703322 0 -0.026210886027733249 -0.34369915139989571 0 -0.018044263397557131 -0.35676949042888739 0 -0.034096369460313788 -0.36339656310703322 0 -0.018044263397557131 -0.35676949042888739 0 -0.034096369460313788 -0.36339656310703322 0 -0.018686911073243041 -0.37245057318461761 0 -0.025663519942779139 -0.38645552319913151 0 -0.034096369460313788 -0.36339656310703322 0 -0.025663519942779139 -0.38645552319913151 0 -0.034096369460313788 -0.36339656310703322 0 -0.018044263397557131 -0.35676949042888739 0 -0.018686911073243041 -0.37245057318461761 0 -0.018044263397557131 -0.35676949042888739 0 -0.018686911073243041 -0.37245057318461761 0 -0.0042332821090469977 -0.36931681778231101 0 -0.0042332821090469977 -0.36931681778231101 0 -0.0014384839491562609 -0.38294108750953337 0 -0.01293018069981793 -0.38699951650140929 0 -0.018686911073243041 -0.37245057318461761 0 -0.0042332821090469977 -0.36931681778231101 0 -0.01293018069981793 -0.38699951650140929 0 -0.0014384839491562609 -0.38294108750953337 0 -0.01063129593948554 -0.39508981091663592 0 0.011472045166716269 -0.38952867199447438 0 -0.0014384839491562609 -0.38294108750953337 0 -0.01293018069981793 -0.38699951650140929 0 -0.01063129593948554 -0.39508981091663592 0 -0.01063129593948554 -0.39508981091663592 0 -0.0091670491733258502 -0.407137417147723 0 0.011472045166716269 -0.38952867199447438 0 -0.01063129593948554 -0.39508981091663592 0 -0.018873559194732051 -0.4050221338792524 0 -0.0091670491733258502 -0.407137417147723 0 -0.018873559194732051 -0.4050221338792524 0 -0.02836285586948685 -0.40056267234101323 0 -0.025663519942779139 -0.38645552319913151 0 -0.018873559194732051 -0.4050221338792524 0 -0.025663519942779139 -0.38645552319913151 0 -0.01063129593948554 -0.39508981091663592 0 -0.018873559194732051 -0.4050221338792524 0 -0.025663519942779139 -0.38645552319913151 0 -0.018873559194732051 -0.4050221338792524 0 -0.02836285586948685 -0.40056267234101323 0 -0.030977517198131951 -0.41001184184548872 0 -0.018686911073243041 -0.37245057318461761 0 -0.01293018069981793 -0.38699951650140929 0 -0.025663519942779139 -0.38645552319913151 0 -0.01293018069981793 -0.38699951650140929 0 -0.01063129593948554 -0.39508981091663592 0 -0.025663519942779139 -0.38645552319913151 0 -0.01293018069981793 -0.38699951650140929 0 -0.025663519942779139 -0.38645552319913151 0 -0.025663519942779139 -0.38645552319913151 0 -0.054792379857709787 -0.38521108099946061 0 -0.034096369460313788 -0.36339656310703322 0 -0.025663519942779139 -0.38645552319913151 0 -0.054792379857709787 -0.38521108099946061 0 -0.025663519942779139 -0.38645552319913151 0 -0.040378871001035203 -0.4023619242499753 0 -0.054792379857709787 -0.38521108099946061 0 -0.02836285586948685 -0.40056267234101323 0 -0.025663519942779139 -0.38645552319913151 0 -0.040378871001035203 -0.4023619242499753 0 -0.02836285586948685 -0.40056267234101323 0 -0.040378871001035203 -0.4023619242499753 0 -0.030977517198131951 -0.41001184184548872 0 -0.054792379857709787 -0.38521108099946061 0 -0.059825167014939118 -0.40722915412089022 0 -0.072775681732521871 -0.39584784537067902 0 -0.040378871001035203 -0.4023619242499753 0 -0.054792379857709787 -0.38521108099946061 0 -0.059825167014939118 -0.40722915412089022 0 -0.042229656958243142 -0.42347410177567479 0 -0.050515785400197619 -0.44529677996352279 0 -0.072027503688391378 -0.4304363902392051 0 -0.040378871001035203 -0.4023619242499753 0 -0.059825167014939118 -0.40722915412089022 0 -0.042229656958243142 -0.42347410177567479 0 -0.059825167014939118 -0.40722915412089022 0 -0.042229656958243142 -0.42347410177567479 0 -0.072027503688391378 -0.4304363902392051 0 -0.040378871001035203 -0.4023619242499753 0 -0.042229656958243142 -0.42347410177567479 0 -0.030977517198131951 -0.41001184184548872 0 -0.042229656958243142 -0.42347410177567479 0 -0.030977517198131951 -0.41001184184548872 0 -0.025042642967162548 -0.41863837698152778 0 -0.042229656958243142 -0.42347410177567479 0 -0.02466563579619491 -0.43258924065094212 0 -0.036391946892689743 -0.43794750258320281 0 -0.042229656958243142 -0.42347410177567479 0 -0.036391946892689743 -0.43794750258320281 0 -0.050515785400197619 -0.44529677996352279 0 -0.042229656958243142 -0.42347410177567479 0 -0.02466563579619491 -0.43258924065094212 0 -0.025042642967162548 -0.41863837698152778 0 -0.02466563579619491 -0.43258924065094212 0 -0.01208359844668536 -0.42358874455937362 0 -0.01135633175650611 -0.44080857306714882 0 -0.02466563579619491 -0.43258924065094212 0 -0.025042642967162548 -0.41863837698152778 0 -0.01208359844668536 -0.42358874455937362 0 -0.018873559194732051 -0.4050221338792524 0 -0.025042642967162548 -0.41863837698152778 0 -0.01208359844668536 -0.42358874455937362 0 -0.018873559194732051 -0.4050221338792524 0 -0.030977517198131951 -0.41001184184548872 0 -0.025042642967162548 -0.41863837698152778 0 -0.0091670491733258502 -0.407137417147723 0 -0.01208359844668536 -0.42358874455937362 0 0.0037810136158822729 -0.41791708709875131 0 -0.018873559194732051 -0.4050221338792524 0 -0.01208359844668536 -0.42358874455937362 0 -0.018873559194732051 -0.4050221338792524 0 -0.0091670491733258502 -0.407137417147723 0 -0.01208359844668536 -0.42358874455937362 0 -0.0091670491733258502 -0.407137417147723 0 0.005108664055598287 -0.40528738143041459 0 0.0037810136158822729 -0.41791708709875131 0 -0.01208359844668536 -0.42358874455937362 0 -0.01135633175650611 -0.44080857306714882 0 0.00079488181500260609 -0.42987501851034571 0 -0.01208359844668536 -0.42358874455937362 0 0.0037810136158822729 -0.41791708709875131 0 0.00079488181500260609 -0.42987501851034571 0 -0.01135633175650611 -0.44080857306714882 0 -0.0057475739345891896 -0.4549207533069245 0 -0.026821380350943221 -0.45052187300253432 0 -0.01135633175650611 -0.44080857306714882 0 -0.0057475739345891896 -0.4549207533069245 0 0.0068165806591294316 -0.44348526320397952 0 -0.01135633175650611 -0.44080857306714882 0 0.00079488181500260609 -0.42987501851034571 0 0.0068165806591294316 -0.44348526320397952 0 -0.0057475739345891896 -0.4549207533069245 0 -0.01053281578453142 -0.47284051234843588 0 0.013156077559905371 -0.46694754491252372 0 -0.0057475739345891896 -0.4549207533069245 0 -0.026821380350943221 -0.45052187300253432 0 -0.01053281578453142 -0.47284051234843588 0 -0.026821380350943221 -0.45052187300253432 0 -0.01053281578453142 -0.47284051234843588 0 -0.034221709128968207 -0.47873347978434821 0 -0.02466563579619491 -0.43258924065094212 0 -0.026821380350943221 -0.45052187300253432 0 -0.036391946892689743 -0.43794750258320281 0 -0.02466563579619491 -0.43258924065094212 0 -0.01135633175650611 -0.44080857306714882 0 -0.026821380350943221 -0.45052187300253432 0 -0.01053281578453142 -0.47284051234843588 0 -0.021528721160628209 -0.5 0 0.0082051736105589468 -0.5 0 -0.01053281578453142 -0.47284051234843588 0 -0.034221709128968207 -0.47873347978434821 0 -0.01053281578453142 -0.47284051234843588 0 -0.021528721160628209 -0.5 0 -0.034221709128968207 -0.47873347978434821 0 -0.021528721160628209 -0.5 0 -0.034221709128968207 -0.47873347978434821 0 -0.051262615931815303 -0.5 0 -0.059523740010860512 -0.4805696461841214 0 -0.046928985533113317 -0.46386793679958732 0 -0.064864185923778739 -0.46315270411222448 0 -0.034221709128968207 -0.47873347978434821 0 -0.059523740010860512 -0.4805696461841214 0 -0.046928985533113317 -0.46386793679958732 0 -0.034221709128968207 -0.47873347978434821 0 -0.059523740010860512 -0.4805696461841214 0 -0.051262615931815303 -0.5 0 -0.026821380350943221 -0.45052187300253432 0 -0.036391946892689743 -0.43794750258320281 0 -0.050515785400197619 -0.44529677996352279 0 -0.026821380350943221 -0.45052187300253432 0 -0.034221709128968207 -0.47873347978434821 0 -0.046928985533113317 -0.46386793679958732 0 -0.026821380350943221 -0.45052187300253432 0 -0.046928985533113317 -0.46386793679958732 0 -0.050515785400197619 -0.44529677996352279 0 -0.046928985533113317 -0.46386793679958732 0 -0.050515785400197619 -0.44529677996352279 0 -0.064864185923778739 -0.46315270411222448 0 -0.050515785400197619 -0.44529677996352279 0 -0.067207280617084753 -0.44732106669938188 0 -0.064864185923778739 -0.46315270411222448 0 -0.050515785400197619 -0.44529677996352279 0 -0.067207280617084753 -0.44732106669938188 0 -0.072027503688391378 -0.4304363902392051 0 -0.067207280617084753 -0.44732106669938188 0 -0.082815891533118816 -0.45534181676778152 0 -0.072027503688391378 -0.4304363902392051 0 -0.067207280617084753 -0.44732106669938188 0 -0.064864185923778739 -0.46315270411222448 0 -0.082815891533118816 -0.45534181676778152 0 -0.064864185923778739 -0.46315270411222448 0 -0.082815891533118816 -0.45534181676778152 0 -0.078868432844485067 -0.47766375640856817 0 -0.082815891533118816 -0.45534181676778152 0 -0.098405376953540707 -0.43777035074814158 0 -0.072027503688391378 -0.4304363902392051 0 -0.059523740010860512 -0.4805696461841214 0 -0.078868432844485067 -0.47766375640856817 0 -0.080996510703002414 -0.50000000000000011 0 -0.059523740010860512 -0.4805696461841214 0 -0.051262615931815303 -0.5 0 -0.080996510703002414 -0.50000000000000011 0 -0.059523740010860512 -0.4805696461841214 0 -0.064864185923778739 -0.46315270411222448 0 -0.078868432844485067 -0.47766375640856817 0 -0.082815891533118816 -0.45534181676778152 0 -0.078868432844485067 -0.47766375640856817 0 -0.097649384782090676 -0.47348966161849648 0 -0.078868432844485067 -0.47766375640856817 0 -0.091101191517426794 -0.4855812854125191 0 -0.097649384782090676 -0.47348966161849648 0 -0.080996510703002414 -0.50000000000000011 0 -0.091101191517426794 -0.4855812854125191 0 -0.106890437740129 -0.49117172362301192 0 -0.078868432844485067 -0.47766375640856817 0 -0.080996510703002414 -0.50000000000000011 0 -0.091101191517426794 -0.4855812854125191 0 -0.080996510703002414 -0.50000000000000011 0 -0.106890437740129 -0.49117172362301192 0 -0.080996510703002414 -0.50000000000000011 0 -0.1052795491262605 -0.5 0 -0.106890437740129 -0.49117172362301192 0 -0.091101191517426794 -0.4855812854125191 0 -0.106890437740129 -0.49117172362301192 0 -0.097649384782090676 -0.47348966161849648 0 -0.106890437740129 -0.49117172362301192 0 -0.097649384782090676 -0.47348966161849648 0 -0.1161667412357628 -0.47599129326682099 0 -0.097649384782090676 -0.47348966161849648 0 -0.1161667412357628 -0.47599129326682099 0 -0.11918173836773351 -0.45845832247928869 0 -0.13278436477725561 -0.4823434472460234 0 -0.106890437740129 -0.49117172362301192 0 -0.1161667412357628 -0.47599129326682099 0 -0.13278436477725561 -0.4823434472460234 0 -0.12956258754951869 -0.5 0 -0.106890437740129 -0.49117172362301192 0 -0.12956258754951869 -0.5 0 -0.1052795491262605 -0.5 0 -0.106890437740129 -0.49117172362301192 0 -0.13278436477725561 -0.4823434472460234 0 -0.106890437740129 -0.49117172362301192 0 -0.098405376953540707 -0.43777035074814158 0 -0.1032934630365307 -0.45295297384024952 0 -0.1184149235461696 -0.43970471758753887 0 -0.082815891533118816 -0.45534181676778152 0 -0.098405376953540707 -0.43777035074814158 0 -0.1032934630365307 -0.45295297384024952 0 -0.082815891533118816 -0.45534181676778152 0 -0.097649384782090676 -0.47348966161849648 0 -0.1032934630365307 -0.45295297384024952 0 -0.097649384782090676 -0.47348966161849648 0 -0.11918173836773351 -0.45845832247928869 0 -0.097649384782090676 -0.47348966161849648 0 -0.1032934630365307 -0.45295297384024952 0 -0.11918173836773351 -0.45845832247928869 0 -0.1272556728232932 -0.47013049556587211 0 -0.1161667412357628 -0.47599129326682099 0 -0.11918173836773351 -0.45845832247928869 0 -0.1032934630365307 -0.45295297384024952 0 -0.11918173836773351 -0.45845832247928869 0 -0.1184149235461696 -0.43970471758753887 0 -0.13370262722300191 -0.42485153358840111 0 -0.1184149235461696 -0.43970471758753887 0 -0.116306788879599 -0.41668109890019722 0 -0.098405376953540707 -0.43777035074814158 0 -0.1184149235461696 -0.43970471758753887 0 -0.116306788879599 -0.41668109890019722 0 -0.098405376953540707 -0.43777035074814158 0 -0.097023176649951706 -0.41709708103231641 0 -0.116306788879599 -0.41668109890019722 0 -0.097023176649951706 -0.41709708103231641 0 -0.116306788879599 -0.41668109890019722 0 -0.1080069522975812 -0.4033851446609884 0 -0.097023176649951706 -0.41709708103231641 0 -0.1080069522975812 -0.4033851446609884 0 -0.093849536080233595 -0.40171885712620059 0 -0.116306788879599 -0.41668109890019722 0 -0.1246151037146196 -0.40215144471962733 0 -0.1080069522975812 -0.4033851446609884 0 -0.13370262722300191 -0.42485153358840111 0 -0.116306788879599 -0.41668109890019722 0 -0.1246151037146196 -0.40215144471962733 0 -0.12942966304821441 -0.38325015625522552 0 -0.1246151037146196 -0.40215144471962733 0 -0.11435095473318441 -0.38971939249289739 0 -0.1246151037146196 -0.40215144471962733 0 -0.11435095473318441 -0.38971939249289739 0 -0.1080069522975812 -0.4033851446609884 0 -0.12942966304821441 -0.38325015625522552 0 -0.1177797586078463 -0.37381446098417098 0 -0.11435095473318441 -0.38971939249289739 0 -0.1177797586078463 -0.37381446098417098 0 -0.11435095473318441 -0.38971939249289739 0 -0.1034929330021967 -0.38313049756236911 0 -0.1034929330021967 -0.38313049756236911 0 -0.09434009405236482 -0.38826803727453157 0 -0.083921239772640238 -0.38396663879978871 0 -0.11435095473318441 -0.38971939249289739 0 -0.1034929330021967 -0.38313049756236911 0 -0.1028080940331122 -0.39324438582339738 0 -0.1034929330021967 -0.38313049756236911 0 -0.09434009405236482 -0.38826803727453157 0 -0.1028080940331122 -0.39324438582339738 0 -0.11435095473318441 -0.38971939249289739 0 -0.1080069522975812 -0.4033851446609884 0 -0.1028080940331122 -0.39324438582339738 0 -0.09434009405236482 -0.38826803727453157 0 -0.1028080940331122 -0.39324438582339738 0 -0.093849536080233595 -0.40171885712620059 0 -0.1080069522975812 -0.4033851446609884 0 -0.1028080940331122 -0.39324438582339738 0 -0.093849536080233595 -0.40171885712620059 0 -0.093849536080233595 -0.40171885712620059 0 -0.084931705096709012 -0.39557720875243713 0 -0.079771973845784508 -0.40808466519098552 0 -0.09434009405236482 -0.38826803727453157 0 -0.093849536080233595 -0.40171885712620059 0 -0.084931705096709012 -0.39557720875243713 0 -0.084931705096709012 -0.39557720875243713 0 -0.083921239772640238 -0.38396663879978871 0 -0.072775681732521871 -0.39584784537067902 0 -0.084931705096709012 -0.39557720875243713 0 -0.072775681732521871 -0.39584784537067902 0 -0.079771973845784508 -0.40808466519098552 0 -0.1034929330021967 -0.38313049756236911 0 -0.083921239772640238 -0.38396663879978871 0 -0.092143069441117886 -0.37288061806212591 0 -0.1034929330021967 -0.38313049756236911 0 -0.083921239772640238 -0.38396663879978871 0 -0.09434009405236482 -0.38826803727453157 0 -0.083921239772640238 -0.38396663879978871 0 -0.09434009405236482 -0.38826803727453157 0 -0.084931705096709012 -0.39557720875243713 0 -0.083921239772640238 -0.38396663879978871 0 -0.076899216694667677 -0.36865863427987439 0 -0.092143069441117886 -0.37288061806212591 0 -0.083921239772640238 -0.38396663879978871 0 -0.076899216694667677 -0.36865863427987439 0 -0.059008804616476777 -0.3736816009534113 0 -0.083921239772640238 -0.38396663879978871 0 -0.059008804616476777 -0.3736816009534113 0 -0.054792379857709787 -0.38521108099946061 0 -0.083921239772640238 -0.38396663879978871 0 -0.054792379857709787 -0.38521108099946061 0 -0.083921239772640238 -0.38396663879978871 0 -0.054792379857709787 -0.38521108099946061 0 -0.083921239772640238 -0.38396663879978871 0 -0.072775681732521871 -0.39584784537067902 0 -0.059008804616476777 -0.3736816009534113 0 -0.083921239772640238 -0.38396663879978871 0 -0.059825167014939118 -0.40722915412089022 0 -0.072775681732521871 -0.39584784537067902 0 -0.079771973845784508 -0.40808466519098552 0 -0.059825167014939118 -0.40722915412089022 0 -0.072027503688391378 -0.4304363902392051 0 -0.079771973845784508 -0.40808466519098552 0 -0.098405376953540707 -0.43777035074814158 0 -0.097023176649951706 -0.41709708103231641 0 -0.072027503688391378 -0.4304363902392051 0 -0.097023176649951706 -0.41709708103231641 0 -0.072027503688391378 -0.4304363902392051 0 -0.079771973845784508 -0.40808466519098552 0 -0.097023176649951706 -0.41709708103231641 0 -0.093849536080233595 -0.40171885712620059 0 -0.079771973845784508 -0.40808466519098552 0 -0.080332479827855185 -0.089132189148723034 0 -0.087659787804267197 -0.1053579589647711 0 -0.098653139325870498 -0.078072759780639212 0 -0.080332479827855185 -0.089132189148723034 0 -0.08392236851191634 -0.073343044769479643 0 -0.098653139325870498 -0.078072759780639212 0 -0.087659787804267197 -0.1053579589647711 0 -0.098653139325870498 -0.078072759780639212 0 -0.093078549589984544 -0.062615985124124363 0 -0.08392236851191634 -0.073343044769479643 0 -0.074194079442307964 -0.055813170303027348 0 -0.093078549589984544 -0.062615985124124363 0 -0.08392236851191634 -0.073343044769479643 0 -0.098653139325870498 -0.078072759780639212 0 -0.069502852475768331 -0.077808897141633637 0 -0.074194079442307964 -0.055813170303027348 0 -0.056896828677456698 -0.064957726782933892 0 -0.08392236851191634 -0.073343044769479643 0 -0.069502852475768331 -0.077808897141633637 0 -0.074194079442307964 -0.055813170303027348 0 -0.069502852475768331 -0.077808897141633637 0 -0.074194079442307964 -0.055813170303027348 0 -0.080332479827855185 -0.089132189148723034 0 -0.08392236851191634 -0.073343044769479643 0 -0.069502852475768331 -0.077808897141633637 0 -0.080332479827855185 -0.089132189148723034 0 -0.069502852475768331 -0.077808897141633637 0 -0.064978262980951509 -0.095744309556548293 0 -0.069502852475768331 -0.077808897141633637 0 -0.064978262980951509 -0.095744309556548293 0 -0.053466751150831528 -0.085728027791416223 0 -0.064978262980951509 -0.095744309556548293 0 -0.069413139924847295 -0.1120169614824971 0 -0.055973796613101583 -0.11154457769597879 0 -0.064978262980951509 -0.095744309556548293 0 -0.075595917634480286 -0.1005628547881349 0 -0.069413139924847295 -0.1120169614824971 0 -0.075595917634480286 -0.1005628547881349 0 -0.069413139924847295 -0.1120169614824971 0 -0.087659787804267197 -0.1053579589647711 0 -0.080332479827855185 -0.089132189148723034 0 -0.064978262980951509 -0.095744309556548293 0 -0.075595917634480286 -0.1005628547881349 0 -0.069413139924847295 -0.1120169614824971 0 -0.072499038737136423 -0.12336773177227039 0 -0.087659787804267197 -0.1053579589647711 0 -0.063965210873385206 -0.121372291062271 0 -0.069413139924847295 -0.1120169614824971 0 -0.072499038737136423 -0.12336773177227039 0 -0.063965210873385206 -0.121372291062271 0 -0.069413139924847295 -0.1120169614824971 0 -0.055973796613101583 -0.11154457769597879 0 -0.093729858762440374 -0.11631984424608149 0 -0.087659787804267197 -0.1053579589647711 0 -0.076666436282660663 -0.13264315814890179 0 -0.087659787804267197 -0.1053579589647711 0 -0.076666436282660663 -0.13264315814890179 0 -0.072499038737136423 -0.12336773177227039 0 -0.087659787804267197 -0.1053579589647711 0 -0.076666436282660663 -0.13264315814890179 0 -0.093729858762440374 -0.11631984424608149 0 -0.076666436282660663 -0.13264315814890179 0 -0.096101065320712109 -0.1258911452360538 0 -0.080332479827855185 -0.089132189148723034 0 -0.075595917634480286 -0.1005628547881349 0 -0.087659787804267197 -0.1053579589647711 0 -0.087659787804267197 -0.1053579589647711 0 -0.1004265812101162 -0.1089643198262948 0 -0.1006655882856296 -0.09175432640411825 0 -0.1004265812101162 -0.1089643198262948 0 -0.11487650466180439 -0.1160490357388697 0 -0.1006655882856296 -0.09175432640411825 0 -0.11487650466180439 -0.1160490357388697 0 -0.1117238545323833 -0.101270295352793 0 -0.1006655882856296 -0.09175432640411825 0 -0.11487650466180439 -0.1160490357388697 0 -0.1006655882856296 -0.09175432640411825 0 -0.10451846741591179 -0.1170766955469076 0 -0.11649007265168369 -0.1188075605425003 0 -0.096101065320712109 -0.1258911452360538 0 -0.11649007265168369 -0.1188075605425003 0 -0.096101065320712109 -0.1258911452360538 0 -0.093729858762440374 -0.11631984424608149 0 -0.10451846741591179 -0.1170766955469076 0 -0.096101065320712109 -0.1258911452360538 0 -0.093729858762440374 -0.11631984424608149 0 -0.087659787804267197 -0.1053579589647711 0 -0.1004265812101162 -0.1089643198262948 0 -0.093729858762440374 -0.11631984424608149 0 -0.1004265812101162 -0.1089643198262948 0 -0.10451846741591179 -0.1170766955469076 0 -0.1004265812101162 -0.1089643198262948 0 -0.10451846741591179 -0.1170766955469076 0 -0.11487650466180439 -0.1160490357388697 0 -0.10451846741591179 -0.1170766955469076 0 -0.11649007265168369 -0.1188075605425003 0 -0.11487650466180439 -0.1160490357388697 0 -0.11649007265168369 -0.1188075605425003 0 -0.11487650466180439 -0.1160490357388697 0 -0.11649007265168369 -0.1188075605425003 0 -0.11487650466180439 -0.1160490357388697 0 -0.12599987765418549 -0.11550364740632391 0 -0.11487650466180439 -0.1160490357388697 0 -0.12182531397588869 -0.1044134543712442 0 -0.12599987765418549 -0.11550364740632391 0 -0.11649007265168369 -0.1188075605425003 0 -0.12599987765418549 -0.11550364740632391 0 -0.11649007265168369 -0.1188075605425003 0 -0.12599987765418549 -0.11550364740632391 0 -0.1252704192176744 -0.1172440966648565 0 -0.11487650466180439 -0.1160490357388697 0 -0.1117238545323833 -0.101270295352793 0 -0.12182531397588869 -0.1044134543712442 0 -0.11487650466180439 -0.1160490357388697 0 -0.1117238545323833 -0.101270295352793 0 -0.1117238545323833 -0.101270295352793 0 -0.12182531397588869 -0.1044134543712442 0 -0.12067370026095731 -0.092005587950159118 0 -0.1117238545323833 -0.101270295352793 0 -0.12067370026095731 -0.092005587950159118 0 -0.1096737611153919 -0.085603154438093937 0 -0.12067370026095731 -0.092005587950159118 0 -0.1179915177927765 -0.081714148456293267 0 -0.12737817104852411 -0.080741270387750683 0 -0.1179915177927765 -0.081714148456293267 0 -0.1096737611153919 -0.085603154438093937 0 -0.1121838893690176 -0.075324773267663084 0 -0.12067370026095731 -0.092005587950159118 0 -0.1179915177927765 -0.081714148456293267 0 -0.1096737611153919 -0.085603154438093937 0 -0.087659787804267197 -0.1053579589647711 0 -0.1006655882856296 -0.09175432640411825 0 -0.098653139325870498 -0.078072759780639212 0 -0.1117238545323833 -0.101270295352793 0 -0.1096737611153919 -0.085603154438093937 0 -0.1006655882856296 -0.09175432640411825 0 -0.1096737611153919 -0.085603154438093937 0 -0.098653139325870498 -0.078072759780639212 0 -0.1121838893690176 -0.075324773267663084 0 -0.1096737611153919 -0.085603154438093937 0 -0.1006655882856296 -0.09175432640411825 0 -0.098653139325870498 -0.078072759780639212 0 -0.093078549589984544 -0.062615985124124363 0 -0.098653139325870498 -0.078072759780639212 0 -0.10811729135418539 -0.065091756711675844 0 -0.098653139325870498 -0.078072759780639212 0 -0.10811729135418539 -0.065091756711675844 0 -0.1121838893690176 -0.075324773267663084 0 -0.10811729135418539 -0.065091756711675844 0 -0.1121838893690176 -0.075324773267663084 0 -0.1232756904161693 -0.070411489051666373 0 -0.1179915177927765 -0.081714148456293267 0 -0.1121838893690176 -0.075324773267663084 0 -0.1232756904161693 -0.070411489051666373 0 -0.1179915177927765 -0.081714148456293267 0 -0.1232756904161693 -0.070411489051666373 0 -0.12737817104852411 -0.080741270387750683 0 -0.10811729135418539 -0.065091756711675844 0 -0.1232756904161693 -0.070411489051666373 0 -0.12131955324210091 -0.059181462630683621 0 -0.12131955324210091 -0.059181462630683621 0 -0.1197314047957487 -0.044466417495601512 0 -0.1050545945384474 -0.053665832172193451 0 -0.10811729135418539 -0.065091756711675844 0 -0.12131955324210091 -0.059181462630683621 0 -0.1050545945384474 -0.053665832172193451 0 -0.12131955324210091 -0.059181462630683621 0 -0.1197314047957487 -0.044466417495601512 0 -0.1315211872564446 -0.050314657740016588 0 -0.1197314047957487 -0.044466417495601512 0 -0.1068389650378473 -0.041887213400145028 0 -0.1185057960264221 -0.028529017004706999 0 -0.1197314047957487 -0.044466417495601512 0 -0.1185057960264221 -0.028529017004706999 0 -0.13361245343545181 -0.030305793086055629 0 -0.1197314047957487 -0.044466417495601512 0 -0.1068389650378473 -0.041887213400145028 0 -0.1050545945384474 -0.053665832172193451 0 -0.1068389650378473 -0.041887213400145028 0 -0.093783258566811134 -0.025165556691727101 0 -0.092485611966423034 -0.037114626304880938 0 -0.1068389650378473 -0.041887213400145028 0 -0.090434917852185284 -0.047588291663230448 0 -0.092485611966423034 -0.037114626304880938 0 -0.093078549589984544 -0.062615985124124363 0 -0.1050545945384474 -0.053665832172193451 0 -0.090434917852185284 -0.047588291663230448 0 -0.1068389650378473 -0.041887213400145028 0 -0.1050545945384474 -0.053665832172193451 0 -0.090434917852185284 -0.047588291663230448 0 -0.093078549589984544 -0.062615985124124363 0 -0.10811729135418539 -0.065091756711675844 0 -0.1050545945384474 -0.053665832172193451 0 -0.1236122261121546 -0.0078425818954372464 0 -0.10868121072477301 -0.016513669919031759 0 -0.1099986790197032 0.001632030897992919 0 -0.1236122261121546 -0.0078425818954372464 0 -0.10868121072477301 -0.016513669919031759 0 -0.1068389650378473 -0.041887213400145028 0 -0.1185057960264221 -0.028529017004706999 0 -0.10868121072477301 -0.016513669919031759 0 -0.1236122261121546 -0.0078425818954372464 0 -0.1185057960264221 -0.028529017004706999 0 -0.10868121072477301 -0.016513669919031759 0 -0.1068389650378473 -0.041887213400145028 0 -0.104837062895502 -0.02019526763349536 0 -0.10868121072477301 -0.016513669919031759 0 -0.1068389650378473 -0.041887213400145028 0 -0.10868121072477301 -0.016513669919031759 0 -0.1068389650378473 -0.041887213400145028 0 -0.093783258566811134 -0.025165556691727101 0 -0.104837062895502 -0.02019526763349536 0 -0.093783258566811134 -0.025165556691727101 0 -0.10868121072477301 -0.016513669919031759 0 -0.093783258566811134 -0.025165556691727101 0 -0.10868121072477301 -0.016513669919031759 0 -0.095747033840698895 -0.01524308727968717 0 -0.093783258566811134 -0.025165556691727101 0 -0.104837062895502 -0.02019526763349536 0 -0.10868121072477301 -0.016513669919031759 0 -0.104837062895502 -0.02019526763349536 0 -0.10868121072477301 -0.016513669919031759 0 -0.10868121072477301 -0.016513669919031759 0 -0.1099986790197032 0.001632030897992919 0 -0.10868121072477301 -0.016513669919031759 0 -0.097318817554363779 -0.0057286893867275063 0 -0.1099986790197032 0.001632030897992919 0 -0.10868121072477301 -0.016513669919031759 0 -0.095747033840698895 -0.01524308727968717 0 -0.097318817554363779 -0.0057286893867275063 0 -0.097318817554363779 -0.0057286893867275063 0 -0.083204848516847923 -0.01356443312126232 0 -0.087524390624848222 0.006688577221896419 0 -0.083204848516847923 -0.01356443312126232 0 -0.087524390624848222 0.006688577221896419 0 -0.083204848516847923 -0.01356443312126232 0 -0.065966226425225663 -0.0060274066981548767 0 -0.087524390624848222 0.006688577221896419 0 -0.095747033840698895 -0.01524308727968717 0 -0.097318817554363779 -0.0057286893867275063 0 -0.083204848516847923 -0.01356443312126232 0 -0.083204848516847923 -0.01356443312126232 0 -0.07434952191593272 -0.025061702399879319 0 -0.078885306408848499 -0.033817443464421199 0 -0.093783258566811134 -0.025165556691727101 0 -0.083204848516847923 -0.01356443312126232 0 -0.078885306408848499 -0.033817443464421199 0 -0.083204848516847923 -0.01356443312126232 0 -0.078885306408848499 -0.033817443464421199 0 -0.093783258566811134 -0.025165556691727101 0 -0.095747033840698895 -0.01524308727968717 0 -0.083204848516847923 -0.01356443312126232 0 -0.093783258566811134 -0.025165556691727101 0 -0.078885306408848499 -0.033817443464421199 0 -0.07434952191593272 -0.025061702399879319 0 -0.065966226425225663 -0.0060274066981548767 0 -0.069170669720302794 -0.035546986895945307 0 -0.065966226425225663 -0.0060274066981548767 0 -0.069170669720302794 -0.035546986895945307 0 -0.060499849025326763 -0.027113091598361162 0 -0.065966226425225663 -0.0060274066981548767 0 -0.069170669720302794 -0.035546986895945307 0 -0.083204848516847923 -0.01356443312126232 0 -0.07434952191593272 -0.025061702399879319 0 -0.065966226425225663 -0.0060274066981548767 0 -0.093078549589984544 -0.062615985124124363 0 -0.090434917852185284 -0.047588291663230448 0 -0.074194079442307964 -0.055813170303027348 0 -0.090434917852185284 -0.047588291663230448 0 -0.078885306408848499 -0.033817443464421199 0 -0.074194079442307964 -0.055813170303027348 0 -0.090434917852185284 -0.047588291663230448 0 -0.092485611966423034 -0.037114626304880938 0 -0.078885306408848499 -0.033817443464421199 0 -0.093783258566811134 -0.025165556691727101 0 -0.092485611966423034 -0.037114626304880938 0 -0.078885306408848499 -0.033817443464421199 0 -0.078885306408848499 -0.033817443464421199 0 -0.074194079442307964 -0.055813170303027348 0 -0.070330568719734213 -0.04601515277555971 0 -0.074520558508438778 -0.036352241819612927 0 -0.069170669720302794 -0.035546986895945307 0 -0.078885306408848499 -0.033817443464421199 0 -0.070330568719734213 -0.04601515277555971 0 -0.074194079442307964 -0.055813170303027348 0 -0.078885306408848499 -0.033817443464421199 0 -0.070330568719734213 -0.04601515277555971 0 -0.074520558508438778 -0.036352241819612927 0 -0.07434952191593272 -0.025061702399879319 0 -0.074520558508438778 -0.036352241819612927 0 -0.069170669720302794 -0.035546986895945307 0 -0.07434952191593272 -0.025061702399879319 0 -0.078885306408848499 -0.033817443464421199 0 -0.074520558508438778 -0.036352241819612927 0 -0.078885306408848499 -0.033817443464421199 0 -0.074520558508438778 -0.036352241819612927 0 -0.069170669720302794 -0.035546986895945307 0 -0.063362765034716981 -0.039125320738808887 0 -0.060499849025326763 -0.027113091598361162 0 -0.070330568719734213 -0.04601515277555971 0 -0.069170669720302794 -0.035546986895945307 0 -0.063362765034716981 -0.039125320738808887 0 -0.070330568719734213 -0.04601515277555971 0 -0.063362765034716981 -0.039125320738808887 0 -0.059858302453952031 -0.048952151576379901 0 -0.070330568719734213 -0.04601515277555971 0 -0.074194079442307964 -0.055813170303027348 0 -0.059858302453952031 -0.048952151576379901 0 -0.074194079442307964 -0.055813170303027348 0 -0.059858302453952031 -0.048952151576379901 0 -0.056896828677456698 -0.064957726782933892 0 -0.059858302453952031 -0.048952151576379901 0 -0.044923942794737923 -0.054691691027005551 0 -0.056896828677456698 -0.064957726782933892 0 -0.059858302453952031 -0.048952151576379901 0 -0.049734296148808359 -0.042485020192698987 0 -0.044923942794737923 -0.054691691027005551 0 -0.059858302453952031 -0.048952151576379901 0 -0.056954435254269083 -0.037999220847798339 0 -0.049734296148808359 -0.042485020192698987 0 -0.063362765034716981 -0.039125320738808887 0 -0.059858302453952031 -0.048952151576379901 0 -0.056954435254269083 -0.037999220847798339 0 -0.063362765034716981 -0.039125320738808887 0 -0.056954435254269083 -0.037999220847798339 0 -0.060499849025326763 -0.027113091598361162 0 -0.056954435254269083 -0.037999220847798339 0 -0.047200384798774982 -0.033276672805742737 0 -0.049734296148808359 -0.042485020192698987 0 -0.056954435254269083 -0.037999220847798339 0 -0.047200384798774982 -0.033276672805742737 0 -0.052646608023139009 -0.028133593701314161 0 -0.049734296148808359 -0.042485020192698987 0 -0.038309454021287423 -0.037485304465473157 0 -0.044923942794737923 -0.054691691027005551 0 -0.047200384798774982 -0.033276672805742737 0 -0.038309454021287423 -0.037485304465473157 0 -0.041340635405623813 -0.023634308371219701 0 -0.047200384798774982 -0.033276672805742737 0 -0.049734296148808359 -0.042485020192698987 0 -0.038309454021287423 -0.037485304465473157 0 -0.038309454021287423 -0.037485304465473157 0 -0.03208775864781041 -0.029071100487059381 0 -0.02346135141751398 -0.035355058972579741 0 -0.038309454021287423 -0.037485304465473157 0 -0.044923942794737923 -0.054691691027005551 0 -0.02964595896144296 -0.052602220053598318 0 -0.044923942794737923 -0.054691691027005551 0 -0.02964595896144296 -0.052602220053598318 0 -0.02933827121860667 -0.069671405985324328 0 -0.065966226425225663 -0.0060274066981548767 0 -0.052851520708108592 -0.013709279578128279 0 -0.060499849025326763 -0.027113091598361162 0 -0.065966226425225663 -0.0060274066981548767 0 -0.052851520708108592 -0.013709279578128279 0 -0.041285176168578859 0.002941795093874656 0 -0.052851520708108592 -0.013709279578128279 0 -0.052646608023139009 -0.028133593701314161 0 -0.041340635405623813 -0.023634308371219701 0 -0.052851520708108592 -0.013709279578128279 0 -0.060499849025326763 -0.027113091598361162 0 -0.052646608023139009 -0.028133593701314161 0 -0.056954435254269083 -0.037999220847798339 0 -0.060499849025326763 -0.027113091598361162 0 -0.052646608023139009 -0.028133593701314161 0 -0.047200384798774982 -0.033276672805742737 0 -0.052646608023139009 -0.028133593701314161 0 -0.041340635405623813 -0.023634308371219701 0 -0.041340635405623813 -0.023634308371219701 0 -0.03208775864781041 -0.029071100487059381 0 -0.025239593746816429 -0.019809730138964948 0 -0.041340635405623813 -0.023634308371219701 0 -0.035761471768298317 -0.01187809368403442 0 -0.025239593746816429 -0.019809730138964948 0 -0.052851520708108592 -0.013709279578128279 0 -0.041340635405623813 -0.023634308371219701 0 -0.035761471768298317 -0.01187809368403442 0 -0.038309454021287423 -0.037485304465473157 0 -0.041340635405623813 -0.023634308371219701 0 -0.03208775864781041 -0.029071100487059381 0 -0.052851520708108592 -0.013709279578128279 0 -0.035761471768298317 -0.01187809368403442 0 -0.041285176168578859 0.002941795093874656 0 -0.035761471768298317 -0.01187809368403442 0 -0.018090432812363919 -0.0051789454257338127 0 -0.041285176168578859 0.002941795093874656 0 -0.035761471768298317 -0.01187809368403442 0 -0.018090432812363919 -0.0051789454257338127 0 -0.025239593746816429 -0.019809730138964948 0 -0.018090432812363919 -0.0051789454257338127 0 -0.025239593746816429 -0.019809730138964948 0 -0.013061188317162169 -0.01291647294893521 0 -0.025239593746816429 -0.019809730138964948 0 -0.011210459174411659 -0.020702551241823321 0 -0.013061188317162169 -0.01291647294893521 0 -0.03208775864781041 -0.029071100487059381 0 -0.025239593746816429 -0.019809730138964948 0 -0.02346135141751398 -0.035355058972579741 0 -0.025239593746816429 -0.019809730138964948 0 -0.011210459174411659 -0.020702551241823321 0 -0.02346135141751398 -0.035355058972579741 0 -0.011210459174411659 -0.020702551241823321 0 -0.02346135141751398 -0.035355058972579741 0 -0.003476286599935095 -0.036271506326322138 0 -0.011210459174411659 -0.020702551241823321 0 -0.003476286599935095 -0.036271506326322138 0 0.0014199230119024339 -0.021574900853890581 0 -0.011210459174411659 -0.020702551241823321 0 0.0006213327713558641 -0.0089396406014967747 0 0.0014199230119024339 -0.021574900853890581 0 -0.001488115343110989 -0.0087397640735148233 0 -0.01693898921702304 0.0117618500821222 0 0.002394805847480138 -0.0071764921779012506 0 -0.018090432812363919 -0.0051789454257338127 0 -0.001488115343110989 -0.0087397640735148233 0 -0.01693898921702304 0.0117618500821222 0 -0.018090432812363919 -0.0051789454257338127 0 -0.013061188317162169 -0.01291647294893521 0 -0.001488115343110989 -0.0087397640735148233 0 -0.011210459174411659 -0.020702551241823321 0 -0.013061188317162169 -0.01291647294893521 0 -0.001488115343110989 -0.0087397640735148233 0 -0.011210459174411659 -0.020702551241823321 0 -0.001488115343110989 -0.0087397640735148233 0 0.0006213327713558641 -0.0089396406014967747 0 -0.011210459174411659 -0.020702551241823321 0 0.0006213327713558641 -0.0089396406014967747 0 -0.001488115343110989 -0.0087397640735148233 0 0.0006213327713558641 -0.0089396406014967747 0 -0.02964595896144296 -0.052602220053598318 0 -0.01526094355706222 -0.064007872731860899 0 -0.02933827121860667 -0.069671405985324328 0 -0.02964595896144296 -0.052602220053598318 0 -0.01441383554066036 -0.048546622235137428 0 -0.01526094355706222 -0.064007872731860899 0 -0.02964595896144296 -0.052602220053598318 0 -0.02346135141751398 -0.035355058972579741 0 -0.01441383554066036 -0.048546622235137428 0 -0.038309454021287423 -0.037485304465473157 0 -0.02964595896144296 -0.052602220053598318 0 -0.02346135141751398 -0.035355058972579741 0 -0.003476286599935095 -0.036271506326322138 0 -0.00022463716734756899 -0.054496453091326037 0 -0.01441383554066036 -0.048546622235137428 0 -0.02346135141751398 -0.035355058972579741 0 -0.003476286599935095 -0.036271506326322138 0 -0.01441383554066036 -0.048546622235137428 0 -0.00022463716734756899 -0.054496453091326037 0 -0.01441383554066036 -0.048546622235137428 0 -0.01526094355706222 -0.064007872731860899 0 -0.00022463716734756899 -0.054496453091326037 0 -0.01526094355706222 -0.064007872731860899 0 0.003886405537072308 -0.074985287574065307 0 -0.01526094355706222 -0.064007872731860899 0 -0.020242120847587721 -0.083511357097035596 0 0.003886405537072308 -0.074985287574065307 0 -0.0041979068999104599 -0.092692987180200151 0 -0.020242120847587721 -0.083511357097035596 0 0.003886405537072308 -0.074985287574065307 0 -0.020242120847587721 -0.083511357097035596 0 -0.037149979327061843 -0.086545702414286968 0 -0.027814197350204149 -0.1002222595639333 0 -0.020242120847587721 -0.083511357097035596 0 -0.02933827121860667 -0.069671405985324328 0 -0.037149979327061843 -0.086545702414286968 0 -0.0041979068999104599 -0.092692987180200151 0 -0.020242120847587721 -0.083511357097035596 0 -0.027814197350204149 -0.1002222595639333 0 -0.01526094355706222 -0.064007872731860899 0 -0.020242120847587721 -0.083511357097035596 0 -0.02933827121860667 -0.069671405985324328 0 -0.044923942794737923 -0.054691691027005551 0 -0.02933827121860667 -0.069671405985324328 0 -0.043795121567553899 -0.073512069705660321 0 -0.02933827121860667 -0.069671405985324328 0 -0.043795121567553899 -0.073512069705660321 0 -0.037149979327061843 -0.086545702414286968 0 -0.043795121567553899 -0.073512069705660321 0 -0.037149979327061843 -0.086545702414286968 0 -0.053466751150831528 -0.085728027791416223 0 -0.037149979327061843 -0.086545702414286968 0 -0.053466751150831528 -0.085728027791416223 0 -0.046895924631556341 -0.099640457450003272 0 -0.064978262980951509 -0.095744309556548293 0 -0.053466751150831528 -0.085728027791416223 0 -0.046895924631556341 -0.099640457450003272 0 -0.069502852475768331 -0.077808897141633637 0 -0.053466751150831528 -0.085728027791416223 0 -0.056896828677456698 -0.064957726782933892 0 -0.043795121567553899 -0.073512069705660321 0 -0.053466751150831528 -0.085728027791416223 0 -0.056896828677456698 -0.064957726782933892 0 -0.044923942794737923 -0.054691691027005551 0 -0.043795121567553899 -0.073512069705660321 0 -0.056896828677456698 -0.064957726782933892 0 -0.055973796613101583 -0.11154457769597879 0 -0.041972484009239593 -0.11125691353498 0 -0.051469099840166933 -0.12560748285855791 0 -0.063965210873385206 -0.121372291062271 0 -0.055973796613101583 -0.11154457769597879 0 -0.051469099840166933 -0.12560748285855791 0 -0.064978262980951509 -0.095744309556548293 0 -0.055973796613101583 -0.11154457769597879 0 -0.046895924631556341 -0.099640457450003272 0 -0.055973796613101583 -0.11154457769597879 0 -0.046895924631556341 -0.099640457450003272 0 -0.041972484009239593 -0.11125691353498 0 -0.046895924631556341 -0.099640457450003272 0 -0.041972484009239593 -0.11125691353498 0 -0.027814197350204149 -0.1002222595639333 0 -0.037149979327061843 -0.086545702414286968 0 -0.046895924631556341 -0.099640457450003272 0 -0.027814197350204149 -0.1002222595639333 0 -0.027958050649480481 -0.11798595469309241 0 -0.051469099840166933 -0.12560748285855791 0 -0.041972484009239593 -0.11125691353498 0 -0.027958050649480481 -0.11798595469309241 0 -0.051469099840166933 -0.12560748285855791 0 -0.041972484009239593 -0.11125691353498 0 -0.027958050649480481 -0.11798595469309241 0 -0.027814197350204149 -0.1002222595639333 0 -0.027958050649480481 -0.11798595469309241 0 -0.051469099840166933 -0.12560748285855791 0 -0.035009396245865847 -0.13138946507283039 0 -0.027958050649480481 -0.11798595469309241 0 -0.027814197350204149 -0.1002222595639333 0 -0.004447001458793981 -0.1103644265276268 0 -0.027958050649480481 -0.11798595469309241 0 -0.004447001458793981 -0.1103644265276268 0 -0.0041979068999104599 -0.092692987180200151 0 -0.027814197350204149 -0.1002222595639333 0 -0.004447001458793981 -0.1103644265276268 0 -0.027958050649480481 -0.11798595469309241 0 -0.004447001458793981 -0.1103644265276268 0 -0.0095835093286126792 -0.13067357323387099 0 -0.0095835093286126792 -0.13067357323387099 0 -0.02380622872257708 -0.13863305153198521 0 -0.011420010772425999 -0.14358906931216731 0 -0.0095835093286126792 -0.13067357323387099 0 -0.02380622872257708 -0.13863305153198521 0 -0.035009396245865847 -0.13138946507283039 0 -0.0095835093286126792 -0.13067357323387099 0 -0.035009396245865847 -0.13138946507283039 0 -0.027958050649480481 -0.11798595469309241 0 -0.0095835093286126792 -0.13067357323387099 0 -0.035009396245865847 -0.13138946507283039 0 -0.02380622872257708 -0.13863305153198521 0 -0.02156928320199206 -0.15178510772423359 0 -0.048274716116422638 -0.14250705937413011 0 -0.02380622872257708 -0.13863305153198521 0 -0.02156928320199206 -0.15178510772423359 0 -0.011420010772425999 -0.14358906931216731 0 -0.02156928320199206 -0.15178510772423359 0 0.0051361497124387812 -0.16106315607433669 0 0.00014451492137988051 -0.1496259991592768 0 -0.0095835093286126792 -0.13067357323387099 0 -0.011420010772425999 -0.14358906931216731 0 0.00014451492137988051 -0.1496259991592768 0 -0.02156928320199206 -0.15178510772423359 0 -0.011420010772425999 -0.14358906931216731 0 0.00014451492137988051 -0.1496259991592768 0 -0.011473423231508561 -0.16625464439919799 0 -0.001198061652550745 -0.17280609881212911 0 0.0051361497124387812 -0.16106315607433669 0 -0.011473423231508561 -0.16625464439919799 0 0.0051361497124387812 -0.16106315607433669 0 -0.02156928320199206 -0.15178510772423359 0 -0.011473423231508561 -0.16625464439919799 0 0.0051361497124387812 -0.16106315607433669 0 -0.02156928320199206 -0.15178510772423359 0 0.0051361497124387812 -0.16106315607433669 0 -0.011473423231508561 -0.16625464439919799 0 -0.011684220618858611 -0.1828185141711022 0 -0.001198061652550745 -0.17280609881212911 0 -0.011684220618858611 -0.1828185141711022 0 -0.001198061652550745 -0.17280609881212911 0 0.0039750345954989988 -0.18651425943902311 0 -0.011684220618858611 -0.1828185141711022 0 -0.028082996175455729 -0.1714461327240597 0 -0.02834353692262364 -0.19660149069868879 0 -0.011473423231508561 -0.16625464439919799 0 -0.011684220618858611 -0.1828185141711022 0 -0.028082996175455729 -0.1714461327240597 0 -0.028082996175455729 -0.1714461327240597 0 -0.035076942590977253 -0.17251068978070239 0 -0.02834353692262364 -0.19660149069868879 0 -0.011473423231508561 -0.16625464439919799 0 -0.028082996175455729 -0.1714461327240597 0 -0.011473423231508561 -0.16625464439919799 0 -0.022251169661310358 -0.16246870980996381 0 -0.028082996175455729 -0.1714461327240597 0 -0.02156928320199206 -0.15178510772423359 0 -0.011473423231508561 -0.16625464439919799 0 -0.022251169661310358 -0.16246870980996381 0 -0.022251169661310358 -0.16246870980996381 0 -0.028082996175455729 -0.1714461327240597 0 -0.031809345178707003 -0.1640816166355436 0 -0.02156928320199206 -0.15178510772423359 0 -0.022251169661310358 -0.16246870980996381 0 -0.031809345178707003 -0.1640816166355436 0 -0.02156928320199206 -0.15178510772423359 0 -0.031809345178707003 -0.1640816166355436 0 -0.040578875443760723 -0.15702635465982459 0 -0.031809345178707003 -0.1640816166355436 0 -0.043296803998745907 -0.16925270511447771 0 -0.040578875443760723 -0.15702635465982459 0 -0.031809345178707003 -0.1640816166355436 0 -0.043296803998745907 -0.16925270511447771 0 -0.035076942590977253 -0.17251068978070239 0 -0.028082996175455729 -0.1714461327240597 0 -0.031809345178707003 -0.1640816166355436 0 -0.035076942590977253 -0.17251068978070239 0 -0.043296803998745907 -0.16925270511447771 0 -0.040578875443760723 -0.15702635465982459 0 -0.04778301199147586 -0.16221110159835439 0 -0.035076942590977253 -0.17251068978070239 0 -0.045101912546314182 -0.17781348514508699 0 -0.045384173352602211 -0.1896086705553881 0 -0.035076942590977253 -0.17251068978070239 0 -0.02834353692262364 -0.19660149069868879 0 -0.035076942590977253 -0.17251068978070239 0 -0.02834353692262364 -0.19660149069868879 0 -0.045384173352602211 -0.1896086705553881 0 -0.043296803998745907 -0.16925270511447771 0 -0.035076942590977253 -0.17251068978070239 0 -0.045101912546314182 -0.17781348514508699 0 -0.043296803998745907 -0.16925270511447771 0 -0.045101912546314182 -0.17781348514508699 0 -0.050116399936897628 -0.17439367801967379 0 -0.053826302631423108 -0.18719098183538219 0 -0.0513777658433901 -0.18144884671813011 0 -0.045384173352602211 -0.1896086705553881 0 -0.045101912546314182 -0.17781348514508699 0 -0.0513777658433901 -0.18144884671813011 0 -0.045384173352602211 -0.1896086705553881 0 -0.053826302631423108 -0.18719098183538219 0 -0.0513777658433901 -0.18144884671813011 0 -0.05724186851000123 -0.18306086139846869 0 -0.050116399936897628 -0.17439367801967379 0 -0.056462731779267583 -0.17707926816758701 0 -0.053733136905861317 -0.1679726515631198 0 -0.0513777658433901 -0.18144884671813011 0 -0.050116399936897628 -0.17439367801967379 0 -0.056462731779267583 -0.17707926816758701 0 -0.045101912546314182 -0.17781348514508699 0 -0.0513777658433901 -0.18144884671813011 0 -0.050116399936897628 -0.17439367801967379 0 -0.061772453938110018 -0.1722676601875073 0 -0.056462731779267583 -0.17707926816758701 0 -0.064464826801710964 -0.18158017590305259 0 -0.061772453938110018 -0.1722676601875073 0 -0.056462731779267583 -0.17707926816758701 0 -0.053733136905861317 -0.1679726515631198 0 -0.056462731779267583 -0.17707926816758701 0 -0.05724186851000123 -0.18306086139846869 0 -0.064464826801710964 -0.18158017590305259 0 -0.0513777658433901 -0.18144884671813011 0 -0.056462731779267583 -0.17707926816758701 0 -0.05724186851000123 -0.18306086139846869 0 -0.05724186851000123 -0.18306086139846869 0 -0.060077715494214402 -0.1880050343681916 0 -0.064464826801710964 -0.18158017590305259 0 -0.053826302631423108 -0.18719098183538219 0 -0.05724186851000123 -0.18306086139846869 0 -0.060077715494214402 -0.1880050343681916 0 -0.04778301199147586 -0.16221110159835439 0 -0.053733136905861317 -0.1679726515631198 0 -0.054318116428342743 -0.1550095253668563 0 -0.040578875443760723 -0.15702635465982459 0 -0.04778301199147586 -0.16221110159835439 0 -0.054318116428342743 -0.1550095253668563 0 -0.043296803998745907 -0.16925270511447771 0 -0.04778301199147586 -0.16221110159835439 0 -0.053733136905861317 -0.1679726515631198 0 -0.043296803998745907 -0.16925270511447771 0 -0.050116399936897628 -0.17439367801967379 0 -0.053733136905861317 -0.1679726515631198 0 -0.061772453938110018 -0.1722676601875073 0 -0.053733136905861317 -0.1679726515631198 0 -0.064150653413557149 -0.1630994165534029 0 -0.053733136905861317 -0.1679726515631198 0 -0.054318116428342743 -0.1550095253668563 0 -0.064150653413557149 -0.1630994165534029 0 -0.054318116428342743 -0.1550095253668563 0 -0.06193597557114254 -0.14487761168208729 0 -0.07017092070895159 -0.14876485096333639 0 -0.040578875443760723 -0.15702635465982459 0 -0.054318116428342743 -0.1550095253668563 0 -0.048274716116422638 -0.14250705937413011 0 -0.054318116428342743 -0.1550095253668563 0 -0.048274716116422638 -0.14250705937413011 0 -0.06193597557114254 -0.14487761168208729 0 -0.048274716116422638 -0.14250705937413011 0 -0.06193597557114254 -0.14487761168208729 0 -0.074980149030852788 -0.13322901102402521 0 -0.048274716116422638 -0.14250705937413011 0 -0.074980149030852788 -0.13322901102402521 0 -0.048274716116422638 -0.14250705937413011 0 -0.060435283163119087 -0.13210535691178979 0 -0.035009396245865847 -0.13138946507283039 0 -0.060435283163119087 -0.13210535691178979 0 -0.051469099840166933 -0.12560748285855791 0 -0.035009396245865847 -0.13138946507283039 0 -0.060435283163119087 -0.13210535691178979 0 -0.051469099840166933 -0.12560748285855791 0 -0.074980149030852788 -0.13322901102402521 0 -0.048274716116422638 -0.14250705937413011 0 -0.060435283163119087 -0.13210535691178979 0 -0.074980149030852788 -0.13322901102402521 0 -0.060435283163119087 -0.13210535691178979 0 -0.035009396245865847 -0.13138946507283039 0 -0.02380622872257708 -0.13863305153198521 0 -0.048274716116422638 -0.14250705937413011 0 -0.035009396245865847 -0.13138946507283039 0 -0.02156928320199206 -0.15178510772423359 0 -0.048274716116422638 -0.14250705937413011 0 -0.02156928320199206 -0.15178510772423359 0 -0.040578875443760723 -0.15702635465982459 0 -0.048274716116422638 -0.14250705937413011 0 -0.012379740604400009 -0.25371681360357518 0 -0.01487672558591642 -0.24478309253466149 0 -0.032983601381048028 -0.2367885997845538 0 -0.012379740604400009 -0.25371681360357518 0 -0.032983601381048028 -0.2367885997845538 0 -0.012379740604400009 -0.25371681360357518 0 -0.027326811110253871 -0.25121816526868662 0 -0.032983601381048028 -0.2367885997845538 0 -0.012379740604400009 -0.25371681360357518 0 -0.01487672558591642 -0.24478309253466149 0 -0.0050603712554523096 -0.25502580822232418 0 -0.01487672558591642 -0.24478309253466149 0 -0.0012779613340340411 -0.24176494305706761 0 -0.01487672558591642 -0.24478309253466149 0 -0.0012779613340340411 -0.24176494305706761 0 -0.0098443816872556354 -0.23359128343904409 0 -0.01487672558591642 -0.24478309253466149 0 -0.0098443816872556354 -0.23359128343904409 0 -0.02161013125427003 -0.22069229161667511 0 -0.0098443816872556354 -0.23359128343904409 0 -0.0016127085748020571 -0.22712480654777251 0 -0.02161013125427003 -0.22069229161667511 0 -0.0012779613340340411 -0.24176494305706761 0 -0.0098443816872556354 -0.23359128343904409 0 -0.0016127085748020571 -0.22712480654777251 0 -0.02161013125427003 -0.22069229161667511 0 -0.037749047324124332 -0.2222456785719269 0 -0.032983601381048028 -0.2367885997845538 0 -0.01487672558591642 -0.24478309253466149 0 -0.02161013125427003 -0.22069229161667511 0 -0.01487672558591642 -0.24478309253466149 0 -0.02161013125427003 -0.22069229161667511 0 -0.032983601381048028 -0.2367885997845538 0 -0.02161013125427003 -0.22069229161667511 0 -0.0048422933519348798 -0.20657909219758999 0 -0.02834353692262364 -0.19660149069868879 0 -0.02161013125427003 -0.22069229161667511 0 -0.02834353692262364 -0.19660149069868879 0 -0.04042466355054887 -0.21142906939722611 0 -0.02161013125427003 -0.22069229161667511 0 -0.02834353692262364 -0.19660149069868879 0 -0.0016127085748020571 -0.22712480654777251 0 -0.02161013125427003 -0.22069229161667511 0 -0.0048422933519348798 -0.20657909219758999 0 -0.011684220618858611 -0.1828185141711022 0 -0.0048422933519348798 -0.20657909219758999 0 -0.02834353692262364 -0.19660149069868879 0 -0.011684220618858611 -0.1828185141711022 0 -0.0048422933519348798 -0.20657909219758999 0 0.0039750345954989988 -0.18651425943902311 0 -0.02834353692262364 -0.19660149069868879 0 -0.045384173352602211 -0.1896086705553881 0 -0.048680880466514129 -0.20143667782743011 0 -0.045384173352602211 -0.1896086705553881 0 -0.054600152190027743 -0.1938329285883432 0 -0.048680880466514129 -0.20143667782743011 0 -0.053826302631423108 -0.18719098183538219 0 -0.045384173352602211 -0.1896086705553881 0 -0.054600152190027743 -0.1938329285883432 0 -0.053826302631423108 -0.18719098183538219 0 -0.054600152190027743 -0.1938329285883432 0 -0.060077715494214402 -0.1880050343681916 0 -0.054600152190027743 -0.1938329285883432 0 -0.062207823669324508 -0.19415899925277841 0 -0.060077715494214402 -0.1880050343681916 0 -0.05727161150443684 -0.20059064904333551 0 -0.063912376375580449 -0.2061057797213553 0 -0.063099371948942468 -0.19895763039768499 0 -0.062207823669324508 -0.19415899925277841 0 -0.05727161150443684 -0.20059064904333551 0 -0.063099371948942468 -0.19895763039768499 0 -0.054600152190027743 -0.1938329285883432 0 -0.062207823669324508 -0.19415899925277841 0 -0.05727161150443684 -0.20059064904333551 0 -0.054600152190027743 -0.1938329285883432 0 -0.05727161150443684 -0.20059064904333551 0 -0.048680880466514129 -0.20143667782743011 0 -0.05727161150443684 -0.20059064904333551 0 -0.048680880466514129 -0.20143667782743011 0 -0.053253465001542127 -0.20792698589572001 0 -0.052910920334218993 -0.21967129177291539 0 -0.069612749235620427 -0.2166114240769427 0 -0.064663204576268285 -0.2095762323379651 0 -0.048680880466514129 -0.20143667782743011 0 -0.053253465001542127 -0.20792698589572001 0 -0.04042466355054887 -0.21142906939722611 0 -0.05727161150443684 -0.20059064904333551 0 -0.053253465001542127 -0.20792698589572001 0 -0.063912376375580449 -0.2061057797213553 0 -0.053253465001542127 -0.20792698589572001 0 -0.052910920334218993 -0.21967129177291539 0 -0.063912376375580449 -0.2061057797213553 0 -0.052910920334218993 -0.21967129177291539 0 -0.064663204576268285 -0.2095762323379651 0 -0.052910920334218993 -0.21967129177291539 0 -0.063912376375580449 -0.2061057797213553 0 -0.064663204576268285 -0.2095762323379651 0 -0.052910920334218993 -0.21967129177291539 0 -0.063912376375580449 -0.2061057797213553 0 -0.053253465001542127 -0.20792698589572001 0 -0.04042466355054887 -0.21142906939722611 0 -0.052910920334218993 -0.21967129177291539 0 -0.02834353692262364 -0.19660149069868879 0 -0.048680880466514129 -0.20143667782743011 0 -0.04042466355054887 -0.21142906939722611 0 -0.02161013125427003 -0.22069229161667511 0 -0.04042466355054887 -0.21142906939722611 0 -0.037749047324124332 -0.2222456785719269 0 -0.04042466355054887 -0.21142906939722611 0 -0.037749047324124332 -0.2222456785719269 0 -0.052910920334218993 -0.21967129177291539 0 -0.037749047324124332 -0.2222456785719269 0 -0.052910920334218993 -0.21967129177291539 0 -0.032983601381048028 -0.2367885997845538 0 -0.052910920334218993 -0.21967129177291539 0 -0.032983601381048028 -0.2367885997845538 0 -0.052910920334218993 -0.21967129177291539 0 -0.032983601381048028 -0.2367885997845538 0 -0.040118865722236351 -0.23544472852080089 0 -0.052910920334218993 -0.21967129177291539 0 -0.040118865722236351 -0.23544472852080089 0 -0.052910920334218993 -0.21967129177291539 0 -0.054603171266369793 -0.23243375726732241 0 -0.069083472660325121 -0.22748117926656231 0 -0.052910920334218993 -0.21967129177291539 0 -0.054603171266369793 -0.23243375726732241 0 -0.040118865722236351 -0.23544472852080089 0 -0.054603171266369793 -0.23243375726732241 0 -0.062344578928600528 -0.23779073398242739 0 -0.069083472660325121 -0.22748117926656231 0 -0.054603171266369793 -0.23243375726732241 0 -0.052406799216804557 -0.24459198769464191 0 -0.040118865722236351 -0.23544472852080089 0 -0.054603171266369793 -0.23243375726732241 0 -0.062344578928600528 -0.23779073398242739 0 -0.052406799216804557 -0.24459198769464191 0 -0.065421878849430556 -0.25167039592025259 0 -0.062344578928600528 -0.23779073398242739 0 -0.052406799216804557 -0.24459198769464191 0 -0.027326811110253871 -0.25121816526868662 0 -0.040785035177160277 -0.24958968680164759 0 -0.040118865722236351 -0.23544472852080089 0 -0.027326811110253871 -0.25121816526868662 0 -0.032983601381048028 -0.2367885997845538 0 -0.040118865722236351 -0.23544472852080089 0 -0.027326811110253871 -0.25121816526868662 0 -0.040118865722236351 -0.23544472852080089 0 -0.052406799216804557 -0.24459198769464191 0 -0.040785035177160277 -0.24958968680164759 0 -0.040118865722236351 -0.23544472852080089 0 -0.078278243085297239 -0.23951664672932549 0 -0.086153706899138552 -0.22983104630755541 0 -0.09423246880553815 -0.23787512664900909 0 -0.093765691765433312 -0.25258281812082478 0 -0.078278243085297239 -0.23951664672932549 0 -0.09423246880553815 -0.23787512664900909 0 -0.062344578928600528 -0.23779073398242739 0 -0.078278243085297239 -0.23951664672932549 0 -0.069083472660325121 -0.22748117926656231 0 -0.065421878849430556 -0.25167039592025259 0 -0.062344578928600528 -0.23779073398242739 0 -0.078278243085297239 -0.23951664672932549 0 -0.065421878849430556 -0.25167039592025259 0 -0.079465288233698042 -0.25846821731041458 0 -0.078278243085297239 -0.23951664672932549 0 -0.052910920334218993 -0.21967129177291539 0 -0.069083472660325121 -0.22748117926656231 0 -0.069612749235620427 -0.2166114240769427 0 -0.078278243085297239 -0.23951664672932549 0 -0.069083472660325121 -0.22748117926656231 0 -0.086153706899138552 -0.22983104630755541 0 -0.069083472660325121 -0.22748117926656231 0 -0.082890498454507591 -0.21890744373665691 0 -0.069612749235620427 -0.2166114240769427 0 -0.082890498454507591 -0.21890744373665691 0 -0.086153706899138552 -0.22983104630755541 0 -0.098908818798469189 -0.22405916704643611 0 -0.082890498454507591 -0.21890744373665691 0 -0.092414465742116453 -0.21356058677725129 0 -0.098908818798469189 -0.22405916704643611 0 -0.069083472660325121 -0.22748117926656231 0 -0.082890498454507591 -0.21890744373665691 0 -0.086153706899138552 -0.22983104630755541 0 -0.086153706899138552 -0.22983104630755541 0 -0.098908818798469189 -0.22405916704643611 0 -0.09423246880553815 -0.23787512664900909 0 -0.082890498454507591 -0.21890744373665691 0 -0.092414465742116453 -0.21356058677725129 0 -0.085039292724931326 -0.20636870672523311 0 -0.092414465742116453 -0.21356058677725129 0 -0.085039292724931326 -0.20636870672523311 0 -0.094924882140715844 -0.2023400251814354 0 -0.085039292724931326 -0.20636870672523311 0 -0.076791362556699633 -0.2103212049296195 0 -0.076415488818317417 -0.19948117290301459 0 -0.082890498454507591 -0.21890744373665691 0 -0.085039292724931326 -0.20636870672523311 0 -0.076791362556699633 -0.2103212049296195 0 -0.082890498454507591 -0.21890744373665691 0 -0.069612749235620427 -0.2166114240769427 0 -0.076791362556699633 -0.2103212049296195 0 -0.069612749235620427 -0.2166114240769427 0 -0.07187070129672643 -0.20899750856188551 0 -0.076791362556699633 -0.2103212049296195 0 -0.069612749235620427 -0.2166114240769427 0 -0.064663204576268285 -0.2095762323379651 0 -0.07187070129672643 -0.20899750856188551 0 -0.063912376375580449 -0.2061057797213553 0 -0.064663204576268285 -0.2095762323379651 0 -0.076415488818317417 -0.19948117290301459 0 -0.064663204576268285 -0.2095762323379651 0 -0.07187070129672643 -0.20899750856188551 0 -0.076415488818317417 -0.19948117290301459 0 -0.07187070129672643 -0.20899750856188551 0 -0.076791362556699633 -0.2103212049296195 0 -0.076415488818317417 -0.19948117290301459 0 -0.064663204576268285 -0.2095762323379651 0 -0.076415488818317417 -0.19948117290301459 0 -0.063912376375580449 -0.2061057797213553 0 -0.076415488818317417 -0.19948117290301459 0 -0.074913832416942036 -0.19254026766979529 0 -0.063912376375580449 -0.2061057797213553 0 -0.074913832416942036 -0.19254026766979529 0 -0.063912376375580449 -0.2061057797213553 0 -0.067162409966087119 -0.19576756974744089 0 -0.074913832416942036 -0.19254026766979529 0 -0.063912376375580449 -0.2061057797213553 0 -0.067162409966087119 -0.19576756974744089 0 -0.063099371948942468 -0.19895763039768499 0 -0.062207823669324508 -0.19415899925277841 0 -0.067162409966087119 -0.19576756974744089 0 -0.063099371948942468 -0.19895763039768499 0 -0.062207823669324508 -0.19415899925277841 0 -0.060077715494214402 -0.1880050343681916 0 -0.067992112858964282 -0.18866012404393079 0 -0.062207823669324508 -0.19415899925277841 0 -0.067162409966087119 -0.19576756974744089 0 -0.067992112858964282 -0.18866012404393079 0 -0.067162409966087119 -0.19576756974744089 0 -0.067992112858964282 -0.18866012404393079 0 -0.074913832416942036 -0.19254026766979529 0 -0.067992112858964282 -0.18866012404393079 0 -0.074913832416942036 -0.19254026766979529 0 -0.075495957942860306 -0.18151306003065079 0 -0.076415488818317417 -0.19948117290301459 0 -0.074913832416942036 -0.19254026766979529 0 -0.086799058637230975 -0.19360180682342101 0 -0.074913832416942036 -0.19254026766979529 0 -0.086799058637230975 -0.19360180682342101 0 -0.081197999186964104 -0.18678207382066461 0 -0.085039292724931326 -0.20636870672523311 0 -0.076415488818317417 -0.19948117290301459 0 -0.086799058637230975 -0.19360180682342101 0 -0.085039292724931326 -0.20636870672523311 0 -0.086799058637230975 -0.19360180682342101 0 -0.094924882140715844 -0.2023400251814354 0 -0.086799058637230975 -0.19360180682342101 0 -0.095726771505572558 -0.1875603531079979 0 -0.094924882140715844 -0.2023400251814354 0 -0.094924882140715844 -0.2023400251814354 0 -0.111160472432858 -0.1885386204747187 0 -0.094924882140715844 -0.2023400251814354 0 -0.111160472432858 -0.1885386204747187 0 -0.1114495577303883 -0.20340811176391119 0 -0.095726771505572558 -0.1875603531079979 0 -0.094924882140715844 -0.2023400251814354 0 -0.111160472432858 -0.1885386204747187 0 -0.111160472432858 -0.1885386204747187 0 -0.1221143178041114 -0.19234248283227301 0 -0.1210277983726237 -0.20080419496638871 0 -0.1221143178041114 -0.19234248283227301 0 -0.1210277983726237 -0.20080419496638871 0 -0.1287375196768317 -0.1989974444917289 0 -0.111160472432858 -0.1885386204747187 0 -0.1210277983726237 -0.20080419496638871 0 -0.1114495577303883 -0.20340811176391119 0 -0.1210277983726237 -0.20080419496638871 0 -0.1114495577303883 -0.20340811176391119 0 -0.1178360582138414 -0.2087755546500478 0 -0.1114495577303883 -0.20340811176391119 0 -0.1178360582138414 -0.2087755546500478 0 -0.1085815399970629 -0.214445376318082 0 -0.1210277983726237 -0.20080419496638871 0 -0.1178360582138414 -0.2087755546500478 0 -0.1261734044947341 -0.20832382066201691 0 -0.1178360582138414 -0.2087755546500478 0 -0.121947990474398 -0.21689626953984009 0 -0.1261734044947341 -0.20832382066201691 0 -0.1178360582138414 -0.2087755546500478 0 -0.121947990474398 -0.21689626953984009 0 -0.1085815399970629 -0.214445376318082 0 -0.092414465742116453 -0.21356058677725129 0 -0.094924882140715844 -0.2023400251814354 0 -0.1085815399970629 -0.214445376318082 0 -0.092414465742116453 -0.21356058677725129 0 -0.1085815399970629 -0.214445376318082 0 -0.098908818798469189 -0.22405916704643611 0 -0.094924882140715844 -0.2023400251814354 0 -0.1114495577303883 -0.20340811176391119 0 -0.1085815399970629 -0.214445376318082 0 -0.098908818798469189 -0.22405916704643611 0 -0.1146679177639674 -0.22763479024990699 0 -0.1064059993424292 -0.23999004584722569 0 -0.098908818798469189 -0.22405916704643611 0 -0.1064059993424292 -0.23999004584722569 0 -0.09423246880553815 -0.23787512664900909 0 -0.1085815399970629 -0.214445376318082 0 -0.098908818798469189 -0.22405916704643611 0 -0.1146679177639674 -0.22763479024990699 0 -0.1146679177639674 -0.22763479024990699 0 -0.1192340303868117 -0.24478318800158869 0 -0.13163987617815839 -0.22779776194380719 0 -0.121947990474398 -0.21689626953984009 0 -0.1085815399970629 -0.214445376318082 0 -0.1146679177639674 -0.22763479024990699 0 -0.121947990474398 -0.21689626953984009 0 -0.1146679177639674 -0.22763479024990699 0 -0.13163987617815839 -0.22779776194380719 0 -0.10928029933534041 -0.25911330461652088 0 -0.1192340303868117 -0.24478318800158869 0 -0.1064059993424292 -0.23999004584722569 0 -0.1146679177639674 -0.22763479024990699 0 -0.1192340303868117 -0.24478318800158869 0 -0.1064059993424292 -0.23999004584722569 0 -0.093765691765433312 -0.25258281812082478 0 -0.1064059993424292 -0.23999004584722569 0 -0.09423246880553815 -0.23787512664900909 0 -0.087025139202339175 -0.14924119698846519 0 -0.093760481790990557 -0.16258763704399551 0 -0.10010201785652401 -0.1437821866573995 0 -0.087025139202339175 -0.14924119698846519 0 -0.083645274202728603 -0.1360379667205176 0 -0.10010201785652401 -0.1437821866573995 0 -0.078981128367974607 -0.14447571604620801 0 -0.087025139202339175 -0.14924119698846519 0 -0.083645274202728603 -0.1360379667205176 0 -0.078981128367974607 -0.14447571604620801 0 -0.087025139202339175 -0.14924119698846519 0 -0.078636793793478016 -0.15932247847420561 0 -0.083645274202728603 -0.1360379667205176 0 -0.10010201785652401 -0.1437821866573995 0 -0.096101065320712109 -0.1258911452360538 0 -0.076666436282660663 -0.13264315814890179 0 -0.096101065320712109 -0.1258911452360538 0 -0.083645274202728603 -0.1360379667205176 0 -0.076666436282660663 -0.13264315814890179 0 -0.096101065320712109 -0.1258911452360538 0 -0.078981128367974607 -0.14447571604620801 0 -0.083645274202728603 -0.1360379667205176 0 -0.074980149030852788 -0.13322901102402521 0 -0.083645274202728603 -0.1360379667205176 0 -0.074980149030852788 -0.13322901102402521 0 -0.076666436282660663 -0.13264315814890179 0 -0.083645274202728603 -0.1360379667205176 0 -0.074980149030852788 -0.13322901102402521 0 -0.063965210873385206 -0.121372291062271 0 -0.051469099840166933 -0.12560748285855791 0 -0.074980149030852788 -0.13322901102402521 0 -0.051469099840166933 -0.12560748285855791 0 -0.074980149030852788 -0.13322901102402521 0 -0.074980149030852788 -0.13322901102402521 0 -0.076666436282660663 -0.13264315814890179 0 -0.072499038737136423 -0.12336773177227039 0 -0.074980149030852788 -0.13322901102402521 0 -0.076666436282660663 -0.13264315814890179 0 -0.063965210873385206 -0.121372291062271 0 -0.072499038737136423 -0.12336773177227039 0 -0.074980149030852788 -0.13322901102402521 0 -0.054318116428342743 -0.1550095253668563 0 -0.07017092070895159 -0.14876485096333639 0 -0.064150653413557149 -0.1630994165534029 0 -0.06193597557114254 -0.14487761168208729 0 -0.074980149030852788 -0.13322901102402521 0 -0.07017092070895159 -0.14876485096333639 0 -0.078981128367974607 -0.14447571604620801 0 -0.074980149030852788 -0.13322901102402521 0 -0.07017092070895159 -0.14876485096333639 0 -0.074980149030852788 -0.13322901102402521 0 -0.07017092070895159 -0.14876485096333639 0 -0.078981128367974607 -0.14447571604620801 0 -0.07017092070895159 -0.14876485096333639 0 -0.078636793793478016 -0.15932247847420561 0 -0.061772453938110018 -0.1722676601875073 0 -0.064150653413557149 -0.1630994165534029 0 -0.070050920790153071 -0.171606788750374 0 -0.064150653413557149 -0.1630994165534029 0 -0.070050920790153071 -0.171606788750374 0 -0.078636793793478016 -0.15932247847420561 0 -0.070050920790153071 -0.171606788750374 0 -0.079209040401629252 -0.1719092953843511 0 -0.078636793793478016 -0.15932247847420561 0 -0.07017092070895159 -0.14876485096333639 0 -0.064150653413557149 -0.1630994165534029 0 -0.078636793793478016 -0.15932247847420561 0 -0.060077715494214402 -0.1880050343681916 0 -0.067992112858964282 -0.18866012404393079 0 -0.064464826801710964 -0.18158017590305259 0 -0.067992112858964282 -0.18866012404393079 0 -0.064464826801710964 -0.18158017590305259 0 -0.075495957942860306 -0.18151306003065079 0 -0.061772453938110018 -0.1722676601875073 0 -0.070050920790153071 -0.171606788750374 0 -0.064464826801710964 -0.18158017590305259 0 -0.070050920790153071 -0.171606788750374 0 -0.064464826801710964 -0.18158017590305259 0 -0.075495957942860306 -0.18151306003065079 0 -0.070050920790153071 -0.171606788750374 0 -0.075495957942860306 -0.18151306003065079 0 -0.079209040401629252 -0.1719092953843511 0 -0.074913832416942036 -0.19254026766979529 0 -0.075495957942860306 -0.18151306003065079 0 -0.081197999186964104 -0.18678207382066461 0 -0.08758314775082314 -0.17947316075879149 0 -0.093760481790990557 -0.16258763704399551 0 -0.099296370832405903 -0.1778108956523228 0 -0.075495957942860306 -0.18151306003065079 0 -0.081197999186964104 -0.18678207382066461 0 -0.08758314775082314 -0.17947316075879149 0 -0.086799058637230975 -0.19360180682342101 0 -0.081197999186964104 -0.18678207382066461 0 -0.08758314775082314 -0.17947316075879149 0 -0.075495957942860306 -0.18151306003065079 0 -0.079209040401629252 -0.1719092953843511 0 -0.08758314775082314 -0.17947316075879149 0 -0.086799058637230975 -0.19360180682342101 0 -0.095726771505572558 -0.1875603531079979 0 -0.08758314775082314 -0.17947316075879149 0 -0.079209040401629252 -0.1719092953843511 0 -0.08758314775082314 -0.17947316075879149 0 -0.093760481790990557 -0.16258763704399551 0 -0.079209040401629252 -0.1719092953843511 0 -0.078636793793478016 -0.15932247847420561 0 -0.093760481790990557 -0.16258763704399551 0 -0.087025139202339175 -0.14924119698846519 0 -0.078636793793478016 -0.15932247847420561 0 -0.093760481790990557 -0.16258763704399551 0 -0.093760481790990557 -0.16258763704399551 0 -0.10825098068178519 -0.1708947068761103 0 -0.099296370832405903 -0.1778108956523228 0 -0.093760481790990557 -0.16258763704399551 0 -0.10825098068178519 -0.1708947068761103 0 -0.1079275826681496 -0.15587426481125419 0 -0.111160472432858 -0.1885386204747187 0 -0.10825098068178519 -0.1708947068761103 0 -0.099296370832405903 -0.1778108956523228 0 -0.095726771505572558 -0.1875603531079979 0 -0.08758314775082314 -0.17947316075879149 0 -0.099296370832405903 -0.1778108956523228 0 -0.095726771505572558 -0.1875603531079979 0 -0.111160472432858 -0.1885386204747187 0 -0.099296370832405903 -0.1778108956523228 0 -0.111160472432858 -0.1885386204747187 0 -0.12739606272500029 -0.17473721576800191 0 -0.111160472432858 -0.1885386204747187 0 -0.1221143178041114 -0.19234248283227301 0 -0.12739606272500029 -0.17473721576800191 0 -0.111160472432858 -0.1885386204747187 0 -0.10825098068178519 -0.1708947068761103 0 -0.12739606272500029 -0.17473721576800191 0 -0.1214658785418825 -0.14693817404560541 0 -0.12739606272500029 -0.17473721576800191 0 -0.1214658785418825 -0.14693817404560541 0 -0.1079275826681496 -0.15587426481125419 0 -0.12739606272500029 -0.17473721576800191 0 -0.10825098068178519 -0.1708947068761103 0 -0.1079275826681496 -0.15587426481125419 0 -0.12739606272500029 -0.17473721576800191 0 -0.1214658785418825 -0.14693817404560541 0 -0.10010201785652401 -0.1437821866573995 0 -0.10830116401947081 -0.1339376595655668 0 -0.1214658785418825 -0.14693817404560541 0 -0.10010201785652401 -0.1437821866573995 0 -0.1079275826681496 -0.15587426481125419 0 -0.093760481790990557 -0.16258763704399551 0 -0.10010201785652401 -0.1437821866573995 0 -0.1079275826681496 -0.15587426481125419 0 -0.10010201785652401 -0.1437821866573995 0 -0.10830116401947081 -0.1339376595655668 0 -0.096101065320712109 -0.1258911452360538 0 -0.11649007265168369 -0.1188075605425003 0 -0.10830116401947081 -0.1339376595655668 0 -0.096101065320712109 -0.1258911452360538 0 -0.11649007265168369 -0.1188075605425003 0 -0.12922628187284879 -0.14058113888636839 0 -0.1252704192176744 -0.1172440966648565 0 -0.11649007265168369 -0.1188075605425003 0 -0.12922628187284879 -0.14058113888636839 0 -0.11649007265168369 -0.1188075605425003 0 -0.1214658785418825 -0.14693817404560541 0 -0.11649007265168369 -0.1188075605425003 0 -0.1214658785418825 -0.14693817404560541 0 -0.10830116401947081 -0.1339376595655668 0 -0.11649007265168369 -0.1188075605425003 0 -0.1214658785418825 -0.14693817404560541 0 -0.12922628187284879 -0.14058113888636839 0 -0.12922628187284879 -0.14058113888636839 0 -0.1355018371655794 -0.1265678790332187 0 -0.1252704192176744 -0.1172440966648565 0 -0.12922628187284879 -0.14058113888636839 0 -0.1355018371655794 -0.1265678790332187 0 -0.14553009116939669 -0.13537661130197329 0 -0.1355018371655794 -0.1265678790332187 0 -0.14553009116939669 -0.13537661130197329 0 -0.14420813470266419 -0.11805716313719079 0 -0.14553009116939669 -0.13537661130197329 0 -0.15056350488257919 -0.15504324471534639 0 -0.1628079644011253 -0.13038477387159439 0 -0.14553009116939669 -0.13537661130197329 0 -0.1628079644011253 -0.13038477387159439 0 -0.14420813470266419 -0.11805716313719079 0 -0.12922628187284879 -0.14058113888636839 0 -0.14553009116939669 -0.13537661130197329 0 -0.15056350488257919 -0.15504324471534639 0 -0.12922628187284879 -0.14058113888636839 0 -0.15056350488257919 -0.15504324471534639 0 -0.14196249109401421 -0.16235471723023651 0 -0.1214658785418825 -0.14693817404560541 0 -0.12922628187284879 -0.14058113888636839 0 -0.14196249109401421 -0.16235471723023651 0 -0.12922628187284879 -0.14058113888636839 0 -0.14196249109401421 -0.16235471723023651 0 -0.1214658785418825 -0.14693817404560541 0 -0.12739606272500029 -0.17473721576800191 0 -0.14196249109401421 -0.16235471723023651 0 -0.12739606272500029 -0.17473721576800191 0 -0.14196249109401421 -0.16235471723023651 0 -0.14465078136409831 -0.16695056657522339 0 -0.12739606272500029 -0.17473721576800191 0 -0.14196249109401421 -0.16235471723023651 0 -0.14465078136409831 -0.16695056657522339 0 -0.1314192587983791 -0.19359683159909061 0 -0.12739606272500029 -0.17473721576800191 0 -0.14465078136409831 -0.16695056657522339 0 -0.1314192587983791 -0.19359683159909061 0 -0.12739606272500029 -0.17473721576800191 0 -0.1314192587983791 -0.19359683159909061 0 -0.1221143178041114 -0.19234248283227301 0 -0.12739606272500029 -0.17473721576800191 0 -0.1314192587983791 -0.19359683159909061 0 -0.1506253399441001 -0.18191391990730801 0 -0.14704446987800041 -0.17104277042357799 0 -0.1314192587983791 -0.19359683159909061 0 -0.14704446987800041 -0.17104277042357799 0 -0.14465078136409831 -0.16695056657522339 0 -0.1314192587983791 -0.19359683159909061 0 -0.1506253399441001 -0.18191391990730801 0 -0.14704446987800041 -0.17104277042357799 0 -0.15648019532635571 -0.17138255085024329 0 -0.1506253399441001 -0.18191391990730801 0 -0.16533888001856381 -0.18602690419207779 0 -0.1512090652639769 -0.1911736867042346 0 -0.15056350488257919 -0.15504324471534639 0 -0.14196249109401421 -0.16235471723023651 0 -0.15056350488257919 -0.15504324471534639 0 -0.14196249109401421 -0.16235471723023651 0 -0.14465078136409831 -0.16695056657522339 0 -0.15056350488257919 -0.15504324471534639 0 -0.14465078136409831 -0.16695056657522339 0 -0.14196249109401421 -0.16235471723023651 0 -0.14465078136409831 -0.16695056657522339 0 -0.14704446987800041 -0.17104277042357799 0 -0.14465078136409831 -0.16695056657522339 0 -0.14704446987800041 -0.17104277042357799 0 -0.14465078136409831 -0.16695056657522339 0 -0.15229814259742869 -0.1644326064251338 0 -0.14704446987800041 -0.17104277042357799 0 -0.15229814259742869 -0.1644326064251338 0 -0.15648019532635571 -0.17138255085024329 0 -0.15056350488257919 -0.15504324471534639 0 -0.14465078136409831 -0.16695056657522339 0 -0.15229814259742869 -0.1644326064251338 0 -0.15056350488257919 -0.15504324471534639 0 -0.15229814259742869 -0.1644326064251338 0 -0.16275176153611051 -0.15774389956127821 0 -0.16275176153611051 -0.15774389956127821 0 -0.15648019532635571 -0.17138255085024329 0 -0.17757024440875549 -0.16111115580157981 0 -0.15229814259742869 -0.1644326064251338 0 -0.16275176153611051 -0.15774389956127821 0 -0.15648019532635571 -0.17138255085024329 0 -0.15648019532635571 -0.17138255085024329 0 -0.18421608521209271 -0.17558962027652111 0 -0.15648019532635571 -0.17138255085024329 0 -0.16533888001856381 -0.18602690419207779 0 -0.18421608521209271 -0.17558962027652111 0 -0.1506253399441001 -0.18191391990730801 0 -0.15648019532635571 -0.17138255085024329 0 -0.16533888001856381 -0.18602690419207779 0 -0.16533888001856381 -0.18602690419207779 0 -0.18421608521209271 -0.17558962027652111 0 -0.1786295148813212 -0.19556646452315241 0 -0.15648019532635571 -0.17138255085024329 0 -0.18421608521209271 -0.17558962027652111 0 -0.17757024440875549 -0.16111115580157981 0 -0.18421608521209271 -0.17558962027652111 0 -0.17757024440875549 -0.16111115580157981 0 -0.1979143625406167 -0.1642252661741595 0 -0.17521357040146851 -0.14833135074901779 0 -0.18000311622314791 -0.13001748444371289 0 -0.188845491435889 -0.14939424719825839 0 -0.17757024440875549 -0.16111115580157981 0 -0.17521357040146851 -0.14833135074901779 0 -0.188845491435889 -0.14939424719825839 0 -0.18000311622314791 -0.13001748444371289 0 -0.1628079644011253 -0.13038477387159439 0 -0.18027610093587751 -0.1196181089702751 0 -0.17521357040146851 -0.14833135074901779 0 -0.18000311622314791 -0.13001748444371289 0 -0.16528331055286391 -0.14253036457953011 0 -0.18000311622314791 -0.13001748444371289 0 -0.16528331055286391 -0.14253036457953011 0 -0.18000311622314791 -0.13001748444371289 0 -0.1628079644011253 -0.13038477387159439 0 -0.16528331055286391 -0.14253036457953011 0 -0.15056350488257919 -0.15504324471534639 0 -0.1628079644011253 -0.13038477387159439 0 -0.15056350488257919 -0.15504324471534639 0 -0.1628079644011253 -0.13038477387159439 0 -0.16528331055286391 -0.14253036457953011 0 -0.15056350488257919 -0.15504324471534639 0 -0.16275176153611051 -0.15774389956127821 0 -0.16528331055286391 -0.14253036457953011 0 -0.15056350488257919 -0.15504324471534639 0 -0.16528331055286391 -0.14253036457953011 0 -0.16275176153611051 -0.15774389956127821 0 -0.17521357040146851 -0.14833135074901779 0 -0.16528331055286391 -0.14253036457953011 0 -0.16275176153611051 -0.15774389956127821 0 -0.17757024440875549 -0.16111115580157981 0 -0.17521357040146851 -0.14833135074901779 0 -0.15229660666407671 -0.25401824511238591 0 -0.14920126421366381 -0.23878179657915319 0 -0.13450504990001219 -0.2438564190910647 0 -0.1192340303868117 -0.24478318800158869 0 -0.13450504990001219 -0.2438564190910647 0 -0.13163987617815839 -0.22779776194380719 0 -0.14920126421366381 -0.23878179657915319 0 -0.13450504990001219 -0.2438564190910647 0 -0.13163987617815839 -0.22779776194380719 0 -0.121947990474398 -0.21689626953984009 0 -0.13163987617815839 -0.22779776194380719 0 -0.12955498125585521 -0.21362166548107719 0 -0.13163987617815839 -0.22779776194380719 0 -0.14668655776667011 -0.2223990925877565 0 -0.13817373448855541 -0.2139466733801943 0 -0.14920126421366381 -0.23878179657915319 0 -0.13163987617815839 -0.22779776194380719 0 -0.14668655776667011 -0.2223990925877565 0 -0.14920126421366381 -0.23878179657915319 0 -0.14668655776667011 -0.2223990925877565 0 -0.1666111544691056 -0.22171119925505031 0 -0.14668655776667011 -0.2223990925877565 0 -0.14920765704353961 -0.2069242839694774 0 -0.1666111544691056 -0.22171119925505031 0 -0.14920765704353961 -0.2069242839694774 0 -0.13817373448855541 -0.2139466733801943 0 -0.13929463799343569 -0.2052160077695602 0 -0.14920765704353961 -0.2069242839694774 0 -0.13929463799343569 -0.2052160077695602 0 -0.1420465959208794 -0.1984943042809322 0 -0.14668655776667011 -0.2223990925877565 0 -0.14920765704353961 -0.2069242839694774 0 -0.13817373448855541 -0.2139466733801943 0 -0.13163987617815839 -0.22779776194380719 0 -0.13817373448855541 -0.2139466733801943 0 -0.12955498125585521 -0.21362166548107719 0 -0.13817373448855541 -0.2139466733801943 0 -0.12955498125585521 -0.21362166548107719 0 -0.1326745573724277 -0.20747677911892251 0 -0.121947990474398 -0.21689626953984009 0 -0.12955498125585521 -0.21362166548107719 0 -0.1261734044947341 -0.20832382066201691 0 -0.1210277983726237 -0.20080419496638871 0 -0.12833971984693959 -0.20340181913978941 0 -0.1261734044947341 -0.20832382066201691 0 -0.12955498125585521 -0.21362166548107719 0 -0.1261734044947341 -0.20832382066201691 0 -0.1326745573724277 -0.20747677911892251 0 -0.12833971984693959 -0.20340181913978941 0 -0.1261734044947341 -0.20832382066201691 0 -0.1326745573724277 -0.20747677911892251 0 -0.12833971984693959 -0.20340181913978941 0 -0.1326745573724277 -0.20747677911892251 0 -0.13308531931808101 -0.2014068564598902 0 -0.13817373448855541 -0.2139466733801943 0 -0.1326745573724277 -0.20747677911892251 0 -0.13929463799343569 -0.2052160077695602 0 -0.1326745573724277 -0.20747677911892251 0 -0.13929463799343569 -0.2052160077695602 0 -0.13308531931808101 -0.2014068564598902 0 -0.13929463799343569 -0.2052160077695602 0 -0.13308531931808101 -0.2014068564598902 0 -0.1420465959208794 -0.1984943042809322 0 -0.13308531931808101 -0.2014068564598902 0 -0.1314192587983791 -0.19359683159909061 0 -0.1420465959208794 -0.1984943042809322 0 -0.12833971984693959 -0.20340181913978941 0 -0.13308531931808101 -0.2014068564598902 0 -0.1287375196768317 -0.1989974444917289 0 -0.13308531931808101 -0.2014068564598902 0 -0.1287375196768317 -0.1989974444917289 0 -0.1314192587983791 -0.19359683159909061 0 -0.13308531931808101 -0.2014068564598902 0 -0.1314192587983791 -0.19359683159909061 0 -0.1287375196768317 -0.1989974444917289 0 -0.1314192587983791 -0.19359683159909061 0 -0.1210277983726237 -0.20080419496638871 0 -0.12833971984693959 -0.20340181913978941 0 -0.1287375196768317 -0.1989974444917289 0 -0.1221143178041114 -0.19234248283227301 0 -0.1287375196768317 -0.1989974444917289 0 -0.1314192587983791 -0.19359683159909061 0 -0.1314192587983791 -0.19359683159909061 0 -0.1420465959208794 -0.1984943042809322 0 -0.1512090652639769 -0.1911736867042346 0 -0.14920765704353961 -0.2069242839694774 0 -0.1512090652639769 -0.1911736867042346 0 -0.16613147043060339 -0.2018841564818957 0 -0.14920765704353961 -0.2069242839694774 0 -0.1420465959208794 -0.1984943042809322 0 -0.1512090652639769 -0.1911736867042346 0 -0.1506253399441001 -0.18191391990730801 0 -0.1314192587983791 -0.19359683159909061 0 -0.1512090652639769 -0.1911736867042346 0 -0.16533888001856381 -0.18602690419207779 0 -0.1512090652639769 -0.1911736867042346 0 -0.16613147043060339 -0.2018841564818957 0 -0.16533888001856381 -0.18602690419207779 0 -0.16613147043060339 -0.2018841564818957 0 -0.1786295148813212 -0.19556646452315241 0 -0.1786295148813212 -0.19556646452315241 0 -0.17958500981378461 -0.2107334264309661 0 -0.1981990761364697 -0.20254736480388241 0 -0.18421608521209271 -0.17558962027652111 0 -0.1786295148813212 -0.19556646452315241 0 -0.1981990761364697 -0.20254736480388241 0 -0.16613147043060339 -0.2018841564818957 0 -0.1786295148813212 -0.19556646452315241 0 -0.17958500981378461 -0.2107334264309661 0 -0.17958500981378461 -0.2107334264309661 0 -0.1666111544691056 -0.22171119925505031 0 -0.19116993277822331 -0.22279453133759641 0 -0.16613147043060339 -0.2018841564818957 0 -0.17958500981378461 -0.2107334264309661 0 -0.1666111544691056 -0.22171119925505031 0 -0.14920765704353961 -0.2069242839694774 0 -0.16613147043060339 -0.2018841564818957 0 -0.1666111544691056 -0.22171119925505031 0 -0.16774304296138501 -0.24055682594909811 0 -0.1994177047143332 -0.2432145052078287 0 -0.19116993277822331 -0.22279453133759641 0 -0.18473400419263841 -0.26184427346616201 0 -0.16774304296138501 -0.24055682594909811 0 -0.1994177047143332 -0.2432145052078287 0 -0.14920126421366381 -0.23878179657915319 0 -0.1666111544691056 -0.22171119925505031 0 -0.16774304296138501 -0.24055682594909811 0 -0.1666111544691056 -0.22171119925505031 0 -0.16774304296138501 -0.24055682594909811 0 -0.19116993277822331 -0.22279453133759641 0 -0.15229660666407671 -0.25401824511238591 0 -0.14920126421366381 -0.23878179657915319 0 -0.16774304296138501 -0.24055682594909811 0 -0.1994177047143332 -0.2432145052078287 0 -0.21214113701728249 -0.228940323783688 0 -0.22937054978906041 -0.24331512362502869 0 -0.2113475615474098 -0.26183595308539898 0 -0.1994177047143332 -0.2432145052078287 0 -0.22937054978906041 -0.24331512362502869 0 -0.1994177047143332 -0.2432145052078287 0 -0.19116993277822331 -0.22279453133759641 0 -0.21214113701728249 -0.228940323783688 0 -0.19116993277822331 -0.22279453133759641 0 -0.21214113701728249 -0.228940323783688 0 -0.21151629669390881 -0.21291663877559669 0 -0.21214113701728249 -0.228940323783688 0 -0.21151629669390881 -0.21291663877559669 0 -0.2275824975951227 -0.2207461827585098 0 -0.21151629669390881 -0.21291663877559669 0 -0.1981990761364697 -0.20254736480388241 0 -0.21430725265311781 -0.19815896184605211 0 -0.21151629669390881 -0.21291663877559669 0 -0.21430725265311781 -0.19815896184605211 0 -0.22569788398323701 -0.20431246812385209 0 -0.19116993277822331 -0.22279453133759641 0 -0.21151629669390881 -0.21291663877559669 0 -0.1981990761364697 -0.20254736480388241 0 -0.17958500981378461 -0.2107334264309661 0 -0.19116993277822331 -0.22279453133759641 0 -0.1981990761364697 -0.20254736480388241 0 -0.21430725265311781 -0.19815896184605211 0 -0.2251169230399053 -0.19244957551320049 0 -0.21195197509782959 -0.17979668970279891 0 -0.1981990761364697 -0.20254736480388241 0 -0.21430725265311781 -0.19815896184605211 0 -0.21195197509782959 -0.17979668970279891 0 -0.21430725265311781 -0.19815896184605211 0 -0.2251169230399053 -0.19244957551320049 0 -0.22569788398323701 -0.20431246812385209 0 -0.2251169230399053 -0.19244957551320049 0 -0.23600322778131949 -0.19814692121484651 0 -0.22569788398323701 -0.20431246812385209 0 -0.2251169230399053 -0.19244957551320049 0 -0.23600322778131949 -0.19814692121484651 0 -0.23968786498356659 -0.18400375912907671 0 -0.23600322778131949 -0.19814692121484651 0 -0.23968786498356659 -0.18400375912907671 0 -0.25047429362874257 -0.200219847641955 0 -0.23600322778131949 -0.19814692121484651 0 -0.23949462900920199 -0.21027573078813011 0 -0.25047429362874257 -0.200219847641955 0 -0.23949462900920199 -0.21027573078813011 0 -0.25247744799357308 -0.21261594090752481 0 -0.25047429362874257 -0.200219847641955 0 -0.23949462900920199 -0.21027573078813011 0 -0.24510877540263959 -0.22548599802342939 0 -0.25247744799357308 -0.21261594090752481 0 -0.23949462900920199 -0.21027573078813011 0 -0.22569788398323701 -0.20431246812385209 0 -0.2275824975951227 -0.2207461827585098 0 -0.21151629669390881 -0.21291663877559669 0 -0.22569788398323701 -0.20431246812385209 0 -0.2275824975951227 -0.2207461827585098 0 -0.23600322778131949 -0.19814692121484651 0 -0.23949462900920199 -0.21027573078813011 0 -0.22569788398323701 -0.20431246812385209 0 -0.21214113701728249 -0.228940323783688 0 -0.2275824975951227 -0.2207461827585098 0 -0.22937054978906041 -0.24331512362502869 0 -0.2275824975951227 -0.2207461827585098 0 -0.24510877540263959 -0.22548599802342939 0 -0.22937054978906041 -0.24331512362502869 0 -0.23949462900920199 -0.21027573078813011 0 -0.2275824975951227 -0.2207461827585098 0 -0.24510877540263959 -0.22548599802342939 0 -0.24510877540263959 -0.22548599802342939 0 -0.22937054978906041 -0.24331512362502869 0 -0.2582168116042447 -0.2439014490639565 0 -0.2483490975252734 -0.26098873334868322 0 -0.22937054978906041 -0.24331512362502869 0 -0.2582168116042447 -0.2439014490639565 0 -0.2067502249108786 -0.1536135545564879 0 -0.21547877813771771 -0.14332314171572449 0 -0.20152593766547949 -0.13633519349348669 0 -0.2067502249108786 -0.1536135545564879 0 -0.21547877813771771 -0.14332314171572449 0 -0.22184111984059729 -0.15282479907953789 0 -0.21547877813771771 -0.14332314171572449 0 -0.21860961385214961 -0.13100792014620721 0 -0.20152593766547949 -0.13633519349348669 0 -0.21860961385214961 -0.13100792014620721 0 -0.20152593766547949 -0.13633519349348669 0 -0.2099810947540583 -0.12129541974841899 0 -0.18000311622314791 -0.13001748444371289 0 -0.20152593766547949 -0.13633519349348669 0 -0.19534617212360411 -0.121013351703841 0 -0.18000311622314791 -0.13001748444371289 0 -0.20152593766547949 -0.13633519349348669 0 -0.188845491435889 -0.14939424719825839 0 -0.20152593766547949 -0.13633519349348669 0 -0.2099810947540583 -0.12129541974841899 0 -0.19534617212360411 -0.121013351703841 0 -0.2067502249108786 -0.1536135545564879 0 -0.188845491435889 -0.14939424719825839 0 -0.1979143625406167 -0.1642252661741595 0 -0.2067502249108786 -0.1536135545564879 0 -0.20152593766547949 -0.13633519349348669 0 -0.188845491435889 -0.14939424719825839 0 -0.17757024440875549 -0.16111115580157981 0 -0.188845491435889 -0.14939424719825839 0 -0.1979143625406167 -0.1642252661741595 0 -0.18421608521209271 -0.17558962027652111 0 -0.1981990761364697 -0.20254736480388241 0 -0.21195197509782959 -0.17979668970279891 0 -0.18421608521209271 -0.17558962027652111 0 -0.21195197509782959 -0.17979668970279891 0 -0.18421608521209271 -0.17558962027652111 0 -0.1979143625406167 -0.1642252661741595 0 -0.21195197509782959 -0.17979668970279891 0 -0.1979143625406167 -0.1642252661741595 0 -0.21195197509782959 -0.17979668970279891 0 -0.2165382263276793 -0.1649867273485818 0 -0.2067502249108786 -0.1536135545564879 0 -0.1979143625406167 -0.1642252661741595 0 -0.2165382263276793 -0.1649867273485818 0 -0.2067502249108786 -0.1536135545564879 0 -0.2165382263276793 -0.1649867273485818 0 -0.22184111984059729 -0.15282479907953789 0 -0.2165382263276793 -0.1649867273485818 0 -0.2313091397970973 -0.16435086132264101 0 -0.233842168872713 -0.17694121357944129 0 -0.2165382263276793 -0.1649867273485818 0 -0.2313091397970973 -0.16435086132264101 0 -0.22184111984059729 -0.15282479907953789 0 -0.21195197509782959 -0.17979668970279891 0 -0.233842168872713 -0.17694121357944129 0 -0.23968786498356659 -0.18400375912907671 0 -0.2251169230399053 -0.19244957551320049 0 -0.21195197509782959 -0.17979668970279891 0 -0.23968786498356659 -0.18400375912907671 0 -0.21195197509782959 -0.17979668970279891 0 -0.2165382263276793 -0.1649867273485818 0 -0.233842168872713 -0.17694121357944129 0 -0.21195197509782959 -0.17979668970279891 0 -0.23968786498356659 -0.18400375912907671 0 -0.233842168872713 -0.17694121357944129 0 -0.25982868842644607 -0.17021686968691641 0 -0.233842168872713 -0.17694121357944129 0 -0.23968786498356659 -0.18400375912907671 0 -0.25982868842644607 -0.17021686968691641 0 -0.2313091397970973 -0.16435086132264101 0 -0.24566481473353391 -0.1652464025747532 0 -0.25343568279415951 -0.15224923159364789 0 -0.233842168872713 -0.17694121357944129 0 -0.24566481473353391 -0.1652464025747532 0 -0.25982868842644607 -0.17021686968691641 0 -0.2313091397970973 -0.16435086132264101 0 -0.25343568279415951 -0.15224923159364789 0 -0.2313091397970973 -0.16435086132264101 0 -0.233842168872713 -0.17694121357944129 0 -0.24566481473353391 -0.1652464025747532 0 -0.2313091397970973 -0.16435086132264101 0 -0.23261035815430561 -0.14322336329666011 0 -0.25343568279415951 -0.15224923159364789 0 -0.23261035815430561 -0.14322336329666011 0 -0.2478381125959237 -0.13014188093155071 0 -0.25343568279415951 -0.15224923159364789 0 -0.21547877813771771 -0.14332314171572449 0 -0.23261035815430561 -0.14322336329666011 0 -0.22184111984059729 -0.15282479907953789 0 -0.2313091397970973 -0.16435086132264101 0 -0.23261035815430561 -0.14322336329666011 0 -0.22184111984059729 -0.15282479907953789 0 -0.21547877813771771 -0.14332314171572449 0 -0.21860961385214961 -0.13100792014620721 0 -0.23261035815430561 -0.14322336329666011 0 -0.21860961385214961 -0.13100792014620721 0 -0.23261035815430561 -0.14322336329666011 0 -0.23267318929165751 -0.1266142136656879 0 -0.23261035815430561 -0.14322336329666011 0 -0.23267318929165751 -0.1266142136656879 0 -0.2478381125959237 -0.13014188093155071 0 -0.2478381125959237 -0.13014188093155071 0 -0.2401350799320488 -0.1157431384930437 0 -0.25439292330372432 -0.11161035632906929 0 -0.23267318929165751 -0.1266142136656879 0 -0.2478381125959237 -0.13014188093155071 0 -0.2401350799320488 -0.1157431384930437 0 -0.2401350799320488 -0.1157431384930437 0 -0.2438502060585381 -0.1028583717612334 0 -0.25439292330372432 -0.11161035632906929 0 -0.2438502060585381 -0.1028583717612334 0 -0.2453315870002564 -0.095437246693633959 0 -0.2525882024947626 -0.098821099717938107 0 -0.2453315870002564 -0.095437246693633959 0 -0.25144169010332901 -0.091633326375329338 0 -0.2525882024947626 -0.098821099717938107 0 -0.2438502060585381 -0.1028583717612334 0 -0.2453315870002564 -0.095437246693633959 0 -0.23922762562760841 -0.098169318759804947 0 -0.23922762562760841 -0.098169318759804947 0 -0.23518849288928181 -0.10695649013526939 0 -0.23134854976794339 -0.097632931289006297 0 -0.2453315870002564 -0.095437246693633959 0 -0.23922762562760841 -0.098169318759804947 0 -0.2404192924220224 -0.087961553919881613 0 -0.23922762562760841 -0.098169318759804947 0 -0.23134854976794339 -0.097632931289006297 0 -0.2404192924220224 -0.087961553919881613 0 -0.2438502060585381 -0.1028583717612334 0 -0.23922762562760841 -0.098169318759804947 0 -0.23518849288928181 -0.10695649013526939 0 -0.2401350799320488 -0.1157431384930437 0 -0.2438502060585381 -0.1028583717612334 0 -0.23518849288928181 -0.10695649013526939 0 -0.23518849288928181 -0.10695649013526939 0 -0.23134854976794339 -0.097632931289006297 0 -0.22417278192385959 -0.11295476546097789 0 -0.23134854976794339 -0.097632931289006297 0 -0.22417278192385959 -0.11295476546097789 0 -0.2186303362545719 -0.093883136955868224 0 -0.2401350799320488 -0.1157431384930437 0 -0.23518849288928181 -0.10695649013526939 0 -0.22417278192385959 -0.11295476546097789 0 -0.21860961385214961 -0.13100792014620721 0 -0.23267318929165751 -0.1266142136656879 0 -0.22417278192385959 -0.11295476546097789 0 -0.23267318929165751 -0.1266142136656879 0 -0.2401350799320488 -0.1157431384930437 0 -0.22417278192385959 -0.11295476546097789 0 -0.24388885687392389 -0.071688150345257468 0 -0.2338744138803254 -0.062312468216533988 0 -0.2476323682116322 -0.061520987214930753 0 -0.24388885687392389 -0.071688150345257468 0 -0.2476323682116322 -0.061520987214930753 0 -0.2529882333064245 -0.070973901803662365 0 -0.24388885687392389 -0.071688150345257468 0 -0.24682403554985069 -0.077092069586417622 0 -0.2529882333064245 -0.070973901803662365 0 -0.24388885687392389 -0.071688150345257468 0 -0.24682403554985069 -0.077092069586417622 0 -0.23610695818539329 -0.077097104601848404 0 -0.24388885687392389 -0.071688150345257468 0 -0.23610695818539329 -0.077097104601848404 0 -0.2338744138803254 -0.062312468216533988 0 -0.2404192924220224 -0.087961553919881613 0 -0.23434786935979859 -0.086445608359767251 0 -0.25855249999409979 -0.079349971077516485 0 -0.23434786935979859 -0.086445608359767251 0 -0.25855249999409979 -0.079349971077516485 0 -0.24682403554985069 -0.077092069586417622 0 -0.23434786935979859 -0.086445608359767251 0 -0.25855249999409979 -0.079349971077516485 0 -0.24682403554985069 -0.077092069586417622 0 -0.23610695818539329 -0.077097104601848404 0 -0.23434786935979859 -0.086445608359767251 0 -0.2404192924220224 -0.087961553919881613 0 -0.25356789490128989 -0.088072195653340249 0 -0.25144169010332901 -0.091633326375329338 0 -0.2453315870002564 -0.095437246693633959 0 -0.2404192924220224 -0.087961553919881613 0 -0.25144169010332901 -0.091633326375329338 0 -0.23134854976794339 -0.097632931289006297 0 -0.2404192924220224 -0.087961553919881613 0 -0.2186303362545719 -0.093883136955868224 0 -0.23434786935979859 -0.086445608359767251 0 -0.21819510633345421 -0.084818126690887299 0 -0.2186303362545719 -0.093883136955868224 0 -0.23434786935979859 -0.086445608359767251 0 -0.22784347827361409 -0.07844521728239337 0 -0.21819510633345421 -0.084818126690887299 0 -0.2404192924220224 -0.087961553919881613 0 -0.2186303362545719 -0.093883136955868224 0 -0.2404192924220224 -0.087961553919881613 0 -0.23434786935979859 -0.086445608359767251 0 -0.2186303362545719 -0.093883136955868224 0 -0.23610695818539329 -0.077097104601848404 0 -0.23434786935979859 -0.086445608359767251 0 -0.22784347827361409 -0.07844521728239337 0 -0.22561928727888081 -0.069226289525945936 0 -0.21465014164525181 -0.057056120614390499 0 -0.2338744138803254 -0.062312468216533988 0 -0.23610695818539329 -0.077097104601848404 0 -0.22784347827361409 -0.07844521728239337 0 -0.22561928727888081 -0.069226289525945936 0 -0.22784347827361409 -0.07844521728239337 0 -0.22561928727888081 -0.069226289525945936 0 -0.21562144440981909 -0.071220536914563426 0 -0.23610695818539329 -0.077097104601848404 0 -0.22561928727888081 -0.069226289525945936 0 -0.2338744138803254 -0.062312468216533988 0 -0.20283299924243431 -0.077387366601351398 0 -0.20047874574939811 -0.054521575326106748 0 -0.21465014164525181 -0.057056120614390499 0 -0.22784347827361409 -0.07844521728239337 0 -0.20283299924243431 -0.077387366601351398 0 -0.21562144440981909 -0.071220536914563426 0 -0.20283299924243431 -0.077387366601351398 0 -0.21465014164525181 -0.057056120614390499 0 -0.22784347827361409 -0.07844521728239337 0 -0.21562144440981909 -0.071220536914563426 0 -0.20283299924243431 -0.077387366601351398 0 -0.20283299924243431 -0.077387366601351398 0 -0.21465014164525181 -0.057056120614390499 0 -0.22561928727888081 -0.069226289525945936 0 -0.21562144440981909 -0.071220536914563426 0 -0.21465014164525181 -0.057056120614390499 0 -0.22784347827361409 -0.07844521728239337 0 -0.21819510633345421 -0.084818126690887299 0 -0.20283299924243431 -0.077387366601351398 0 -0.21819510633345421 -0.084818126690887299 0 -0.20732084853685229 -0.087929304255056254 0 -0.20283299924243431 -0.077387366601351398 0 -0.21819510633345421 -0.084818126690887299 0 -0.20732084853685229 -0.087929304255056254 0 -0.2186303362545719 -0.093883136955868224 0 -0.19866559760639321 -0.08455732909318063 0 -0.19684138008712149 -0.099804719991854848 0 -0.1822294403993594 -0.091272888294312293 0 -0.19866559760639321 -0.08455732909318063 0 -0.18940645687904581 -0.076819473560781115 0 -0.1822294403993594 -0.091272888294312293 0 -0.20732084853685229 -0.087929304255056254 0 -0.19866559760639321 -0.08455732909318063 0 -0.19684138008712149 -0.099804719991854848 0 -0.20732084853685229 -0.087929304255056254 0 -0.19866559760639321 -0.08455732909318063 0 -0.20283299924243431 -0.077387366601351398 0 -0.19866559760639321 -0.08455732909318063 0 -0.20283299924243431 -0.077387366601351398 0 -0.18940645687904581 -0.076819473560781115 0 -0.19866559760639321 -0.08455732909318063 0 -0.20283299924243431 -0.077387366601351398 0 -0.20283299924243431 -0.077387366601351398 0 -0.18940645687904581 -0.076819473560781115 0 -0.20047874574939811 -0.054521575326106748 0 -0.18940645687904581 -0.076819473560781115 0 -0.18709502764393729 -0.061773717592220383 0 -0.20047874574939811 -0.054521575326106748 0 -0.18940645687904581 -0.076819473560781115 0 -0.20047874574939811 -0.054521575326106748 0 -0.20283299924243431 -0.077387366601351398 0 -0.18940645687904581 -0.076819473560781115 0 -0.22417278192385959 -0.11295476546097789 0 -0.2099810947540583 -0.12129541974841899 0 -0.20756026250284701 -0.1093706759350784 0 -0.21860961385214961 -0.13100792014620721 0 -0.22417278192385959 -0.11295476546097789 0 -0.2099810947540583 -0.12129541974841899 0 -0.2099810947540583 -0.12129541974841899 0 -0.20756026250284701 -0.1093706759350784 0 -0.19534617212360411 -0.121013351703841 0 -0.2186303362545719 -0.093883136955868224 0 -0.19684138008712149 -0.099804719991854848 0 -0.20732084853685229 -0.087929304255056254 0 -0.2186303362545719 -0.093883136955868224 0 -0.19684138008712149 -0.099804719991854848 0 -0.2186303362545719 -0.093883136955868224 0 -0.20756026250284701 -0.1093706759350784 0 -0.19684138008712149 -0.099804719991854848 0 -0.22417278192385959 -0.11295476546097789 0 -0.2186303362545719 -0.093883136955868224 0 -0.20756026250284701 -0.1093706759350784 0 -0.20756026250284701 -0.1093706759350784 0 -0.19684138008712149 -0.099804719991854848 0 -0.18817082801183779 -0.1109486318043842 0 -0.20756026250284701 -0.1093706759350784 0 -0.18817082801183779 -0.1109486318043842 0 -0.19534617212360411 -0.121013351703841 0 -0.18817082801183779 -0.1109486318043842 0 -0.19534617212360411 -0.121013351703841 0 -0.18027610093587751 -0.1196181089702751 0 -0.18000311622314791 -0.13001748444371289 0 -0.19534617212360411 -0.121013351703841 0 -0.18027610093587751 -0.1196181089702751 0 -0.1628079644011253 -0.13038477387159439 0 -0.18027610093587751 -0.1196181089702751 0 -0.17505242391967141 -0.10572630302784269 0 -0.18817082801183779 -0.1109486318043842 0 -0.18027610093587751 -0.1196181089702751 0 -0.17505242391967141 -0.10572630302784269 0 -0.1628079644011253 -0.13038477387159439 0 -0.16568054242800659 -0.1082732985805344 0 -0.17505242391967141 -0.10572630302784269 0 -0.1628079644011253 -0.13038477387159439 0 -0.16568054242800659 -0.1082732985805344 0 -0.1559183975343586 -0.1153029742025357 0 -0.1628079644011253 -0.13038477387159439 0 -0.17505242391967141 -0.10572630302784269 0 -0.15766897324155929 -0.10201766098942321 0 -0.16769957127680751 -0.09718714727553697 0 -0.15631644193457139 -0.088857398989056272 0 -0.15766897324155929 -0.10201766098942321 0 -0.16568054242800659 -0.1082732985805344 0 -0.16769957127680751 -0.09718714727553697 0 -0.15766897324155929 -0.10201766098942321 0 -0.16568054242800659 -0.1082732985805344 0 -0.1559183975343586 -0.1153029742025357 0 -0.16568054242800659 -0.1082732985805344 0 -0.16769957127680751 -0.09718714727553697 0 -0.17505242391967141 -0.10572630302784269 0 -0.16568054242800659 -0.1082732985805344 0 -0.17505242391967141 -0.10572630302784269 0 -0.19684138008712149 -0.099804719991854848 0 -0.18817082801183779 -0.1109486318043842 0 -0.17505242391967141 -0.10572630302784269 0 -0.19684138008712149 -0.099804719991854848 0 -0.17505242391967141 -0.10572630302784269 0 -0.16769957127680751 -0.09718714727553697 0 -0.17505242391967141 -0.10572630302784269 0 -0.1822294403993594 -0.091272888294312293 0 -0.19684138008712149 -0.099804719991854848 0 -0.17505242391967141 -0.10572630302784269 0 -0.1822294403993594 -0.091272888294312293 0 -0.17505242391967141 -0.10572630302784269 0 -0.1822294403993594 -0.091272888294312293 0 -0.16769957127680751 -0.09718714727553697 0 -0.1822294403993594 -0.091272888294312293 0 -0.16622085479676199 -0.075838808419480111 0 -0.18940645687904581 -0.076819473560781115 0 -0.1822294403993594 -0.091272888294312293 0 -0.16622085479676199 -0.075838808419480111 0 -0.18940645687904581 -0.076819473560781115 0 -0.1822294403993594 -0.091272888294312293 0 -0.18940645687904581 -0.076819473560781115 0 -0.16622085479676199 -0.075838808419480111 0 -0.18940645687904581 -0.076819473560781115 0 -0.17672291357829811 -0.064990721505459842 0 -0.16622085479676199 -0.075838808419480111 0 -0.18940645687904581 -0.076819473560781115 0 -0.17672291357829811 -0.064990721505459842 0 -0.18709502764393729 -0.061773717592220383 0 -0.17672291357829811 -0.064990721505459842 0 -0.16622085479676199 -0.075838808419480111 0 -0.16458020880549121 -0.059492387506912943 0 -0.16622085479676199 -0.075838808419480111 0 -0.15646239569026699 -0.065906604111614212 0 -0.16458020880549121 -0.059492387506912943 0 -0.16769957127680751 -0.09718714727553697 0 -0.16622085479676199 -0.075838808419480111 0 -0.15631644193457139 -0.088857398989056272 0 -0.15631644193457139 -0.088857398989056272 0 -0.14677991412428701 -0.093732051016317916 0 -0.1430352527144782 -0.074858143278179051 0 -0.16622085479676199 -0.075838808419480111 0 -0.15631644193457139 -0.088857398989056272 0 -0.1430352527144782 -0.074858143278179051 0 -0.14677991412428701 -0.093732051016317916 0 -0.1430352527144782 -0.074858143278179051 0 -0.13451756518433111 -0.095180895342251215 0 -0.1430352527144782 -0.074858143278179051 0 -0.1411001381629465 -0.060647222888288201 0 -0.15201326644433669 -0.053437077241884359 0 -0.16622085479676199 -0.075838808419480111 0 -0.15646239569026699 -0.065906604111614212 0 -0.1430352527144782 -0.074858143278179051 0 -0.16622085479676199 -0.075838808419480111 0 -0.1430352527144782 -0.074858143278179051 0 -0.1430352527144782 -0.074858143278179051 0 -0.15201326644433669 -0.053437077241884359 0 -0.15646239569026699 -0.065906604111614212 0 -0.1430352527144782 -0.074858143278179051 0 -0.15201326644433669 -0.053437077241884359 0 -0.13708859775349791 -0.067653843581906681 0 -0.130794656111274 -0.068530613083725267 0 -0.13379805028672059 -0.060142641530726633 0 -0.1430352527144782 -0.074858143278179051 0 -0.13708859775349791 -0.067653843581906681 0 -0.1411001381629465 -0.060647222888288201 0 -0.13708859775349791 -0.067653843581906681 0 -0.13379805028672059 -0.060142641530726633 0 -0.1411001381629465 -0.060647222888288201 0 -0.13708859775349791 -0.067653843581906681 0 -0.13568082893985359 -0.07454707837658528 0 -0.130794656111274 -0.068530613083725267 0 -0.1430352527144782 -0.074858143278179051 0 -0.13708859775349791 -0.067653843581906681 0 -0.13568082893985359 -0.07454707837658528 0 -0.1430352527144782 -0.074858143278179051 0 -0.13568082893985359 -0.07454707837658528 0 -0.1232756904161693 -0.070411489051666373 0 -0.130794656111274 -0.068530613083725267 0 -0.12737817104852411 -0.080741270387750683 0 -0.13568082893985359 -0.07454707837658528 0 -0.130794656111274 -0.068530613083725267 0 -0.12737817104852411 -0.080741270387750683 0 -0.12131955324210091 -0.059181462630683621 0 -0.130794656111274 -0.068530613083725267 0 -0.13379805028672059 -0.060142641530726633 0 -0.1232756904161693 -0.070411489051666373 0 -0.12131955324210091 -0.059181462630683621 0 -0.130794656111274 -0.068530613083725267 0 -0.13568082893985359 -0.07454707837658528 0 -0.12737817104852411 -0.080741270387750683 0 -0.13451756518433111 -0.095180895342251215 0 -0.1430352527144782 -0.074858143278179051 0 -0.13568082893985359 -0.07454707837658528 0 -0.13451756518433111 -0.095180895342251215 0 -0.1430352527144782 -0.074858143278179051 0 -0.13451756518433111 -0.095180895342251215 0 -0.12067370026095731 -0.092005587950159118 0 -0.12737817104852411 -0.080741270387750683 0 -0.13451756518433111 -0.095180895342251215 0 -0.13451756518433111 -0.095180895342251215 0 -0.12599987765418549 -0.11550364740632391 0 -0.13451756518433111 -0.095180895342251215 0 -0.139855014945965 -0.1081270544919556 0 -0.13238394533585049 -0.1132856834133564 0 -0.13451756518433111 -0.095180895342251215 0 -0.12599987765418549 -0.11550364740632391 0 -0.13238394533585049 -0.1132856834133564 0 -0.12182531397588869 -0.1044134543712442 0 -0.13451756518433111 -0.095180895342251215 0 -0.12599987765418549 -0.11550364740632391 0 -0.12182531397588869 -0.1044134543712442 0 -0.12067370026095731 -0.092005587950159118 0 -0.13451756518433111 -0.095180895342251215 0 -0.12599987765418549 -0.11550364740632391 0 -0.1252704192176744 -0.1172440966648565 0 -0.13114171751694609 -0.1183715484722116 0 -0.12599987765418549 -0.11550364740632391 0 -0.1252704192176744 -0.1172440966648565 0 -0.12599987765418549 -0.11550364740632391 0 -0.13238394533585049 -0.1132856834133564 0 -0.12599987765418549 -0.11550364740632391 0 -0.13238394533585049 -0.1132856834133564 0 -0.13114171751694609 -0.1183715484722116 0 -0.1355018371655794 -0.1265678790332187 0 -0.1252704192176744 -0.1172440966648565 0 -0.13114171751694609 -0.1183715484722116 0 -0.1355018371655794 -0.1265678790332187 0 -0.13114171751694609 -0.1183715484722116 0 -0.14420813470266419 -0.11805716313719079 0 -0.139855014945965 -0.1081270544919556 0 -0.13238394533585049 -0.1132856834133564 0 -0.14420813470266419 -0.11805716313719079 0 -0.13238394533585049 -0.1132856834133564 0 -0.13114171751694609 -0.1183715484722116 0 -0.14420813470266419 -0.11805716313719079 0 -0.139855014945965 -0.1081270544919556 0 -0.14420813470266419 -0.11805716313719079 0 -0.1483104145610141 -0.1059844760750239 0 -0.1628079644011253 -0.13038477387159439 0 -0.14420813470266419 -0.11805716313719079 0 -0.1559183975343586 -0.1153029742025357 0 -0.14420813470266419 -0.11805716313719079 0 -0.1559183975343586 -0.1153029742025357 0 -0.1483104145610141 -0.1059844760750239 0 -0.15766897324155929 -0.10201766098942321 0 -0.1559183975343586 -0.1153029742025357 0 -0.1483104145610141 -0.1059844760750239 0 -0.15766897324155929 -0.10201766098942321 0 -0.15631644193457139 -0.088857398989056272 0 -0.14677991412428701 -0.093732051016317916 0 -0.15766897324155929 -0.10201766098942321 0 -0.14677991412428701 -0.093732051016317916 0 -0.1483104145610141 -0.1059844760750239 0 -0.14677991412428701 -0.093732051016317916 0 -0.13451756518433111 -0.095180895342251215 0 -0.1483104145610141 -0.1059844760750239 0 -0.13451756518433111 -0.095180895342251215 0 -0.139855014945965 -0.1081270544919556 0 -0.1483104145610141 -0.1059844760750239 0 -0.1452248522035206 -0.0135074852317284 0 -0.13361245343545181 -0.030305793086055629 0 -0.1484749629479134 -0.038477035386196637 0 -0.1452248522035206 -0.0135074852317284 0 -0.1484749629479134 -0.038477035386196637 0 -0.16099128017419639 -0.03201601120559007 0 -0.1452248522035206 -0.0135074852317284 0 -0.1660829110182864 -0.0110115892886907 0 -0.1564869492866878 -0.00059129627401754796 0 -0.1452248522035206 -0.0135074852317284 0 -0.1564869492866878 -0.00059129627401754796 0 -0.1433170204333889 0.0042533116210359059 0 -0.1452248522035206 -0.0135074852317284 0 -0.13137048688310951 -0.003337023478303953 0 -0.1433170204333889 0.0042533116210359059 0 -0.1236122261121546 -0.0078425818954372464 0 -0.1452248522035206 -0.0135074852317284 0 -0.13137048688310951 -0.003337023478303953 0 -0.1236122261121546 -0.0078425818954372464 0 -0.13137048688310951 -0.003337023478303953 0 -0.1236122261121546 -0.0078425818954372464 0 -0.13361245343545181 -0.030305793086055629 0 -0.1236122261121546 -0.0078425818954372464 0 -0.1185057960264221 -0.028529017004706999 0 -0.13361245343545181 -0.030305793086055629 0 -0.1236122261121546 -0.0078425818954372464 0 -0.1452248522035206 -0.0135074852317284 0 -0.13361245343545181 -0.030305793086055629 0 -0.13361245343545181 -0.030305793086055629 0 -0.14346563865851419 -0.05243870800993642 0 -0.1197314047957487 -0.044466417495601512 0 -0.13361245343545181 -0.030305793086055629 0 -0.1315211872564446 -0.050314657740016588 0 -0.13361245343545181 -0.030305793086055629 0 -0.1315211872564446 -0.050314657740016588 0 -0.14346563865851419 -0.05243870800993642 0 -0.12131955324210091 -0.059181462630683621 0 -0.1315211872564446 -0.050314657740016588 0 -0.13379805028672059 -0.060142641530726633 0 -0.1315211872564446 -0.050314657740016588 0 -0.1374712535911565 -0.055885807542241962 0 -0.14346563865851419 -0.05243870800993642 0 -0.1315211872564446 -0.050314657740016588 0 -0.1374712535911565 -0.055885807542241962 0 -0.13379805028672059 -0.060142641530726633 0 -0.1374712535911565 -0.055885807542241962 0 -0.13379805028672059 -0.060142641530726633 0 -0.1411001381629465 -0.060647222888288201 0 -0.1411001381629465 -0.060647222888288201 0 -0.14346563865851419 -0.05243870800993642 0 -0.15201326644433669 -0.053437077241884359 0 -0.1374712535911565 -0.055885807542241962 0 -0.1411001381629465 -0.060647222888288201 0 -0.14346563865851419 -0.05243870800993642 0 -0.14346563865851419 -0.05243870800993642 0 -0.15201326644433669 -0.053437077241884359 0 -0.1484749629479134 -0.038477035386196637 0 -0.15201326644433669 -0.053437077241884359 0 -0.1484749629479134 -0.038477035386196637 0 -0.16099128017419639 -0.03201601120559007 0 -0.13361245343545181 -0.030305793086055629 0 -0.14346563865851419 -0.05243870800993642 0 -0.1484749629479134 -0.038477035386196637 0 -0.15201326644433669 -0.053437077241884359 0 -0.16099128017419639 -0.03201601120559007 0 -0.15201326644433669 -0.053437077241884359 0 -0.16099128017419639 -0.03201601120559007 0 -0.16622336588392531 -0.046665464390732471 0 -0.16099128017419639 -0.03201601120559007 0 -0.17705927752236811 -0.038294319471390781 0 -0.1772337338696203 -0.023645926918309929 0 -0.16099128017419639 -0.03201601120559007 0 -0.16622336588392531 -0.046665464390732471 0 -0.17705927752236811 -0.038294319471390781 0 -0.15646239569026699 -0.065906604111614212 0 -0.15201326644433669 -0.053437077241884359 0 -0.16458020880549121 -0.059492387506912943 0 -0.15201326644433669 -0.053437077241884359 0 -0.16622336588392531 -0.046665464390732471 0 -0.16458020880549121 -0.059492387506912943 0 -0.16622336588392531 -0.046665464390732471 0 -0.16458020880549121 -0.059492387506912943 0 -0.17631201976625371 -0.05102922044790497 0 -0.17672291357829811 -0.064990721505459842 0 -0.16458020880549121 -0.059492387506912943 0 -0.17631201976625371 -0.05102922044790497 0 -0.17631201976625371 -0.05102922044790497 0 -0.18709502764393729 -0.061773717592220383 0 -0.18868425509965489 -0.047684834797198213 0 -0.17672291357829811 -0.064990721505459842 0 -0.17631201976625371 -0.05102922044790497 0 -0.18709502764393729 -0.061773717592220383 0 -0.16622336588392531 -0.046665464390732471 0 -0.17631201976625371 -0.05102922044790497 0 -0.17705927752236811 -0.038294319471390781 0 -0.17631201976625371 -0.05102922044790497 0 -0.17705927752236811 -0.038294319471390781 0 -0.18868425509965489 -0.047684834797198213 0 -0.17705927752236811 -0.038294319471390781 0 -0.18868425509965489 -0.047684834797198213 0 -0.19198493650835269 -0.034148616047928453 0 -0.17705927752236811 -0.038294319471390781 0 -0.1772337338696203 -0.023645926918309929 0 -0.19198493650835269 -0.034148616047928453 0 -0.1772337338696203 -0.023645926918309929 0 -0.18418091461086311 -0.0067458590849352237 0 -0.19781487964127609 -0.018046172764705552 0 -0.16099128017419639 -0.03201601120559007 0 -0.1772337338696203 -0.023645926918309929 0 -0.1660829110182864 -0.0110115892886907 0 -0.1452248522035206 -0.0135074852317284 0 -0.16099128017419639 -0.03201601120559007 0 -0.1660829110182864 -0.0110115892886907 0 -0.1660829110182864 -0.0110115892886907 0 -0.1564869492866878 -0.00059129627401754796 0 -0.17208342559322409 0.0058404778805985873 0 -0.1660829110182864 -0.0110115892886907 0 -0.18418091461086311 -0.0067458590849352237 0 -0.17208342559322409 0.0058404778805985873 0 -0.1772337338696203 -0.023645926918309929 0 -0.1660829110182864 -0.0110115892886907 0 -0.18418091461086311 -0.0067458590849352237 0 -0.18418091461086311 -0.0067458590849352237 0 -0.2008908429601583 -0.001101000049535744 0 -0.19781487964127609 -0.018046172764705552 0 -0.19781487964127609 -0.018046172764705552 0 -0.19198493650835269 -0.034148616047928453 0 -0.21155103461974961 -0.032223677091432062 0 -0.1772337338696203 -0.023645926918309929 0 -0.19781487964127609 -0.018046172764705552 0 -0.19198493650835269 -0.034148616047928453 0 -0.19781487964127609 -0.018046172764705552 0 -0.21155103461974961 -0.032223677091432062 0 -0.21882158577424271 -0.0103131571922281 0 -0.2008908429601583 -0.001101000049535744 0 -0.19781487964127609 -0.018046172764705552 0 -0.21882158577424271 -0.0103131571922281 0 -0.18709502764393729 -0.061773717592220383 0 -0.18868425509965489 -0.047684834797198213 0 -0.20047874574939811 -0.054521575326106748 0 -0.18868425509965489 -0.047684834797198213 0 -0.20047874574939811 -0.054521575326106748 0 -0.19817474299428881 -0.04214467581566636 0 -0.19817474299428881 -0.04214467581566636 0 -0.19198493650835269 -0.034148616047928453 0 -0.21155103461974961 -0.032223677091432062 0 -0.18868425509965489 -0.047684834797198213 0 -0.19817474299428881 -0.04214467581566636 0 -0.19198493650835269 -0.034148616047928453 0 -0.20047874574939811 -0.054521575326106748 0 -0.21155103461974961 -0.032223677091432062 0 -0.20047874574939811 -0.054521575326106748 0 -0.19817474299428881 -0.04214467581566636 0 -0.21155103461974961 -0.032223677091432062 0 -0.21155103461974961 -0.032223677091432062 0 -0.21465014164525181 -0.057056120614390499 0 -0.22646728404806721 -0.036724874627428489 0 -0.20047874574939811 -0.054521575326106748 0 -0.21155103461974961 -0.032223677091432062 0 -0.21465014164525181 -0.057056120614390499 0 -0.21465014164525181 -0.057056120614390499 0 -0.2338744138803254 -0.062312468216533988 0 -0.22646728404806721 -0.036724874627428489 0 -0.2338744138803254 -0.062312468216533988 0 -0.22646728404806721 -0.036724874627428489 0 -0.21465014164525181 -0.057056120614390499 0 -0.22646728404806721 -0.036724874627428489 0 -0.22646728404806721 -0.036724874627428489 0 -0.2401414722927224 -0.032241302373577058 0 -0.24278742868549399 -0.046838078323859687 0 -0.2401414722927224 -0.032241302373577058 0 -0.25378175816230958 -0.02436733484642779 0 -0.25219715932032732 -0.038265850071314 0 -0.2401414722927224 -0.032241302373577058 0 -0.24278742868549399 -0.046838078323859687 0 -0.25219715932032732 -0.038265850071314 0 -0.2338744138803254 -0.062312468216533988 0 -0.22646728404806721 -0.036724874627428489 0 -0.24278742868549399 -0.046838078323859687 0 -0.24278742868549399 -0.046838078323859687 0 -0.2476323682116322 -0.061520987214930753 0 -0.25620744044593469 -0.049667056832747067 0 -0.2338744138803254 -0.062312468216533988 0 -0.24278742868549399 -0.046838078323859687 0 -0.2476323682116322 -0.061520987214930753 0 -0.21882158577424271 -0.0103131571922281 0 -0.2374946151573453 -0.01775248911154621 0 -0.23546354233931949 0.0078270751002715265 0 -0.22646728404806721 -0.036724874627428489 0 -0.2374946151573453 -0.01775248911154621 0 -0.21155103461974961 -0.032223677091432062 0 -0.22646728404806721 -0.036724874627428489 0 -0.21882158577424271 -0.0103131571922281 0 -0.22646728404806721 -0.036724874627428489 0 -0.21882158577424271 -0.0103131571922281 0 -0.22646728404806721 -0.036724874627428489 0 -0.21882158577424271 -0.0103131571922281 0 -0.2374946151573453 -0.01775248911154621 0 -0.2374946151573453 -0.01775248911154621 0 -0.25227296286688322 -0.0076793426536460041 0 -0.25378175816230958 -0.02436733484642779 0 -0.2401414722927224 -0.032241302373577058 0 -0.2374946151573453 -0.01775248911154621 0 -0.25378175816230958 -0.02436733484642779 0 -0.22646728404806721 -0.036724874627428489 0 -0.2401414722927224 -0.032241302373577058 0 -0.2374946151573453 -0.01775248911154621 0 -0.2374946151573453 -0.01775248911154621 0 -0.25227296286688322 -0.0076793426536460041 0 -0.23546354233931949 0.0078270751002715265 0 -0.25227296286688322 -0.0076793426536460041 0 -0.27504786807920711 -0.016522946018952021 0 -0.26249405175029211 0.007662734938978108 0 -0.25227296286688322 -0.0076793426536460041 0 -0.25378175816230958 -0.02436733484642779 0 -0.27504786807920711 -0.016522946018952021 0 -0.25378175816230958 -0.02436733484642779 0 -0.27504786807920711 -0.016522946018952021 0 -0.26471526887818231 -0.03538659961621915 0 -0.27504786807920711 -0.016522946018952021 0 -0.27907013255445939 -0.03491531901183742 0 -0.26471526887818231 -0.03538659961621915 0 -0.27504786807920711 -0.016522946018952021 0 -0.26249405175029211 0.007662734938978108 0 -0.29088909275279012 0.0052797473078289572 0 -0.27504786807920711 -0.016522946018952021 0 -0.29710775469227729 -0.014596668466157351 0 -0.29088909275279012 0.0052797473078289572 0 -0.27504786807920711 -0.016522946018952021 0 -0.29121836233921761 -0.027938763998333869 0 -0.27907013255445939 -0.03491531901183742 0 -0.27504786807920711 -0.016522946018952021 0 -0.29121836233921761 -0.027938763998333869 0 -0.29710775469227729 -0.014596668466157351 0 -0.29710775469227729 -0.014596668466157351 0 -0.31759413704845219 -0.011310857140017521 0 -0.31311363369768291 -0.03310849193739672 0 -0.29121836233921761 -0.027938763998333869 0 -0.29710775469227729 -0.014596668466157351 0 -0.31311363369768291 -0.03310849193739672 0 -0.29710775469227729 -0.014596668466157351 0 -0.30518798685158838 -0.0020929360932298849 0 -0.29088909275279012 0.0052797473078289572 0 -0.29710775469227729 -0.014596668466157351 0 -0.30518798685158838 -0.0020929360932298849 0 -0.31759413704845219 -0.011310857140017521 0 -0.3114594072847322 -0.049306726894047262 0 -0.29175242267246138 -0.04055039455732605 0 -0.29253753360804391 -0.057483018047446738 0 -0.3114594072847322 -0.049306726894047262 0 -0.29253753360804391 -0.057483018047446738 0 -0.30696176126270219 -0.065158696513015008 0 -0.3114594072847322 -0.049306726894047262 0 -0.29175242267246138 -0.04055039455732605 0 -0.31311363369768291 -0.03310849193739672 0 -0.29175242267246138 -0.04055039455732605 0 -0.31311363369768291 -0.03310849193739672 0 -0.3114594072847322 -0.049306726894047262 0 -0.29175242267246138 -0.04055039455732605 0 -0.29121836233921761 -0.027938763998333869 0 -0.29175242267246138 -0.04055039455732605 0 -0.31311363369768291 -0.03310849193739672 0 -0.29175242267246138 -0.04055039455732605 0 -0.27907013255445939 -0.03491531901183742 0 -0.29121836233921761 -0.027938763998333869 0 -0.29175242267246138 -0.04055039455732605 0 -0.27907013255445939 -0.03491531901183742 0 -0.29175242267246138 -0.04055039455732605 0 -0.29253753360804391 -0.057483018047446738 0 -0.27994708571901822 -0.057980160189140359 0 -0.27994708571901822 -0.057980160189140359 0 -0.26824156593179532 -0.048741199197032549 0 -0.26874039246249382 -0.069271675174266092 0 -0.29175242267246138 -0.04055039455732605 0 -0.27994708571901822 -0.057980160189140359 0 -0.26824156593179532 -0.048741199197032549 0 -0.29175242267246138 -0.04055039455732605 0 -0.26824156593179532 -0.048741199197032549 0 -0.27907013255445939 -0.03491531901183742 0 -0.29175242267246138 -0.04055039455732605 0 -0.26824156593179532 -0.048741199197032549 0 -0.26824156593179532 -0.048741199197032549 0 -0.27907013255445939 -0.03491531901183742 0 -0.26471526887818231 -0.03538659961621915 0 -0.26824156593179532 -0.048741199197032549 0 -0.26471526887818231 -0.03538659961621915 0 -0.25620744044593469 -0.049667056832747067 0 -0.24278742868549399 -0.046838078323859687 0 -0.25219715932032732 -0.038265850071314 0 -0.25620744044593469 -0.049667056832747067 0 -0.26471526887818231 -0.03538659961621915 0 -0.25219715932032732 -0.038265850071314 0 -0.25620744044593469 -0.049667056832747067 0 -0.25378175816230958 -0.02436733484642779 0 -0.26471526887818231 -0.03538659961621915 0 -0.25219715932032732 -0.038265850071314 0 -0.26824156593179532 -0.048741199197032549 0 -0.25818533518880471 -0.062204128102381351 0 -0.26874039246249382 -0.069271675174266092 0 -0.26824156593179532 -0.048741199197032549 0 -0.25818533518880471 -0.062204128102381351 0 -0.25620744044593469 -0.049667056832747067 0 -0.2476323682116322 -0.061520987214930753 0 -0.25818533518880471 -0.062204128102381351 0 -0.25620744044593469 -0.049667056832747067 0 -0.2476323682116322 -0.061520987214930753 0 -0.25818533518880471 -0.062204128102381351 0 -0.2529882333064245 -0.070973901803662365 0 -0.25818533518880471 -0.062204128102381351 0 -0.25865454608389071 -0.0715458776642144 0 -0.2529882333064245 -0.070973901803662365 0 -0.25818533518880471 -0.062204128102381351 0 -0.25865454608389071 -0.0715458776642144 0 -0.26874039246249382 -0.069271675174266092 0 -0.25865454608389071 -0.0715458776642144 0 -0.25855249999409979 -0.079349971077516485 0 -0.26874039246249382 -0.069271675174266092 0 -0.24682403554985069 -0.077092069586417622 0 -0.25425482873356642 -0.074740455032952721 0 -0.25855249999409979 -0.079349971077516485 0 -0.25865454608389071 -0.0715458776642144 0 -0.25425482873356642 -0.074740455032952721 0 -0.25855249999409979 -0.079349971077516485 0 -0.25865454608389071 -0.0715458776642144 0 -0.25425482873356642 -0.074740455032952721 0 -0.2529882333064245 -0.070973901803662365 0 -0.24682403554985069 -0.077092069586417622 0 -0.25425482873356642 -0.074740455032952721 0 -0.2529882333064245 -0.070973901803662365 0 -0.2404192924220224 -0.087961553919881613 0 -0.25356789490128989 -0.088072195653340249 0 -0.26220824858947278 -0.082039970883894989 0 -0.2404192924220224 -0.087961553919881613 0 -0.26220824858947278 -0.082039970883894989 0 -0.2404192924220224 -0.087961553919881613 0 -0.26220824858947278 -0.082039970883894989 0 -0.25855249999409979 -0.079349971077516485 0 -0.25356789490128989 -0.088072195653340249 0 -0.25144169010332901 -0.091633326375329338 0 -0.26020234849033591 -0.090653931434255125 0 -0.25144169010332901 -0.091633326375329338 0 -0.26020234849033591 -0.090653931434255125 0 -0.2525882024947626 -0.098821099717938107 0 -0.26020234849033591 -0.090653931434255125 0 -0.26220824858947278 -0.082039970883894989 0 -0.26803774644364831 -0.088990216861234941 0 -0.26020234849033591 -0.090653931434255125 0 -0.26803774644364831 -0.088990216861234941 0 -0.26237563885443332 -0.099092169843888092 0 -0.25356789490128989 -0.088072195653340249 0 -0.26020234849033591 -0.090653931434255125 0 -0.26220824858947278 -0.082039970883894989 0 -0.26220824858947278 -0.082039970883894989 0 -0.25855249999409979 -0.079349971077516485 0 -0.27123440961567508 -0.082288547260032208 0 -0.27123440961567508 -0.082288547260032208 0 -0.26803774644364831 -0.088990216861234941 0 -0.28416808666832472 -0.090876464884104322 0 -0.26220824858947278 -0.082039970883894989 0 -0.27123440961567508 -0.082288547260032208 0 -0.26803774644364831 -0.088990216861234941 0 -0.27123440961567508 -0.082288547260032208 0 -0.28275713062840102 -0.072254333795265746 0 -0.28416808666832472 -0.090876464884104322 0 -0.26803774644364831 -0.088990216861234941 0 -0.26237563885443332 -0.099092169843888092 0 -0.28416808666832472 -0.090876464884104322 0 -0.25855249999409979 -0.079349971077516485 0 -0.28275713062840102 -0.072254333795265746 0 -0.25855249999409979 -0.079349971077516485 0 -0.26874039246249382 -0.069271675174266092 0 -0.28275713062840102 -0.072254333795265746 0 -0.25855249999409979 -0.079349971077516485 0 -0.27123440961567508 -0.082288547260032208 0 -0.28275713062840102 -0.072254333795265746 0 -0.27994708571901822 -0.057980160189140359 0 -0.26874039246249382 -0.069271675174266092 0 -0.28275713062840102 -0.072254333795265746 0 -0.2478381125959237 -0.13014188093155071 0 -0.26471173226585809 -0.1241277151614352 0 -0.25439292330372432 -0.11161035632906929 0 -0.26471173226585809 -0.1241277151614352 0 -0.25439292330372432 -0.11161035632906929 0 -0.26925149092450551 -0.1104881183943958 0 -0.25439292330372432 -0.11161035632906929 0 -0.26237563885443332 -0.099092169843888092 0 -0.26925149092450551 -0.1104881183943958 0 -0.25439292330372432 -0.11161035632906929 0 -0.2525882024947626 -0.098821099717938107 0 -0.26237563885443332 -0.099092169843888092 0 -0.2438502060585381 -0.1028583717612334 0 -0.25439292330372432 -0.11161035632906929 0 -0.2525882024947626 -0.098821099717938107 0 -0.26020234849033591 -0.090653931434255125 0 -0.2525882024947626 -0.098821099717938107 0 -0.26237563885443332 -0.099092169843888092 0 -0.26237563885443332 -0.099092169843888092 0 -0.26925149092450551 -0.1104881183943958 0 -0.28416808666832472 -0.090876464884104322 0 -0.26237563885443332 -0.099092169843888092 0 -0.28416808666832472 -0.090876464884104322 0 -0.26925149092450551 -0.1104881183943958 0 -0.28362018306611941 -0.1149768545032684 0 -0.28416808666832472 -0.090876464884104322 0 -0.26471173226585809 -0.1241277151614352 0 -0.26925149092450551 -0.1104881183943958 0 -0.28362018306611941 -0.1149768545032684 0 -0.28362018306611941 -0.1149768545032684 0 -0.30012398023346848 -0.099943372585857088 0 -0.29756340944960558 -0.1135198660677226 0 -0.28362018306611941 -0.1149768545032684 0 -0.29756340944960558 -0.1135198660677226 0 -0.29768876878828382 -0.12804597213566191 0 -0.28362018306611941 -0.1149768545032684 0 -0.30012398023346848 -0.099943372585857088 0 -0.28416808666832472 -0.090876464884104322 0 -0.30012398023346848 -0.099943372585857088 0 -0.30783691459248808 -0.106447779092323 0 -0.31567959952596442 -0.097557764174788134 0 -0.30012398023346848 -0.099943372585857088 0 -0.30783691459248808 -0.106447779092323 0 -0.29756340944960558 -0.1135198660677226 0 -0.31981531178534578 -0.1159443424066684 0 -0.31168640084693722 -0.1309238984722621 0 -0.29768876878828382 -0.12804597213566191 0 -0.31097561465500489 -0.1146061177684144 0 -0.31981531178534578 -0.1159443424066684 0 -0.29768876878828382 -0.12804597213566191 0 -0.31981531178534578 -0.1159443424066684 0 -0.29768876878828382 -0.12804597213566191 0 -0.30783691459248808 -0.106447779092323 0 -0.29756340944960558 -0.1135198660677226 0 -0.31097561465500489 -0.1146061177684144 0 -0.30783691459248808 -0.106447779092323 0 -0.31097561465500489 -0.1146061177684144 0 -0.31588048179209449 -0.1075745667651056 0 -0.29756340944960558 -0.1135198660677226 0 -0.31097561465500489 -0.1146061177684144 0 -0.29768876878828382 -0.12804597213566191 0 -0.29253753360804391 -0.057483018047446738 0 -0.28275713062840102 -0.072254333795265746 0 -0.30696176126270219 -0.065158696513015008 0 -0.28275713062840102 -0.072254333795265746 0 -0.30696176126270219 -0.065158696513015008 0 -0.29253753360804391 -0.057483018047446738 0 -0.27994708571901822 -0.057980160189140359 0 -0.28275713062840102 -0.072254333795265746 0 -0.28275713062840102 -0.072254333795265746 0 -0.28416808666832472 -0.090876464884104322 0 -0.30596053448221622 -0.082660759924320565 0 -0.30012398023346848 -0.099943372585857088 0 -0.28416808666832472 -0.090876464884104322 0 -0.30596053448221622 -0.082660759924320565 0 -0.28416808666832472 -0.090876464884104322 0 -0.30596053448221622 -0.082660759924320565 0 -0.30012398023346848 -0.099943372585857088 0 -0.30596053448221622 -0.082660759924320565 0 -0.31567959952596442 -0.097557764174788134 0 -0.28275713062840102 -0.072254333795265746 0 -0.30596053448221622 -0.082660759924320565 0 -0.30696176126270219 -0.065158696513015008 0 -0.30696176126270219 -0.065158696513015008 0 -0.32775298229610761 -0.074445054964536822 0 -0.33116639189700398 -0.058063059230765962 0 -0.30596053448221622 -0.082660759924320565 0 -0.30696176126270219 -0.065158696513015008 0 -0.32775298229610761 -0.074445054964536822 0 -0.30596053448221622 -0.082660759924320565 0 -0.32775298229610761 -0.074445054964536822 0 -0.30596053448221622 -0.082660759924320565 0 -0.32775298229610761 -0.074445054964536822 0 -0.32362127966136711 -0.087321124884110049 0 -0.30596053448221622 -0.082660759924320565 0 -0.32362127966136711 -0.087321124884110049 0 -0.31567959952596442 -0.097557764174788134 0 -0.32362127966136711 -0.087321124884110049 0 -0.31567959952596442 -0.097557764174788134 0 -0.33099901797333198 -0.096034161481027461 0 -0.32775298229610761 -0.074445054964536822 0 -0.32362127966136711 -0.087321124884110049 0 -0.33771426402921512 -0.08590788387587725 0 -0.32775298229610761 -0.074445054964536822 0 -0.33771426402921512 -0.08590788387587725 0 -0.3410929925936918 -0.075329856076351967 0 -0.32362127966136711 -0.087321124884110049 0 -0.33771426402921512 -0.08590788387587725 0 -0.33099901797333198 -0.096034161481027461 0 -0.33771426402921512 -0.08590788387587725 0 -0.34583111956259749 -0.098435285946989581 0 -0.34764631593145701 -0.084003956848892683 0 -0.33771426402921512 -0.08590788387587725 0 -0.33099901797333198 -0.096034161481027461 0 -0.34583111956259749 -0.098435285946989581 0 -0.33771426402921512 -0.08590788387587725 0 -0.3410929925936918 -0.075329856076351967 0 -0.34764631593145701 -0.084003956848892683 0 -0.32775298229610761 -0.074445054964536822 0 -0.34954543010999922 -0.066229350004753773 0 -0.32775298229610761 -0.074445054964536822 0 -0.34954543010999922 -0.066229350004753773 0 -0.33116639189700398 -0.058063059230765962 0 -0.32775298229610761 -0.074445054964536822 0 -0.3410929925936918 -0.075329856076351967 0 -0.34954543010999922 -0.066229350004753773 0 -0.31981531178534578 -0.1159443424066684 0 -0.33811662782018509 -0.1187149432167614 0 -0.32501708124079648 -0.13103464252731351 0 -0.31097561465500489 -0.1146061177684144 0 -0.31981531178534578 -0.1159443424066684 0 -0.31588048179209449 -0.1075745667651056 0 -0.31097561465500489 -0.1146061177684144 0 -0.31981531178534578 -0.1159443424066684 0 -0.31981531178534578 -0.1159443424066684 0 -0.32413251233690038 -0.10459203082738 0 -0.33754729440195652 -0.1062462215562652 0 -0.31981531178534578 -0.1159443424066684 0 -0.32413251233690038 -0.10459203082738 0 -0.31588048179209449 -0.1075745667651056 0 -0.32413251233690038 -0.10459203082738 0 -0.31588048179209449 -0.1075745667651056 0 -0.31567959952596442 -0.097557764174788134 0 -0.30783691459248808 -0.106447779092323 0 -0.31588048179209449 -0.1075745667651056 0 -0.31567959952596442 -0.097557764174788134 0 -0.32413251233690038 -0.10459203082738 0 -0.31567959952596442 -0.097557764174788134 0 -0.33099901797333198 -0.096034161481027461 0 -0.33754729440195652 -0.1062462215562652 0 -0.33811662782018509 -0.1187149432167614 0 -0.34583111956259749 -0.098435285946989581 0 -0.33099901797333198 -0.096034161481027461 0 -0.33754729440195652 -0.1062462215562652 0 -0.34583111956259749 -0.098435285946989581 0 -0.32413251233690038 -0.10459203082738 0 -0.33099901797333198 -0.096034161481027461 0 -0.33754729440195652 -0.1062462215562652 0 -0.31981531178534578 -0.1159443424066684 0 -0.33754729440195652 -0.1062462215562652 0 -0.31981531178534578 -0.1159443424066684 0 -0.33754729440195652 -0.1062462215562652 0 -0.33811662782018509 -0.1187149432167614 0 -0.31981531178534578 -0.1159443424066684 0 -0.33811662782018509 -0.1187149432167614 0 -0.33811662782018509 -0.1187149432167614 0 -0.32501708124079648 -0.13103464252731351 0 -0.33811662782018509 -0.1187149432167614 0 -0.35957868311145441 -0.098530575294378642 0 -0.36560935282136869 -0.1228770136391782 0 -0.33811662782018509 -0.1187149432167614 0 -0.36560935282136869 -0.1228770136391782 0 -0.33811662782018509 -0.1187149432167614 0 -0.35957868311145441 -0.098530575294378642 0 -0.33811662782018509 -0.1187149432167614 0 -0.34583111956259749 -0.098435285946989581 0 -0.35957868311145441 -0.098530575294378642 0 -0.37338072534044958 -0.1015395423542827 0 -0.35957868311145441 -0.098530575294378642 0 -0.36560935282136869 -0.1228770136391782 0 -0.37338072534044958 -0.1015395423542827 0 -0.35957868311145441 -0.098530575294378642 0 -0.3750868287242039 -0.083945666598845156 0 -0.35957868311145441 -0.098530575294378642 0 -0.36560935282136869 -0.1228770136391782 0 -0.37338072534044958 -0.1015395423542827 0 -0.36560935282136869 -0.1228770136391782 0 -0.38088751658449588 -0.11177605152490321 0 -0.35337645997328532 -0.073491557988243944 0 -0.34954543010999922 -0.066229350004753773 0 -0.36110028685175177 -0.071363477205066639 0 -0.34954543010999922 -0.066229350004753773 0 -0.36113753062154968 -0.061859153573384271 0 -0.35391811348297447 -0.060268720819388867 0 -0.34954543010999922 -0.066229350004753773 0 -0.36113753062154968 -0.061859153573384271 0 -0.34954543010999922 -0.066229350004753773 0 -0.36110028685175177 -0.071363477205066639 0 -0.36113753062154968 -0.061859153573384271 0 -0.34954543010999922 -0.066229350004753773 0 -0.36110028685175177 -0.071363477205066639 0 -0.3410929925936918 -0.075329856076351967 0 -0.34954543010999922 -0.066229350004753773 0 -0.34762887643352081 -0.074048264607039227 0 -0.3410929925936918 -0.075329856076351967 0 -0.34762887643352081 -0.074048264607039227 0 -0.34764631593145701 -0.084003956848892683 0 -0.35337645997328532 -0.073491557988243944 0 -0.34762887643352081 -0.074048264607039227 0 -0.34764631593145701 -0.084003956848892683 0 -0.35337645997328532 -0.073491557988243944 0 -0.34954543010999922 -0.066229350004753773 0 -0.34762887643352081 -0.074048264607039227 0 -0.35957868311145441 -0.098530575294378642 0 -0.35337645997328532 -0.073491557988243944 0 -0.34764631593145701 -0.084003956848892683 0 -0.35957868311145441 -0.098530575294378642 0 -0.35337645997328532 -0.073491557988243944 0 -0.34583111956259749 -0.098435285946989581 0 -0.35957868311145441 -0.098530575294378642 0 -0.34764631593145701 -0.084003956848892683 0 -0.35957868311145441 -0.098530575294378642 0 -0.36565466293458038 -0.077117114018749447 0 -0.3750868287242039 -0.083945666598845156 0 -0.35957868311145441 -0.098530575294378642 0 -0.35337645997328532 -0.073491557988243944 0 -0.36565466293458038 -0.077117114018749447 0 -0.35957868311145441 -0.098530575294378642 0 -0.3750868287242039 -0.083945666598845156 0 -0.36565466293458038 -0.077117114018749447 0 -0.37683012181080239 -0.068733301298065499 0 -0.3750868287242039 -0.083945666598845156 0 -0.36565466293458038 -0.077117114018749447 0 -0.36795559713598469 -0.066638105727896774 0 -0.37683012181080239 -0.068733301298065499 0 -0.36565466293458038 -0.077117114018749447 0 -0.36110028685175177 -0.071363477205066639 0 -0.36795559713598469 -0.066638105727896774 0 -0.35337645997328532 -0.073491557988243944 0 -0.36565466293458038 -0.077117114018749447 0 -0.36110028685175177 -0.071363477205066639 0 -0.36110028685175177 -0.071363477205066639 0 -0.36795559713598469 -0.066638105727896774 0 -0.36113753062154968 -0.061859153573384271 0 -0.36795559713598469 -0.066638105727896774 0 -0.37470589733927712 -0.0545527271000322 0 -0.37683012181080239 -0.068733301298065499 0 -0.35650250053147359 -0.050635726844241939 0 -0.37707154236451451 -0.044605869900925722 0 -0.37470589733927712 -0.0545527271000322 0 -0.35650250053147359 -0.050635726844241939 0 -0.36795559713598469 -0.066638105727896774 0 -0.37470589733927712 -0.0545527271000322 0 -0.36113753062154968 -0.061859153573384271 0 -0.37470589733927712 -0.0545527271000322 0 -0.35650250053147359 -0.050635726844241939 0 -0.37707154236451451 -0.044605869900925722 0 -0.37470589733927712 -0.0545527271000322 0 -0.35970252298352262 -0.056514655867325403 0 -0.35650250053147359 -0.050635726844241939 0 -0.37470589733927712 -0.0545527271000322 0 -0.35970252298352262 -0.056514655867325403 0 -0.36113753062154968 -0.061859153573384271 0 -0.35391811348297447 -0.060268720819388867 0 -0.35527395769833642 -0.05300159300784036 0 -0.33116639189700398 -0.058063059230765962 0 -0.35527395769833642 -0.05300159300784036 0 -0.35507992259877907 -0.051052758492802497 0 -0.33116639189700398 -0.058063059230765962 0 -0.34954543010999922 -0.066229350004753773 0 -0.35391811348297447 -0.060268720819388867 0 -0.33116639189700398 -0.058063059230765962 0 -0.35970252298352262 -0.056514655867325403 0 -0.36113753062154968 -0.061859153573384271 0 -0.35391811348297447 -0.060268720819388867 0 -0.35970252298352262 -0.056514655867325403 0 -0.35391811348297447 -0.060268720819388867 0 -0.35527395769833642 -0.05300159300784036 0 -0.35650250053147359 -0.050635726844241939 0 -0.35507992259877907 -0.051052758492802497 0 -0.3484308880043866 -0.044087332347355908 0 -0.35970252298352262 -0.056514655867325403 0 -0.35650250053147359 -0.050635726844241939 0 -0.35527395769833642 -0.05300159300784036 0 -0.35650250053147359 -0.050635726844241939 0 -0.35527395769833642 -0.05300159300784036 0 -0.35650250053147359 -0.050635726844241939 0 -0.35527395769833642 -0.05300159300784036 0 -0.35507992259877907 -0.051052758492802497 0 -0.35650250053147359 -0.050635726844241939 0 -0.35507992259877907 -0.051052758492802497 0 -0.35507992259877907 -0.051052758492802497 0 -0.33978397050626657 -0.048324977944356091 0 -0.35507992259877907 -0.051052758492802497 0 -0.3484308880043866 -0.044087332347355908 0 -0.33978397050626657 -0.048324977944356091 0 -0.35650250053147359 -0.050635726844241939 0 -0.3501214739100334 -0.034607419809747728 0 -0.3484308880043866 -0.044087332347355908 0 -0.35650250053147359 -0.050635726844241939 0 -0.3501214739100334 -0.034607419809747728 0 -0.36684988365240911 -0.03070925546092473 0 -0.3501214739100334 -0.034607419809747728 0 -0.3484308880043866 -0.044087332347355908 0 -0.33506880487583801 -0.038565334792038719 0 -0.35650250053147359 -0.050635726844241939 0 -0.36684988365240911 -0.03070925546092473 0 -0.37707154236451451 -0.044605869900925722 0 -0.35650250053147359 -0.050635726844241939 0 -0.36684988365240911 -0.03070925546092473 0 -0.36684988365240911 -0.03070925546092473 0 -0.37719726677334758 -0.010782784077609161 0 -0.36684988365240911 -0.03070925546092473 0 -0.35583605574812599 -0.018224686697538489 0 -0.37719726677334758 -0.010782784077609161 0 -0.35583605574812599 -0.018224686697538489 0 -0.37719726677334758 -0.010782784077609161 0 -0.37145675818362223 0.001704133189072726 0 -0.35583605574812599 -0.018224686697538489 0 -0.37719726677334758 -0.010782784077609161 0 -0.35583605574812599 -0.018224686697538489 0 -0.35182631000740072 0.0068229147672093007 0 -0.37145675818362223 0.001704133189072726 0 -0.35583605574812599 -0.018224686697538489 0 -0.33449922093445961 -0.0040818700918973123 0 -0.35182631000740072 0.0068229147672093007 0 -0.3501214739100334 -0.034607419809747728 0 -0.35583605574812599 -0.018224686697538489 0 -0.33447484472290451 -0.025666589317467611 0 -0.3501214739100334 -0.034607419809747728 0 -0.36684988365240911 -0.03070925546092473 0 -0.35583605574812599 -0.018224686697538489 0 -0.35583605574812599 -0.018224686697538489 0 -0.33447484472290451 -0.025666589317467611 0 -0.35583605574812599 -0.018224686697538489 0 -0.33447484472290451 -0.025666589317467611 0 -0.33449922093445961 -0.0040818700918973123 0 -0.33447484472290451 -0.025666589317467611 0 -0.33449922093445961 -0.0040818700918973123 0 -0.31759413704845219 -0.011310857140017521 0 -0.33449922093445961 -0.0040818700918973123 0 -0.31759413704845219 -0.011310857140017521 0 -0.32049615199215492 0.0045280339304297253 0 -0.30518798685158838 -0.0020929360932298849 0 -0.31759413704845219 -0.011310857140017521 0 -0.32049615199215492 0.0045280339304297253 0 -0.33447484472290451 -0.025666589317467611 0 -0.31759413704845219 -0.011310857140017521 0 -0.31311363369768291 -0.03310849193739672 0 -0.33447484472290451 -0.025666589317467611 0 -0.31311363369768291 -0.03310849193739672 0 -0.3114594072847322 -0.049306726894047262 0 -0.31311363369768291 -0.03310849193739672 0 -0.32448801841375452 -0.045597197395908257 0 -0.33447484472290451 -0.025666589317467611 0 -0.31311363369768291 -0.03310849193739672 0 -0.33506880487583801 -0.038565334792038719 0 -0.31311363369768291 -0.03310849193739672 0 -0.32448801841375452 -0.045597197395908257 0 -0.33506880487583801 -0.038565334792038719 0 -0.3114594072847322 -0.049306726894047262 0 -0.32448801841375452 -0.045597197395908257 0 -0.33116639189700398 -0.058063059230765962 0 -0.30696176126270219 -0.065158696513015008 0 -0.33116639189700398 -0.058063059230765962 0 -0.3114594072847322 -0.049306726894047262 0 -0.33116639189700398 -0.058063059230765962 0 -0.3114594072847322 -0.049306726894047262 0 -0.30696176126270219 -0.065158696513015008 0 -0.33116639189700398 -0.058063059230765962 0 -0.32448801841375452 -0.045597197395908257 0 -0.33116639189700398 -0.058063059230765962 0 -0.33978397050626657 -0.048324977944356091 0 -0.34954543010999922 -0.066229350004753773 0 -0.33116639189700398 -0.058063059230765962 0 -0.35507992259877907 -0.051052758492802497 0 -0.33116639189700398 -0.058063059230765962 0 -0.33978397050626657 -0.048324977944356091 0 -0.35507992259877907 -0.051052758492802497 0 -0.33116639189700398 -0.058063059230765962 0 -0.32448801841375452 -0.045597197395908257 0 -0.33978397050626657 -0.048324977944356091 0 -0.3501214739100334 -0.034607419809747728 0 -0.33447484472290451 -0.025666589317467611 0 -0.33506880487583801 -0.038565334792038719 0 -0.3484308880043866 -0.044087332347355908 0 -0.33978397050626657 -0.048324977944356091 0 -0.33506880487583801 -0.038565334792038719 0 -0.32448801841375452 -0.045597197395908257 0 -0.33978397050626657 -0.048324977944356091 0 -0.33506880487583801 -0.038565334792038719 0 -0.29859701231105729 -0.25301700882560368 0 -0.3071375446623259 -0.2335196387236223 0 -0.31421725341188372 -0.24977587129631751 0 -0.29859701231105729 -0.25301700882560368 0 -0.3071375446623259 -0.2335196387236223 0 -0.29138670340076089 -0.23873921836977791 0 -0.3071375446623259 -0.2335196387236223 0 -0.29268109579257923 -0.22411955864172181 0 -0.3060605016315725 -0.21226103782782971 0 -0.3071375446623259 -0.2335196387236223 0 -0.3060605016315725 -0.21226103782782971 0 -0.32042736925848198 -0.22641527486886631 0 -0.3071375446623259 -0.2335196387236223 0 -0.29268109579257923 -0.22411955864172181 0 -0.29138670340076089 -0.23873921836977791 0 -0.29268109579257923 -0.22411955864172181 0 -0.27778266513963018 -0.23141617934605249 0 -0.2809246376312578 -0.20830770343947971 0 -0.29268109579257923 -0.22411955864172181 0 -0.29138670340076089 -0.23873921836977791 0 -0.27778266513963018 -0.23141617934605249 0 -0.28073519909821221 -0.25162370631188929 0 -0.29138670340076089 -0.23873921836977791 0 -0.27778266513963018 -0.23141617934605249 0 -0.28073519909821221 -0.25162370631188929 0 -0.29859701231105729 -0.25301700882560368 0 -0.29138670340076089 -0.23873921836977791 0 -0.28073519909821221 -0.25162370631188929 0 -0.2582168116042447 -0.2439014490639565 0 -0.27778266513963018 -0.23141617934605249 0 -0.24510877540263959 -0.22548599802342939 0 -0.2582168116042447 -0.2439014490639565 0 -0.26321090898949828 -0.22136191750140799 0 -0.24510877540263959 -0.22548599802342939 0 -0.26321090898949828 -0.22136191750140799 0 -0.25247744799357308 -0.21261594090752481 0 -0.26321090898949828 -0.22136191750140799 0 -0.27778266513963018 -0.23141617934605249 0 -0.2809246376312578 -0.20830770343947971 0 -0.2582168116042447 -0.2439014490639565 0 -0.26321090898949828 -0.22136191750140799 0 -0.27778266513963018 -0.23141617934605249 0 -0.26321090898949828 -0.22136191750140799 0 -0.2809246376312578 -0.20830770343947971 0 -0.26409863293778341 -0.20573621058270139 0 -0.26321090898949828 -0.22136191750140799 0 -0.26409863293778341 -0.20573621058270139 0 -0.25247744799357308 -0.21261594090752481 0 -0.26409863293778341 -0.20573621058270139 0 -0.25247744799357308 -0.21261594090752481 0 -0.25047429362874257 -0.200219847641955 0 -0.26409863293778341 -0.20573621058270139 0 -0.25047429362874257 -0.200219847641955 0 -0.26742375486930359 -0.1882108285553544 0 -0.25047429362874257 -0.200219847641955 0 -0.26742375486930359 -0.1882108285553544 0 -0.23968786498356659 -0.18400375912907671 0 -0.25047429362874257 -0.200219847641955 0 -0.26742375486930359 -0.1882108285553544 0 -0.2809246376312578 -0.20830770343947971 0 -0.26742375486930359 -0.1882108285553544 0 -0.29199909585561379 -0.19193849570898799 0 -0.26742375486930359 -0.1882108285553544 0 -0.29199909585561379 -0.19193849570898799 0 -0.2809246376312578 -0.20830770343947971 0 -0.26409863293778341 -0.20573621058270139 0 -0.26742375486930359 -0.1882108285553544 0 -0.2809246376312578 -0.20830770343947971 0 -0.3060605016315725 -0.21226103782782971 0 -0.2809246376312578 -0.20830770343947971 0 -0.29199909585561379 -0.19193849570898799 0 -0.3060605016315725 -0.21226103782782971 0 -0.29268109579257923 -0.22411955864172181 0 -0.2809246376312578 -0.20830770343947971 0 -0.3060605016315725 -0.21226103782782971 0 -0.29199909585561379 -0.19193849570898799 0 -0.3060605016315725 -0.21226103782782971 0 -0.3165744368419241 -0.19566616286262159 0 -0.29199909585561379 -0.19193849570898799 0 -0.3165744368419241 -0.19566616286262159 0 -0.29199909585561379 -0.19193849570898799 0 -0.29938476110462459 -0.18143496863655581 0 -0.3165744368419241 -0.19566616286262159 0 -0.29938476110462459 -0.18143496863655581 0 -0.31036357984341878 -0.17729064654437279 0 -0.3165744368419241 -0.19566616286262159 0 -0.29938476110462459 -0.18143496863655581 0 -0.30228981993539911 -0.17082195765291869 0 -0.28961274120160779 -0.1724895052286107 0 -0.29938476110462459 -0.18143496863655581 0 -0.31036357984341878 -0.17729064654437279 0 -0.30228981993539911 -0.17082195765291869 0 -0.31036357984341878 -0.17729064654437279 0 -0.31099079812705838 -0.16810657065420029 0 -0.30228981993539911 -0.17082195765291869 0 -0.31099079812705838 -0.16810657065420029 0 -0.31180172753391222 -0.15676818190186689 0 -0.30228981993539911 -0.17082195765291869 0 -0.31180172753391222 -0.15676818190186689 0 -0.28961274120160779 -0.1724895052286107 0 -0.31180172753391222 -0.15676818190186689 0 -0.28581520798017918 -0.16349252579439161 0 -0.31180172753391222 -0.15676818190186689 0 -0.28581520798017918 -0.16349252579439161 0 -0.30248732557626462 -0.14891872701938649 0 -0.31180172753391222 -0.15676818190186689 0 -0.30228981993539911 -0.17082195765291869 0 -0.28961274120160779 -0.1724895052286107 0 -0.31180172753391222 -0.15676818190186689 0 -0.28581520798017918 -0.16349252579439161 0 -0.28961274120160779 -0.1724895052286107 0 -0.28581520798017918 -0.16349252579439161 0 -0.28961274120160779 -0.1724895052286107 0 -0.27455339795200551 -0.17354596063111 0 -0.29199909585561379 -0.19193849570898799 0 -0.29938476110462459 -0.18143496863655581 0 -0.28961274120160779 -0.1724895052286107 0 -0.26742375486930359 -0.1882108285553544 0 -0.29199909585561379 -0.19193849570898799 0 -0.28961274120160779 -0.1724895052286107 0 -0.26742375486930359 -0.1882108285553544 0 -0.28961274120160779 -0.1724895052286107 0 -0.26742375486930359 -0.1882108285553544 0 -0.28961274120160779 -0.1724895052286107 0 -0.27455339795200551 -0.17354596063111 0 -0.26742375486930359 -0.1882108285553544 0 -0.27455339795200551 -0.17354596063111 0 -0.25982868842644607 -0.17021686968691641 0 -0.23968786498356659 -0.18400375912907671 0 -0.26742375486930359 -0.1882108285553544 0 -0.23968786498356659 -0.18400375912907671 0 -0.26742375486930359 -0.1882108285553544 0 -0.25982868842644607 -0.17021686968691641 0 -0.25982868842644607 -0.17021686968691641 0 -0.27013136078807137 -0.15645680560504849 0 -0.25343568279415951 -0.15224923159364789 0 -0.24566481473353391 -0.1652464025747532 0 -0.25982868842644607 -0.17021686968691641 0 -0.25343568279415951 -0.15224923159364789 0 -0.28581520798017918 -0.16349252579439161 0 -0.25982868842644607 -0.17021686968691641 0 -0.27013136078807137 -0.15645680560504849 0 -0.28581520798017918 -0.16349252579439161 0 -0.27455339795200551 -0.17354596063111 0 -0.25982868842644607 -0.17021686968691641 0 -0.28581520798017918 -0.16349252579439161 0 -0.27013136078807137 -0.15645680560504849 0 -0.281048741890911 -0.15139895950123519 0 -0.28581520798017918 -0.16349252579439161 0 -0.25982868842644607 -0.17021686968691641 0 -0.27013136078807137 -0.15645680560504849 0 -0.281048741890911 -0.15139895950123519 0 -0.27556222579122169 -0.14014760186465491 0 -0.27013136078807137 -0.15645680560504849 0 -0.25343568279415951 -0.15224923159364789 0 -0.27556222579122169 -0.14014760186465491 0 -0.25343568279415951 -0.15224923159364789 0 -0.26038693836179072 -0.13666660738782219 0 -0.27556222579122169 -0.14014760186465491 0 -0.25343568279415951 -0.15224923159364789 0 -0.27556222579122169 -0.14014760186465491 0 -0.2478381125959237 -0.13014188093155071 0 -0.26471173226585809 -0.1241277151614352 0 -0.26038693836179072 -0.13666660738782219 0 -0.2478381125959237 -0.13014188093155071 0 -0.25343568279415951 -0.15224923159364789 0 -0.26038693836179072 -0.13666660738782219 0 -0.26471173226585809 -0.1241277151614352 0 -0.28362018306611941 -0.1149768545032684 0 -0.27556222579122169 -0.14014760186465491 0 -0.26471173226585809 -0.1241277151614352 0 -0.26038693836179072 -0.13666660738782219 0 -0.27556222579122169 -0.14014760186465491 0 -0.27556222579122169 -0.14014760186465491 0 -0.29268617300417199 -0.1454989047408457 0 -0.29768876878828382 -0.12804597213566191 0 -0.28362018306611941 -0.1149768545032684 0 -0.27556222579122169 -0.14014760186465491 0 -0.29768876878828382 -0.12804597213566191 0 -0.27556222579122169 -0.14014760186465491 0 -0.29768876878828382 -0.12804597213566191 0 -0.28581520798017918 -0.16349252579439161 0 -0.29268617300417199 -0.1454989047408457 0 -0.30248732557626462 -0.14891872701938649 0 -0.28581520798017918 -0.16349252579439161 0 -0.281048741890911 -0.15139895950123519 0 -0.29268617300417199 -0.1454989047408457 0 -0.281048741890911 -0.15139895950123519 0 -0.27556222579122169 -0.14014760186465491 0 -0.29268617300417199 -0.1454989047408457 0 -0.29268617300417199 -0.1454989047408457 0 -0.30248732557626462 -0.14891872701938649 0 -0.30370630156068762 -0.1389224563049837 0 -0.31180172753391222 -0.15676818190186689 0 -0.30248732557626462 -0.14891872701938649 0 -0.31398283958777989 -0.14122477915676221 0 -0.30248732557626462 -0.14891872701938649 0 -0.30370630156068762 -0.1389224563049837 0 -0.31398283958777989 -0.14122477915676221 0 -0.29268617300417199 -0.1454989047408457 0 -0.29768876878828382 -0.12804597213566191 0 -0.30370630156068762 -0.1389224563049837 0 -0.31168640084693722 -0.1309238984722621 0 -0.30370630156068762 -0.1389224563049837 0 -0.31398283958777989 -0.14122477915676221 0 -0.31168640084693722 -0.1309238984722621 0 -0.29768876878828382 -0.12804597213566191 0 -0.30370630156068762 -0.1389224563049837 0 -0.32501708124079648 -0.13103464252731351 0 -0.31398283958777989 -0.14122477915676221 0 -0.32769326224381667 -0.1455087240973956 0 -0.31981531178534578 -0.1159443424066684 0 -0.31168640084693722 -0.1309238984722621 0 -0.32501708124079648 -0.13103464252731351 0 -0.31168640084693722 -0.1309238984722621 0 -0.32501708124079648 -0.13103464252731351 0 -0.31398283958777989 -0.14122477915676221 0 -0.31180172753391222 -0.15676818190186689 0 -0.32298463198440808 -0.15387446252221321 0 -0.32769326224381667 -0.1455087240973956 0 -0.31180172753391222 -0.15676818190186689 0 -0.32769326224381667 -0.1455087240973956 0 -0.31180172753391222 -0.15676818190186689 0 -0.31398283958777989 -0.14122477915676221 0 -0.32769326224381667 -0.1455087240973956 0 -0.31180172753391222 -0.15676818190186689 0 -0.32298463198440808 -0.15387446252221321 0 -0.32298463198440808 -0.15387446252221321 0 -0.33102430582003672 -0.15284086827415069 0 -0.32912678435276249 -0.16184097596254959 0 -0.32298463198440808 -0.15387446252221321 0 -0.32769326224381667 -0.1455087240973956 0 -0.33102430582003672 -0.15284086827415069 0 -0.32769326224381667 -0.1455087240973956 0 -0.33779330298695009 -0.14738175250870711 0 -0.34358479695372102 -0.13424926629292419 0 -0.32769326224381667 -0.1455087240973956 0 -0.33102430582003672 -0.15284086827415069 0 -0.33779330298695009 -0.14738175250870711 0 -0.33779330298695009 -0.14738175250870711 0 -0.34838845348846031 -0.14833884467229949 0 -0.33902784532518498 -0.15634369213364299 0 -0.33102430582003672 -0.15284086827415069 0 -0.33779330298695009 -0.14738175250870711 0 -0.33902784532518498 -0.15634369213364299 0 -0.33779330298695009 -0.14738175250870711 0 -0.34358479695372102 -0.13424926629292419 0 -0.34838845348846031 -0.14833884467229949 0 -0.32501708124079648 -0.13103464252731351 0 -0.32769326224381667 -0.1455087240973956 0 -0.34358479695372102 -0.13424926629292419 0 -0.33811662782018509 -0.1187149432167614 0 -0.32501708124079648 -0.13103464252731351 0 -0.34358479695372102 -0.13424926629292419 0 -0.32769326224381667 -0.1455087240973956 0 -0.34358479695372102 -0.13424926629292419 0 -0.33811662782018509 -0.1187149432167614 0 -0.36560935282136869 -0.1228770136391782 0 -0.34358479695372102 -0.13424926629292419 0 -0.36560935282136869 -0.1228770136391782 0 -0.34358479695372102 -0.13424926629292419 0 -0.35789225520722451 -0.13996819740399649 0 -0.36560935282136869 -0.1228770136391782 0 -0.37179133304014322 -0.14783430818272611 0 -0.38404989885292651 -0.1400792958384918 0 -0.36560935282136869 -0.1228770136391782 0 -0.37179133304014322 -0.14783430818272611 0 -0.36560935282136869 -0.1228770136391782 0 -0.35789225520722451 -0.13996819740399649 0 -0.37179133304014322 -0.14783430818272611 0 -0.35789225520722451 -0.13996819740399649 0 -0.37179133304014322 -0.14783430818272611 0 -0.35884313601860912 -0.15417852746750099 0 -0.35884313601860912 -0.15417852746750099 0 -0.34838845348846031 -0.14833884467229949 0 -0.34888414490412811 -0.1629439357986564 0 -0.35789225520722451 -0.13996819740399649 0 -0.35884313601860912 -0.15417852746750099 0 -0.34838845348846031 -0.14833884467229949 0 -0.34358479695372102 -0.13424926629292419 0 -0.35789225520722451 -0.13996819740399649 0 -0.34838845348846031 -0.14833884467229949 0 -0.34838845348846031 -0.14833884467229949 0 -0.34888414490412811 -0.1629439357986564 0 -0.33902784532518498 -0.15634369213364299 0 -0.34888414490412811 -0.1629439357986564 0 -0.34454825898434782 -0.17720191583282571 0 -0.33836769259919219 -0.1670464993373886 0 -0.34888414490412811 -0.1629439357986564 0 -0.35381843126239348 -0.1726746577785957 0 -0.34454825898434782 -0.17720191583282571 0 -0.34888414490412811 -0.1629439357986564 0 -0.36338268495294579 -0.16800377969191779 0 -0.35381843126239348 -0.1726746577785957 0 -0.35884313601860912 -0.15417852746750099 0 -0.34888414490412811 -0.1629439357986564 0 -0.36338268495294579 -0.16800377969191779 0 -0.37179133304014322 -0.14783430818272611 0 -0.37797331325891809 -0.17279160272627381 0 -0.37179133304014322 -0.14783430818272611 0 -0.35884313601860912 -0.15417852746750099 0 -0.36338268495294579 -0.16800377969191779 0 -0.37179133304014322 -0.14783430818272611 0 -0.36338268495294579 -0.16800377969191779 0 -0.37797331325891809 -0.17279160272627381 0 -0.36338268495294579 -0.16800377969191779 0 -0.37192204740575269 -0.18508240213403099 0 -0.3584586362081526 -0.18254899979098321 0 -0.36338268495294579 -0.16800377969191779 0 -0.37192204740575269 -0.18508240213403099 0 -0.37797331325891809 -0.17279160272627381 0 -0.36338268495294579 -0.16800377969191779 0 -0.3584586362081526 -0.18254899979098321 0 -0.35381843126239348 -0.1726746577785957 0 -0.3584586362081526 -0.18254899979098321 0 -0.35381843126239348 -0.1726746577785957 0 -0.34454825898434782 -0.17720191583282571 0 -0.3584586362081526 -0.18254899979098321 0 -0.34454825898434782 -0.17720191583282571 0 -0.34833703943659811 -0.1887712121410032 0 -0.34454825898434782 -0.17720191583282571 0 -0.33350934598544107 -0.1865060965460745 0 -0.34833703943659811 -0.1887712121410032 0 -0.33350934598544107 -0.1865060965460745 0 -0.33087698944707578 -0.17469400287398781 0 -0.32216648346267268 -0.18034048106893991 0 -0.34454825898434782 -0.17720191583282571 0 -0.33087698944707578 -0.17469400287398781 0 -0.33836769259919219 -0.1670464993373886 0 -0.34454825898434782 -0.17720191583282571 0 -0.33350934598544107 -0.1865060965460745 0 -0.33087698944707578 -0.17469400287398781 0 -0.34888414490412811 -0.1629439357986564 0 -0.33836769259919219 -0.1670464993373886 0 -0.33902784532518498 -0.15634369213364299 0 -0.33102430582003672 -0.15284086827415069 0 -0.33902784532518498 -0.15634369213364299 0 -0.32912678435276249 -0.16184097596254959 0 -0.33836769259919219 -0.1670464993373886 0 -0.33902784532518498 -0.15634369213364299 0 -0.32912678435276249 -0.16184097596254959 0 -0.33087698944707578 -0.17469400287398781 0 -0.33836769259919219 -0.1670464993373886 0 -0.32912678435276249 -0.16184097596254959 0 -0.33087698944707578 -0.17469400287398781 0 -0.32912678435276249 -0.16184097596254959 0 -0.31950806519550368 -0.16754549651764289 0 -0.32298463198440808 -0.15387446252221321 0 -0.32912678435276249 -0.16184097596254959 0 -0.31950806519550368 -0.16754549651764289 0 -0.31180172753391222 -0.15676818190186689 0 -0.32298463198440808 -0.15387446252221321 0 -0.31950806519550368 -0.16754549651764289 0 -0.31099079812705838 -0.16810657065420029 0 -0.31180172753391222 -0.15676818190186689 0 -0.31950806519550368 -0.16754549651764289 0 -0.31036357984341878 -0.17729064654437279 0 -0.31099079812705838 -0.16810657065420029 0 -0.31950806519550368 -0.16754549651764289 0 -0.31036357984341878 -0.17729064654437279 0 -0.31950806519550368 -0.16754549651764289 0 -0.32216648346267268 -0.18034048106893991 0 -0.31036357984341878 -0.17729064654437279 0 -0.32216648346267268 -0.18034048106893991 0 -0.3165744368419241 -0.19566616286262159 0 -0.33087698944707578 -0.17469400287398781 0 -0.31950806519550368 -0.16754549651764289 0 -0.32216648346267268 -0.18034048106893991 0 -0.33350934598544107 -0.1865060965460745 0 -0.32216648346267268 -0.18034048106893991 0 -0.3165744368419241 -0.19566616286262159 0 -0.3060605016315725 -0.21226103782782971 0 -0.33119636563188709 -0.2162143722161797 0 -0.32042736925848198 -0.22641527486886631 0 -0.3060605016315725 -0.21226103782782971 0 -0.33119636563188709 -0.2162143722161797 0 -0.3060605016315725 -0.21226103782782971 0 -0.3165744368419241 -0.19566616286262159 0 -0.33119636563188709 -0.2162143722161797 0 -0.33119636563188709 -0.2162143722161797 0 -0.34114977782823441 -0.19939383001625499 0 -0.35633222963220179 -0.22016770660452969 0 -0.3165744368419241 -0.19566616286262159 0 -0.33119636563188709 -0.2162143722161797 0 -0.34114977782823441 -0.19939383001625499 0 -0.3165744368419241 -0.19566616286262159 0 -0.34114977782823441 -0.19939383001625499 0 -0.33350934598544107 -0.1865060965460745 0 -0.3165744368419241 -0.19566616286262159 0 -0.34114977782823441 -0.19939383001625499 0 -0.33350934598544107 -0.1865060965460745 0 -0.34114977782823441 -0.19939383001625499 0 -0.34833703943659811 -0.1887712121410032 0 -0.34114977782823441 -0.19939383001625499 0 -0.36572511881454461 -0.20312149716988859 0 -0.34114977782823441 -0.19939383001625499 0 -0.34833703943659811 -0.1887712121410032 0 -0.36572511881454461 -0.20312149716988859 0 -0.3584586362081526 -0.18254899979098321 0 -0.34833703943659811 -0.1887712121410032 0 -0.36572511881454461 -0.20312149716988859 0 -0.37192204740575269 -0.18508240213403099 0 -0.3584586362081526 -0.18254899979098321 0 -0.36572511881454461 -0.20312149716988859 0 -0.37192204740575269 -0.18508240213403099 0 -0.36572511881454461 -0.20312149716988859 0 -0.37832751345100762 -0.19569708509895661 0 -0.36572511881454461 -0.20312149716988859 0 -0.35633222963220179 -0.22016770660452969 0 -0.37671868671049757 -0.21209106954761561 0 -0.33119636563188709 -0.2162143722161797 0 -0.35633222963220179 -0.22016770660452969 0 -0.34114977782823441 -0.19939383001625499 0 -0.36572511881454461 -0.20312149716988859 0 -0.35633222963220179 -0.22016770660452969 0 -0.34918985577357953 -0.22996643434813971 0 -0.35633222963220179 -0.22016770660452969 0 -0.3644368395520925 -0.23786219595255659 0 -0.33119636563188709 -0.2162143722161797 0 -0.34918985577357953 -0.22996643434813971 0 -0.35633222963220179 -0.22016770660452969 0 -0.35633222963220179 -0.22016770660452969 0 -0.38146809363251649 -0.22412104099287969 0 -0.35633222963220179 -0.22016770660452969 0 -0.37359243883566862 -0.23215909975287299 0 -0.3644368395520925 -0.23786219595255659 0 -0.35633222963220179 -0.22016770660452969 0 -0.37359243883566862 -0.23215909975287299 0 -0.38146809363251649 -0.22412104099287969 0 -0.35633222963220179 -0.22016770660452969 0 -0.38146809363251649 -0.22412104099287969 0 -0.37671868671049757 -0.21209106954761561 0 -0.36999160380854529 -0.25160890498862648 0 -0.3644368395520925 -0.23786219595255659 0 -0.37872015884544641 -0.2435614714605657 0 -0.37359243883566862 -0.23215909975287299 0 -0.3644368395520925 -0.23786219595255659 0 -0.37872015884544641 -0.2435614714605657 0 -0.36999160380854529 -0.25160890498862648 0 -0.3644368395520925 -0.23786219595255659 0 -0.35707845064694121 -0.24935767075674509 0 -0.34918985577357953 -0.22996643434813971 0 -0.3644368395520925 -0.23786219595255659 0 -0.35707845064694121 -0.24935767075674509 0 -0.34918985577357953 -0.22996643434813971 0 -0.35707845064694121 -0.24935767075674509 0 -0.34918985577357953 -0.22996643434813971 0 -0.35707845064694121 -0.24935767075674509 0 -0.34161545739809862 -0.2441761224370865 0 -0.32577683519746242 -0.25897579210934468 0 -0.34161545739809862 -0.2441761224370865 0 -0.32489287339017531 -0.23961736858555491 0 -0.34918985577357953 -0.22996643434813971 0 -0.34161545739809862 -0.2441761224370865 0 -0.33284956097644908 -0.23046395699114461 0 -0.34161545739809862 -0.2441761224370865 0 -0.33284956097644908 -0.23046395699114461 0 -0.32489287339017531 -0.23961736858555491 0 -0.33119636563188709 -0.2162143722161797 0 -0.34918985577357953 -0.22996643434813971 0 -0.33284956097644908 -0.23046395699114461 0 -0.33119636563188709 -0.2162143722161797 0 -0.33284956097644908 -0.23046395699114461 0 -0.32042736925848198 -0.22641527486886631 0 -0.3071375446623259 -0.2335196387236223 0 -0.32042736925848198 -0.22641527486886631 0 -0.32489287339017531 -0.23961736858555491 0 -0.33284956097644908 -0.23046395699114461 0 -0.32042736925848198 -0.22641527486886631 0 -0.32489287339017531 -0.23961736858555491 0 -0.3071375446623259 -0.2335196387236223 0 -0.31421725341188372 -0.24977587129631751 0 -0.32489287339017531 -0.23961736858555491 0 -0.32577683519746242 -0.25897579210934468 0 -0.31421725341188372 -0.24977587129631751 0 -0.32489287339017531 -0.23961736858555491 0 -0.429193077912078 -0.24092705066174019 0 -0.42560539866416353 -0.22692866047589191 0 -0.44336769959532257 -0.23972790925379969 0 -0.429193077912078 -0.24092705066174019 0 -0.42560539866416353 -0.22692866047589191 0 -0.41466813127082142 -0.24184035413310251 0 -0.42775875008346192 -0.25507980811954323 0 -0.429193077912078 -0.24092705066174019 0 -0.41466813127082142 -0.24184035413310251 0 -0.44165736388207272 -0.25360003737878889 0 -0.42775875008346192 -0.25507980811954323 0 -0.429193077912078 -0.24092705066174019 0 -0.42560539866416353 -0.22692866047589191 0 -0.43795718746300122 -0.2140778908121922 0 -0.44658841198271632 -0.22637890077404829 0 -0.42560539866416353 -0.22692866047589191 0 -0.41054768849444062 -0.2248275857939297 0 -0.41466813127082142 -0.24184035413310251 0 -0.42560539866416353 -0.22692866047589191 0 -0.41054768849444062 -0.2248275857939297 0 -0.41728712034711612 -0.21094258822191489 0 -0.42560539866416353 -0.22692866047589191 0 -0.41728712034711612 -0.21094258822191489 0 -0.41054768849444062 -0.2248275857939297 0 -0.41466813127082142 -0.24184035413310251 0 -0.39796822484346261 -0.23652916605093899 0 -0.40220594800304021 -0.25293233307518609 0 -0.39796822484346261 -0.23652916605093899 0 -0.39442967684708991 -0.25208667127465478 0 -0.39796822484346261 -0.23652916605093899 0 -0.38700487251608578 -0.2350830837538336 0 -0.40220594800304021 -0.25293233307518609 0 -0.41466813127082142 -0.24184035413310251 0 -0.39796822484346261 -0.23652916605093899 0 -0.39442967684708991 -0.25208667127465478 0 -0.38700487251608578 -0.2350830837538336 0 -0.37872015884544641 -0.2435614714605657 0 -0.37359243883566862 -0.23215909975287299 0 -0.38700487251608578 -0.2350830837538336 0 -0.37872015884544641 -0.2435614714605657 0 -0.37359243883566862 -0.23215909975287299 0 -0.38700487251608578 -0.2350830837538336 0 -0.38146809363251649 -0.22412104099287969 0 -0.38700487251608578 -0.2350830837538336 0 -0.38146809363251649 -0.22412104099287969 0 -0.39413434232215888 -0.2216891651872302 0 -0.38146809363251649 -0.22412104099287969 0 -0.39413434232215888 -0.2216891651872302 0 -0.38565539561650702 -0.2161876100128117 0 -0.41054768849444062 -0.2248275857939297 0 -0.39796822484346261 -0.23652916605093899 0 -0.39720956734663881 -0.20789716008779879 0 -0.39796822484346261 -0.23652916605093899 0 -0.39413434232215888 -0.2216891651872302 0 -0.39720956734663881 -0.20789716008779879 0 -0.39796822484346261 -0.23652916605093899 0 -0.39720956734663881 -0.20789716008779879 0 -0.39796822484346261 -0.23652916605093899 0 -0.38700487251608578 -0.2350830837538336 0 -0.39413434232215888 -0.2216891651872302 0 -0.39796822484346261 -0.23652916605093899 0 -0.39413434232215888 -0.2216891651872302 0 -0.39720956734663881 -0.20789716008779879 0 -0.40277518483810348 -0.20053664405661509 0 -0.41728712034711612 -0.21094258822191489 0 -0.39720956734663881 -0.20789716008779879 0 -0.39030045980085482 -0.20684916432352149 0 -0.39413434232215888 -0.2216891651872302 0 -0.39720956734663881 -0.20789716008779879 0 -0.39030045980085482 -0.20684916432352149 0 -0.39413434232215888 -0.2216891651872302 0 -0.39030045980085482 -0.20684916432352149 0 -0.36572511881454461 -0.20312149716988859 0 -0.39030045980085482 -0.20684916432352149 0 -0.39413434232215888 -0.2216891651872302 0 -0.38565539561650702 -0.2161876100128117 0 -0.39030045980085482 -0.20684916432352149 0 -0.38565539561650702 -0.2161876100128117 0 -0.39030045980085482 -0.20684916432352149 0 -0.37671868671049757 -0.21209106954761561 0 -0.36572511881454461 -0.20312149716988859 0 -0.39030045980085482 -0.20684916432352149 0 -0.37671868671049757 -0.21209106954761561 0 -0.38146809363251649 -0.22412104099287969 0 -0.38565539561650702 -0.2161876100128117 0 -0.37671868671049757 -0.21209106954761561 0 -0.39030045980085482 -0.20684916432352149 0 -0.38536242778287788 -0.1877352767683855 0 -0.39030045980085482 -0.20684916432352149 0 -0.37832751345100762 -0.19569708509895661 0 -0.38536242778287788 -0.1877352767683855 0 -0.36572511881454461 -0.20312149716988859 0 -0.39030045980085482 -0.20684916432352149 0 -0.37832751345100762 -0.19569708509895661 0 -0.37192204740575269 -0.18508240213403099 0 -0.37832751345100762 -0.19569708509895661 0 -0.38536242778287788 -0.1877352767683855 0 -0.39030045980085482 -0.20684916432352149 0 -0.38536242778287788 -0.1877352767683855 0 -0.39682758983152833 -0.1934811917008569 0 -0.39720956734663881 -0.20789716008779879 0 -0.39682758983152833 -0.1934811917008569 0 -0.39720956734663881 -0.20789716008779879 0 -0.39030045980085482 -0.20684916432352149 0 -0.39682758983152833 -0.1934811917008569 0 -0.39720956734663881 -0.20789716008779879 0 -0.39682758983152833 -0.1934811917008569 0 -0.40277518483810348 -0.20053664405661509 0 -0.39682758983152833 -0.1934811917008569 0 -0.40277518483810348 -0.20053664405661509 0 -0.40786839632368732 -0.19284167875001809 0 -0.40786839632368732 -0.19284167875001809 0 -0.42071188954671479 -0.1977783538484196 0 -0.41728712034711612 -0.21094258822191489 0 -0.40277518483810348 -0.20053664405661509 0 -0.40786839632368732 -0.19284167875001809 0 -0.41728712034711612 -0.21094258822191489 0 -0.40786839632368732 -0.19284167875001809 0 -0.41728712034711612 -0.21094258822191489 0 -0.40786839632368732 -0.19284167875001809 0 -0.42071188954671479 -0.1977783538484196 0 -0.41781993309639348 -0.18473776223631169 0 -0.39720956734663881 -0.20789716008779879 0 -0.41728712034711612 -0.21094258822191489 0 -0.41054768849444062 -0.2248275857939297 0 -0.39720956734663881 -0.20789716008779879 0 -0.41728712034711612 -0.21094258822191489 0 -0.41728712034711612 -0.21094258822191489 0 -0.43042781253814327 -0.20309513998401429 0 -0.43795718746300122 -0.2140778908121922 0 -0.41728712034711612 -0.21094258822191489 0 -0.43795718746300122 -0.2140778908121922 0 -0.42071188954671479 -0.1977783538484196 0 -0.41728712034711612 -0.21094258822191489 0 -0.43042781253814327 -0.20309513998401429 0 -0.42560539866416353 -0.22692866047589191 0 -0.41728712034711612 -0.21094258822191489 0 -0.43795718746300122 -0.2140778908121922 0 -0.43042781253814327 -0.20309513998401429 0 -0.43110417706379089 -0.19272761716818959 0 -0.44507868827009389 -0.1999492498693555 0 -0.42071188954671479 -0.1977783538484196 0 -0.43110417706379089 -0.19272761716818959 0 -0.41781993309639348 -0.18473776223631169 0 -0.42071188954671479 -0.1977783538484196 0 -0.43042781253814327 -0.20309513998401429 0 -0.43110417706379089 -0.19272761716818959 0 -0.43179072736577528 -0.17970529711169 0 -0.42986163711504638 -0.16701354152048811 0 -0.41699473597813752 -0.17063285726143029 0 -0.43179072736577528 -0.17970529711169 0 -0.41699473597813752 -0.17063285726143029 0 -0.41781993309639348 -0.18473776223631169 0 -0.43110417706379089 -0.19272761716818959 0 -0.43179072736577528 -0.17970529711169 0 -0.41781993309639348 -0.18473776223631169 0 -0.43110417706379089 -0.19272761716818959 0 -0.43179072736577528 -0.17970529711169 0 -0.44559792516655838 -0.1851633886427331 0 -0.43179072736577528 -0.17970529711169 0 -0.42986163711504638 -0.16701354152048811 0 -0.44303700991658518 -0.17026832712875151 0 -0.42986163711504638 -0.16701354152048811 0 -0.43823455075000578 -0.15580669622701629 0 -0.44303700991658518 -0.17026832712875151 0 -0.42986163711504638 -0.16701354152048811 0 -0.41699473597813752 -0.17063285726143029 0 -0.41985581490816198 -0.154444998856094 0 -0.42986163711504638 -0.16701354152048811 0 -0.41985581490816198 -0.154444998856094 0 -0.43823455075000578 -0.15580669622701629 0 -0.41699473597813752 -0.17063285726143029 0 -0.39844967230025591 -0.17474076927812279 0 -0.4045200176128938 -0.16008114399198281 0 -0.41699473597813752 -0.17063285726143029 0 -0.4045200176128938 -0.16008114399198281 0 -0.41985581490816198 -0.154444998856094 0 -0.41699473597813752 -0.17063285726143029 0 -0.41781993309639348 -0.18473776223631169 0 -0.39844967230025591 -0.17474076927812279 0 -0.40786839632368732 -0.19284167875001809 0 -0.41781993309639348 -0.18473776223631169 0 -0.39844967230025591 -0.17474076927812279 0 -0.40786839632368732 -0.19284167875001809 0 -0.39844967230025591 -0.17474076927812279 0 -0.39682758983152833 -0.1934811917008569 0 -0.40786839632368732 -0.19284167875001809 0 -0.39844967230025591 -0.17474076927812279 0 -0.38536242778287788 -0.1877352767683855 0 -0.39682758983152833 -0.1934811917008569 0 -0.39844967230025591 -0.17474076927812279 0 -0.38536242778287788 -0.1877352767683855 0 -0.39844967230025591 -0.17474076927812279 0 -0.37797331325891809 -0.17279160272627381 0 -0.37192204740575269 -0.18508240213403099 0 -0.38536242778287788 -0.1877352767683855 0 -0.37797331325891809 -0.17279160272627381 0 -0.37179133304014322 -0.14783430818272611 0 -0.37797331325891809 -0.17279160272627381 0 -0.38903094827682438 -0.15663985980622741 0 -0.39844967230025591 -0.17474076927812279 0 -0.37797331325891809 -0.17279160272627381 0 -0.38903094827682438 -0.15663985980622741 0 -0.39844967230025591 -0.17474076927812279 0 -0.38903094827682438 -0.15663985980622741 0 -0.39844967230025591 -0.17474076927812279 0 -0.38903094827682438 -0.15663985980622741 0 -0.4045200176128938 -0.16008114399198281 0 -0.38903094827682438 -0.15663985980622741 0 -0.4045200176128938 -0.16008114399198281 0 -0.39938536477583741 -0.14370127207381619 0 -0.38903094827682438 -0.15663985980622741 0 -0.39938536477583741 -0.14370127207381619 0 -0.38404989885292651 -0.1400792958384918 0 -0.37179133304014322 -0.14783430818272611 0 -0.38903094827682438 -0.15663985980622741 0 -0.38404989885292651 -0.1400792958384918 0 -0.36560935282136869 -0.1228770136391782 0 -0.38404989885292651 -0.1400792958384918 0 -0.38887223831657869 -0.12639873684615319 0 -0.38887223831657869 -0.12639873684615319 0 -0.41213512381178841 -0.1299204600531296 0 -0.39938536477583741 -0.14370127207381619 0 -0.38887223831657869 -0.12639873684615319 0 -0.41213512381178841 -0.1299204600531296 0 -0.39938536477583741 -0.14370127207381619 0 -0.38404989885292651 -0.1400792958384918 0 -0.38887223831657869 -0.12639873684615319 0 -0.4045200176128938 -0.16008114399198281 0 -0.39938536477583741 -0.14370127207381619 0 -0.41985581490816198 -0.154444998856094 0 -0.39938536477583741 -0.14370127207381619 0 -0.41213512381178841 -0.1299204600531296 0 -0.41985581490816198 -0.154444998856094 0 -0.41985581490816198 -0.154444998856094 0 -0.43539800930699801 -0.1334421832601059 0 -0.43823455075000578 -0.15580669622701629 0 -0.41213512381178841 -0.1299204600531296 0 -0.41985581490816198 -0.154444998856094 0 -0.43539800930699801 -0.1334421832601059 0 -0.41213512381178841 -0.1299204600531296 0 -0.43539800930699801 -0.1334421832601059 0 -0.43259539229225402 -0.1157747654031315 0 -0.41213512381178841 -0.1299204600531296 0 -0.43539800930699801 -0.1334421832601059 0 -0.43539800930699801 -0.1334421832601059 0 -0.45866089480220767 -0.1369639064670822 0 -0.45113905152447542 -0.1175368028588321 0 -0.43539800930699801 -0.1334421832601059 0 -0.44775450515208032 -0.1461386934312979 0 -0.45866089480220767 -0.1369639064670822 0 -0.43539800930699801 -0.1334421832601059 0 -0.45866089480220767 -0.1369639064670822 0 -0.44775450515208032 -0.1461386934312979 0 -0.43823455075000578 -0.15580669622701629 0 -0.45633895227784033 -0.1576945794699274 0 -0.43539800930699801 -0.1334421832601059 0 -0.44775450515208032 -0.1461386934312979 0 -0.43823455075000578 -0.15580669622701629 0 -0.44775450515208032 -0.1461386934312979 0 -0.45866089480220767 -0.1369639064670822 0 -0.45633895227784033 -0.1576945794699274 0 -0.45866089480220767 -0.1369639064670822 0 -0.47575659097790751 -0.15007175010341289 0 -0.45633895227784033 -0.1576945794699274 0 -0.45866089480220767 -0.1369639064670822 0 -0.47575659097790751 -0.15007175010341289 0 -0.46915934665662162 -0.1230624738371303 0 -0.45866089480220767 -0.1369639064670822 0 -0.45113905152447542 -0.1175368028588321 0 -0.46915934665662162 -0.1230624738371303 0 -0.47575659097790751 -0.15007175010341289 0 -0.46915934665662162 -0.1230624738371303 0 -0.48351137830779539 -0.13386722315158131 0 -0.47575659097790751 -0.15007175010341289 0 -0.46915934665662162 -0.1230624738371303 0 -0.48351137830779539 -0.13386722315158131 0 -0.5 -0.12673639045435739 0 -0.5 -0.15610943167098409 0 -0.48351137830779539 -0.13386722315158131 0 -0.5 -0.15610943167098409 0 -0.47575659097790751 -0.15007175010341289 0 -0.47575659097790751 -0.15007175010341289 0 -0.4823538352991934 -0.17708102636969561 0 -0.47575659097790751 -0.15007175010341289 0 -0.46899934294491291 -0.16540597077255109 0 -0.4823538352991934 -0.17708102636969561 0 -0.5 -0.15610943167098409 0 -0.47575659097790751 -0.15007175010341289 0 -0.4823538352991934 -0.17708102636969561 0 -0.5 -0.15610943167098409 0 -0.49999999999999722 -0.18548247288761069 0 -0.4823538352991934 -0.17708102636969561 0 -0.4823538352991934 -0.17708102636969561 0 -0.46154799322471052 -0.17677652714716849 0 -0.47332956926376563 -0.19085067910818809 0 -0.46899934294491291 -0.16540597077255109 0 -0.4823538352991934 -0.17708102636969561 0 -0.46154799322471052 -0.17677652714716849 0 -0.46154799322471052 -0.17677652714716849 0 -0.44559792516655838 -0.1851633886427331 0 -0.46102895515839498 -0.19155331343124329 0 -0.46154799322471052 -0.17677652714716849 0 -0.46102895515839498 -0.19155331343124329 0 -0.47332956926376563 -0.19085067910818809 0 -0.46899934294491291 -0.16540597077255109 0 -0.46154799322471052 -0.17677652714716849 0 -0.45633895227784033 -0.1576945794699274 0 -0.47575659097790751 -0.15007175010341289 0 -0.46899934294491291 -0.16540597077255109 0 -0.45633895227784033 -0.1576945794699274 0 -0.46154799322471052 -0.17677652714716849 0 -0.45633895227784033 -0.1576945794699274 0 -0.44303700991658518 -0.17026832712875151 0 -0.43823455075000578 -0.15580669622701629 0 -0.45633895227784033 -0.1576945794699274 0 -0.44303700991658518 -0.17026832712875151 0 -0.46154799322471052 -0.17677652714716849 0 -0.44303700991658518 -0.17026832712875151 0 -0.44559792516655838 -0.1851633886427331 0 -0.43179072736577528 -0.17970529711169 0 -0.44303700991658518 -0.17026832712875151 0 -0.44559792516655838 -0.1851633886427331 0 -0.44559792516655838 -0.1851633886427331 0 -0.44507868827009389 -0.1999492498693555 0 -0.46102895515839498 -0.19155331343124329 0 -0.43110417706379089 -0.19272761716818959 0 -0.44559792516655838 -0.1851633886427331 0 -0.44507868827009389 -0.1999492498693555 0 -0.44507868827009389 -0.1999492498693555 0 -0.43795718746300122 -0.2140778908121922 0 -0.4586272545788867 -0.21721319340246781 0 -0.43042781253814327 -0.20309513998401429 0 -0.44507868827009389 -0.1999492498693555 0 -0.43795718746300122 -0.2140778908121922 0 -0.43795718746300122 -0.2140778908121922 0 -0.4586272545788867 -0.21721319340246781 0 -0.4586272545788867 -0.21721319340246781 0 -0.46102895515839498 -0.19155331343124329 0 -0.47276598301604827 -0.20475222595685469 0 -0.44507868827009389 -0.1999492498693555 0 -0.4586272545788867 -0.21721319340246781 0 -0.46102895515839498 -0.19155331343124329 0 -0.47332956926376563 -0.19085067910818809 0 -0.48895107962048001 -0.20409030263597791 0 -0.47276598301604827 -0.20475222595685469 0 -0.4823538352991934 -0.17708102636969561 0 -0.47332956926376563 -0.19085067910818809 0 -0.48895107962048001 -0.20409030263597791 0 -0.46102895515839498 -0.19155331343124329 0 -0.47332956926376563 -0.19085067910818809 0 -0.47276598301604827 -0.20475222595685469 0 -0.4823538352991934 -0.17708102636969561 0 -0.48895107962048001 -0.20409030263597791 0 -0.49999999999999722 -0.18548247288761069 0 -0.48895107962048001 -0.20409030263597791 0 -0.49999999999999722 -0.18548247288761069 0 -0.5 -0.2044856090206181 0 -0.48895107962048001 -0.20409030263597791 0 -0.49999999999999722 -0.18548247288761069 0 -0.4823538352991934 -0.17708102636969561 0 -0.48895107962048001 -0.20409030263597791 0 -0.5 -0.2044856090206181 0 -0.500000000000002 -0.2234887451536256 0 -0.49344650703865789 -0.22249469015893941 0 -0.5 -0.2044856090206181 0 -0.48895107962048001 -0.20409030263597791 0 -0.49344650703865789 -0.22249469015893941 0 -0.48895107962048001 -0.20409030263597791 0 -0.47929732169477218 -0.22034849599274231 0 -0.49344650703865789 -0.22249469015893941 0 -0.48895107962048001 -0.20409030263597791 0 -0.49344650703865789 -0.22249469015893941 0 -0.48895107962048001 -0.20409030263597791 0 -0.47276598301604827 -0.20475222595685469 0 -0.47929732169477218 -0.22034849599274231 0 -0.48895107962048001 -0.20409030263597791 0 -0.47929732169477218 -0.22034849599274231 0 -0.4586272545788867 -0.21721319340246781 0 -0.47276598301604827 -0.20475222595685469 0 -0.47929732169477218 -0.22034849599274231 0 -0.4586272545788867 -0.21721319340246781 0 -0.47929732169477218 -0.22034849599274231 0 -0.47929732169477218 -0.22034849599274231 0 -0.48416686203858311 -0.23469505857438669 0 -0.46465652818918263 -0.24483730068029039 0 -0.47929732169477218 -0.22034849599274231 0 -0.46465652818918263 -0.24483730068029039 0 -0.47929732169477218 -0.22034849599274231 0 -0.49344650703865789 -0.22249469015893941 0 -0.47929732169477218 -0.22034849599274231 0 -0.49344650703865789 -0.22249469015893941 0 -0.48416686203858311 -0.23469505857438669 0 -0.49344650703865789 -0.22249469015893941 0 -0.49730382647131183 -0.23828664830542051 0 -0.48416686203858311 -0.23469505857438669 0 -0.500000000000002 -0.2234887451536256 0 -0.49344650703865789 -0.22249469015893941 0 -0.49730382647131183 -0.23828664830542051 0 -0.49344650703865789 -0.22249469015893941 0 -0.49730382647131183 -0.23828664830542051 0 -0.500000000000002 -0.2234887451536256 0 -0.49344650703865789 -0.22249469015893941 0 -0.5 -0.25150281007534703 0 -0.500000000000002 -0.2234887451536256 0 -0.49730382647131183 -0.23828664830542051 0 -0.5 -0.25150281007534703 0 -0.49730382647131183 -0.23828664830542051 0 -0.48570939693172899 -0.24902992718248729 0 -0.49730382647131183 -0.23828664830542051 0 -0.48570939693172899 -0.24902992718248729 0 -0.48416686203858311 -0.23469505857438669 0 -0.48570939693172899 -0.24902992718248729 0 -0.48416686203858311 -0.23469505857438669 0 -0.46465652818918263 -0.24483730068029039 0 -0.4586272545788867 -0.21721319340246781 0 -0.47929732169477218 -0.22034849599274231 0 -0.46465652818918263 -0.24483730068029039 0 -0.4586272545788867 -0.21721319340246781 0 -0.46465652818918263 -0.24483730068029039 0 -0.44658841198271632 -0.22637890077404829 0 -0.43795718746300122 -0.2140778908121922 0 -0.4586272545788867 -0.21721319340246781 0 -0.44658841198271632 -0.22637890077404829 0 -0.42560539866416353 -0.22692866047589191 0 -0.44658841198271632 -0.22637890077404829 0 -0.44336769959532257 -0.23972790925379969 0 -0.46465652818918263 -0.24483730068029039 0 -0.44658841198271632 -0.22637890077404829 0 -0.44336769959532257 -0.23972790925379969 0 -0.44165736388207272 -0.25360003737878889 0 -0.46465652818918263 -0.24483730068029039 0 -0.44336769959532257 -0.23972790925379969 0 -0.44165736388207272 -0.25360003737878889 0 -0.429193077912078 -0.24092705066174019 0 -0.44336769959532257 -0.23972790925379969 0 -0.41631059699689099 -0.042084497863468198 0 -0.41965755993826598 -0.033894451920331033 0 -0.42761534325808798 -0.038876017594557971 0 -0.41631059699689099 -0.042084497863468198 0 -0.41965755993826598 -0.033894451920331033 0 -0.41128163845263888 -0.036426639289896208 0 -0.41965755993826598 -0.033894451920331033 0 -0.41128163845263888 -0.036426639289896208 0 -0.41258462043609562 -0.025993866725156231 0 -0.41128163845263888 -0.036426639289896208 0 -0.40704563849368902 -0.043093498236160592 0 -0.40124408047313331 -0.037519640608623422 0 -0.41128163845263888 -0.036426639289896208 0 -0.41258462043609562 -0.025993866725156231 0 -0.40124408047313331 -0.037519640608623422 0 -0.41631059699689099 -0.042084497863468198 0 -0.40704563849368902 -0.043093498236160592 0 -0.41300523529446281 -0.049717993690613083 0 -0.41631059699689099 -0.042084497863468198 0 -0.41128163845263888 -0.036426639289896208 0 -0.40704563849368902 -0.043093498236160592 0 -0.40704563849368902 -0.043093498236160592 0 -0.41300523529446281 -0.049717993690613083 0 -0.40411610338443682 -0.050557450003133962 0 -0.41300523529446281 -0.049717993690613083 0 -0.41414033076402768 -0.061585207313392322 0 -0.40411610338443682 -0.050557450003133962 0 -0.41300523529446281 -0.049717993690613083 0 -0.41414033076402768 -0.061585207313392322 0 -0.42341350683326928 -0.051269315036910318 0 -0.41631059699689099 -0.042084497863468198 0 -0.41300523529446281 -0.049717993690613083 0 -0.42341350683326928 -0.051269315036910318 0 -0.41414033076402768 -0.061585207313392322 0 -0.42341350683326928 -0.051269315036910318 0 -0.43505259438904009 -0.065314564308975948 0 -0.42341350683326928 -0.051269315036910318 0 -0.43594560852523878 -0.049663465434261311 0 -0.43505259438904009 -0.065314564308975948 0 -0.43594560852523878 -0.049663465434261311 0 -0.42761534325808798 -0.038876017594557971 0 -0.44052059365423879 -0.038318026972638523 0 -0.42341350683326928 -0.051269315036910318 0 -0.43594560852523878 -0.049663465434261311 0 -0.42761534325808798 -0.038876017594557971 0 -0.41631059699689099 -0.042084497863468198 0 -0.42341350683326928 -0.051269315036910318 0 -0.42761534325808798 -0.038876017594557971 0 -0.41965755993826598 -0.033894451920331033 0 -0.42761534325808798 -0.038876017594557971 0 -0.43049560054761637 -0.026091238128576531 0 -0.42761534325808798 -0.038876017594557971 0 -0.43049560054761637 -0.026091238128576531 0 -0.44052059365423879 -0.038318026972638523 0 -0.43049560054761637 -0.026091238128576531 0 -0.42123606753034548 -0.0078521834473191492 0 -0.44016826678282051 -0.008282799190680902 0 -0.42123606753034548 -0.0078521834473191492 0 -0.41258462043609562 -0.025993866725156231 0 -0.40359645288427559 -0.01255273007959058 0 -0.42123606753034548 -0.0078521834473191492 0 -0.40359645288427559 -0.01255273007959058 0 -0.411842978763718 0.0071810696113592566 0 -0.43049560054761637 -0.026091238128576531 0 -0.42123606753034548 -0.0078521834473191492 0 -0.41258462043609562 -0.025993866725156231 0 -0.41965755993826598 -0.033894451920331033 0 -0.43049560054761637 -0.026091238128576531 0 -0.41258462043609562 -0.025993866725156231 0 -0.41258462043609562 -0.025993866725156231 0 -0.40359645288427559 -0.01255273007959058 0 -0.40124408047313331 -0.037519640608623422 0 -0.40359645288427559 -0.01255273007959058 0 -0.39764058419755538 -0.038576012957609408 0 -0.40124408047313331 -0.037519640608623422 0 -0.40359645288427559 -0.01255273007959058 0 -0.38932648706987377 -0.013730584936831609 0 -0.38650677435962982 -0.026234410340964749 0 -0.40359645288427559 -0.01255273007959058 0 -0.38650677435962982 -0.026234410340964749 0 -0.39764058419755538 -0.038576012957609408 0 -0.40359645288427559 -0.01255273007959058 0 -0.39764058419755538 -0.038576012957609408 0 -0.40359645288427559 -0.01255273007959058 0 -0.411842978763718 0.0071810696113592566 0 -0.39856960861661739 0.0046729487720050386 0 -0.40359645288427559 -0.01255273007959058 0 -0.39149303023403142 -0.005335277537219363 0 -0.39856960861661739 0.0046729487720050386 0 -0.40359645288427559 -0.01255273007959058 0 -0.39149303023403142 -0.005335277537219363 0 -0.38932648706987377 -0.013730584936831609 0 -0.39149303023403142 -0.005335277537219363 0 -0.38087232901863782 -0.0095024514541764069 0 -0.38510027358075227 0.0044364300124967379 0 -0.39149303023403142 -0.005335277537219363 0 -0.38932648706987377 -0.013730584936831609 0 -0.38087232901863782 -0.0095024514541764069 0 -0.38932648706987377 -0.013730584936831609 0 -0.38087232901863782 -0.0095024514541764069 0 -0.38186988518864651 -0.018280442328540609 0 -0.37719726677334758 -0.010782784077609161 0 -0.38087232901863782 -0.0095024514541764069 0 -0.38186988518864651 -0.018280442328540609 0 -0.37719726677334758 -0.010782784077609161 0 -0.38087232901863782 -0.0095024514541764069 0 -0.37719726677334758 -0.010782784077609161 0 -0.38510027358075227 0.0044364300124967379 0 -0.37145675818362223 0.001704133189072726 0 -0.37719726677334758 -0.010782784077609161 0 -0.38510027358075227 0.0044364300124967379 0 -0.37719726677334758 -0.010782784077609161 0 -0.38087232901863782 -0.0095024514541764069 0 -0.38510027358075227 0.0044364300124967379 0 -0.36684988365240911 -0.03070925546092473 0 -0.38650677435962982 -0.026234410340964749 0 -0.38186988518864651 -0.018280442328540609 0 -0.36684988365240911 -0.03070925546092473 0 -0.37719726677334758 -0.010782784077609161 0 -0.38186988518864651 -0.018280442328540609 0 -0.38932648706987377 -0.013730584936831609 0 -0.38650677435962982 -0.026234410340964749 0 -0.38186988518864651 -0.018280442328540609 0 -0.36684988365240911 -0.03070925546092473 0 -0.38650677435962982 -0.026234410340964749 0 -0.37707154236451451 -0.044605869900925722 0 -0.38650677435962982 -0.026234410340964749 0 -0.37707154236451451 -0.044605869900925722 0 -0.39764058419755538 -0.038576012957609408 0 -0.37707154236451451 -0.044605869900925722 0 -0.39764058419755538 -0.038576012957609408 0 -0.39764058419755538 -0.038576012957609408 0 -0.40065489473756588 -0.045520490424667083 0 -0.40124408047313331 -0.037519640608623422 0 -0.40704563849368902 -0.043093498236160592 0 -0.40065489473756588 -0.045520490424667083 0 -0.40124408047313331 -0.037519640608623422 0 -0.40704563849368902 -0.043093498236160592 0 -0.40065489473756588 -0.045520490424667083 0 -0.40411610338443682 -0.050557450003133962 0 -0.39764058419755538 -0.038576012957609408 0 -0.40124408047313331 -0.037519640608623422 0 -0.39764058419755538 -0.038576012957609408 0 -0.40065489473756588 -0.045520490424667083 0 -0.39322806713901498 -0.057855850317809959 0 -0.41414033076402768 -0.061585207313392322 0 -0.39322806713901498 -0.057855850317809959 0 -0.40444542418072821 -0.066780626888537295 0 -0.41414033076402768 -0.061585207313392322 0 -0.40411610338443682 -0.050557450003133962 0 -0.39322806713901498 -0.057855850317809959 0 -0.39764058419755538 -0.038576012957609408 0 -0.39322806713901498 -0.057855850317809959 0 -0.41414033076402768 -0.061585207313392322 0 -0.39322806713901498 -0.057855850317809959 0 -0.40065489473756588 -0.045520490424667083 0 -0.40411610338443682 -0.050557450003133962 0 -0.39322806713901498 -0.057855850317809959 0 -0.37470589733927712 -0.0545527271000322 0 -0.39322806713901498 -0.057855850317809959 0 -0.37470589733927712 -0.0545527271000322 0 -0.37707154236451451 -0.044605869900925722 0 -0.39322806713901498 -0.057855850317809959 0 -0.37707154236451451 -0.044605869900925722 0 -0.39764058419755538 -0.038576012957609408 0 -0.39322806713901498 -0.057855850317809959 0 -0.37470589733927712 -0.0545527271000322 0 -0.39322806713901498 -0.057855850317809959 0 -0.3838397651565123 -0.062625659154805113 0 -0.37470589733927712 -0.0545527271000322 0 -0.37683012181080239 -0.068733301298065499 0 -0.3838397651565123 -0.062625659154805113 0 -0.39322806713901498 -0.057855850317809959 0 -0.3838397651565123 -0.062625659154805113 0 -0.39059497433695439 -0.069360757903312753 0 -0.37683012181080239 -0.068733301298065499 0 -0.3838397651565123 -0.062625659154805113 0 -0.39059497433695439 -0.069360757903312753 0 -0.39059497433695439 -0.069360757903312753 0 -0.3750868287242039 -0.083945666598845156 0 -0.37683012181080239 -0.068733301298065499 0 -0.39059497433695439 -0.069360757903312753 0 -0.3750868287242039 -0.083945666598845156 0 -0.39059497433695439 -0.069360757903312753 0 -0.38574124546072602 -0.090568404714108222 0 -0.3750868287242039 -0.083945666598845156 0 -0.39059497433695439 -0.069360757903312753 0 -0.38574124546072602 -0.090568404714108222 0 -0.37338072534044958 -0.1015395423542827 0 -0.38574124546072602 -0.090568404714108222 0 -0.3750868287242039 -0.083945666598845156 0 -0.39059497433695439 -0.069360757903312753 0 -0.38574124546072602 -0.090568404714108222 0 -0.39722678832591729 -0.08549102947411294 0 -0.38574124546072602 -0.090568404714108222 0 -0.39722678832591729 -0.08549102947411294 0 -0.39016591446444671 -0.1027403174982935 0 -0.39722678832591729 -0.08549102947411294 0 -0.40358704082088931 -0.10183248075400859 0 -0.40955223446300359 -0.086375659296802715 0 -0.39722678832591729 -0.08549102947411294 0 -0.40456307765117672 -0.076708553120630463 0 -0.40955223446300359 -0.086375659296802715 0 -0.39722678832591729 -0.08549102947411294 0 -0.40456307765117672 -0.076708553120630463 0 -0.39841612749299532 -0.072664694729402735 0 -0.40456307765117672 -0.076708553120630463 0 -0.40444542418072821 -0.066780626888537295 0 -0.39841612749299532 -0.072664694729402735 0 -0.39059497433695439 -0.069360757903312753 0 -0.39722678832591729 -0.08549102947411294 0 -0.39841612749299532 -0.072664694729402735 0 -0.40444542418072821 -0.066780626888537295 0 -0.39525037297019971 -0.064982506260420264 0 -0.39841612749299532 -0.072664694729402735 0 -0.39059497433695439 -0.069360757903312753 0 -0.39525037297019971 -0.064982506260420264 0 -0.39841612749299532 -0.072664694729402735 0 -0.39322806713901498 -0.057855850317809959 0 -0.39059497433695439 -0.069360757903312753 0 -0.39525037297019971 -0.064982506260420264 0 -0.39322806713901498 -0.057855850317809959 0 -0.40444542418072821 -0.066780626888537295 0 -0.39525037297019971 -0.064982506260420264 0 -0.39322806713901498 -0.057855850317809959 0 -0.39059497433695439 -0.069360757903312753 0 -0.39059497433695439 -0.069360757903312753 0 -0.39525037297019971 -0.064982506260420264 0 -0.36560935282136869 -0.1228770136391782 0 -0.38887223831657869 -0.12639873684615319 0 -0.38887223831657869 -0.12639873684615319 0 -0.38088751658449588 -0.11177605152490321 0 -0.39861419104112761 -0.1141217052544175 0 -0.38088751658449588 -0.11177605152490321 0 -0.39016591446444671 -0.1027403174982935 0 -0.39861419104112761 -0.1141217052544175 0 -0.36560935282136869 -0.1228770136391782 0 -0.38887223831657869 -0.12639873684615319 0 -0.38088751658449588 -0.11177605152490321 0 -0.38574124546072602 -0.090568404714108222 0 -0.38088751658449588 -0.11177605152490321 0 -0.38574124546072602 -0.090568404714108222 0 -0.38088751658449588 -0.11177605152490321 0 -0.39016591446444671 -0.1027403174982935 0 -0.37338072534044958 -0.1015395423542827 0 -0.38574124546072602 -0.090568404714108222 0 -0.38088751658449588 -0.11177605152490321 0 -0.40358704082088931 -0.10183248075400859 0 -0.39861419104112761 -0.1141217052544175 0 -0.4160373122485671 -0.1120621848500169 0 -0.39722678832591729 -0.08549102947411294 0 -0.39016591446444671 -0.1027403174982935 0 -0.40358704082088931 -0.10183248075400859 0 -0.39016591446444671 -0.1027403174982935 0 -0.40358704082088931 -0.10183248075400859 0 -0.39861419104112761 -0.1141217052544175 0 -0.38887223831657869 -0.12639873684615319 0 -0.41213512381178841 -0.1299204600531296 0 -0.39861419104112761 -0.1141217052544175 0 -0.41213512381178841 -0.1299204600531296 0 -0.39861419104112761 -0.1141217052544175 0 -0.4160373122485671 -0.1120621848500169 0 -0.41213512381178841 -0.1299204600531296 0 -0.4160373122485671 -0.1120621848500169 0 -0.43259539229225402 -0.1157747654031315 0 -0.4160373122485671 -0.1120621848500169 0 -0.4169341364211625 -0.097460269163205951 0 -0.43115901768430159 -0.099355876929453982 0 -0.40358704082088931 -0.10183248075400859 0 -0.4160373122485671 -0.1120621848500169 0 -0.4169341364211625 -0.097460269163205951 0 -0.40358704082088931 -0.10183248075400859 0 -0.4169341364211625 -0.097460269163205951 0 -0.40955223446300359 -0.086375659296802715 0 -0.4160373122485671 -0.1120621848500169 0 -0.43115901768430159 -0.099355876929453982 0 -0.43259539229225402 -0.1157747654031315 0 -0.43115901768430159 -0.099355876929453982 0 -0.43259539229225402 -0.1157747654031315 0 -0.44676155729694311 -0.09856935048049352 0 -0.41414033076402768 -0.061585207313392322 0 -0.41477655714820522 -0.073508962632903227 0 -0.43505259438904009 -0.065314564308975948 0 -0.41414033076402768 -0.061585207313392322 0 -0.40444542418072821 -0.066780626888537295 0 -0.41477655714820522 -0.073508962632903227 0 -0.40456307765117672 -0.076708553120630463 0 -0.40444542418072821 -0.066780626888537295 0 -0.41477655714820522 -0.073508962632903227 0 -0.40456307765117672 -0.076708553120630463 0 -0.41477655714820522 -0.073508962632903227 0 -0.40955223446300359 -0.086375659296802715 0 -0.41477655714820522 -0.073508962632903227 0 -0.40955223446300359 -0.086375659296802715 0 -0.42547236143691691 -0.079964116854811126 0 -0.4169341364211625 -0.097460269163205951 0 -0.40955223446300359 -0.086375659296802715 0 -0.42547236143691691 -0.079964116854811126 0 -0.43115901768430159 -0.099355876929453982 0 -0.42547236143691691 -0.079964116854811126 0 -0.43948503029078051 -0.084366611422258486 0 -0.4169341364211625 -0.097460269163205951 0 -0.43115901768430159 -0.099355876929453982 0 -0.42547236143691691 -0.079964116854811126 0 -0.42547236143691691 -0.079964116854811126 0 -0.43593321389199208 -0.076166958257645731 0 -0.43948503029078051 -0.084366611422258486 0 -0.41414033076402768 -0.061585207313392322 0 -0.43505259438904009 -0.065314564308975948 0 -0.42547236143691691 -0.079964116854811126 0 -0.43593321389199208 -0.076166958257645731 0 -0.43505259438904009 -0.065314564308975948 0 -0.41477655714820522 -0.073508962632903227 0 -0.42547236143691691 -0.079964116854811126 0 -0.43505259438904009 -0.065314564308975948 0 -0.43505259438904009 -0.065314564308975948 0 -0.45596485801405168 -0.069043921304564548 0 -0.45254776170430372 -0.055054247167343383 0 -0.43505259438904009 -0.065314564308975948 0 -0.44372286945123102 -0.075022540444537378 0 -0.45596485801405168 -0.069043921304564548 0 -0.43505259438904009 -0.065314564308975948 0 -0.45596485801405168 -0.069043921304564548 0 -0.44372286945123102 -0.075022540444537378 0 -0.44986078827983011 -0.084538284578158471 0 -0.45596485801405168 -0.069043921304564548 0 -0.43593321389199208 -0.076166958257645731 0 -0.43505259438904009 -0.065314564308975948 0 -0.44372286945123102 -0.075022540444537378 0 -0.43593321389199208 -0.076166958257645731 0 -0.44372286945123102 -0.075022540444537378 0 -0.43948503029078051 -0.084366611422258486 0 -0.44986078827983011 -0.084538284578158471 0 -0.44676155729694311 -0.09856935048049352 0 -0.46256210233533568 -0.096053197570847695 0 -0.44372286945123102 -0.075022540444537378 0 -0.43948503029078051 -0.084366611422258486 0 -0.44986078827983011 -0.084538284578158471 0 -0.43948503029078051 -0.084366611422258486 0 -0.44986078827983011 -0.084538284578158471 0 -0.44676155729694311 -0.09856935048049352 0 -0.46571079481874128 -0.075383853833439818 0 -0.45596485801405168 -0.069043921304564548 0 -0.46256210233533568 -0.096053197570847695 0 -0.45596485801405168 -0.069043921304564548 0 -0.46256210233533568 -0.096053197570847695 0 -0.44986078827983011 -0.084538284578158471 0 -0.45596485801405168 -0.069043921304564548 0 -0.46256210233533568 -0.096053197570847695 0 -0.46571079481874128 -0.075383853833439818 0 -0.46440728388852631 -0.065665476577682319 0 -0.45759908464129401 -0.069335358645535999 0 -0.46571079481874128 -0.075383853833439818 0 -0.46440728388852631 -0.065665476577682319 0 -0.47046251890076313 -0.067508589662998122 0 -0.45759908464129401 -0.069335358645535999 0 -0.45958199435623182 -0.062522792654202811 0 -0.45596485801405168 -0.069043921304564548 0 -0.46440728388852631 -0.065665476577682319 0 -0.45759908464129401 -0.069335358645535999 0 -0.45958199435623182 -0.062522792654202811 0 -0.45759908464129401 -0.069335358645535999 0 -0.45596485801405168 -0.069043921304564548 0 -0.46571079481874128 -0.075383853833439818 0 -0.45759908464129401 -0.069335358645535999 0 -0.45596485801405168 -0.069043921304564548 0 -0.43539800930699801 -0.1334421832601059 0 -0.43259539229225402 -0.1157747654031315 0 -0.45113905152447542 -0.1175368028588321 0 -0.43259539229225402 -0.1157747654031315 0 -0.45113905152447542 -0.1175368028588321 0 -0.44676155729694311 -0.09856935048049352 0 -0.43115901768430159 -0.099355876929453982 0 -0.43948503029078051 -0.084366611422258486 0 -0.44676155729694311 -0.09856935048049352 0 -0.45113905152447542 -0.1175368028588321 0 -0.44676155729694311 -0.09856935048049352 0 -0.46256210233533568 -0.096053197570847695 0 -0.46256210233533568 -0.096053197570847695 0 -0.46915934665662162 -0.1230624738371303 0 -0.45113905152447542 -0.1175368028588321 0 -0.46256210233533568 -0.096053197570847695 0 -0.46915934665662162 -0.1230624738371303 0 -0.48351137830779539 -0.13386722315158131 0 -0.46915934665662162 -0.1230624738371303 0 -0.48133806505124233 -0.10835548473569059 0 -0.46256210233533568 -0.096053197570847695 0 -0.46915934665662162 -0.1230624738371303 0 -0.48133806505124233 -0.10835548473569059 0 -0.46256210233533568 -0.096053197570847695 0 -0.48133806505124233 -0.10835548473569059 0 -0.4787903951136242 -0.090525190808538269 0 -0.48133806505124233 -0.10835548473569059 0 -0.500000000000001 -0.097363349237730712 0 -0.4787903951136242 -0.090525190808538269 0 -0.48351137830779539 -0.13386722315158131 0 -0.5 -0.12673639045435739 0 -0.48133806505124233 -0.10835548473569059 0 -0.5 -0.12673639045435739 0 -0.48133806505124233 -0.10835548473569059 0 -0.500000000000001 -0.097363349237730712 0 -0.48434101336280139 -0.075470068664982515 0 -0.47046251890076313 -0.067508589662998122 0 -0.46868202672560128 -0.053576788092234838 0 -0.46571079481874128 -0.075383853833439818 0 -0.48434101336280139 -0.075470068664982515 0 -0.47046251890076313 -0.067508589662998122 0 -0.48434101336280139 -0.075470068664982515 0 -0.46868202672560128 -0.053576788092234838 0 -0.46571079481874128 -0.075383853833439818 0 -0.48434101336280139 -0.075470068664982515 0 -0.4787903951136242 -0.090525190808538269 0 -0.46571079481874128 -0.075383853833439818 0 -0.46256210233533568 -0.096053197570847695 0 -0.4787903951136242 -0.090525190808538269 0 -0.500000000000001 -0.097363349237730712 0 -0.48434101336280139 -0.075470068664982515 0 -0.5 -0.067775448906690738 0 -0.500000000000001 -0.097363349237730712 0 -0.48434101336280139 -0.075470068664982515 0 -0.4787903951136242 -0.090525190808538269 0 -0.500000000000001 -0.097363349237730712 0 -0.48434101336280139 -0.075470068664982515 0 -0.48434101336280139 -0.075470068664982515 0 -0.5 -0.067775448906690738 0 -0.48551694096935982 -0.058082376044726818 0 -0.5 -0.067775448906690738 0 -0.48551694096935982 -0.058082376044726818 0 -0.5 -0.038187548575650758 0 -0.48551694096935982 -0.058082376044726818 0 -0.5 -0.038187548575650758 0 -0.47983884509016961 -0.04559408958900394 0 -0.5 -0.038187548575650758 0 -0.47627813796950452 -0.032068202833415903 0 -0.47983884509016961 -0.04559408958900394 0 -0.47627813796950452 -0.032068202833415903 0 -0.47983884509016961 -0.04559408958900394 0 -0.46868202672560128 -0.053576788092234838 0 -0.48434101336280139 -0.075470068664982515 0 -0.48551694096935982 -0.058082376044726818 0 -0.46868202672560128 -0.053576788092234838 0 -0.48551694096935982 -0.058082376044726818 0 -0.47983884509016961 -0.04559408958900394 0 -0.46868202672560128 -0.053576788092234838 0 -0.46440728388852631 -0.065665476577682319 0 -0.47046251890076313 -0.067508589662998122 0 -0.46868202672560128 -0.053576788092234838 0 -0.45958199435623182 -0.062522792654202811 0 -0.46868202672560128 -0.053576788092234838 0 -0.45254776170430372 -0.055054247167343383 0 -0.46440728388852631 -0.065665476577682319 0 -0.45958199435623182 -0.062522792654202811 0 -0.46868202672560128 -0.053576788092234838 0 -0.45596485801405168 -0.069043921304564548 0 -0.45254776170430372 -0.055054247167343383 0 -0.45958199435623182 -0.062522792654202811 0 -0.45596485801405168 -0.069043921304564548 0 -0.45254776170430372 -0.055054247167343383 0 -0.46868202672560128 -0.053576788092234838 0 -0.45302304008840111 -0.031683507519487203 0 -0.45254776170430372 -0.055054247167343383 0 -0.46868202672560128 -0.053576788092234838 0 -0.45302304008840111 -0.031683507519487203 0 -0.47627813796950452 -0.032068202833415903 0 -0.46868202672560128 -0.053576788092234838 0 -0.45302304008840111 -0.031683507519487203 0 -0.43049560054761637 -0.026091238128576531 0 -0.45302304008840111 -0.031683507519487203 0 -0.44052059365423879 -0.038318026972638523 0 -0.45302304008840111 -0.031683507519487203 0 -0.44052059365423879 -0.038318026972638523 0 -0.45254776170430372 -0.055054247167343383 0 -0.43594560852523878 -0.049663465434261311 0 -0.44052059365423879 -0.038318026972638523 0 -0.45254776170430372 -0.055054247167343383 0 -0.43594560852523878 -0.049663465434261311 0 -0.43505259438904009 -0.065314564308975948 0 -0.45254776170430372 -0.055054247167343383 0 -0.44016826678282051 -0.008282799190680902 0 -0.46819439313074318 -0.0088485217403602174 0 -0.44910531892432481 0.0088256729137652749 0 -0.43049560054761637 -0.026091238128576531 0 -0.45302304008840111 -0.031683507519487203 0 -0.44016826678282051 -0.008282799190680902 0 -0.45302304008840111 -0.031683507519487203 0 -0.44016826678282051 -0.008282799190680902 0 -0.46819439313074318 -0.0088485217403602174 0 -0.47627813796950452 -0.032068202833415903 0 -0.45302304008840111 -0.031683507519487203 0 -0.46819439313074318 -0.0088485217403602174 0 -0.47627813796950452 -0.032068202833415903 0 -0.46819439313074318 -0.0088485217403602174 0 -0.5 -0.0085996482446106803 0 -0.46819439313074318 -0.0088485217403602174 0 -0.5 -0.0085996482446106803 0 -0.48327269561072528 0.0075949784500739621 0 -0.5 -0.038187548575650758 0 -0.47627813796950452 -0.032068202833415903 0 -0.5 -0.0085996482446106803 0 -0.5 -0.0085996482446106803 0 -0.500000000000001 0.020988252086429401 0 -0.48327269561072528 0.0075949784500739621 0 -0.500000000000001 0.020988252086429401 0 -0.4818334059336834 0.02486827538731046 0 -0.48327269561072528 0.0075949784500739621 0 -0.500000000000001 0.020988252086429401 0 -0.4818334059336834 0.02486827538731046 0 -0.48627387230376801 0.042906068467448051 0 -0.4818334059336834 0.02486827538731046 0 -0.46506519868097418 0.040930436164492531 0 -0.46608959876636241 0.01500864777446809 0 -0.4818334059336834 0.02486827538731046 0 -0.48327269561072528 0.0075949784500739621 0 -0.46608959876636241 0.01500864777446809 0 -0.46819439313074318 -0.0088485217403602174 0 -0.48327269561072528 0.0075949784500739621 0 -0.46608959876636241 0.01500864777446809 0 -0.5 0.047519219301533577 0 -0.48827346409411548 0.06027768147110632 0 -0.48627387230376801 0.042906068467448051 0 -0.5 0.047519219301533577 0 -0.48827346409411548 0.06027768147110632 0 -0.5 0.074050186516637917 0 -0.500000000000001 0.020988252086429401 0 -0.48627387230376801 0.042906068467448051 0 -0.500000000000001 0.020988252086429401 0 -0.5 0.047519219301533577 0 -0.48627387230376801 0.042906068467448051 0 -0.4818334059336834 0.02486827538731046 0 -0.48627387230376801 0.042906068467448051 0 -0.46506519868097418 0.040930436164492531 0 -0.48627387230376801 0.042906068467448051 0 -0.46506519868097418 0.040930436164492531 0 -0.47254774460753413 0.064823884848466309 0 -0.48827346409411548 0.06027768147110632 0 -0.48627387230376801 0.042906068467448051 0 -0.47254774460753413 0.064823884848466309 0 -0.48627387230376801 0.042906068467448051 0 -0.47254774460753413 0.064823884848466309 0 -0.46506519868097418 0.040930436164492531 0 -0.44375990034961432 0.061031549153910312 0 -0.47254774460753413 0.064823884848466309 0 -0.46506519868097418 0.040930436164492531 0 -0.44486031810931148 0.031744527408694517 0 -0.44375990034961432 0.061031549153910312 0 -0.46819439313074318 -0.0088485217403602174 0 -0.46608959876636241 0.01500864777446809 0 -0.44910531892432481 0.0088256729137652749 0 -0.46506519868097418 0.040930436164492531 0 -0.44486031810931148 0.031744527408694517 0 -0.46608959876636241 0.01500864777446809 0 -0.44486031810931148 0.031744527408694517 0 -0.46608959876636241 0.01500864777446809 0 -0.44910531892432481 0.0088256729137652749 0 -0.44486031810931148 0.031744527408694517 0 -0.44910531892432481 0.0088256729137652749 0 -0.43171222321057451 0.016975124179167082 0 -0.44016826678282051 -0.008282799190680902 0 -0.44910531892432481 0.0088256729137652749 0 -0.43171222321057451 0.016975124179167082 0 -0.42123606753034548 -0.0078521834473191492 0 -0.44016826678282051 -0.008282799190680902 0 -0.43171222321057451 0.016975124179167082 0 -0.44016826678282051 -0.008282799190680902 0 -0.43171222321057451 0.016975124179167082 0 -0.42123606753034548 -0.0078521834473191492 0 -0.411842978763718 0.0071810696113592566 0 -0.43171222321057451 0.016975124179167082 0 -0.411842978763718 0.0071810696113592566 0 -0.40872204527111111 0.022867749962900141 0 -0.39856960861661739 0.0046729487720050386 0 -0.40872204527111111 0.022867749962900141 0 -0.43171222321057451 0.016975124179167082 0 -0.4232561796383284 0.042233047549015017 0 -0.411842978763718 0.0071810696113592566 0 -0.40872204527111111 0.022867749962900141 0 -0.43171222321057451 0.016975124179167082 0 -0.44486031810931148 0.031744527408694517 0 -0.43171222321057451 0.016975124179167082 0 -0.4232561796383284 0.042233047549015017 0 -0.43171222321057451 0.016975124179167082 0 -0.4232561796383284 0.042233047549015017 0 -0.44486031810931148 0.031744527408694517 0 -0.44375990034961432 0.061031549153910312 0 -0.4232561796383284 0.042233047549015017 0 -0.44375990034961432 0.061031549153910312 0 -0.4232561796383284 0.042233047549015017 0 -0.41480013606608229 0.067490970918863163 0 -0.4232561796383284 0.042233047549015017 0 -0.41480013606608229 0.067490970918863163 0 -0.4232561796383284 0.042233047549015017 0 -0.40217936848404251 0.040656332868689943 0 -0.41480013606608229 0.067490970918863163 0 -0.40872204527111111 0.022867749962900141 0 -0.4232561796383284 0.042233047549015017 0 -0.40217936848404251 0.040656332868689943 0 -0.40217936848404251 0.040656332868689943 0 -0.38532972384356262 0.04987884220830327 0 -0.38670634030283008 0.033034015008687988 0 -0.40217936848404251 0.040656332868689943 0 -0.39445515791527019 0.0661614229995688 0 -0.41480013606608229 0.067490970918863163 0 -0.40217936848404251 0.040656332868689943 0 -0.38532972384356262 0.04987884220830327 0 -0.39445515791527019 0.0661614229995688 0 -0.38532972384356262 0.04987884220830327 0 -0.36842953035862158 0.050481425088617103 0 -0.37191756568804107 0.066739953928913298 0 -0.38532972384356262 0.04987884220830327 0 -0.39445515791527019 0.0661614229995688 0 -0.37191756568804107 0.066739953928913298 0 -0.38532972384356262 0.04987884220830327 0 -0.38670634030283008 0.033034015008687988 0 -0.37363166703579942 0.035604814688565273 0 -0.38532972384356262 0.04987884220830327 0 -0.37363166703579942 0.035604814688565273 0 -0.36842953035862158 0.050481425088617103 0 -0.38670634030283008 0.033034015008687988 0 -0.37938766176258892 0.01937444117527904 0 -0.37363166703579942 0.035604814688565273 0 -0.38670634030283008 0.033034015008687988 0 -0.37938766176258892 0.01937444117527904 0 -0.39300328038815729 0.019655644102602461 0 -0.37938766176258892 0.01937444117527904 0 -0.38510027358075227 0.0044364300124967379 0 -0.37145675818362223 0.001704133189072726 0 -0.38510027358075227 0.0044364300124967379 0 -0.39300328038815729 0.019655644102602461 0 -0.37938766176258892 0.01937444117527904 0 -0.38510027358075227 0.0044364300124967379 0 -0.39300328038815729 0.019655644102602461 0 -0.38510027358075227 0.0044364300124967379 0 -0.39856960861661739 0.0046729487720050386 0 -0.39300328038815729 0.019655644102602461 0 -0.39149303023403142 -0.005335277537219363 0 -0.38510027358075227 0.0044364300124967379 0 -0.39856960861661739 0.0046729487720050386 0 -0.40872204527111111 0.022867749962900141 0 -0.40217936848404251 0.040656332868689943 0 -0.39300328038815729 0.019655644102602461 0 -0.40217936848404251 0.040656332868689943 0 -0.38670634030283008 0.033034015008687988 0 -0.39300328038815729 0.019655644102602461 0 -0.40872204527111111 0.022867749962900141 0 -0.39856960861661739 0.0046729487720050386 0 -0.39300328038815729 0.019655644102602461 0 -0.3875766108720648 0.10801011350679229 0 -0.40575939566394709 0.088936040450249165 0 -0.41194990864025682 0.1130743234930766 0 -0.3875766108720648 0.10801011350679229 0 -0.41194990864025682 0.1130743234930766 0 -0.39303850838018423 0.12948099644521679 0 -0.3875766108720648 0.10801011350679229 0 -0.39303850838018423 0.12948099644521679 0 -0.36938718168541179 0.1255902499967409 0 -0.3875766108720648 0.10801011350679229 0 -0.37678680274428078 0.095920052983538381 0 -0.36262419495280129 0.1038515713423341 0 -0.3875766108720648 0.10801011350679229 0 -0.37678680274428078 0.095920052983538381 0 -0.38674475774594591 0.083266397622394045 0 -0.37678680274428078 0.095920052983538381 0 -0.38674475774594591 0.083266397622394045 0 -0.37138104083623391 0.082703932652830325 0 -0.38674475774594591 0.083266397622394045 0 -0.37191756568804107 0.066739953928913298 0 -0.37138104083623391 0.082703932652830325 0 -0.38674475774594591 0.083266397622394045 0 -0.39445515791527019 0.0661614229995688 0 -0.37191756568804107 0.066739953928913298 0 -0.39445515791527019 0.0661614229995688 0 -0.40575939566394709 0.088936040450249165 0 -0.41480013606608229 0.067490970918863163 0 -0.38674475774594591 0.083266397622394045 0 -0.39445515791527019 0.0661614229995688 0 -0.40575939566394709 0.088936040450249165 0 -0.3875766108720648 0.10801011350679229 0 -0.38674475774594591 0.083266397622394045 0 -0.40575939566394709 0.088936040450249165 0 -0.40575939566394709 0.088936040450249165 0 -0.41480013606608229 0.067490970918863163 0 -0.43079976792318958 0.090862199026124468 0 -0.44375990034961432 0.061031549153910312 0 -0.41480013606608229 0.067490970918863163 0 -0.43079976792318958 0.090862199026124468 0 -0.43079976792318958 0.090862199026124468 0 -0.41194990864025682 0.1130743234930766 0 -0.43625153759456498 0.1245866202337218 0 -0.40575939566394709 0.088936040450249165 0 -0.43079976792318958 0.090862199026124468 0 -0.41194990864025682 0.1130743234930766 0 -0.43079976792318958 0.090862199026124468 0 -0.43625153759456498 0.1245866202337218 0 -0.45075561745381781 0.10580031757457831 0 -0.43625153759456498 0.1245866202337218 0 -0.45075561745381781 0.10580031757457831 0 -0.46287227134589981 0.1236989169114972 0 -0.43079976792318958 0.090862199026124468 0 -0.45075561745381781 0.10580031757457831 0 -0.4588216169113003 0.086741701229484575 0 -0.45075561745381781 0.10580031757457831 0 -0.4588216169113003 0.086741701229484575 0 -0.47201107007212878 0.1037065685212097 0 -0.45075561745381781 0.10580031757457831 0 -0.46287227134589981 0.1236989169114972 0 -0.47201107007212878 0.1037065685212097 0 -0.44375990034961432 0.061031549153910312 0 -0.43079976792318958 0.090862199026124468 0 -0.4588216169113003 0.086741701229484575 0 -0.44375990034961432 0.061031549153910312 0 -0.4588216169113003 0.086741701229484575 0 -0.47254774460753413 0.064823884848466309 0 -0.4588216169113003 0.086741701229484575 0 -0.47254774460753413 0.064823884848466309 0 -0.4588216169113003 0.086741701229484575 0 -0.47254774460753413 0.064823884848466309 0 -0.4818122771930986 0.082263337292499406 0 -0.48827346409411548 0.06027768147110632 0 -0.47254774460753413 0.064823884848466309 0 -0.4818122771930986 0.082263337292499406 0 -0.4588216169113003 0.086741701229484575 0 -0.4818122771930986 0.082263337292499406 0 -0.47201107007212878 0.1037065685212097 0 -0.4818122771930986 0.082263337292499406 0 -0.5 0.074050186516637917 0 -0.5 0.1005811537317424 0 -0.48827346409411548 0.06027768147110632 0 -0.4818122771930986 0.082263337292499406 0 -0.5 0.074050186516637917 0 -0.46287227134589981 0.1236989169114972 0 -0.48219315692656572 0.1205151432882924 0 -0.47201107007212878 0.1037065685212097 0 -0.4818122771930986 0.082263337292499406 0 -0.47201107007212878 0.1037065685212097 0 -0.5 0.1005811537317424 0 -0.48219315692656572 0.1205151432882924 0 -0.47201107007212878 0.1037065685212097 0 -0.5 0.1005811537317424 0 -0.48219315692656572 0.1205151432882924 0 -0.5 0.1005811537317424 0 -0.5 0.12711212094684679 0 -0.48219315692656572 0.1205151432882924 0 -0.5 0.12711212094684679 0 -0.47883924748460222 0.14018161060892731 0 -0.5 0.12711212094684679 0 -0.47883924748460222 0.14018161060892731 0 -0.5 0.15364308816195121 0 -0.46287227134589981 0.1236989169114972 0 -0.48219315692656572 0.1205151432882924 0 -0.47883924748460222 0.14018161060892731 0 -0.47883924748460222 0.14018161060892731 0 -0.5 0.15364308816195121 0 -0.47008479780898071 0.1615400033189848 0 -0.5 0.15364308816195121 0 -0.50000000000000089 0.18017405537705561 0 -0.48213074815480522 0.17495155205334359 0 -0.50000000000000089 0.18017405537705561 0 -0.48146292621815812 0.19355635563559381 0 -0.50000000000000089 0.18017405537705561 0 -0.48213074815480522 0.17495155205334359 0 -0.48146292621815812 0.19355635563559381 0 -0.48213074815480522 0.17495155205334359 0 -0.45945765920556431 0.18493118343544621 0 -0.48146292621815812 0.19355635563559381 0 -0.48213074815480522 0.17495155205334359 0 -0.47008479780898071 0.1615400033189848 0 -0.45945765920556431 0.18493118343544621 0 -0.5 0.15364308816195121 0 -0.48213074815480522 0.17495155205334359 0 -0.47008479780898071 0.1615400033189848 0 -0.47008479780898071 0.1615400033189848 0 -0.45945765920556431 0.18493118343544621 0 -0.44491624466772411 0.16813711573335099 0 -0.47008479780898071 0.1615400033189848 0 -0.44491624466772411 0.16813711573335099 0 -0.45700588157118233 0.14460720660399121 0 -0.45945765920556431 0.18493118343544621 0 -0.44491624466772411 0.16813711573335099 0 -0.43474290047699488 0.19015608798310391 0 -0.44491624466772411 0.16813711573335099 0 -0.45700588157118233 0.14460720660399121 0 -0.43611169665434868 0.1504606440305504 0 -0.43625153759456498 0.1245866202337218 0 -0.45700588157118233 0.14460720660399121 0 -0.43611169665434868 0.1504606440305504 0 -0.43625153759456498 0.1245866202337218 0 -0.46287227134589981 0.1236989169114972 0 -0.45700588157118233 0.14460720660399121 0 -0.46287227134589981 0.1236989169114972 0 -0.47883924748460222 0.14018161060892731 0 -0.45700588157118233 0.14460720660399121 0 -0.47883924748460222 0.14018161060892731 0 -0.47008479780898071 0.1615400033189848 0 -0.45700588157118233 0.14460720660399121 0 -0.48207357253193078 0.21739097549918149 0 -0.5 0.2118815469096284 0 -0.5 0.25502500317745308 0 -0.48207357253193078 0.21739097549918149 0 -0.46802780128701832 0.22930896654194979 0 -0.5 0.25502500317745308 0 -0.46802780128701832 0.22930896654194979 0 -0.5 0.25502500317745308 0 -0.46826200115894351 0.25268254595322559 0 -0.50000000000000089 0.18017405537705561 0 -0.5 0.2118815469096284 0 -0.48146292621815812 0.19355635563559381 0 -0.48207357253193078 0.21739097549918149 0 -0.46292585243631501 0.20693865589413171 0 -0.46802780128701832 0.22930896654194979 0 -0.48207357253193078 0.21739097549918149 0 -0.48146292621815812 0.19355635563559381 0 -0.46292585243631501 0.20693865589413171 0 -0.48207357253193078 0.21739097549918149 0 -0.5 0.2118815469096284 0 -0.48146292621815812 0.19355635563559381 0 -0.48146292621815812 0.19355635563559381 0 -0.46292585243631501 0.20693865589413171 0 -0.45945765920556431 0.18493118343544621 0 -0.44696073447060752 0.20212681262101459 0 -0.46292585243631501 0.20693865589413171 0 -0.45945765920556431 0.18493118343544621 0 -0.48146292621815812 0.19355635563559381 0 -0.46292585243631501 0.20693865589413171 0 -0.45945765920556431 0.18493118343544621 0 -0.44696073447060752 0.20212681262101459 0 -0.43474290047699488 0.19015608798310391 0 -0.44696073447060752 0.20212681262101459 0 -0.43414988282090411 0.20902301392359759 0 -0.43474290047699488 0.19015608798310391 0 -0.44696073447060752 0.20212681262101459 0 -0.44438877865447191 0.2203209561526695 0 -0.43414988282090411 0.20902301392359759 0 -0.44696073447060752 0.20212681262101459 0 -0.46292585243631501 0.20693865589413171 0 -0.44438877865447191 0.2203209561526695 0 -0.46292585243631501 0.20693865589413171 0 -0.46802780128701832 0.22930896654194979 0 -0.45690026230445402 0.21971898361319381 0 -0.46292585243631501 0.20693865589413171 0 -0.44438877865447191 0.2203209561526695 0 -0.46292585243631501 0.20693865589413171 0 -0.45690026230445402 0.21971898361319381 0 -0.44438877865447191 0.2203209561526695 0 -0.46802780128701832 0.22930896654194979 0 -0.45424796336563722 0.22861724854116511 0 -0.45412118124825718 0.2395922552223117 0 -0.46802780128701832 0.22930896654194979 0 -0.45424796336563722 0.22861724854116511 0 -0.45690026230445402 0.21971898361319381 0 -0.45424796336563722 0.22861724854116511 0 -0.45690026230445402 0.21971898361319381 0 -0.44707608940517052 0.22231138206831691 0 -0.44707608940517052 0.22231138206831691 0 -0.44438877865447191 0.2203209561526695 0 -0.42586105085507731 0.219809117860577 0 -0.45690026230445402 0.21971898361319381 0 -0.44707608940517052 0.22231138206831691 0 -0.44438877865447191 0.2203209561526695 0 -0.44707608940517052 0.22231138206831691 0 -0.43755936465329281 0.22698532229141799 0 -0.44511448258328629 0.23215465526005299 0 -0.43755936465329281 0.22698532229141799 0 -0.44511448258328629 0.23215465526005299 0 -0.43218583576963709 0.2336661339767252 0 -0.45424796336563722 0.22861724854116511 0 -0.44707608940517052 0.22231138206831691 0 -0.44511448258328629 0.23215465526005299 0 -0.45424796336563722 0.22861724854116511 0 -0.44511448258328629 0.23215465526005299 0 -0.45412118124825718 0.2395922552223117 0 -0.44511448258328629 0.23215465526005299 0 -0.44161393816558842 0.24155257742212199 0 -0.45412118124825718 0.2395922552223117 0 -0.44511448258328629 0.23215465526005299 0 -0.44161393816558842 0.24155257742212199 0 -0.43218583576963709 0.2336661339767252 0 -0.44161393816558842 0.24155257742212199 0 -0.43243648966469961 0.24825823729562091 0 -0.44622747097204157 0.25447826500352411 0 -0.44161393816558842 0.24155257742212199 0 -0.45412118124825718 0.2395922552223117 0 -0.44622747097204157 0.25447826500352411 0 -0.46802780128701832 0.22930896654194979 0 -0.45412118124825718 0.2395922552223117 0 -0.46826200115894351 0.25268254595322559 0 -0.45412118124825718 0.2395922552223117 0 -0.46826200115894351 0.25268254595322559 0 -0.44622747097204157 0.25447826500352411 0 -0.40931020750963998 0.23948355441692229 0 -0.40101037553383972 0.24850817254535781 0 -0.4154354269666965 0.25327969466909228 0 -0.40931020750963998 0.23948355441692229 0 -0.42148184861410209 0.2406921978309261 0 -0.41698703102379953 0.22969989485302911 0 -0.40931020750963998 0.23948355441692229 0 -0.42148184861410209 0.2406921978309261 0 -0.4154354269666965 0.25327969466909228 0 -0.42148184861410209 0.2406921978309261 0 -0.43243648966469961 0.24825823729562091 0 -0.4154354269666965 0.25327969466909228 0 -0.44161393816558842 0.24155257742212199 0 -0.43243648966469961 0.24825823729562091 0 -0.43218583576963709 0.2336661339767252 0 -0.42148184861410209 0.2406921978309261 0 -0.43243648966469961 0.24825823729562091 0 -0.43218583576963709 0.2336661339767252 0 -0.42148184861410209 0.2406921978309261 0 -0.43218583576963709 0.2336661339767252 0 -0.41698703102379953 0.22969989485302911 0 -0.43218583576963709 0.2336661339767252 0 -0.42586105085507731 0.219809117860577 0 -0.41698703102379953 0.22969989485302911 0 -0.44707608940517052 0.22231138206831691 0 -0.42586105085507731 0.219809117860577 0 -0.44707608940517052 0.22231138206831691 0 -0.43755936465329281 0.22698532229141799 0 -0.42586105085507731 0.219809117860577 0 -0.43755936465329281 0.22698532229141799 0 -0.43218583576963709 0.2336661339767252 0 -0.42586105085507731 0.219809117860577 0 -0.42586105085507731 0.219809117860577 0 -0.41698703102379953 0.22969989485302911 0 -0.4046460123049842 0.2173068536528372 0 -0.40931020750963998 0.23948355441692229 0 -0.41698703102379953 0.22969989485302911 0 -0.40590702596286521 0.22946517391640911 0 -0.41698703102379953 0.22969989485302911 0 -0.4046460123049842 0.2173068536528372 0 -0.40590702596286521 0.22946517391640911 0 -0.42586105085507731 0.219809117860577 0 -0.4046460123049842 0.2173068536528372 0 -0.41722227291546332 0.20591524768845371 0 -0.39877196507631202 0.20270266476287849 0 -0.4046460123049842 0.2173068536528372 0 -0.42586105085507731 0.219809117860577 0 -0.41722227291546332 0.20591524768845371 0 -0.4046460123049842 0.2173068536528372 0 -0.42586105085507731 0.219809117860577 0 -0.41722227291546332 0.20591524768845371 0 -0.43414988282090411 0.20902301392359759 0 -0.44438877865447191 0.2203209561526695 0 -0.42586105085507731 0.219809117860577 0 -0.43414988282090411 0.20902301392359759 0 -0.41722227291546332 0.20591524768845371 0 -0.43414988282090411 0.20902301392359759 0 -0.43474290047699488 0.19015608798310391 0 -0.41722227291546332 0.20591524768845371 0 -0.40891615430536432 0.18798503216574861 0 -0.39877196507631202 0.20270266476287849 0 -0.41722227291546332 0.20591524768845371 0 -0.43474290047699488 0.19015608798310391 0 -0.40891615430536432 0.18798503216574861 0 -0.40891615430536432 0.18798503216574861 0 -0.39877196507631202 0.20270266476287849 0 -0.38648279715089662 0.18713020989402271 0 -0.38343097375489099 0.21480458944509739 0 -0.38648279715089662 0.18713020989402271 0 -0.37238122863976891 0.2002171120067491 0 -0.39877196507631202 0.20270266476287849 0 -0.38343097375489099 0.21480458944509739 0 -0.38648279715089662 0.18713020989402271 0 -0.38343097375489099 0.21480458944509739 0 -0.38648279715089662 0.18713020989402271 0 -0.38343097375489099 0.21480458944509739 0 -0.37154761244084089 0.2134029747549531 0 -0.37238122863976891 0.2002171120067491 0 -0.38343097375489099 0.21480458944509739 0 -0.37566813965858681 0.2234148702422048 0 -0.37154761244084089 0.2134029747549531 0 -0.38343097375489099 0.21480458944509739 0 -0.37154761244084089 0.2134029747549531 0 -0.38343097375489099 0.21480458944509739 0 -0.4046460123049842 0.2173068536528372 0 -0.38992427199157043 0.22185450724293909 0 -0.38343097375489099 0.21480458944509739 0 -0.4046460123049842 0.2173068536528372 0 -0.39877196507631202 0.20270266476287849 0 -0.38343097375489099 0.21480458944509739 0 -0.4046460123049842 0.2173068536528372 0 -0.4046460123049842 0.2173068536528372 0 -0.39872340832513992 0.226351764622962 0 -0.40590702596286521 0.22946517391640911 0 -0.39872340832513992 0.226351764622962 0 -0.40590702596286521 0.22946517391640911 0 -0.39648996776890633 0.23582301492399779 0 -0.39872340832513992 0.226351764622962 0 -0.38992427199157043 0.22185450724293909 0 -0.39648996776890633 0.23582301492399779 0 -0.4046460123049842 0.2173068536528372 0 -0.39872340832513992 0.226351764622962 0 -0.38992427199157043 0.22185450724293909 0 -0.38343097375489099 0.21480458944509739 0 -0.37566813965858681 0.2234148702422048 0 -0.38119555285080597 0.2350757121572056 0 -0.38343097375489099 0.21480458944509739 0 -0.38992427199157043 0.22185450724293909 0 -0.38119555285080597 0.2350757121572056 0 -0.38343097375489099 0.21480458944509739 0 -0.38119555285080597 0.2350757121572056 0 -0.38119555285080597 0.2350757121572056 0 -0.37210575503526089 0.24405057661464391 0 -0.37896013194671968 0.25534683486931381 0 -0.38119555285080597 0.2350757121572056 0 -0.37896013194671968 0.25534683486931381 0 -0.38992427199157043 0.22185450724293909 0 -0.38119555285080597 0.2350757121572056 0 -0.38722819947627368 0.24843385443806909 0 -0.38992427199157043 0.22185450724293909 0 -0.38722819947627368 0.24843385443806909 0 -0.38119555285080597 0.2350757121572056 0 -0.38722819947627368 0.24843385443806909 0 -0.37896013194671968 0.25534683486931381 0 -0.38992427199157043 0.22185450724293909 0 -0.38722819947627368 0.24843385443806909 0 -0.39648996776890633 0.23582301492399779 0 -0.38722819947627368 0.24843385443806909 0 -0.39648996776890633 0.23582301492399779 0 -0.40101037553383972 0.24850817254535781 0 -0.40931020750963998 0.23948355441692229 0 -0.39648996776890633 0.23582301492399779 0 -0.40101037553383972 0.24850817254535781 0 -0.40931020750963998 0.23948355441692229 0 -0.40590702596286521 0.22946517391640911 0 -0.39648996776890633 0.23582301492399779 0 -0.41530534823700072 0.1390315752597536 0 -0.41919069938251302 0.1652820875776414 0 -0.39528973877013662 0.15130477977831461 0 -0.41194990864025682 0.1130743234930766 0 -0.41530534823700072 0.1390315752597536 0 -0.39303850838018423 0.12948099644521679 0 -0.41194990864025682 0.1130743234930766 0 -0.43625153759456498 0.1245866202337218 0 -0.41530534823700072 0.1390315752597536 0 -0.43625153759456498 0.1245866202337218 0 -0.41530534823700072 0.1390315752597536 0 -0.43611169665434868 0.1504606440305504 0 -0.41530534823700072 0.1390315752597536 0 -0.43611169665434868 0.1504606440305504 0 -0.41919069938251302 0.1652820875776414 0 -0.44491624466772411 0.16813711573335099 0 -0.43611169665434868 0.1504606440305504 0 -0.41919069938251302 0.1652820875776414 0 -0.44491624466772411 0.16813711573335099 0 -0.43474290047699488 0.19015608798310391 0 -0.41919069938251302 0.1652820875776414 0 -0.40891615430536432 0.18798503216574861 0 -0.41919069938251302 0.1652820875776414 0 -0.39971758700540821 0.17129016696027699 0 -0.43474290047699488 0.19015608798310391 0 -0.40891615430536432 0.18798503216574861 0 -0.41919069938251302 0.1652820875776414 0 -0.41919069938251302 0.1652820875776414 0 -0.39971758700540821 0.17129016696027699 0 -0.39528973877013662 0.15130477977831461 0 -0.40891615430536432 0.18798503216574861 0 -0.39971758700540821 0.17129016696027699 0 -0.38648279715089662 0.18713020989402271 0 -0.39971758700540821 0.17129016696027699 0 -0.38648279715089662 0.18713020989402271 0 -0.372146074932449 0.16344591630492469 0 -0.39971758700540821 0.17129016696027699 0 -0.39528973877013662 0.15130477977831461 0 -0.372146074932449 0.16344591630492469 0 -0.37815506306193358 0.1433222327004802 0 -0.39528973877013662 0.15130477977831461 0 -0.39303850838018423 0.12948099644521679 0 -0.37815506306193358 0.1433222327004802 0 -0.39528973877013662 0.15130477977831461 0 -0.372146074932449 0.16344591630492469 0 -0.41530534823700072 0.1390315752597536 0 -0.39528973877013662 0.15130477977831461 0 -0.39303850838018423 0.12948099644521679 0 -0.37815506306193358 0.1433222327004802 0 -0.39303850838018423 0.12948099644521679 0 -0.36938718168541179 0.1255902499967409 0 -0.36938718168541179 0.1255902499967409 0 -0.35200794605681629 0.12502238642781019 0 -0.36027383228078641 0.14176664061691219 0 -0.37815506306193358 0.1433222327004802 0 -0.36938718168541179 0.1255902499967409 0 -0.36027383228078641 0.14176664061691219 0 -0.35200794605681629 0.12502238642781019 0 -0.36027383228078641 0.14176664061691219 0 -0.34238396195098092 0.13747367741656721 0 -0.34692124746973713 0.1542878562826405 0 -0.36027383228078641 0.14176664061691219 0 -0.34238396195098092 0.13747367741656721 0 -0.34692124746973713 0.1542878562826405 0 -0.36027383228078641 0.14176664061691219 0 -0.372146074932449 0.16344591630492469 0 -0.37815506306193358 0.1433222327004802 0 -0.36027383228078641 0.14176664061691219 0 -0.372146074932449 0.16344591630492469 0 -0.38648279715089662 0.18713020989402271 0 -0.372146074932449 0.16344591630492469 0 -0.35825464468573548 0.18846491094187309 0 -0.372146074932449 0.16344591630492469 0 -0.35358483912925948 0.17080886943100959 0 -0.35825464468573548 0.18846491094187309 0 -0.35358483912925948 0.17080886943100959 0 -0.35825464468573548 0.18846491094187309 0 -0.33660402194939321 0.18841081708856641 0 -0.34692124746973713 0.1542878562826405 0 -0.372146074932449 0.16344591630492469 0 -0.35358483912925948 0.17080886943100959 0 -0.34692124746973713 0.1542878562826405 0 -0.35358483912925948 0.17080886943100959 0 -0.33500456297109971 0.16792639800837539 0 -0.33500456297109971 0.16792639800837539 0 -0.31851102729851588 0.15590236448055639 0 -0.33255517435583237 0.14646848770795259 0 -0.35358483912925948 0.17080886943100959 0 -0.33500456297109971 0.16792639800837539 0 -0.33660402194939321 0.18841081708856641 0 -0.33500456297109971 0.16792639800837539 0 -0.31289652582642141 0.1805837036697519 0 -0.33660402194939321 0.18841081708856641 0 -0.33500456297109971 0.16792639800837539 0 -0.31289652582642141 0.1805837036697519 0 -0.33500456297109971 0.16792639800837539 0 -0.31289652582642141 0.1805837036697519 0 -0.31851102729851588 0.15590236448055639 0 -0.31851102729851588 0.15590236448055639 0 -0.31283651791160189 0.14254581953933751 0 -0.32160496684282269 0.13812883269818441 0 -0.31851102729851588 0.15590236448055639 0 -0.32160496684282269 0.13812883269818441 0 -0.33255517435583237 0.14646848770795259 0 -0.31283651791160189 0.14254581953933751 0 -0.32160496684282269 0.13812883269818441 0 -0.31723531685176609 0.1198603304800319 0 -0.32160496684282269 0.13812883269818441 0 -0.33282908497732799 0.12691684344983439 0 -0.31723531685176609 0.1198603304800319 0 -0.32160496684282269 0.13812883269818441 0 -0.33282908497732799 0.12691684344983439 0 -0.33255517435583237 0.14646848770795259 0 -0.35200794605681629 0.12502238642781019 0 -0.34238396195098092 0.13747367741656721 0 -0.33282908497732799 0.12691684344983439 0 -0.34238396195098092 0.13747367741656721 0 -0.33282908497732799 0.12691684344983439 0 -0.33255517435583237 0.14646848770795259 0 -0.34692124746973713 0.1542878562826405 0 -0.34238396195098092 0.13747367741656721 0 -0.33255517435583237 0.14646848770795259 0 -0.34692124746973713 0.1542878562826405 0 -0.33500456297109971 0.16792639800837539 0 -0.33255517435583237 0.14646848770795259 0 -0.36182205832064851 0.24457456243760281 0 -0.34139946132247112 0.24041351753421181 0 -0.35754908974886279 0.25815157521253052 0 -0.36182205832064851 0.24457456243760281 0 -0.36649841958780932 0.23037620461156319 0 -0.34139946132247112 0.24041351753421181 0 -0.36182205832064851 0.24457456243760281 0 -0.37210575503526089 0.24405057661464391 0 -0.36759241766554501 0.2538245840294952 0 -0.38119555285080597 0.2350757121572056 0 -0.37210575503526089 0.24405057661464391 0 -0.36649841958780932 0.23037620461156319 0 -0.36182205832064851 0.24457456243760281 0 -0.37210575503526089 0.24405057661464391 0 -0.36649841958780932 0.23037620461156319 0 -0.36649841958780932 0.23037620461156319 0 -0.35688565293773689 0.21871143604885451 0 -0.37154761244084089 0.2134029747549531 0 -0.37566813965858681 0.2234148702422048 0 -0.36649841958780932 0.23037620461156319 0 -0.37154761244084089 0.2134029747549531 0 -0.37566813965858681 0.2234148702422048 0 -0.38119555285080597 0.2350757121572056 0 -0.36649841958780932 0.23037620461156319 0 -0.35688565293773689 0.21871143604885451 0 -0.34289792395499269 0.21218791974938919 0 -0.34139946132247112 0.24041351753421181 0 -0.36649841958780932 0.23037620461156319 0 -0.35688565293773689 0.21871143604885451 0 -0.34139946132247112 0.24041351753421181 0 -0.35688565293773689 0.21871143604885451 0 -0.36039341253181489 0.20659687070036381 0 -0.34289792395499269 0.21218791974938919 0 -0.35688565293773689 0.21871143604885451 0 -0.37154761244084089 0.2134029747549531 0 -0.36039341253181489 0.20659687070036381 0 -0.37154761244084089 0.2134029747549531 0 -0.36039341253181489 0.20659687070036381 0 -0.37238122863976891 0.2002171120067491 0 -0.38648279715089662 0.18713020989402271 0 -0.37238122863976891 0.2002171120067491 0 -0.35825464468573548 0.18846491094187309 0 -0.36039341253181489 0.20659687070036381 0 -0.37238122863976891 0.2002171120067491 0 -0.35825464468573548 0.18846491094187309 0 -0.36039341253181489 0.20659687070036381 0 -0.35825464468573548 0.18846491094187309 0 -0.34289792395499269 0.21218791974938919 0 -0.35825464468573548 0.18846491094187309 0 -0.33660402194939321 0.18841081708856641 0 -0.34289792395499269 0.21218791974938919 0 -0.33660402194939321 0.18841081708856641 0 -0.32037844320246261 0.2049322073775762 0 -0.34289792395499269 0.21218791974938919 0 -0.31289652582642141 0.1805837036697519 0 -0.33660402194939321 0.18841081708856641 0 -0.32037844320246261 0.2049322073775762 0 -0.32037844320246261 0.2049322073775762 0 -0.32007631676378118 0.22793178832776281 0 -0.30808679103638181 0.2157672566230279 0 -0.32037844320246261 0.2049322073775762 0 -0.34289792395499269 0.21218791974938919 0 -0.32007631676378118 0.22793178832776281 0 -0.34289792395499269 0.21218791974938919 0 -0.34139946132247112 0.24041351753421181 0 -0.34289792395499269 0.21218791974938919 0 -0.32007631676378118 0.22793178832776281 0 -0.34139946132247112 0.24041351753421181 0 -0.32007631676378118 0.22793178832776281 0 -0.30683534910107541 0.24131982490484771 0 -0.32052316857880009 0.25199218265017043 0 -0.32007631676378118 0.22793178832776281 0 -0.34139946132247112 0.24041351753421181 0 -0.32052316857880009 0.25199218265017043 0 -0.28520633826073721 0.24204505302591109 0 -0.29177957584356251 0.2379097909607483 0 -0.29813700426351908 0.2549985658140525 0 -0.28520633826073721 0.24204505302591109 0 -0.29177957584356251 0.2379097909607483 0 -0.28620422144783292 0.23331914670984491 0 -0.28520633826073721 0.24204505302591109 0 -0.28620422144783292 0.23331914670984491 0 -0.2743775822837069 0.2311971640619615 0 -0.28520633826073721 0.24204505302591109 0 -0.29177957584356251 0.2379097909607483 0 -0.28520633826073721 0.24204505302591109 0 -0.29813700426351908 0.2549985658140525 0 -0.29177957584356251 0.2379097909607483 0 -0.30683534910107541 0.24131982490484771 0 -0.29813700426351908 0.2549985658140525 0 -0.30683534910107541 0.24131982490484771 0 -0.32052316857880009 0.25199218265017043 0 -0.29813700426351908 0.2549985658140525 0 -0.29177957584356251 0.2379097909607483 0 -0.30683534910107541 0.24131982490484771 0 -0.3025311369596701 0.2279451799051346 0 -0.32007631676378118 0.22793178832776281 0 -0.3025311369596701 0.2279451799051346 0 -0.30808679103638181 0.2157672566230279 0 -0.32007631676378118 0.22793178832776281 0 -0.30683534910107541 0.24131982490484771 0 -0.3025311369596701 0.2279451799051346 0 -0.3025311369596701 0.2279451799051346 0 -0.29339823295664158 0.22906557906458669 0 -0.29484583138699982 0.21546216672010021 0 -0.3025311369596701 0.2279451799051346 0 -0.29484583138699982 0.21546216672010021 0 -0.30808679103638181 0.2157672566230279 0 -0.28556364975324361 0.2258194074993474 0 -0.29484583138699982 0.21546216672010021 0 -0.2791973288468384 0.21790572090905611 0 -0.29339823295664158 0.22906557906458669 0 -0.28556364975324361 0.2258194074993474 0 -0.29484583138699982 0.21546216672010021 0 -0.29177957584356251 0.2379097909607483 0 -0.29339823295664158 0.22906557906458669 0 -0.28620422144783292 0.23331914670984491 0 -0.29177957584356251 0.2379097909607483 0 -0.3025311369596701 0.2279451799051346 0 -0.29339823295664158 0.22906557906458669 0 -0.29339823295664158 0.22906557906458669 0 -0.28620422144783292 0.23331914670984491 0 -0.28556364975324361 0.2258194074993474 0 -0.28620422144783292 0.23331914670984491 0 -0.28556364975324361 0.2258194074993474 0 -0.2743775822837069 0.2311971640619615 0 -0.29484583138699982 0.21546216672010021 0 -0.2791973288468384 0.21790572090905611 0 -0.28722286546432818 0.20701443054747121 0 -0.29484583138699982 0.21546216672010021 0 -0.2791973288468384 0.21790572090905611 0 -0.28722286546432818 0.20701443054747121 0 -0.29484583138699982 0.21546216672010021 0 -0.30260222686899518 0.20256494078456561 0 -0.32037844320246261 0.2049322073775762 0 -0.30808679103638181 0.2157672566230279 0 -0.30260222686899518 0.20256494078456561 0 -0.29484583138699982 0.21546216672010021 0 -0.30808679103638181 0.2157672566230279 0 -0.30260222686899518 0.20256494078456561 0 -0.31289652582642141 0.1805837036697519 0 -0.30260222686899518 0.20256494078456561 0 -0.29078848868174278 0.1932410093311285 0 -0.31289652582642141 0.1805837036697519 0 -0.32037844320246261 0.2049322073775762 0 -0.30260222686899518 0.20256494078456561 0 -0.28722286546432818 0.20701443054747121 0 -0.29078848868174278 0.1932410093311285 0 -0.26868045153706449 0.20589831499250541 0 -0.28722286546432818 0.20701443054747121 0 -0.30260222686899518 0.20256494078456561 0 -0.29078848868174278 0.1932410093311285 0 -0.29078848868174278 0.1932410093311285 0 -0.27856333876668132 0.18821622517566469 0 -0.28884814108856732 0.1821072455122304 0 -0.29078848868174278 0.1932410093311285 0 -0.27856333876668132 0.18821622517566469 0 -0.26868045153706449 0.20589831499250541 0 -0.27856333876668132 0.18821622517566469 0 -0.26868045153706449 0.20589831499250541 0 -0.29078848868174278 0.1932410093311285 0 -0.26868045153706449 0.20589831499250541 0 -0.27856333876668132 0.18821622517566469 0 -0.26868045153706449 0.20589831499250541 0 -0.26716833294266512 0.18744146854889909 0 -0.25462413856064708 0.2114088186030785 0 -0.26716833294266512 0.18744146854889909 0 -0.25193880530206408 0.19370481573741441 0 -0.26716833294266512 0.18744146854889909 0 -0.25648243047464631 0.1826357185327456 0 -0.25193880530206408 0.19370481573741441 0 -0.25462413856064708 0.2114088186030785 0 -0.26716833294266512 0.18744146854889909 0 -0.25462413856064708 0.2114088186030785 0 -0.26868045153706449 0.20589831499250541 0 -0.26716833294266512 0.18744146854889909 0 -0.2562356768596219 0.21302320427817639 0 -0.26868045153706449 0.20589831499250541 0 -0.25462413856064708 0.2114088186030785 0 -0.2562356768596219 0.21302320427817639 0 -0.26868045153706449 0.20589831499250541 0 -0.25272816581491458 0.21503132644266379 0 -0.25462413856064708 0.2114088186030785 0 -0.25272816581491458 0.21503132644266379 0 -0.2562356768596219 0.21302320427817639 0 -0.25272816581491458 0.21503132644266379 0 -0.25462413856064708 0.2114088186030785 0 -0.2562356768596219 0.21302320427817639 0 -0.25462413856064708 0.2114088186030785 0 -0.2562356768596219 0.21302320427817639 0 -0.25272816581491458 0.21503132644266379 0 -0.2562356768596219 0.21302320427817639 0 -0.25599591734786031 0.2173373503046071 0 -0.2562356768596219 0.21302320427817639 0 -0.25599591734786031 0.2173373503046071 0 -0.25801218981811458 0.2175055682723043 0 -0.25272816581491458 0.21503132644266379 0 -0.25599591734786031 0.2173373503046071 0 -0.2564563288255462 0.2214567869436789 0 -0.25599591734786031 0.2173373503046071 0 -0.25801218981811458 0.2175055682723043 0 -0.25703316838862827 0.21958787938824861 0 -0.2562356768596219 0.21302320427817639 0 -0.26166069193192981 0.2184578046382698 0 -0.26868045153706449 0.20589831499250541 0 -0.25801218981811458 0.2175055682723043 0 -0.25913549456253288 0.21912160275221951 0 -0.25703316838862827 0.21958787938824861 0 -0.26166069193192981 0.2184578046382698 0 -0.26868045153706449 0.20589831499250541 0 -0.26354882630667698 0.22034927509801169 0 -0.2562356768596219 0.21302320427817639 0 -0.26166069193192981 0.2184578046382698 0 -0.26166069193192981 0.2184578046382698 0 -0.26868045153706449 0.20589831499250541 0 -0.25801218981811458 0.2175055682723043 0 -0.26166069193192981 0.2184578046382698 0 -0.25913549456253288 0.21912160275221951 0 -0.2562356768596219 0.21302320427817639 0 -0.25801218981811458 0.2175055682723043 0 -0.26166069193192981 0.2184578046382698 0 -0.28722286546432818 0.20701443054747121 0 -0.26868045153706449 0.20589831499250541 0 -0.2791973288468384 0.21790572090905611 0 -0.26868045153706449 0.20589831499250541 0 -0.2791973288468384 0.21790572090905611 0 -0.26354882630667698 0.22034927509801169 0 -0.2791973288468384 0.21790572090905611 0 -0.26354882630667698 0.22034927509801169 0 -0.2791973288468384 0.21790572090905611 0 -0.2743775822837069 0.2311971640619615 0 -0.26354882630667698 0.22034927509801169 0 -0.28556364975324361 0.2258194074993474 0 -0.2791973288468384 0.21790572090905611 0 -0.2743775822837069 0.2311971640619615 0 -0.2743775822837069 0.2311971640619615 0 -0.26322708885207657 0.23130122429223079 0 -0.27053130904085088 0.23989425105438689 0 -0.2743775822837069 0.2311971640619615 0 -0.26354882630667698 0.22034927509801169 0 -0.26322708885207657 0.23130122429223079 0 -0.2743775822837069 0.2311971640619615 0 -0.26354882630667698 0.22034927509801169 0 -0.26354882630667698 0.22034927509801169 0 -0.26032187107898369 0.22085317251209219 0 -0.26322708885207657 0.23130122429223079 0 -0.26354882630667698 0.22034927509801169 0 -0.26032187107898369 0.22085317251209219 0 -0.26166069193192981 0.2184578046382698 0 -0.26354882630667698 0.22034927509801169 0 -0.26032187107898369 0.22085317251209219 0 -0.26166069193192981 0.2184578046382698 0 -0.26354882630667698 0.22034927509801169 0 -0.26166069193192981 0.2184578046382698 0 -0.26032187107898369 0.22085317251209219 0 -0.26166069193192981 0.2184578046382698 0 -0.26032187107898369 0.22085317251209219 0 -0.25913549456253288 0.21912160275221951 0 -0.26032187107898369 0.22085317251209219 0 -0.2564563288255462 0.2214567869436789 0 -0.26032187107898369 0.22085317251209219 0 -0.25703316838862827 0.21958787938824861 0 -0.2564563288255462 0.2214567869436789 0 -0.26032187107898369 0.22085317251209219 0 -0.25913549456253288 0.21912160275221951 0 -0.25703316838862827 0.21958787938824861 0 -0.25599591734786031 0.2173373503046071 0 -0.25703316838862827 0.21958787938824861 0 -0.2564563288255462 0.2214567869436789 0 -0.2564563288255462 0.2214567869436789 0 -0.25210514226647263 0.23555423440704959 0 -0.248734035528067 0.22266264303674471 0 -0.26032187107898369 0.22085317251209219 0 -0.2564563288255462 0.2214567869436789 0 -0.25210514226647263 0.23555423440704959 0 -0.25703316838862827 0.21958787938824861 0 -0.2564563288255462 0.2214567869436789 0 -0.25272816581491458 0.21503132644266379 0 -0.2564563288255462 0.2214567869436789 0 -0.248734035528067 0.22266264303674471 0 -0.2564563288255462 0.2214567869436789 0 -0.248734035528067 0.22266264303674471 0 -0.25272816581491458 0.21503132644266379 0 -0.248734035528067 0.22266264303674471 0 -0.26032187107898369 0.22085317251209219 0 -0.25210514226647263 0.23555423440704959 0 -0.2564563288255462 0.2214567869436789 0 -0.25210514226647263 0.23555423440704959 0 -0.26032187107898369 0.22085317251209219 0 -0.26322708885207657 0.23130122429223079 0 -0.25210514226647263 0.23555423440704959 0 -0.26322708885207657 0.23130122429223079 0 -0.25210514226647263 0.23555423440704959 0 -0.25993357060704247 0.2432609816545768 0 -0.25054816238852479 0.24059870715785611 0 -0.25993357060704247 0.2432609816545768 0 -0.2546175921406465 0.26128861144859822 0 -0.26322708885207657 0.23130122429223079 0 -0.25993357060704247 0.2432609816545768 0 -0.27053130904085088 0.23989425105438689 0 -0.25054816238852479 0.24059870715785611 0 -0.25210514226647263 0.23555423440704959 0 -0.25993357060704247 0.2432609816545768 0 -0.25054816238852479 0.24059870715785611 0 -0.25210514226647263 0.23555423440704959 0 -0.25993357060704247 0.2432609816545768 0 -0.27053130904085088 0.23989425105438689 0 -0.26991196520069161 0.25166683223725428 0 -0.28520633826073721 0.24204505302591109 0 -0.2743775822837069 0.2311971640619615 0 -0.27053130904085088 0.23989425105438689 0 -0.28520633826073721 0.24204505302591109 0 -0.2743775822837069 0.2311971640619615 0 -0.28520633826073721 0.24204505302591109 0 -0.26991196520069161 0.25166683223725428 0 -0.28520633826073721 0.24204505302591109 0 -0.27053130904085088 0.23989425105438689 0 -0.26991196520069161 0.25166683223725428 0 -0.29367763624156518 0.14580120048619691 0 -0.30132029725935677 0.14489814247345079 0 -0.28540527766694768 0.16993595446686949 0 -0.30132029725935677 0.14489814247345079 0 -0.29832911322591421 0.15285204554198301 0 -0.28540527766694768 0.16993595446686949 0 -0.29225672170669897 0.1395067684405393 0 -0.27971252732468282 0.16347411849471971 0 -0.29367763624156518 0.14580120048619691 0 -0.29225672170669897 0.1395067684405393 0 -0.27971252732468282 0.16347411849471971 0 -0.29225672170669897 0.1395067684405393 0 -0.27971252732468282 0.16347411849471971 0 -0.27793738210199243 0.14829742822643491 0 -0.29367763624156518 0.14580120048619691 0 -0.29225672170669897 0.1395067684405393 0 -0.29367763624156518 0.14580120048619691 0 -0.29225672170669897 0.1395067684405393 0 -0.29707098058306791 0.1417275861303573 0 -0.29225672170669897 0.1395067684405393 0 -0.27793738210199243 0.14829742822643491 0 -0.28046643513796882 0.14013597811185341 0 -0.29225672170669897 0.1395067684405393 0 -0.27842990629181991 0.12905884737457521 0 -0.28046643513796882 0.14013597811185341 0 -0.29225672170669897 0.1395067684405393 0 -0.27842990629181991 0.12905884737457521 0 -0.2863041877154166 0.1131379617402274 0 -0.29225672170669897 0.1395067684405393 0 -0.2863041877154166 0.1131379617402274 0 -0.29225672170669897 0.1395067684405393 0 -0.2981778848162786 0.128193599602963 0 -0.2863041877154166 0.1131379617402274 0 -0.29225672170669897 0.1395067684405393 0 -0.30121224024343363 0.13483728542546841 0 -0.29707098058306791 0.1417275861303573 0 -0.29225672170669897 0.1395067684405393 0 -0.2981778848162786 0.128193599602963 0 -0.29225672170669897 0.1395067684405393 0 -0.30121224024343363 0.13483728542546841 0 -0.2981778848162786 0.128193599602963 0 -0.30121224024343363 0.13483728542546841 0 -0.2981778848162786 0.128193599602963 0 -0.31723531685176609 0.1198603304800319 0 -0.30132029725935677 0.14489814247345079 0 -0.31723531685176609 0.1198603304800319 0 -0.30121224024343363 0.13483728542546841 0 -0.30132029725935677 0.14489814247345079 0 -0.29707098058306791 0.1417275861303573 0 -0.31283651791160189 0.14254581953933751 0 -0.30132029725935677 0.14489814247345079 0 -0.31723531685176609 0.1198603304800319 0 -0.30121224024343363 0.13483728542546841 0 -0.30132029725935677 0.14489814247345079 0 -0.31723531685176609 0.1198603304800319 0 -0.31283651791160189 0.14254581953933751 0 -0.30132029725935677 0.14489814247345079 0 -0.30551098130554788 0.1539394275644638 0 -0.29367763624156518 0.14580120048619691 0 -0.30132029725935677 0.14489814247345079 0 -0.29707098058306791 0.1417275861303573 0 -0.30132029725935677 0.14489814247345079 0 -0.29832911322591421 0.15285204554198301 0 -0.30551098130554788 0.1539394275644638 0 -0.31851102729851588 0.15590236448055639 0 -0.31283651791160189 0.14254581953933751 0 -0.30551098130554788 0.1539394275644638 0 -0.31289652582642141 0.1805837036697519 0 -0.31851102729851588 0.15590236448055639 0 -0.30548605551313601 0.16580850627828139 0 -0.31851102729851588 0.15590236448055639 0 -0.30551098130554788 0.1539394275644638 0 -0.30548605551313601 0.16580850627828139 0 -0.30548605551313601 0.16580850627828139 0 -0.29764345600278319 0.16844986735664469 0 -0.29759451090954719 0.17643761218330459 0 -0.30548605551313601 0.16580850627828139 0 -0.29764345600278319 0.16844986735664469 0 -0.29908316640873578 0.16231679642003941 0 -0.29832911322591421 0.15285204554198301 0 -0.30551098130554788 0.1539394275644638 0 -0.29908316640873578 0.16231679642003941 0 -0.30551098130554788 0.1539394275644638 0 -0.30548605551313601 0.16580850627828139 0 -0.29908316640873578 0.16231679642003941 0 -0.31289652582642141 0.1805837036697519 0 -0.29078848868174278 0.1932410093311285 0 -0.29759451090954719 0.17643761218330459 0 -0.31289652582642141 0.1805837036697519 0 -0.29078848868174278 0.1932410093311285 0 -0.31289652582642141 0.1805837036697519 0 -0.30548605551313601 0.16580850627828139 0 -0.29759451090954719 0.17643761218330459 0 -0.27856333876668132 0.18821622517566469 0 -0.28844622599629782 0.17053413535882381 0 -0.27856333876668132 0.18821622517566469 0 -0.28884814108856732 0.1821072455122304 0 -0.28844622599629782 0.17053413535882381 0 -0.27856333876668132 0.18821622517566469 0 -0.28540527766694768 0.16993595446686949 0 -0.28844622599629782 0.17053413535882381 0 -0.29078848868174278 0.1932410093311285 0 -0.29759451090954719 0.17643761218330459 0 -0.28884814108856732 0.1821072455122304 0 -0.29759451090954719 0.17643761218330459 0 -0.28884814108856732 0.1821072455122304 0 -0.28844622599629782 0.17053413535882381 0 -0.29832911322591421 0.15285204554198301 0 -0.29908316640873578 0.16231679642003941 0 -0.28844622599629782 0.17053413535882381 0 -0.30132029725935677 0.14489814247345079 0 -0.28540527766694768 0.16993595446686949 0 -0.29367763624156518 0.14580120048619691 0 -0.28540527766694768 0.16993595446686949 0 -0.27971252732468282 0.16347411849471971 0 -0.29832911322591421 0.15285204554198301 0 -0.28540527766694768 0.16993595446686949 0 -0.28844622599629782 0.17053413535882381 0 -0.29832911322591421 0.15285204554198301 0 -0.28844622599629782 0.17053413535882381 0 -0.29764345600278319 0.16844986735664469 0 -0.29759451090954719 0.17643761218330459 0 -0.28844622599629782 0.17053413535882381 0 -0.29764345600278319 0.16844986735664469 0 -0.29908316640873578 0.16231679642003941 0 -0.28844622599629782 0.17053413535882381 0 -0.27971252732468282 0.16347411849471971 0 -0.26681583754358312 0.15703960248194049 0 -0.27793738210199243 0.14829742822643491 0 -0.27971252732468282 0.16347411849471971 0 -0.26864544582317851 0.1695326912228835 0 -0.26681583754358312 0.15703960248194049 0 -0.28540527766694768 0.16993595446686949 0 -0.27971252732468282 0.16347411849471971 0 -0.26716833294266512 0.18744146854889909 0 -0.27971252732468282 0.16347411849471971 0 -0.26716833294266512 0.18744146854889909 0 -0.27856333876668132 0.18821622517566469 0 -0.28540527766694768 0.16993595446686949 0 -0.26716833294266512 0.18744146854889909 0 -0.27971252732468282 0.16347411849471971 0 -0.26864544582317851 0.1695326912228835 0 -0.26716833294266512 0.18744146854889909 0 -0.26088508548178302 0.1701755753659748 0 -0.24346313069296871 0.16633892637512099 0 -0.24593749817207319 0.17922101447869401 0 -0.26864544582317851 0.1695326912228835 0 -0.26716833294266512 0.18744146854889909 0 -0.26088508548178302 0.1701755753659748 0 -0.26716833294266512 0.18744146854889909 0 -0.25648243047464631 0.1826357185327456 0 -0.26088508548178302 0.1701755753659748 0 -0.25648243047464631 0.1826357185327456 0 -0.26088508548178302 0.1701755753659748 0 -0.24593749817207319 0.17922101447869401 0 -0.25193880530206408 0.19370481573741441 0 -0.25648243047464631 0.1826357185327456 0 -0.24593749817207319 0.17922101447869401 0 -0.26681583754358312 0.15703960248194049 0 -0.26088508548178302 0.1701755753659748 0 -0.25072842261960387 0.15603505327837411 0 -0.26088508548178302 0.1701755753659748 0 -0.25072842261960387 0.15603505327837411 0 -0.24346313069296871 0.16633892637512099 0 -0.26864544582317851 0.1695326912228835 0 -0.26681583754358312 0.15703960248194049 0 -0.26088508548178302 0.1701755753659748 0 -0.26088508548178302 0.1701755753659748 0 -0.25072842261960387 0.15603505327837411 0 -0.26681583754358312 0.15703960248194049 0 -0.25608290515330878 0.14176455504424121 0 -0.27043538879702828 0.1413306736031216 0 -0.26681583754358312 0.15703960248194049 0 -0.25072842261960387 0.15603505327837411 0 -0.25608290515330878 0.14176455504424121 0 -0.26681583754358312 0.15703960248194049 0 -0.27043538879702828 0.1413306736031216 0 -0.27793738210199243 0.14829742822643491 0 -0.27043538879702828 0.1413306736031216 0 -0.27793738210199243 0.14829742822643491 0 -0.28046643513796882 0.14013597811185341 0 -0.27043538879702828 0.1413306736031216 0 -0.27842990629181991 0.12905884737457521 0 -0.28046643513796882 0.14013597811185341 0 -0.27043538879702828 0.1413306736031216 0 -0.27842990629181991 0.12905884737457521 0 -0.2648400147316442 0.13011893998476409 0 -0.27842990629181991 0.12905884737457521 0 -0.2648400147316442 0.13011893998476409 0 -0.26830038075826779 0.11624375259475619 0 -0.25608290515330878 0.14176455504424121 0 -0.2648400147316442 0.13011893998476409 0 -0.24895710550971339 0.12165530893482571 0 -0.25608290515330878 0.14176455504424121 0 -0.27043538879702828 0.1413306736031216 0 -0.2648400147316442 0.13011893998476409 0 -0.25734245126200062 0.1014160866788785 0 -0.26830038075826779 0.11624375259475619 0 -0.24895710550971339 0.12165530893482571 0 -0.2648400147316442 0.13011893998476409 0 -0.26830038075826779 0.11624375259475619 0 -0.24895710550971339 0.12165530893482571 0 -0.25734245126200062 0.1014160866788785 0 -0.24895710550971339 0.12165530893482571 0 -0.25734245126200062 0.1014160866788785 0 -0.27392861903901239 0.1020753708552664 0 -0.26830038075826779 0.11624375259475619 0 -0.27392861903901239 0.1020753708552664 0 -0.2863041877154166 0.1131379617402274 0 -0.28035165372413551 0.086769155039914989 0 -0.25734245126200062 0.1014160866788785 0 -0.27392861903901239 0.1020753708552664 0 -0.26572779701428773 0.081176864422931191 0 -0.27842990629181991 0.12905884737457521 0 -0.26830038075826779 0.11624375259475619 0 -0.2863041877154166 0.1131379617402274 0 -0.27392861903901239 0.1020753708552664 0 -0.26830038075826779 0.11624375259475619 0 -0.2863041877154166 0.1131379617402274 0 -0.2981778848162786 0.128193599602963 0 -0.2863041877154166 0.1131379617402274 0 -0.30134905106005738 0.1164832023402728 0 -0.2863041877154166 0.1131379617402274 0 -0.28035165372413551 0.086769155039914989 0 -0.2863041877154166 0.1131379617402274 0 -0.29405774138327462 0.094893752904386258 0 -0.28035165372413551 0.086769155039914989 0 -0.2863041877154166 0.1131379617402274 0 -0.29405774138327462 0.094893752904386258 0 -0.30367881485676818 0.104740917537869 0 -0.29405774138327462 0.094893752904386258 0 -0.30367881485676818 0.104740917537869 0 -0.30859009333780452 0.087437634974232029 0 -0.30367881485676818 0.104740917537869 0 -0.30859009333780452 0.087437634974232029 0 -0.31724517505712951 0.098806923667406316 0 -0.2981778848162786 0.128193599602963 0 -0.30134905106005738 0.1164832023402728 0 -0.31723531685176609 0.1198603304800319 0 -0.2863041877154166 0.1131379617402274 0 -0.30367881485676818 0.104740917537869 0 -0.30134905106005738 0.1164832023402728 0 -0.30367881485676818 0.104740917537869 0 -0.30134905106005738 0.1164832023402728 0 -0.31723531685176609 0.1198603304800319 0 -0.30660633332941051 0.074378369855040594 0 -0.29366682663590249 0.070755320590707688 0 -0.31081826144354868 0.060679329518446831 0 -0.30660633332941051 0.074378369855040594 0 -0.29665452968210548 0.0828468466728563 0 -0.29366682663590249 0.070755320590707688 0 -0.29405774138327462 0.094893752904386258 0 -0.30859009333780452 0.087437634974232029 0 -0.29665452968210548 0.0828468466728563 0 -0.30660633332941051 0.074378369855040594 0 -0.30859009333780452 0.087437634974232029 0 -0.29665452968210548 0.0828468466728563 0 -0.29665452968210548 0.0828468466728563 0 -0.29366682663590249 0.070755320590707688 0 -0.28035165372413551 0.086769155039914989 0 -0.29405774138327462 0.094893752904386258 0 -0.29665452968210548 0.0828468466728563 0 -0.28035165372413551 0.086769155039914989 0 -0.29366682663590249 0.070755320590707688 0 -0.28035165372413551 0.086769155039914989 0 -0.2743991197328543 0.06040034833960263 0 -0.28035165372413551 0.086769155039914989 0 -0.2743991197328543 0.06040034833960263 0 -0.28035165372413551 0.086769155039914989 0 -0.26572779701428773 0.081176864422931191 0 -0.2743991197328543 0.06040034833960263 0 -0.27392861903901239 0.1020753708552664 0 -0.28035165372413551 0.086769155039914989 0 -0.26572779701428773 0.081176864422931191 0 -0.25734245126200062 0.1014160866788785 0 -0.26572779701428773 0.081176864422931191 0 -0.24672703352553629 0.080158677613093823 0 -0.25734245126200062 0.1014160866788785 0 -0.26572779701428773 0.081176864422931191 0 -0.26572779701428773 0.081176864422931191 0 -0.2559826395353394 0.061597363551489349 0 -0.2743991197328543 0.06040034833960263 0 -0.26572779701428773 0.081176864422931191 0 -0.2559826395353394 0.061597363551489349 0 -0.24672703352553629 0.080158677613093823 0 -0.2559826395353394 0.061597363551489349 0 -0.26844658574157321 0.034031541639290362 0 -0.24450296286368231 0.049373315754277197 0 -0.26844658574157321 0.034031541639290362 0 -0.24192231969137759 0.032530148466345048 0 -0.24450296286368231 0.049373315754277197 0 -0.26844658574157321 0.034031541639290362 0 -0.2743991197328543 0.06040034833960263 0 -0.28919208176463768 0.041254089627619089 0 -0.26844658574157321 0.034031541639290362 0 -0.28503043027369879 0.024646141826126219 0 -0.28919208176463768 0.041254089627619089 0 -0.2559826395353394 0.061597363551489349 0 -0.26844658574157321 0.034031541639290362 0 -0.2743991197328543 0.06040034833960263 0 -0.26844658574157321 0.034031541639290362 0 -0.2743991197328543 0.06040034833960263 0 -0.25227296286688322 -0.0076793426536460041 0 -0.26249405175029211 0.007662734938978108 0 -0.23546354233931949 0.0078270751002715265 0 -0.26844658574157321 0.034031541639290362 0 -0.26249405175029211 0.007662734938978108 0 -0.26844658574157321 0.034031541639290362 0 -0.26249405175029211 0.007662734938978108 0 -0.24192231969137759 0.032530148466345048 0 -0.26844658574157321 0.034031541639290362 0 -0.26249405175029211 0.007662734938978108 0 -0.28503043027369879 0.024646141826126219 0 -0.26249405175029211 0.007662734938978108 0 -0.29088909275279012 0.0052797473078289572 0 -0.28503043027369879 0.024646141826126219 0 -0.28503043027369879 0.024646141826126219 0 -0.30319396424779033 0.026796870749645822 0 -0.28919208176463768 0.041254089627619089 0 -0.29088909275279012 0.0052797473078289572 0 -0.28503043027369879 0.024646141826126219 0 -0.30319396424779033 0.026796870749645822 0 -0.30319396424779033 0.026796870749645822 0 -0.30957503066598552 0.011427225412800709 0 -0.32058731744473762 0.019928587991941731 0 -0.29088909275279012 0.0052797473078289572 0 -0.30319396424779033 0.026796870749645822 0 -0.30957503066598552 0.011427225412800709 0 -0.30518798685158838 -0.0020929360932298849 0 -0.29088909275279012 0.0052797473078289572 0 -0.30957503066598552 0.011427225412800709 0 -0.30518798685158838 -0.0020929360932298849 0 -0.30957503066598552 0.011427225412800709 0 -0.32049615199215492 0.0045280339304297253 0 -0.2743991197328543 0.06040034833960263 0 -0.29603323201561299 0.055812399873303893 0 -0.28919208176463768 0.041254089627619089 0 -0.29366682663590249 0.070755320590707688 0 -0.2743991197328543 0.06040034833960263 0 -0.29603323201561299 0.055812399873303893 0 -0.30319396424779033 0.026796870749645822 0 -0.28919208176463768 0.041254089627619089 0 -0.31060618731623352 0.044985865152084623 0 -0.30319396424779033 0.026796870749645822 0 -0.31060618731623352 0.044985865152084623 0 -0.31880783956767128 0.032922242476857162 0 -0.29603323201561299 0.055812399873303893 0 -0.28919208176463768 0.041254089627619089 0 -0.31060618731623352 0.044985865152084623 0 -0.29603323201561299 0.055812399873303893 0 -0.31060618731623352 0.044985865152084623 0 -0.31081826144354868 0.060679329518446831 0 -0.29366682663590249 0.070755320590707688 0 -0.29603323201561299 0.055812399873303893 0 -0.31081826144354868 0.060679329518446831 0 -0.31060618731623352 0.044985865152084623 0 -0.32788744175529538 0.041514351910999107 0 -0.32831049041907839 0.055921771907720449 0 -0.31060618731623352 0.044985865152084623 0 -0.31081826144354868 0.060679329518446831 0 -0.32831049041907839 0.055921771907720449 0 -0.31060618731623352 0.044985865152084623 0 -0.31880783956767128 0.032922242476857162 0 -0.32788744175529538 0.041514351910999107 0 -0.31880783956767128 0.032922242476857162 0 -0.32788744175529538 0.041514351910999107 0 -0.33284048064853922 0.02898560650307868 0 -0.34306862850599618 0.040992927417729488 0 -0.33284048064853922 0.02898560650307868 0 -0.34878147881263583 0.02639136098039228 0 -0.32788744175529538 0.041514351910999107 0 -0.34306862850599618 0.040992927417729488 0 -0.32831049041907839 0.055921771907720449 0 -0.32788744175529538 0.041514351910999107 0 -0.34306862850599618 0.040992927417729488 0 -0.33284048064853922 0.02898560650307868 0 -0.32831049041907839 0.055921771907720449 0 -0.34909822148757808 0.06037421403352132 0 -0.3353113387102199 0.067919589230939131 0 -0.34306862850599618 0.040992927417729488 0 -0.32831049041907839 0.055921771907720449 0 -0.34909822148757808 0.06037421403352132 0 -0.30957503066598552 0.011427225412800709 0 -0.32049615199215492 0.0045280339304297253 0 -0.32058731744473762 0.019928587991941731 0 -0.32049615199215492 0.0045280339304297253 0 -0.32058731744473762 0.019928587991941731 0 -0.33553321900770577 0.01329805350298063 0 -0.30319396424779033 0.026796870749645822 0 -0.31880783956767128 0.032922242476857162 0 -0.32058731744473762 0.019928587991941731 0 -0.31880783956767128 0.032922242476857162 0 -0.32058731744473762 0.019928587991941731 0 -0.33284048064853922 0.02898560650307868 0 -0.33284048064853922 0.02898560650307868 0 -0.33553321900770577 0.01329805350298063 0 -0.34878147881263583 0.02639136098039228 0 -0.32058731744473762 0.019928587991941731 0 -0.33284048064853922 0.02898560650307868 0 -0.33553321900770577 0.01329805350298063 0 -0.33449922093445961 -0.0040818700918973123 0 -0.32049615199215492 0.0045280339304297253 0 -0.33553321900770577 0.01329805350298063 0 -0.33449922093445961 -0.0040818700918973123 0 -0.33553321900770577 0.01329805350298063 0 -0.35182631000740072 0.0068229147672093007 0 -0.33553321900770577 0.01329805350298063 0 -0.35182631000740072 0.0068229147672093007 0 -0.34878147881263583 0.02639136098039228 0 -0.34878147881263583 0.02639136098039228 0 -0.3640039126182737 0.02126082680388874 0 -0.35655106705292511 0.040817520418704747 0 -0.35182631000740072 0.0068229147672093007 0 -0.34878147881263583 0.02639136098039228 0 -0.3640039126182737 0.02126082680388874 0 -0.3640039126182737 0.02126082680388874 0 -0.35655106705292511 0.040817520418704747 0 -0.37938766176258892 0.01937444117527904 0 -0.3640039126182737 0.02126082680388874 0 -0.37363166703579942 0.035604814688565273 0 -0.3640039126182737 0.02126082680388874 0 -0.37145675818362223 0.001704133189072726 0 -0.35182631000740072 0.0068229147672093007 0 -0.3640039126182737 0.02126082680388874 0 -0.37145675818362223 0.001704133189072726 0 -0.37938766176258892 0.01937444117527904 0 -0.3640039126182737 0.02126082680388874 0 -0.37145675818362223 0.001704133189072726 0 -0.34909822148757808 0.06037421403352132 0 -0.35655106705292511 0.040817520418704747 0 -0.34306862850599618 0.040992927417729488 0 -0.34909822148757808 0.06037421403352132 0 -0.35655106705292511 0.040817520418704747 0 -0.34306862850599618 0.040992927417729488 0 -0.34909822148757808 0.06037421403352132 0 -0.34909822148757808 0.06037421403352132 0 -0.35655106705292511 0.040817520418704747 0 -0.36842953035862158 0.050481425088617103 0 -0.34306862850599618 0.040992927417729488 0 -0.34878147881263583 0.02639136098039228 0 -0.35655106705292511 0.040817520418704747 0 -0.3640039126182737 0.02126082680388874 0 -0.35655106705292511 0.040817520418704747 0 -0.37363166703579942 0.035604814688565273 0 -0.35655106705292511 0.040817520418704747 0 -0.37363166703579942 0.035604814688565273 0 -0.36842953035862158 0.050481425088617103 0 -0.34909822148757808 0.06037421403352132 0 -0.36842953035862158 0.050481425088617103 0 -0.37191756568804107 0.066739953928913298 0 -0.37191756568804107 0.066739953928913298 0 -0.35586120822019068 0.082112892687927444 0 -0.37138104083623391 0.082703932652830325 0 -0.34909822148757808 0.06037421403352132 0 -0.35586120822019068 0.082112892687927444 0 -0.34909822148757808 0.06037421403352132 0 -0.35586120822019068 0.082112892687927444 0 -0.34122595447521131 0.081031493547087358 0 -0.34909822148757808 0.06037421403352132 0 -0.37191756568804107 0.066739953928913298 0 -0.35586120822019068 0.082112892687927444 0 -0.34909822148757808 0.06037421403352132 0 -0.34122595447521131 0.081031493547087358 0 -0.35586120822019068 0.082112892687927444 0 -0.36262419495280129 0.1038515713423341 0 -0.35586120822019068 0.082112892687927444 0 -0.36262419495280129 0.1038515713423341 0 -0.34676829850597268 0.094510259469289468 0 -0.35586120822019068 0.082112892687927444 0 -0.34676829850597268 0.094510259469289468 0 -0.34122595447521131 0.081031493547087358 0 -0.35586120822019068 0.082112892687927444 0 -0.37138104083623391 0.082703932652830325 0 -0.36262419495280129 0.1038515713423341 0 -0.37678680274428078 0.095920052983538381 0 -0.37138104083623391 0.082703932652830325 0 -0.36262419495280129 0.1038515713423341 0 -0.36938718168541179 0.1255902499967409 0 -0.35200794605681629 0.12502238642781019 0 -0.36262419495280129 0.1038515713423341 0 -0.3875766108720648 0.10801011350679229 0 -0.36938718168541179 0.1255902499967409 0 -0.36262419495280129 0.1038515713423341 0 -0.36938718168541179 0.1255902499967409 0 -0.36262419495280129 0.1038515713423341 0 -0.35200794605681629 0.12502238642781019 0 -0.36262419495280129 0.1038515713423341 0 -0.34097979843748499 0.11073282128248541 0 -0.36262419495280129 0.1038515713423341 0 -0.34676829850597268 0.094510259469289468 0 -0.34097979843748499 0.11073282128248541 0 -0.33315033644417541 0.094822518486612939 0 -0.34097979843748499 0.11073282128248541 0 -0.31723531685176609 0.1198603304800319 0 -0.34676829850597268 0.094510259469289468 0 -0.33315033644417541 0.094822518486612939 0 -0.34097979843748499 0.11073282128248541 0 -0.35200794605681629 0.12502238642781019 0 -0.33282908497732799 0.12691684344983439 0 -0.34097979843748499 0.11073282128248541 0 -0.33282908497732799 0.12691684344983439 0 -0.34097979843748499 0.11073282128248541 0 -0.31723531685176609 0.1198603304800319 0 -0.30367881485676818 0.104740917537869 0 -0.31723531685176609 0.1198603304800319 0 -0.31724517505712951 0.098806923667406316 0 -0.33315033644417541 0.094822518486612939 0 -0.31723531685176609 0.1198603304800319 0 -0.33315033644417541 0.094822518486612939 0 -0.31723531685176609 0.1198603304800319 0 -0.31724517505712951 0.098806923667406316 0 -0.30859009333780452 0.087437634974232029 0 -0.31724517505712951 0.098806923667406316 0 -0.32357131379513321 0.087173216858285787 0 -0.33315033644417541 0.094822518486612939 0 -0.31724517505712951 0.098806923667406316 0 -0.32357131379513321 0.087173216858285787 0 -0.30660633332941051 0.074378369855040594 0 -0.30859009333780452 0.087437634974232029 0 -0.32274642435413547 0.073355371094589714 0 -0.30859009333780452 0.087437634974232029 0 -0.32357131379513321 0.087173216858285787 0 -0.32274642435413547 0.073355371094589714 0 -0.31081826144354868 0.060679329518446831 0 -0.32831049041907839 0.055921771907720449 0 -0.32274642435413547 0.073355371094589714 0 -0.30660633332941051 0.074378369855040594 0 -0.31081826144354868 0.060679329518446831 0 -0.32274642435413547 0.073355371094589714 0 -0.32831049041907839 0.055921771907720449 0 -0.32274642435413547 0.073355371094589714 0 -0.3353113387102199 0.067919589230939131 0 -0.34909822148757808 0.06037421403352132 0 -0.3353113387102199 0.067919589230939131 0 -0.34122595447521131 0.081031493547087358 0 -0.32274642435413547 0.073355371094589714 0 -0.3353113387102199 0.067919589230939131 0 -0.34122595447521131 0.081031493547087358 0 -0.33315033644417541 0.094822518486612939 0 -0.32357131379513321 0.087173216858285787 0 -0.34122595447521131 0.081031493547087358 0 -0.32357131379513321 0.087173216858285787 0 -0.32274642435413547 0.073355371094589714 0 -0.34122595447521131 0.081031493547087358 0 -0.34676829850597268 0.094510259469289468 0 -0.33315033644417541 0.094822518486612939 0 -0.34122595447521131 0.081031493547087358 0 -0.39098080248864292 0.48082949146892462 0 -0.39688472812408349 0.46225301958370763 0 -0.40654981809613899 0.47943816589621452 0 -0.39098080248864292 0.48082949146892462 0 -0.40517642966730788 0.5 0 -0.40654981809613899 0.47943816589621452 0 -0.39098080248864292 0.48082949146892462 0 -0.40517642966730788 0.5 0 -0.37984386551400101 0.5 0 -0.39098080248864292 0.48082949146892462 0 -0.37984386551400101 0.5 0 -0.36562800957556379 0.48144847740775781 0 -0.39098080248864292 0.48082949146892462 0 -0.37674471779043378 0.46289695481551602 0 -0.36562800957556379 0.48144847740775781 0 -0.39098080248864292 0.48082949146892462 0 -0.37674471779043378 0.46289695481551602 0 -0.39688472812408349 0.46225301958370763 0 -0.37674471779043378 0.46289695481551602 0 -0.38786142600530288 0.44434543222327372 0 -0.37674471779043378 0.46289695481551602 0 -0.38786142600530288 0.44434543222327372 0 -0.3636594906987341 0.45259116813215772 0 -0.37674471779043378 0.46289695481551602 0 -0.38786142600530288 0.44434543222327372 0 -0.39688472812408349 0.46225301958370763 0 -0.38786142600530288 0.44434543222327372 0 -0.38219330561030318 0.43733759585905729 0 -0.37031446948010971 0.44164379239859503 0 -0.38786142600530288 0.44434543222327372 0 -0.3636594906987341 0.45259116813215772 0 -0.38786142600530288 0.44434543222327372 0 -0.39005529127119792 0.44068431777663197 0 -0.38219330561030318 0.43733759585905729 0 -0.38786142600530288 0.44434543222327372 0 -0.39005529127119792 0.44068431777663197 0 -0.38786142600530288 0.44434543222327372 0 -0.40276516754681568 0.43926764339155733 0 -0.39688472812408349 0.46225301958370763 0 -0.38786142600530288 0.44434543222327372 0 -0.40276516754681568 0.43926764339155733 0 -0.38786142600530288 0.44434543222327372 0 -0.39005529127119792 0.44068431777663197 0 -0.40276516754681568 0.43926764339155733 0 -0.40276516754681568 0.43926764339155733 0 -0.39688472812408349 0.46225301958370763 0 -0.41912534642966243 0.46276605766276058 0 -0.39688472812408349 0.46225301958370763 0 -0.41912534642966243 0.46276605766276058 0 -0.40654981809613899 0.47943816589621452 0 -0.40276516754681568 0.43926764339155733 0 -0.41912534642966243 0.46276605766276058 0 -0.41766890908832871 0.43418985455984122 0 -0.41912534642966243 0.46276605766276058 0 -0.41766890908832871 0.43418985455984122 0 -0.43637228529971711 0.45059119829788907 0 -0.44062134191292651 0.43194009349776402 0 -0.42355994468304931 0.43218274549486041 0 -0.41912534642966243 0.46276605766276058 0 -0.43637228529971711 0.45059119829788907 0 -0.41766890908832871 0.43418985455984122 0 -0.43637228529971711 0.45059119829788907 0 -0.42355994468304931 0.43218274549486041 0 -0.41766890908832871 0.43418985455984122 0 -0.41912534642966243 0.46276605766276058 0 -0.43637228529971711 0.45059119829788907 0 -0.43819607322225379 0.4802098919466351 0 -0.41912534642966243 0.46276605766276058 0 -0.42058178377099831 0.49134226076567977 0 -0.43819607322225379 0.4802098919466351 0 -0.41912534642966243 0.46276605766276058 0 -0.40654981809613899 0.47943816589621452 0 -0.42058178377099831 0.49134226076567977 0 -0.41912534642966243 0.46276605766276058 0 -0.42058178377099831 0.49134226076567977 0 -0.40517642966730788 0.5 0 -0.40654981809613899 0.47943816589621452 0 -0.42058178377099831 0.49134226076567977 0 -0.40517642966730788 0.5 0 -0.42058178377099831 0.49134226076567977 0 -0.43050899382061492 0.5 0 -0.42058178377099831 0.49134226076567977 0 -0.43050899382061492 0.5 0 -0.43819607322225379 0.4802098919466351 0 -0.43050899382061492 0.5 0 -0.43819607322225379 0.4802098919466351 0 -0.4558415579739219 0.50000000000000289 0 -0.5 0.5 0 -0.45848093797747058 0.44107104525054719 0 -0.5 0.39368719930634488 0 -0.43819607322225379 0.4802098919466351 0 -0.45716124797569629 0.47053552262527509 0 -0.4558415579739219 0.50000000000000289 0 -0.45716124797569629 0.47053552262527509 0 -0.4558415579739219 0.50000000000000289 0 -0.45716124797569629 0.47053552262527509 0 -0.5 0.5 0 -0.45848093797747058 0.44107104525054719 0 -0.45716124797569629 0.47053552262527509 0 -0.4558415579739219 0.50000000000000289 0 -0.5 0.5 0 -0.45716124797569629 0.47053552262527509 0 -0.45848093797747058 0.44107104525054719 0 -0.43637228529971711 0.45059119829788907 0 -0.45716124797569629 0.47053552262527509 0 -0.45848093797747058 0.44107104525054719 0 -0.43637228529971711 0.45059119829788907 0 -0.43819607322225379 0.4802098919466351 0 -0.45716124797569629 0.47053552262527509 0 -0.43637228529971711 0.45059119829788907 0 -0.45848093797747058 0.44107104525054719 0 -0.44062134191292651 0.43194009349776402 0 -0.45848093797747058 0.44107104525054719 0 -0.44062134191292651 0.43194009349776402 0 -0.45980062797924498 0.41160656787581928 0 -0.44121582346845373 0.41376147505037958 0 -0.45980062797924498 0.41160656787581928 0 -0.45143531712829632 0.39504510946912502 0 -0.44062134191292651 0.43194009349776402 0 -0.44121582346845373 0.41376147505037958 0 -0.45980062797924498 0.41160656787581928 0 -0.45848093797747058 0.44107104525054719 0 -0.45980062797924498 0.41160656787581928 0 -0.45848093797747058 0.44107104525054719 0 -0.45980062797924498 0.41160656787581928 0 -0.5 0.39368719930634488 0 -0.45980062797924498 0.41160656787581928 0 -0.5 0.39368719930634488 0 -0.47061151440635052 0.38738233066939171 0 -0.5 0.39368719930634488 0 -0.47061151440635052 0.38738233066939171 0 -0.47244599738177773 0.36378702031114818 0 -0.47061151440635052 0.38738233066939171 0 -0.45360913424094712 0.37591717629495691 0 -0.45143531712829632 0.39504510946912502 0 -0.47061151440635052 0.38738233066939171 0 -0.45360913424094712 0.37591717629495691 0 -0.47244599738177773 0.36378702031114818 0 -0.45980062797924498 0.41160656787581928 0 -0.47061151440635052 0.38738233066939171 0 -0.45143531712829632 0.39504510946912502 0 -0.44121582346845373 0.41376147505037958 0 -0.45143531712829632 0.39504510946912502 0 -0.43115992967391842 0.40404311620122768 0 -0.45143531712829632 0.39504510946912502 0 -0.43477227110011651 0.38804733227876548 0 -0.43115992967391842 0.40404311620122768 0 -0.45360913424094712 0.37591717629495691 0 -0.43477227110011651 0.38804733227876548 0 -0.43761421779729981 0.36799172170783712 0 -0.45360913424094712 0.37591717629495691 0 -0.43477227110011651 0.38804733227876548 0 -0.45360913424094712 0.37591717629495691 0 -0.45143531712829632 0.39504510946912502 0 -0.43477227110011651 0.38804733227876548 0 -0.41504006019910189 0.38261021041501481 0 -0.43761421779729981 0.36799172170783712 0 -0.43477227110011651 0.38804733227876548 0 -0.41504006019910189 0.38261021041501481 0 -0.43761421779729981 0.36799172170783712 0 -0.43477227110011651 0.38804733227876548 0 -0.41504006019910189 0.38261021041501481 0 -0.4159354079592873 0.40017748826257649 0 -0.41504006019910189 0.38261021041501481 0 -0.41164644412426671 0.3848078356442457 0 -0.42787124419666578 0.3625299828724986 0 -0.41164644412426671 0.3848078356442457 0 -0.40212947449434688 0.3748414468342991 0 -0.41107150013157362 0.36619624614190099 0 -0.41504006019910189 0.38261021041501481 0 -0.41164644412426671 0.3848078356442457 0 -0.41109804598765209 0.39149102164547678 0 -0.41504006019910189 0.38261021041501481 0 -0.41164644412426671 0.3848078356442457 0 -0.41504006019910189 0.38261021041501481 0 -0.4159354079592873 0.40017748826257649 0 -0.41504006019910189 0.38261021041501481 0 -0.41109804598765209 0.39149102164547678 0 -0.4159354079592873 0.40017748826257649 0 -0.41164644412426671 0.3848078356442457 0 -0.41109804598765209 0.39149102164547678 0 -0.40177027166795132 0.3983685522600704 0 -0.41109804598765209 0.39149102164547678 0 -0.4159354079592873 0.40017748826257649 0 -0.40177027166795132 0.3983685522600704 0 -0.41164644412426671 0.3848078356442457 0 -0.40177027166795132 0.3983685522600704 0 -0.43477227110011651 0.38804733227876548 0 -0.4159354079592873 0.40017748826257649 0 -0.43477227110011651 0.38804733227876548 0 -0.4159354079592873 0.40017748826257649 0 -0.43115992967391842 0.40404311620122768 0 -0.44121582346845373 0.41376147505037958 0 -0.43115992967391842 0.40404311620122768 0 -0.42986314558338468 0.42022497384430652 0 -0.43115992967391842 0.40404311620122768 0 -0.42986314558338468 0.42022497384430652 0 -0.41680215852380748 0.41718367141120882 0 -0.44062134191292651 0.43194009349776402 0 -0.44121582346845373 0.41376147505037958 0 -0.42986314558338468 0.42022497384430652 0 -0.44062134191292651 0.43194009349776402 0 -0.42986314558338468 0.42022497384430652 0 -0.42355994468304931 0.43218274549486041 0 -0.42986314558338468 0.42022497384430652 0 -0.42355994468304931 0.43218274549486041 0 -0.41680215852380748 0.41718367141120882 0 -0.41766890908832871 0.43418985455984122 0 -0.41680215852380748 0.41718367141120882 0 -0.41766890908832871 0.43418985455984122 0 -0.41680215852380748 0.41718367141120882 0 -0.40452415779474138 0.42721409118458831 0 -0.42355994468304931 0.43218274549486041 0 -0.41766890908832871 0.43418985455984122 0 -0.41680215852380748 0.41718367141120882 0 -0.42355994468304931 0.43218274549486041 0 -0.41766890908832871 0.43418985455984122 0 -0.40276516754681568 0.43926764339155733 0 -0.41766890908832871 0.43418985455984122 0 -0.40276516754681568 0.43926764339155733 0 -0.41766890908832871 0.43418985455984122 0 -0.40452415779474138 0.42721409118458831 0 -0.4159354079592873 0.40017748826257649 0 -0.43115992967391842 0.40404311620122768 0 -0.41680215852380748 0.41718367141120882 0 -0.4159354079592873 0.40017748826257649 0 -0.41680215852380748 0.41718367141120882 0 -0.4159354079592873 0.40017748826257649 0 -0.41680215852380748 0.41718367141120882 0 -0.39328619543943649 0.41476263859902718 0 -0.39328619543943649 0.41476263859902718 0 -0.39189409921163532 0.41192926887589459 0 -0.40177027166795132 0.3983685522600704 0 -0.4159354079592873 0.40017748826257649 0 -0.39328619543943649 0.41476263859902718 0 -0.41680215852380748 0.41718367141120882 0 -0.39328619543943649 0.41476263859902718 0 -0.40452415779474138 0.42721409118458831 0 -0.39328619543943649 0.41476263859902718 0 -0.40452415779474138 0.42721409118458831 0 -0.39209835837531859 0.43066664796130649 0 -0.40276516754681568 0.43926764339155733 0 -0.40452415779474138 0.42721409118458831 0 -0.39209835837531859 0.43066664796130649 0 -0.39005529127119792 0.44068431777663197 0 -0.40276516754681568 0.43926764339155733 0 -0.39209835837531859 0.43066664796130649 0 -0.39328619543943649 0.41476263859902718 0 -0.37063698291958719 0.42934778893548009 0 -0.39209835837531859 0.43066664796130649 0 -0.38219330561030318 0.43733759585905729 0 -0.37063698291958719 0.42934778893548009 0 -0.39328619543943649 0.41476263859902718 0 -0.39209835837531859 0.43066664796130649 0 -0.37063698291958719 0.42934778893548009 0 -0.39005529127119792 0.44068431777663197 0 -0.39209835837531859 0.43066664796130649 0 -0.38219330561030318 0.43733759585905729 0 -0.39189409921163532 0.41192926887589459 0 -0.39195655763330312 0.3975585388349005 0 -0.37226667114234002 0.41030924202555608 0 -0.39328619543943649 0.41476263859902718 0 -0.39189409921163532 0.41192926887589459 0 -0.37226667114234002 0.41030924202555608 0 -0.39328619543943649 0.41476263859902718 0 -0.37226667114234002 0.41030924202555608 0 -0.37063698291958719 0.42934778893548009 0 -0.39195655763330312 0.3975585388349005 0 -0.37226667114234002 0.41030924202555608 0 -0.39195655763330312 0.3975585388349005 0 -0.37495024184161951 0.39669027322643757 0 -0.37226667114234002 0.41030924202555608 0 -0.38343510648805168 0.38508963626910381 0 -0.39195655763330312 0.3975585388349005 0 -0.37495024184161951 0.39669027322643757 0 -0.38343510648805168 0.38508963626910381 0 -0.36896039956082288 0.38726624238899698 0 -0.37495024184161951 0.39669027322643757 0 -0.38343510648805168 0.38508963626910381 0 -0.37817844187468841 0.37049799817574158 0 -0.36896039956082288 0.38726624238899698 0 -0.38343510648805168 0.38508963626910381 0 -0.39677184295297052 0.38392901966133991 0 -0.39106782088146019 0.37499676007273403 0 -0.38343510648805168 0.38508963626910381 0 -0.39106782088146019 0.37499676007273403 0 -0.37817844187468841 0.37049799817574158 0 -0.38343510648805168 0.38508963626910381 0 -0.39677184295297052 0.38392901966133991 0 -0.39195655763330312 0.3975585388349005 0 -0.41164644412426671 0.3848078356442457 0 -0.39677184295297052 0.38392901966133991 0 -0.39195655763330312 0.3975585388349005 0 -0.39677184295297052 0.38392901966133991 0 -0.40212947449434688 0.3748414468342991 0 -0.39106782088146019 0.37499676007273403 0 -0.41164644412426671 0.3848078356442457 0 -0.39677184295297052 0.38392901966133991 0 -0.40212947449434688 0.3748414468342991 0 -0.41164644412426671 0.3848078356442457 0 -0.39195655763330312 0.3975585388349005 0 -0.4159354079592873 0.40017748826257649 0 -0.39328619543943649 0.41476263859902718 0 -0.40177027166795132 0.3983685522600704 0 -0.41164644412426671 0.3848078356442457 0 -0.40177027166795132 0.3983685522600704 0 -0.39195655763330312 0.3975585388349005 0 -0.39189409921163532 0.41192926887589459 0 -0.40177027166795132 0.3983685522600704 0 -0.39195655763330312 0.3975585388349005 0 -0.39189409921163532 0.41192926887589459 0 -0.40177027166795132 0.3983685522600704 0 -0.38763875309648088 0.35121150247505228 0 -0.41586739868277361 0.34573181628790323 0 -0.39706953126344319 0.36332699894800602 0 -0.38763875309648088 0.35121150247505228 0 -0.41586739868277361 0.34573181628790323 0 -0.38763875309648088 0.35121150247505228 0 -0.3937872350367228 0.33507229671605809 0 -0.41586739868277361 0.34573181628790323 0 -0.40212947449434688 0.3748414468342991 0 -0.39706953126344319 0.36332699894800602 0 -0.41107150013157362 0.36619624614190099 0 -0.40212947449434688 0.3748414468342991 0 -0.39106782088146019 0.37499676007273403 0 -0.39706953126344319 0.36332699894800602 0 -0.37817844187468841 0.37049799817574158 0 -0.38763875309648088 0.35121150247505228 0 -0.35941010751018809 0.3566911886622014 0 -0.39706953126344319 0.36332699894800602 0 -0.37817844187468841 0.37049799817574158 0 -0.38763875309648088 0.35121150247505228 0 -0.39106782088146019 0.37499676007273403 0 -0.39706953126344319 0.36332699894800602 0 -0.37817844187468841 0.37049799817574158 0 -0.38659885775585739 0.31565850626255348 0 -0.3937872350367228 0.33507229671605809 0 -0.371857819856382 0.33718357931137699 0 -0.38763875309648088 0.35121150247505228 0 -0.3937872350367228 0.33507229671605809 0 -0.371857819856382 0.33718357931137699 0 -0.38659885775585739 0.31565850626255348 0 -0.371857819856382 0.33718357931137699 0 -0.38659885775585739 0.31565850626255348 0 -0.3736940231061725 0.31398947852622111 0 -0.371857819856382 0.33718357931137699 0 -0.38659885775585739 0.31565850626255348 0 -0.3937872350367228 0.33507229671605809 0 -0.40697334579212008 0.32557607924340459 0 -0.38659885775585739 0.31565850626255348 0 -0.40697334579212008 0.32557607924340459 0 -0.40344199037643141 0.31069905435295109 0 -0.3937872350367228 0.33507229671605809 0 -0.40697334579212008 0.32557607924340459 0 -0.41586739868277361 0.34573181628790323 0 -0.40697334579212008 0.32557607924340459 0 -0.42641657962310969 0.33014507151577532 0 -0.41586739868277361 0.34573181628790323 0 -0.40697334579212008 0.32557607924340459 0 -0.42482201379485501 0.3164116993459492 0 -0.40344199037643141 0.31069905435295109 0 -0.40697334579212008 0.32557607924340459 0 -0.42482201379485501 0.3164116993459492 0 -0.42641657962310969 0.33014507151577532 0 -0.42482201379485501 0.3164116993459492 0 -0.44032409557673402 0.32275363260086698 0 -0.44093041861641502 0.30629419798598828 0 -0.42482201379485501 0.3164116993459492 0 -0.42641657962310969 0.33014507151577532 0 -0.44032409557673402 0.32275363260086698 0 -0.42641657962310969 0.33014507151577532 0 -0.41586739868277361 0.34573181628790323 0 -0.44409604426906601 0.34025213010075239 0 -0.42641657962310969 0.33014507151577532 0 -0.44409604426906601 0.34025213010075239 0 -0.44032409557673402 0.32275363260086698 0 -0.41586739868277361 0.34573181628790323 0 -0.44409604426906601 0.34025213010075239 0 -0.42787124419666578 0.3625299828724986 0 -0.44409604426906601 0.34025213010075239 0 -0.41586739868277361 0.34573181628790323 0 -0.42787124419666578 0.3625299828724986 0 -0.44409604426906601 0.34025213010075239 0 -0.41586739868277361 0.34573181628790323 0 -0.41107150013157362 0.36619624614190099 0 -0.42787124419666578 0.3625299828724986 0 -0.39706953126344319 0.36332699894800602 0 -0.41586739868277361 0.34573181628790323 0 -0.41107150013157362 0.36619624614190099 0 -0.41164644412426671 0.3848078356442457 0 -0.41107150013157362 0.36619624614190099 0 -0.42787124419666578 0.3625299828724986 0 -0.41164644412426671 0.3848078356442457 0 -0.42787124419666578 0.3625299828724986 0 -0.41504006019910189 0.38261021041501481 0 -0.42787124419666578 0.3625299828724986 0 -0.43761421779729981 0.36799172170783712 0 -0.42787124419666578 0.3625299828724986 0 -0.43761421779729981 0.36799172170783712 0 -0.44532995730629832 0.35516754502531411 0 -0.5 0.39368719930634488 0 -0.5 0.31375562759013931 0 -0.49236992051172512 0.33088130527536841 0 -0.5 0.39368719930634488 0 -0.49236992051172512 0.33088130527536841 0 -0.48276253299369798 0.33875474429348529 0 -0.43761421779729981 0.36799172170783712 0 -0.46018837539549878 0.35337323300066131 0 -0.45360913424094712 0.37591717629495691 0 -0.43761421779729981 0.36799172170783712 0 -0.46018837539549878 0.35337323300066131 0 -0.44532995730629832 0.35516754502531411 0 -0.46018837539549878 0.35337323300066131 0 -0.44409604426906601 0.34025213010075239 0 -0.42787124419666578 0.3625299828724986 0 -0.44532995730629832 0.35516754502531411 0 -0.44409604426906601 0.34025213010075239 0 -0.43761421779729981 0.36799172170783712 0 -0.44532995730629832 0.35516754502531411 0 -0.46018837539549878 0.35337323300066131 0 -0.45360913424094712 0.37591717629495691 0 -0.47244599738177773 0.36378702031114818 0 -0.45360913424094712 0.37591717629495691 0 -0.46018837539549878 0.35337323300066131 0 -0.47244599738177773 0.36378702031114818 0 -0.5 0.39368719930634488 0 -0.47244599738177773 0.36378702031114818 0 -0.48276253299369798 0.33875474429348529 0 -0.46018837539549878 0.35337323300066131 0 -0.47244599738177773 0.36378702031114818 0 -0.48276253299369798 0.33875474429348529 0 -0.46018837539549878 0.35337323300066131 0 -0.48276253299369798 0.33875474429348529 0 -0.5 0.31375562759013931 0 -0.49236992051172512 0.33088130527536841 0 -0.47844448370196352 0.32365782782372382 0 -0.49236992051172512 0.33088130527536841 0 -0.48276253299369798 0.33875474429348529 0 -0.46823298239039562 0.33556671768806118 0 -0.49236992051172512 0.33088130527536841 0 -0.47844448370196352 0.32365782782372382 0 -0.46823298239039562 0.33556671768806118 0 -0.46018837539549878 0.35337323300066131 0 -0.48276253299369798 0.33875474429348529 0 -0.46823298239039562 0.33556671768806118 0 -0.49236992051172512 0.33088130527536841 0 -0.46823298239039562 0.33556671768806118 0 -0.5 0.31375562759013931 0 -0.47844448370196352 0.32365782782372382 0 -0.47326150671693828 0.30885130336962702 0 -0.47844448370196352 0.32365782782372382 0 -0.46553845445045222 0.32292377735302652 0 -0.46823298239039562 0.33556671768806118 0 -0.47844448370196352 0.32365782782372382 0 -0.46553845445045222 0.32292377735302652 0 -0.47326150671693828 0.30885130336962702 0 -0.46553845445045222 0.32292377735302652 0 -0.45536731290503107 0.31414791777939732 0 -0.47326150671693828 0.30885130336962702 0 -0.46553845445045222 0.32292377735302652 0 -0.45342644041040631 0.32744080480790411 0 -0.45536731290503107 0.31414791777939732 0 -0.46823298239039562 0.33556671768806118 0 -0.44409604426906601 0.34025213010075239 0 -0.46018837539549878 0.35337323300066131 0 -0.46823298239039562 0.33556671768806118 0 -0.44409604426906601 0.34025213010075239 0 -0.45342644041040631 0.32744080480790411 0 -0.46823298239039562 0.33556671768806118 0 -0.44409604426906601 0.34025213010075239 0 -0.46553845445045222 0.32292377735302652 0 -0.45342644041040631 0.32744080480790411 0 -0.46823298239039562 0.33556671768806118 0 -0.45342644041040631 0.32744080480790411 0 -0.44409604426906601 0.34025213010075239 0 -0.44032409557673402 0.32275363260086698 0 -0.45342644041040631 0.32744080480790411 0 -0.44409604426906601 0.34025213010075239 0 -0.45536731290503107 0.31414791777939732 0 -0.44032409557673402 0.32275363260086698 0 -0.44093041861641502 0.30629419798598828 0 -0.45342644041040631 0.32744080480790411 0 -0.45536731290503107 0.31414791777939732 0 -0.44032409557673402 0.32275363260086698 0 -0.44093041861641502 0.30629419798598828 0 -0.44456522433562062 0.28987896746967612 0 -0.45784842118247587 0.29630392741269229 0 -0.45536731290503107 0.31414791777939732 0 -0.44093041861641502 0.30629419798598828 0 -0.45784842118247587 0.29630392741269229 0 -0.44456522433562062 0.28987896746967612 0 -0.45784842118247587 0.29630392741269229 0 -0.45683589886731429 0.27944522996227389 0 -0.45784842118247587 0.29630392741269229 0 -0.47613016565353689 0.27920594790919162 0 -0.45683589886731429 0.27944522996227389 0 -0.45536731290503107 0.31414791777939732 0 -0.45784842118247587 0.29630392741269229 0 -0.47326150671693828 0.30885130336962702 0 -0.5 0.31375562759013931 0 -0.47326150671693828 0.30885130336962702 0 -0.47613016565353689 0.27920594790919162 0 -0.5 0.31375562759013931 0 -0.5 0.25502500317745308 0 -0.47613016565353689 0.27920594790919162 0 -0.45784842118247587 0.29630392741269229 0 -0.47326150671693828 0.30885130336962702 0 -0.47613016565353689 0.27920594790919162 0 -0.5 0.25502500317745308 0 -0.47613016565353689 0.27920594790919162 0 -0.46826200115894351 0.25268254595322559 0 -0.46826200115894351 0.25268254595322559 0 -0.46001429554523132 0.26715439528268792 0 -0.44622747097204157 0.25447826500352411 0 -0.47613016565353689 0.27920594790919162 0 -0.46001429554523132 0.26715439528268792 0 -0.45683589886731429 0.27944522996227389 0 -0.47613016565353689 0.27920594790919162 0 -0.46826200115894351 0.25268254595322559 0 -0.46001429554523132 0.26715439528268792 0 -0.44456522433562062 0.28987896746967612 0 -0.45683589886731429 0.27944522996227389 0 -0.43912327732866052 0.27082845975049152 0 -0.46001429554523132 0.26715439528268792 0 -0.45683589886731429 0.27944522996227389 0 -0.43912327732866052 0.27082845975049152 0 -0.43912327732866052 0.27082845975049152 0 -0.44622747097204157 0.25447826500352411 0 -0.4271662496375016 0.26119471126077209 0 -0.46001429554523132 0.26715439528268792 0 -0.43912327732866052 0.27082845975049152 0 -0.44622747097204157 0.25447826500352411 0 -0.43243648966469961 0.24825823729562091 0 -0.4271662496375016 0.26119471126077209 0 -0.4154354269666965 0.25327969466909228 0 -0.43243648966469961 0.24825823729562091 0 -0.44622747097204157 0.25447826500352411 0 -0.4271662496375016 0.26119471126077209 0 -0.4154354269666965 0.25327969466909228 0 -0.41608093355480807 0.27260836016490658 0 -0.3994904005985685 0.26310408063752239 0 -0.4271662496375016 0.26119471126077209 0 -0.4154354269666965 0.25327969466909228 0 -0.41608093355480807 0.27260836016490658 0 -0.43912327732866052 0.27082845975049152 0 -0.4271662496375016 0.26119471126077209 0 -0.41608093355480807 0.27260836016490658 0 -0.43912327732866052 0.27082845975049152 0 -0.41608093355480807 0.27260836016490658 0 -0.42569467822547491 0.29333324823827622 0 -0.44093041861641502 0.30629419798598828 0 -0.44456522433562062 0.28987896746967612 0 -0.42569467822547491 0.29333324823827622 0 -0.44456522433562062 0.28987896746967612 0 -0.43912327732866052 0.27082845975049152 0 -0.42569467822547491 0.29333324823827622 0 -0.42482201379485501 0.3164116993459492 0 -0.44093041861641502 0.30629419798598828 0 -0.42569467822547491 0.29333324823827622 0 -0.42482201379485501 0.3164116993459492 0 -0.42569467822547491 0.29333324823827622 0 -0.41580892915603301 0.30455156730479449 0 -0.41580892915603301 0.30455156730479449 0 -0.40133989565533279 0.29413343321372998 0 -0.40344199037643141 0.31069905435295109 0 -0.42569467822547491 0.29333324823827622 0 -0.41580892915603301 0.30455156730479449 0 -0.40133989565533279 0.29413343321372998 0 -0.42482201379485501 0.3164116993459492 0 -0.41580892915603301 0.30455156730479449 0 -0.40344199037643141 0.31069905435295109 0 -0.41608093355480807 0.27260836016490658 0 -0.42569467822547491 0.29333324823827622 0 -0.40133989565533279 0.29413343321372998 0 -0.41608093355480807 0.27260836016490658 0 -0.40133989565533279 0.29413343321372998 0 -0.40133989565533279 0.29413343321372998 0 -0.391405356210975 0.28736794428101681 0 -0.38183605444568008 0.30159254882832942 0 -0.41608093355480807 0.27260836016490658 0 -0.40133989565533279 0.29413343321372998 0 -0.39791334778191012 0.27873259344880857 0 -0.40133989565533279 0.29413343321372998 0 -0.391405356210975 0.28736794428101681 0 -0.39791334778191012 0.27873259344880857 0 -0.38659885775585739 0.31565850626255348 0 -0.40133989565533279 0.29413343321372998 0 -0.40344199037643141 0.31069905435295109 0 -0.38659885775585739 0.31565850626255348 0 -0.40133989565533279 0.29413343321372998 0 -0.38659885775585739 0.31565850626255348 0 -0.40133989565533279 0.29413343321372998 0 -0.38183605444568008 0.30159254882832942 0 -0.38183605444568008 0.30159254882832942 0 -0.37466468983423318 0.28951354051077988 0 -0.36997315068782782 0.30191223918603199 0 -0.38183605444568008 0.30159254882832942 0 -0.36997315068782782 0.30191223918603199 0 -0.3736940231061725 0.31398947852622111 0 -0.38659885775585739 0.31565850626255348 0 -0.38183605444568008 0.30159254882832942 0 -0.3736940231061725 0.31398947852622111 0 -0.391405356210975 0.28736794428101681 0 -0.38183605444568008 0.30159254882832942 0 -0.38453212696097688 0.2750132016331992 0 -0.38183605444568008 0.30159254882832942 0 -0.38453212696097688 0.2750132016331992 0 -0.37466468983423318 0.28951354051077988 0 -0.38183605444568008 0.30159254882832942 0 -0.38453212696097688 0.2750132016331992 0 -0.37672471104263361 0.27561795758142188 0 -0.38453212696097688 0.2750132016331992 0 -0.37466468983423318 0.28951354051077988 0 -0.37672471104263361 0.27561795758142188 0 -0.38453212696097688 0.2750132016331992 0 -0.37896013194671968 0.25534683486931381 0 -0.38722819947627368 0.24843385443806909 0 -0.38453212696097688 0.2750132016331992 0 -0.37896013194671968 0.25534683486931381 0 -0.37672471104263361 0.27561795758142188 0 -0.37896013194671968 0.25534683486931381 0 -0.38722819947627368 0.24843385443806909 0 -0.38453212696097688 0.2750132016331992 0 -0.3994904005985685 0.26310408063752239 0 -0.38722819947627368 0.24843385443806909 0 -0.38453212696097688 0.2750132016331992 0 -0.40101037553383972 0.24850817254535781 0 -0.4154354269666965 0.25327969466909228 0 -0.3994904005985685 0.26310408063752239 0 -0.38722819947627368 0.24843385443806909 0 -0.40101037553383972 0.24850817254535781 0 -0.3994904005985685 0.26310408063752239 0 -0.38453212696097688 0.2750132016331992 0 -0.3994904005985685 0.26310408063752239 0 -0.39791334778191012 0.27873259344880857 0 -0.41608093355480807 0.27260836016490658 0 -0.3994904005985685 0.26310408063752239 0 -0.39791334778191012 0.27873259344880857 0 -0.391405356210975 0.28736794428101681 0 -0.38453212696097688 0.2750132016331992 0 -0.39791334778191012 0.27873259344880857 0 -0.35754908974886279 0.25815157521253052 0 -0.35995394297715549 0.27846885519039472 0 -0.3399009986899495 0.26863911531903439 0 -0.34139946132247112 0.24041351753421181 0 -0.35754908974886279 0.25815157521253052 0 -0.3399009986899495 0.26863911531903439 0 -0.37672471104263361 0.27561795758142188 0 -0.37896013194671968 0.25534683486931381 0 -0.3691483330232409 0.26445373858247911 0 -0.35754908974886279 0.25815157521253052 0 -0.36759241766554501 0.2538245840294952 0 -0.3691483330232409 0.26445373858247911 0 -0.36182205832064851 0.24457456243760281 0 -0.35754908974886279 0.25815157521253052 0 -0.36759241766554501 0.2538245840294952 0 -0.37210575503526089 0.24405057661464391 0 -0.37896013194671968 0.25534683486931381 0 -0.36759241766554501 0.2538245840294952 0 -0.37896013194671968 0.25534683486931381 0 -0.36759241766554501 0.2538245840294952 0 -0.3691483330232409 0.26445373858247911 0 -0.35754908974886279 0.25815157521253052 0 -0.3691483330232409 0.26445373858247911 0 -0.35995394297715549 0.27846885519039472 0 -0.37672471104263361 0.27561795758142188 0 -0.3691483330232409 0.26445373858247911 0 -0.35995394297715549 0.27846885519039472 0 -0.37672471104263361 0.27561795758142188 0 -0.35995394297715549 0.27846885519039472 0 -0.37466468983423318 0.28951354051077988 0 -0.35995394297715549 0.27846885519039472 0 -0.37466468983423318 0.28951354051077988 0 -0.36067095067979221 0.29568292426180159 0 -0.37466468983423318 0.28951354051077988 0 -0.36067095067979221 0.29568292426180159 0 -0.36997315068782782 0.30191223918603199 0 -0.36067095067979221 0.29568292426180159 0 -0.36997315068782782 0.30191223918603199 0 -0.35820423278511537 0.31360051904281339 0 -0.36997315068782782 0.30191223918603199 0 -0.35820423278511537 0.31360051904281339 0 -0.3736940231061725 0.31398947852622111 0 -0.36067095067979221 0.29568292426180159 0 -0.33840253605742793 0.29686471310385681 0 -0.35820423278511537 0.31360051904281339 0 -0.33840253605742793 0.29686471310385681 0 -0.33690407342490619 0.32509031088867912 0 -0.35820423278511537 0.31360051904281339 0 -0.35995394297715549 0.27846885519039472 0 -0.33840253605742793 0.29686471310385681 0 -0.3399009986899495 0.26863911531903439 0 -0.35995394297715549 0.27846885519039472 0 -0.36067095067979221 0.29568292426180159 0 -0.33840253605742793 0.29686471310385681 0 -0.33840253605742793 0.29686471310385681 0 -0.3399009986899495 0.26863911531903439 0 -0.33840253605742793 0.29686471310385681 0 -0.31331907053128433 0.313878567385664 0 -0.33690407342490619 0.32509031088867912 0 -0.33840253605742793 0.29686471310385681 0 -0.33690407342490619 0.32509031088867912 0 -0.33840253605742793 0.29686471310385681 0 -0.31760133335066493 0.29423642541125972 0 -0.31331907053128433 0.313878567385664 0 -0.33840253605742793 0.29686471310385681 0 -0.31760133335066493 0.29423642541125972 0 -0.31493928155445272 0.27430993559415479 0 -0.33840253605742793 0.29686471310385681 0 -0.31493928155445272 0.27430993559415479 0 -0.3399009986899495 0.26863911531903439 0 -0.34139946132247112 0.24041351753421181 0 -0.3399009986899495 0.26863911531903439 0 -0.34139946132247112 0.24041351753421181 0 -0.3399009986899495 0.26863911531903439 0 -0.32052316857880009 0.25199218265017043 0 -0.31493928155445272 0.27430993559415479 0 -0.3399009986899495 0.26863911531903439 0 -0.32052316857880009 0.25199218265017043 0 -0.31493928155445272 0.27430993559415479 0 -0.32052316857880009 0.25199218265017043 0 -0.29813700426351908 0.2549985658140525 0 -0.31493928155445272 0.27430993559415479 0 -0.29813700426351908 0.2549985658140525 0 -0.29529200006252948 0.27158343417855851 0 -0.31493928155445272 0.27430993559415479 0 -0.29529200006252948 0.27158343417855851 0 -0.29860197381843362 0.29024571476828781 0 -0.29529200006252948 0.27158343417855851 0 -0.28356153015689661 0.26077246338072052 0 -0.28122021051934548 0.27759049133557667 0 -0.29529200006252948 0.27158343417855851 0 -0.28122021051934548 0.27759049133557667 0 -0.29860197381843362 0.29024571476828781 0 -0.29813700426351908 0.2549985658140525 0 -0.29529200006252948 0.27158343417855851 0 -0.28356153015689661 0.26077246338072052 0 -0.28520633826073721 0.24204505302591109 0 -0.29813700426351908 0.2549985658140525 0 -0.28356153015689661 0.26077246338072052 0 -0.28520633826073721 0.24204505302591109 0 -0.28356153015689661 0.26077246338072052 0 -0.26991196520069161 0.25166683223725428 0 -0.28356153015689661 0.26077246338072052 0 -0.26991196520069161 0.25166683223725428 0 -0.26982671458757052 0.26781375962876097 0 -0.28356153015689661 0.26077246338072052 0 -0.26982671458757052 0.26781375962876097 0 -0.28122021051934548 0.27759049133557667 0 -0.26982671458757052 0.26781375962876097 0 -0.28122021051934548 0.27759049133557667 0 -0.25982227492027221 0.287750399741656 0 -0.2546175921406465 0.26128861144859822 0 -0.25982227492027221 0.287750399741656 0 -0.26982671458757052 0.26781375962876097 0 -0.2546175921406465 0.26128861144859822 0 -0.25982227492027221 0.287750399741656 0 -0.2546175921406465 0.26128861144859822 0 -0.25982227492027221 0.287750399741656 0 -0.24164285362834059 0.26945109504960563 0 -0.25054816238852479 0.24059870715785611 0 -0.2546175921406465 0.26128861144859822 0 -0.26991196520069161 0.25166683223725428 0 -0.26982671458757052 0.26781375962876097 0 -0.2546175921406465 0.26128861144859822 0 -0.25993357060704247 0.2432609816545768 0 -0.26991196520069161 0.25166683223725428 0 -0.2546175921406465 0.26128861144859822 0 -0.26991196520069161 0.25166683223725428 0 -0.2546175921406465 0.26128861144859822 0 -0.25982227492027221 0.287750399741656 0 -0.26502695769989643 0.31421218803471418 0 -0.25040582964490582 0.29567583303740069 0 -0.26031873506221342 0.31817490468258641 0 -0.26502695769989643 0.31421218803471418 0 -0.25040582964490582 0.29567583303740069 0 -0.26031873506221342 0.31817490468258641 0 -0.25040582964490582 0.29567583303740069 0 -0.25982227492027221 0.287750399741656 0 -0.26502695769989643 0.31421218803471418 0 -0.25040582964490582 0.29567583303740069 0 -0.26031873506221342 0.31817490468258641 0 -0.2434150889916675 0.31528126182336752 0 -0.25040582964490582 0.29567583303740069 0 -0.25982227492027221 0.287750399741656 0 -0.2404929242275981 0.27317676139221531 0 -0.28122021051934548 0.27759049133557667 0 -0.25982227492027221 0.287750399741656 0 -0.27872696579211859 0.29653502721740232 0 -0.27872696579211859 0.29653502721740232 0 -0.2889634120026453 0.31287634220677663 0 -0.26502695769989643 0.31421218803471418 0 -0.25982227492027221 0.287750399741656 0 -0.27872696579211859 0.29653502721740232 0 -0.26502695769989643 0.31421218803471418 0 -0.27872696579211859 0.29653502721740232 0 -0.29860197381843362 0.29024571476828781 0 -0.2889634120026453 0.31287634220677663 0 -0.28122021051934548 0.27759049133557667 0 -0.27872696579211859 0.29653502721740232 0 -0.29860197381843362 0.29024571476828781 0 -0.31760133335066493 0.29423642541125972 0 -0.31493928155445272 0.27430993559415479 0 -0.29860197381843362 0.29024571476828781 0 -0.29860197381843362 0.29024571476828781 0 -0.2889634120026453 0.31287634220677663 0 -0.31331907053128433 0.313878567385664 0 -0.31760133335066493 0.29423642541125972 0 -0.29860197381843362 0.29024571476828781 0 -0.31331907053128433 0.313878567385664 0 -0.29891576475332582 0.33197597815543639 0 -0.2889634120026453 0.31287634220677663 0 -0.31331907053128433 0.313878567385664 0 -0.29891576475332582 0.33197597815543639 0 -0.31508677610875602 0.33246264155886579 0 -0.31331907053128433 0.313878567385664 0 -0.29891576475332582 0.33197597815543639 0 -0.30998113757288742 0.35016350933599311 0 -0.31508677610875602 0.33246264155886579 0 -0.29891576475332582 0.33197597815543639 0 -0.27956012110933898 0.33426516842927712 0 -0.28899367546018362 0.34990607578599969 0 -0.27956012110933898 0.33426516842927712 0 -0.27835705654663001 0.3466973614805422 0 -0.28899367546018362 0.34990607578599969 0 -0.29891576475332582 0.33197597815543639 0 -0.2889634120026453 0.31287634220677663 0 -0.27956012110933898 0.33426516842927712 0 -0.27023164047952081 0.34067397632777208 0 -0.26502695769989643 0.31421218803471418 0 -0.2889634120026453 0.31287634220677663 0 -0.27956012110933898 0.33426516842927712 0 -0.26502695769989643 0.31421218803471418 0 -0.27956012110933898 0.33426516842927712 0 -0.27023164047952081 0.34067397632777208 0 -0.26502695769989643 0.31421218803471418 0 -0.27956012110933898 0.33426516842927712 0 -0.27023164047952081 0.34067397632777208 0 -0.27835705654663001 0.3466973614805422 0 -0.27023164047952081 0.34067397632777208 0 -0.25008303346203908 0.33611797840414298 0 -0.26058904667577898 0.35313253120237981 0 -0.27023164047952081 0.34067397632777208 0 -0.25008303346203908 0.33611797840414298 0 -0.26031873506221342 0.31817490468258641 0 -0.27023164047952081 0.34067397632777208 0 -0.26031873506221342 0.31817490468258641 0 -0.27023164047952081 0.34067397632777208 0 -0.26031873506221342 0.31817490468258641 0 -0.26502695769989643 0.31421218803471418 0 -0.25008303346203908 0.33611797840414298 0 -0.26031873506221342 0.31817490468258641 0 -0.2434150889916675 0.31528126182336752 0 -0.2592717334901794 0.37344143954643821 0 -0.26058904667577898 0.35313253120237981 0 -0.245130999697667 0.35617292401417999 0 -0.2592717334901794 0.37344143954643821 0 -0.26058904667577898 0.35313253120237981 0 -0.2742317000365197 0.36101118680509853 0 -0.25008303346203908 0.33611797840414298 0 -0.26058904667577898 0.35313253120237981 0 -0.245130999697667 0.35617292401417999 0 -0.27023164047952081 0.34067397632777208 0 -0.27835705654663001 0.3466973614805422 0 -0.2742317000365197 0.36101118680509853 0 -0.27023164047952081 0.34067397632777208 0 -0.26058904667577898 0.35313253120237981 0 -0.2742317000365197 0.36101118680509853 0 -0.27023164047952081 0.34067397632777208 0 -0.2742317000365197 0.36101118680509853 0 -0.27835705654663001 0.3466973614805422 0 -0.2742317000365197 0.36101118680509853 0 -0.28899367546018362 0.34990607578599969 0 -0.2592717334901794 0.37344143954643821 0 -0.2742317000365197 0.36101118680509853 0 -0.27666944541277583 0.38068284486427251 0 -0.2742317000365197 0.36101118680509853 0 -0.2918056253057611 0.36977816091582622 0 -0.27666944541277583 0.38068284486427251 0 -0.2742317000365197 0.36101118680509853 0 -0.2918056253057611 0.36977816091582622 0 -0.28899367546018362 0.34990607578599969 0 -0.2918056253057611 0.36977816091582622 0 -0.28899367546018362 0.34990607578599969 0 -0.30998113757288742 0.35016350933599311 0 -0.29891576475332582 0.33197597815543639 0 -0.28899367546018362 0.34990607578599969 0 -0.30998113757288742 0.35016350933599311 0 -0.2918056253057611 0.36977816091582622 0 -0.30998113757288742 0.35016350933599311 0 -0.30751920709622288 0.37811993239733782 0 -0.30998113757288742 0.35016350933599311 0 -0.3241796865990505 0.37446232129606583 0 -0.30998113757288742 0.35016350933599311 0 -0.3241796865990505 0.37446232129606583 0 -0.3311814619238953 0.36217087484935062 0 -0.30998113757288742 0.35016350933599311 0 -0.3241796865990505 0.37446232129606583 0 -0.30751920709622288 0.37811993239733782 0 -0.3241796865990505 0.37446232129606583 0 -0.3311814619238953 0.36217087484935062 0 -0.3450213805631549 0.37637896488870742 0 -0.3311814619238953 0.36217087484935062 0 -0.34248144252655999 0.3449329262912757 0 -0.32671787735756741 0.34394441277493482 0 -0.30998113757288742 0.35016350933599311 0 -0.3311814619238953 0.36217087484935062 0 -0.32671787735756741 0.34394441277493482 0 -0.30998113757288742 0.35016350933599311 0 -0.32671787735756741 0.34394441277493482 0 -0.31508677610875602 0.33246264155886579 0 -0.32671787735756741 0.34394441277493482 0 -0.31508677610875602 0.33246264155886579 0 -0.33690407342490619 0.32509031088867912 0 -0.31508677610875602 0.33246264155886579 0 -0.31331907053128433 0.313878567385664 0 -0.33690407342490619 0.32509031088867912 0 -0.34248144252655999 0.3449329262912757 0 -0.32671787735756741 0.34394441277493482 0 -0.33690407342490619 0.32509031088867912 0 -0.34248144252655999 0.3449329262912757 0 -0.33690407342490619 0.32509031088867912 0 -0.35402019531300261 0.33435003863570822 0 -0.33690407342490619 0.32509031088867912 0 -0.35402019531300261 0.33435003863570822 0 -0.35820423278511537 0.31360051904281339 0 -0.35820423278511537 0.31360051904281339 0 -0.3736940231061725 0.31398947852622111 0 -0.371857819856382 0.33718357931137699 0 -0.35402019531300261 0.33435003863570822 0 -0.35820423278511537 0.31360051904281339 0 -0.371857819856382 0.33718357931137699 0 -0.35402019531300261 0.33435003863570822 0 -0.371857819856382 0.33718357931137699 0 -0.35941010751018809 0.3566911886622014 0 -0.38763875309648088 0.35121150247505228 0 -0.371857819856382 0.33718357931137699 0 -0.35941010751018809 0.3566911886622014 0 -0.38763875309648088 0.35121150247505228 0 -0.35941010751018809 0.3566911886622014 0 -0.37817844187468841 0.37049799817574158 0 -0.35941010751018809 0.3566911886622014 0 -0.36132744716974019 0.37598607000928502 0 -0.35941010751018809 0.3566911886622014 0 -0.3450213805631549 0.37637896488870742 0 -0.36132744716974019 0.37598607000928502 0 -0.3311814619238953 0.36217087484935062 0 -0.35941010751018809 0.3566911886622014 0 -0.3450213805631549 0.37637896488870742 0 -0.3311814619238953 0.36217087484935062 0 -0.35941010751018809 0.3566911886622014 0 -0.34248144252655999 0.3449329262912757 0 -0.35402019531300261 0.33435003863570822 0 -0.35941010751018809 0.3566911886622014 0 -0.3311814619238953 0.36217087484935062 0 -0.34248144252655999 0.3449329262912757 0 -0.35941010751018809 0.3566911886622014 0 -0.35813247438357998 0.40322770661363078 0 -0.35506690633984689 0.38909595593077778 0 -0.33837823562521357 0.3987611332561386 0 -0.3450213805631549 0.37637896488870742 0 -0.35506690633984689 0.38909595593077778 0 -0.36132744716974019 0.37598607000928502 0 -0.3450213805631549 0.37637896488870742 0 -0.35506690633984689 0.38909595593077778 0 -0.33837823562521357 0.3987611332561386 0 -0.37817844187468841 0.37049799817574158 0 -0.36132744716974019 0.37598607000928502 0 -0.36896039956082288 0.38726624238899698 0 -0.35506690633984689 0.38909595593077778 0 -0.36132744716974019 0.37598607000928502 0 -0.36896039956082288 0.38726624238899698 0 -0.35813247438357998 0.40322770661363078 0 -0.35506690633984689 0.38909595593077778 0 -0.36896039956082288 0.38726624238899698 0 -0.35813247438357998 0.40322770661363078 0 -0.36896039956082288 0.38726624238899698 0 -0.37495024184161951 0.39669027322643757 0 -0.35813247438357998 0.40322770661363078 0 -0.37495024184161951 0.39669027322643757 0 -0.37226667114234002 0.41030924202555608 0 -0.37226667114234002 0.41030924202555608 0 -0.37063698291958719 0.42934778893548009 0 -0.35257678465137682 0.42305994521621149 0 -0.37226667114234002 0.41030924202555608 0 -0.35257678465137682 0.42305994521621149 0 -0.35813247438357998 0.40322770661363078 0 -0.37226667114234002 0.41030924202555608 0 -0.35257678465137682 0.42305994521621149 0 -0.37063698291958719 0.42934778893548009 0 -0.35509229673206349 0.42736488897625841 0 -0.35257678465137682 0.42305994521621149 0 -0.38219330561030318 0.43733759585905729 0 -0.37063698291958719 0.42934778893548009 0 -0.37031446948010971 0.44164379239859503 0 -0.37063698291958719 0.42934778893548009 0 -0.35100800832540779 0.43373908660655719 0 -0.34797539811694939 0.44391372641119659 0 -0.35257678465137682 0.42305994521621149 0 -0.34703292232895172 0.42665001888350013 0 -0.33490384995054723 0.4214646834239163 0 -0.37063698291958719 0.42934778893548009 0 -0.35509229673206349 0.42736488897625841 0 -0.35100800832540779 0.43373908660655719 0 -0.37063698291958719 0.42934778893548009 0 -0.34797539811694939 0.44391372641119659 0 -0.35509229673206349 0.42736488897625841 0 -0.35257678465137682 0.42305994521621149 0 -0.35120601168128568 0.42714359628681298 0 -0.35509229673206349 0.42736488897625841 0 -0.35120601168128568 0.42714359628681298 0 -0.35100800832540779 0.43373908660655719 0 -0.35509229673206349 0.42736488897625841 0 -0.35257678465137682 0.42305994521621149 0 -0.35257678465137682 0.42305994521621149 0 -0.34703292232895172 0.42665001888350013 0 -0.35120601168128568 0.42714359628681298 0 -0.35257678465137682 0.42305994521621149 0 -0.34703292232895172 0.42665001888350013 0 -0.34703292232895172 0.42665001888350013 0 -0.35120601168128568 0.42714359628681298 0 -0.35100800832540779 0.43373908660655719 0 -0.34703292232895172 0.42665001888350013 0 -0.35100800832540779 0.43373908660655719 0 -0.3416144021158749 0.43307637903049229 0 -0.35100800832540779 0.43373908660655719 0 -0.3416144021158749 0.43307637903049229 0 -0.34797539811694939 0.44391372641119659 0 -0.35257678465137682 0.42305994521621149 0 -0.33837823562521357 0.3987611332561386 0 -0.35813247438357998 0.40322770661363078 0 -0.35257678465137682 0.42305994521621149 0 -0.33837823562521357 0.3987611332561386 0 -0.35257678465137682 0.42305994521621149 0 -0.33490384995054723 0.4214646834239163 0 -0.33837823562521357 0.3987611332561386 0 -0.33490384995054723 0.4214646834239163 0 -0.32139182098691871 0.40894936325787168 0 -0.33837823562521357 0.3987611332561386 0 -0.34703292232895172 0.42665001888350013 0 -0.33490384995054723 0.4214646834239163 0 -0.3416144021158749 0.43307637903049229 0 -0.33490384995054723 0.4214646834239163 0 -0.3416144021158749 0.43307637903049229 0 -0.32915885350338547 0.436077628681731 0 -0.32915885350338547 0.436077628681731 0 -0.31540425984898302 0.42282960227343241 0 -0.31037484696397899 0.44222133160263499 0 -0.33490384995054723 0.4214646834239163 0 -0.32915885350338547 0.436077628681731 0 -0.31540425984898302 0.42282960227343241 0 -0.31540425984898302 0.42282960227343241 0 -0.32139182098691871 0.40894936325787168 0 -0.30380921659141291 0.40737586576510598 0 -0.33490384995054723 0.4214646834239163 0 -0.31540425984898302 0.42282960227343241 0 -0.32139182098691871 0.40894936325787168 0 -0.32139182098691871 0.40894936325787168 0 -0.31446354291843659 0.3943155315707651 0 -0.30380921659141291 0.40737586576510598 0 -0.32139182098691871 0.40894936325787168 0 -0.31446354291843659 0.3943155315707651 0 -0.33837823562521357 0.3987611332561386 0 -0.3241796865990505 0.37446232129606583 0 -0.33837823562521357 0.3987611332561386 0 -0.3241796865990505 0.37446232129606583 0 -0.3450213805631549 0.37637896488870742 0 -0.33837823562521357 0.3987611332561386 0 -0.3241796865990505 0.37446232129606583 0 -0.31446354291843659 0.3943155315707651 0 -0.33837823562521357 0.3987611332561386 0 -0.3241796865990505 0.37446232129606583 0 -0.31446354291843659 0.3943155315707651 0 -0.30751920709622288 0.37811993239733782 0 -0.31446354291843659 0.3943155315707651 0 -0.30751920709622288 0.37811993239733782 0 -0.29017157169787189 0.39747123853798338 0 -0.31446354291843659 0.3943155315707651 0 -0.29017157169787189 0.39747123853798338 0 -0.30380921659141291 0.40737586576510598 0 -0.31446354291843659 0.3943155315707651 0 -0.29017157169787189 0.39747123853798338 0 -0.2918056253057611 0.36977816091582622 0 -0.29017157169787189 0.39747123853798338 0 -0.27666944541277583 0.38068284486427251 0 -0.2918056253057611 0.36977816091582622 0 -0.30751920709622288 0.37811993239733782 0 -0.29017157169787189 0.39747123853798338 0 -0.2592717334901794 0.37344143954643821 0 -0.27666944541277583 0.38068284486427251 0 -0.26587960047730708 0.40062694550520161 0 -0.29017157169787189 0.39747123853798338 0 -0.26587960047730708 0.40062694550520161 0 -0.29017157169787189 0.39747123853798338 0 -0.27666944541277583 0.38068284486427251 0 -0.26587960047730708 0.40062694550520161 0 -0.26587960047730708 0.40062694550520161 0 -0.24390026663595221 0.4098265108577458 0 -0.24158762925674229 0.40378265247242029 0 -0.26587960047730708 0.40062694550520161 0 -0.24855740320059311 0.38849035142128929 0 -0.24158762925674229 0.40378265247242029 0 -0.26587960047730708 0.40062694550520161 0 -0.24158762925674229 0.40378265247242029 0 -0.2592717334901794 0.37344143954643821 0 -0.24855740320059311 0.38849035142128929 0 -0.24298804513369371 0.37489662163126852 0 -0.2592717334901794 0.37344143954643821 0 -0.26587960047730708 0.40062694550520161 0 -0.24855740320059311 0.38849035142128929 0 -0.26486291021761232 0.42723466671622251 0 -0.25440434670568679 0.43727792757369249 0 -0.24390026663595221 0.4098265108577458 0 -0.26486291021761232 0.42723466671622251 0 -0.25440434670568679 0.43727792757369249 0 -0.268601175871508 0.43936588513269881 0 -0.26587960047730708 0.40062694550520161 0 -0.26486291021761232 0.42723466671622251 0 -0.24390026663595221 0.4098265108577458 0 -0.26486291021761232 0.42723466671622251 0 -0.24390026663595221 0.4098265108577458 0 -0.26587960047730708 0.40062694550520161 0 -0.26486291021761232 0.42723466671622251 0 -0.29212211282505068 0.42111929002973092 0 -0.26486291021761232 0.42723466671622251 0 -0.28582555379927221 0.44464282257469973 0 -0.26486291021761232 0.42723466671622251 0 -0.29212211282505068 0.42111929002973092 0 -0.28582555379927221 0.44464282257469973 0 -0.26486291021761232 0.42723466671622251 0 -0.28582555379927221 0.44464282257469973 0 -0.268601175871508 0.43936588513269881 0 -0.29212211282505068 0.42111929002973092 0 -0.31037484696397899 0.44222133160263499 0 -0.28582555379927221 0.44464282257469973 0 -0.29017157169787189 0.39747123853798338 0 -0.26587960047730708 0.40062694550520161 0 -0.29212211282505068 0.42111929002973092 0 -0.29017157169787189 0.39747123853798338 0 -0.29212211282505068 0.42111929002973092 0 -0.30380921659141291 0.40737586576510598 0 -0.31540425984898302 0.42282960227343241 0 -0.29212211282505068 0.42111929002973092 0 -0.30380921659141291 0.40737586576510598 0 -0.31540425984898302 0.42282960227343241 0 -0.29212211282505068 0.42111929002973092 0 -0.31037484696397899 0.44222133160263499 0 -0.31037484696397899 0.44222133160263499 0 -0.30678819738092977 0.46205097843317938 0 -0.28582555379927221 0.44464282257469973 0 -0.30678819738092977 0.46205097843317938 0 -0.28923783613749188 0.46977947950295129 0 -0.30678819738092977 0.46205097843317938 0 -0.28923783613749188 0.46977947950295129 0 -0.30891410950205461 0.46909475087526598 0 -0.30891410950205461 0.46909475087526598 0 -0.31325745709166991 0.46742329137141808 0 -0.30678819738092977 0.46205097843317938 0 -0.30891410950205461 0.46909475087526598 0 -0.31325745709166991 0.46742329137141808 0 -0.30891410950205461 0.46909475087526598 0 -0.31525562008559699 0.46908263994992622 0 -0.31325745709166991 0.46742329137141808 0 -0.30678819738092977 0.46205097843317938 0 -0.31325745709166991 0.46742329137141808 0 -0.30678819738092977 0.46205097843317938 0 -0.29206160947224158 0.45498445755246653 0 -0.28582555379927221 0.44464282257469973 0 -0.30678819738092977 0.46205097843317938 0 -0.28582555379927221 0.44464282257469973 0 -0.30678819738092977 0.46205097843317938 0 -0.29206160947224158 0.45498445755246653 0 -0.28923783613749188 0.46977947950295129 0 -0.29206160947224158 0.45498445755246653 0 -0.28923783613749188 0.46977947950295129 0 -0.29206160947224158 0.45498445755246653 0 -0.27802275223802481 0.45856884181986929 0 -0.28923783613749188 0.46977947950295129 0 -0.29206160947224158 0.45498445755246653 0 -0.28582555379927221 0.44464282257469973 0 -0.27802275223802481 0.45856884181986929 0 -0.28582555379927221 0.44464282257469973 0 -0.26931189276346068 0.44830812366618028 0 -0.27802275223802481 0.45856884181986929 0 -0.28582555379927221 0.44464282257469973 0 -0.268601175871508 0.43936588513269881 0 -0.26931189276346068 0.44830812366618028 0 -0.26931189276346068 0.44830812366618028 0 -0.27802275223802481 0.45856884181986929 0 -0.26490842677542209 0.46472934428963919 0 -0.27802275223802481 0.45856884181986929 0 -0.26490842677542209 0.46472934428963919 0 -0.27188202748178247 0.47742230712921863 0 -0.27802275223802481 0.45856884181986929 0 -0.27188202748178247 0.47742230712921863 0 -0.28923783613749188 0.46977947950295129 0 -0.26190074499161498 0.45925492802712919 0 -0.25374771190227041 0.46769530379170138 0 -0.2470835307717511 0.45204209071788648 0 -0.25440434670568679 0.43727792757369249 0 -0.26190074499161498 0.45925492802712919 0 -0.26490842677542209 0.46472934428963919 0 -0.26190074499161498 0.45925492802712919 0 -0.26490842677542209 0.46472934428963919 0 -0.25374771190227041 0.46769530379170138 0 -0.26190074499161498 0.45925492802712919 0 -0.26490842677542209 0.46472934428963919 0 -0.25440434670568679 0.43727792757369249 0 -0.26190074499161498 0.45925492802712919 0 -0.2470835307717511 0.45204209071788648 0 -0.25440434670568679 0.43727792757369249 0 -0.26490842677542209 0.46472934428963919 0 -0.25440434670568679 0.43727792757369249 0 -0.26931189276346068 0.44830812366618028 0 -0.26490842677542209 0.46472934428963919 0 -0.25440434670568679 0.43727792757369249 0 -0.268601175871508 0.43936588513269881 0 -0.26931189276346068 0.44830812366618028 0 -0.25847810702610519 0.48850414280974469 0 -0.27007053304879808 0.47822001929417107 0 -0.24534086517324849 0.48911000964708612 0 -0.25847810702610519 0.48850414280974469 0 -0.26092149103342371 0.50000000000000044 0 -0.24271601658602809 0.5 0 -0.25847810702610519 0.48850414280974469 0 -0.27201266959149478 0.48329560889354789 0 -0.25847810702610519 0.48850414280974469 0 -0.26092149103342371 0.50000000000000044 0 -0.26665442019254082 0.49000718405533439 0 -0.26490842677542209 0.46472934428963919 0 -0.25374771190227041 0.46769530379170138 0 -0.27007053304879808 0.47822001929417107 0 -0.25374771190227041 0.46769530379170138 0 -0.27007053304879808 0.47822001929417107 0 -0.24534086517324849 0.48911000964708612 0 -0.27007053304879808 0.47822001929417107 0 -0.24534086517324849 0.48911000964708612 0 -0.27188202748178247 0.47742230712921863 0 -0.28923783613749188 0.46977947950295129 0 -0.25847810702610519 0.48850414280974469 0 -0.27007053304879808 0.47822001929417107 0 -0.27201266959149478 0.48329560889354789 0 -0.27188202748178247 0.47742230712921863 0 -0.27456848518075422 0.48231204905436859 0 -0.28781911866264892 0.47721278015904062 0 -0.27007053304879808 0.47822001929417107 0 -0.27188202748178247 0.47742230712921863 0 -0.27210308472192962 0.4803444769229962 0 -0.27188202748178247 0.47742230712921863 0 -0.27456848518075422 0.48231204905436859 0 -0.27188202748178247 0.47742230712921863 0 -0.27210308472192962 0.4803444769229962 0 -0.27456848518075422 0.48231204905436859 0 -0.27007053304879808 0.47822001929417107 0 -0.27188202748178247 0.47742230712921863 0 -0.27007053304879808 0.47822001929417107 0 -0.27201266959149478 0.48329560889354789 0 -0.27210308472192962 0.4803444769229962 0 -0.27201266959149478 0.48329560889354789 0 -0.27456848518075422 0.48231204905436859 0 -0.27007053304879808 0.47822001929417107 0 -0.27210308472192962 0.4803444769229962 0 -0.27201266959149478 0.48329560889354789 0 -0.27201266959149478 0.48329560889354789 0 -0.27456848518075422 0.48231204905436859 0 -0.26490842677542209 0.46472934428963919 0 -0.27188202748178247 0.47742230712921863 0 -0.26490842677542209 0.46472934428963919 0 -0.27007053304879808 0.47822001929417107 0 -0.27188202748178247 0.47742230712921863 0 -0.26490842677542209 0.46472934428963919 0 -0.27007053304879808 0.47822001929417107 0 -0.27456848518075422 0.48231204905436859 0 -0.28781911866264892 0.47721278015904062 0 -0.26092149103342371 0.50000000000000044 0 -0.27494821351356852 0.49096737443205551 0 -0.27840448038632598 0.49999999999999989 0 -0.27456848518075422 0.48231204905436859 0 -0.27818028796098981 0.48888605298774751 0 -0.28662963421400323 0.4834450256126463 0 -0.27818028796098981 0.48888605298774751 0 -0.27494821351356852 0.49096737443205551 0 -0.27201266959149478 0.48329560889354789 0 -0.27494821351356852 0.49096737443205551 0 -0.27201266959149478 0.48329560889354789 0 -0.27456848518075422 0.48231204905436859 0 -0.27818028796098981 0.48888605298774751 0 -0.27201266959149478 0.48329560889354789 0 -0.27818028796098981 0.48888605298774751 0 -0.27494821351356852 0.49096737443205551 0 -0.27456848518075422 0.48231204905436859 0 -0.27818028796098981 0.48888605298774751 0 -0.27201266959149478 0.48329560889354789 0 -0.27494821351356852 0.49096737443205551 0 -0.26665442019254082 0.49000718405533439 0 -0.25847810702610519 0.48850414280974469 0 -0.27201266959149478 0.48329560889354789 0 -0.26665442019254082 0.49000718405533439 0 -0.26092149103342371 0.50000000000000044 0 -0.27494821351356852 0.49096737443205551 0 -0.26092149103342371 0.50000000000000044 0 -0.27494821351356852 0.49096737443205551 0 -0.26665442019254082 0.49000718405533439 0 -0.27494821351356852 0.49096737443205551 0 -0.27840448038632598 0.49999999999999989 0 -0.27818028796098981 0.48888605298774751 0 -0.27840448038632598 0.49999999999999989 0 -0.28368044823936328 0.49889714094141469 0 -0.27818028796098981 0.48888605298774751 0 -0.27494821351356852 0.49096737443205551 0 -0.27840448038632598 0.49999999999999989 0 -0.27818028796098981 0.48888605298774751 0 -0.28368044823936328 0.49889714094141469 0 -0.28368044823936328 0.49889714094141469 0 -0.29224888689071188 0.49344190183271952 0 -0.30769467815930068 0.5 0 -0.27818028796098981 0.48888605298774751 0 -0.28368044823936328 0.49889714094141469 0 -0.28662963421400323 0.4834450256126463 0 -0.28368044823936328 0.49889714094141469 0 -0.28662963421400323 0.4834450256126463 0 -0.28368044823936328 0.49889714094141469 0 -0.29224888689071188 0.49344190183271952 0 -0.28662963421400323 0.4834450256126463 0 -0.27818028796098981 0.48888605298774751 0 -0.28662963421400323 0.4834450256126463 0 -0.29224888689071188 0.49344190183271952 0 -0.28662963421400323 0.4834450256126463 0 -0.30094150763636901 0.48708058862929682 0 -0.28781911866264892 0.47721278015904062 0 -0.28923783613749188 0.46977947950295129 0 -0.30891410950205461 0.46909475087526598 0 -0.27188202748178247 0.47742230712921863 0 -0.28781911866264892 0.47721278015904062 0 -0.28923783613749188 0.46977947950295129 0 -0.28781911866264892 0.47721278015904062 0 -0.28923783613749188 0.46977947950295129 0 -0.27456848518075422 0.48231204905436859 0 -0.28781911866264892 0.47721278015904062 0 -0.28662963421400323 0.4834450256126463 0 -0.28781911866264892 0.47721278015904062 0 -0.28662963421400323 0.4834450256126463 0 -0.28662963421400323 0.4834450256126463 0 -0.30182933433063519 0.4736570512592001 0 -0.30094150763636901 0.48708058862929682 0 -0.28781911866264892 0.47721278015904062 0 -0.28662963421400323 0.4834450256126463 0 -0.30182933433063519 0.4736570512592001 0 -0.28662963421400323 0.4834450256126463 0 -0.30182933433063519 0.4736570512592001 0 -0.28781911866264892 0.47721278015904062 0 -0.30182933433063519 0.4736570512592001 0 -0.30182933433063519 0.4736570512592001 0 -0.31729910476423501 0.48596558745179752 0 -0.31525562008559699 0.46908263994992622 0 -0.30182933433063519 0.4736570512592001 0 -0.30094150763636901 0.48708058862929682 0 -0.31729910476423501 0.48596558745179752 0 -0.28781911866264892 0.47721278015904062 0 -0.30182933433063519 0.4736570512592001 0 -0.30891410950205461 0.46909475087526598 0 -0.28781911866264892 0.47721278015904062 0 -0.30891410950205461 0.46909475087526598 0 -0.30182933433063519 0.4736570512592001 0 -0.31525562008559699 0.46908263994992622 0 -0.30182933433063519 0.4736570512592001 0 -0.30891410950205461 0.46909475087526598 0 -0.31525562008559699 0.46908263994992622 0 -0.30182933433063519 0.4736570512592001 0 -0.30891410950205461 0.46909475087526598 0 -0.30094150763636901 0.48708058862929682 0 -0.30769467815930068 0.5 0 -0.31729910476423501 0.48596558745179752 0 -0.29224888689071188 0.49344190183271952 0 -0.30094150763636901 0.48708058862929682 0 -0.30769467815930068 0.5 0 -0.31729910476423501 0.48596558745179752 0 -0.33427013892530733 0.48487300084816443 0 -0.33110298975999741 0.5 0 -0.30769467815930068 0.5 0 -0.31729910476423501 0.48596558745179752 0 -0.33110298975999741 0.5 0 -0.33427013892530733 0.48487300084816443 0 -0.33110298975999741 0.5 0 -0.35451130136069398 0.4999999999999995 0 -0.33427013892530733 0.48487300084816443 0 -0.33945755539216582 0.46083690404104272 0 -0.34969032548814538 0.47637365565428952 0 -0.33427013892530733 0.48487300084816443 0 -0.31525562008559699 0.46908263994992622 0 -0.33945755539216582 0.46083690404104272 0 -0.31729910476423501 0.48596558745179752 0 -0.33427013892530733 0.48487300084816443 0 -0.31525562008559699 0.46908263994992622 0 -0.33427013892530733 0.48487300084816443 0 -0.31525562008559699 0.46908263994992622 0 -0.31525562008559699 0.46908263994992622 0 -0.31325745709166991 0.46742329137141808 0 -0.33361387207467458 0.45958948977355291 0 -0.31325745709166991 0.46742329137141808 0 -0.33024094015483157 0.45536115943149169 0 -0.33361387207467458 0.45958948977355291 0 -0.31525562008559699 0.46908263994992622 0 -0.31325745709166991 0.46742329137141808 0 -0.30678819738092977 0.46205097843317938 0 -0.32738179774893988 0.45298235242218882 0 -0.30678819738092977 0.46205097843317938 0 -0.31325745709166991 0.46742329137141808 0 -0.32738179774893988 0.45298235242218882 0 -0.31325745709166991 0.46742329137141808 0 -0.33024094015483157 0.45536115943149169 0 -0.31325745709166991 0.46742329137141808 0 -0.32738179774893988 0.45298235242218882 0 -0.33024094015483157 0.45536115943149169 0 -0.31325745709166991 0.46742329137141808 0 -0.33361387207467458 0.45958948977355291 0 -0.31525562008559699 0.46908263994992622 0 -0.33945755539216582 0.46083690404104272 0 -0.31037484696397899 0.44222133160263499 0 -0.30678819738092977 0.46205097843317938 0 -0.32738179774893988 0.45298235242218882 0 -0.32915885350338547 0.436077628681731 0 -0.31037484696397899 0.44222133160263499 0 -0.32738179774893988 0.45298235242218882 0 -0.32915885350338547 0.436077628681731 0 -0.32738179774893988 0.45298235242218882 0 -0.34797539811694939 0.44391372641119659 0 -0.32738179774893988 0.45298235242218882 0 -0.34797539811694939 0.44391372641119659 0 -0.33024094015483157 0.45536115943149169 0 -0.33361387207467458 0.45958948977355291 0 -0.34797539811694939 0.44391372641119659 0 -0.3416144021158749 0.43307637903049229 0 -0.32915885350338547 0.436077628681731 0 -0.34797539811694939 0.44391372641119659 0 -0.33024094015483157 0.45536115943149169 0 -0.34797539811694939 0.44391372641119659 0 -0.32738179774893988 0.45298235242218882 0 -0.33024094015483157 0.45536115943149169 0 -0.34797539811694939 0.44391372641119659 0 -0.31525562008559699 0.46908263994992622 0 -0.33361387207467458 0.45958948977355291 0 -0.33945755539216582 0.46083690404104272 0 -0.33361387207467458 0.45958948977355291 0 -0.33945755539216582 0.46083690404104272 0 -0.35397028705767941 0.45175568817568751 0 -0.33945755539216582 0.46083690404104272 0 -0.35397028705767941 0.45175568817568751 0 -0.3636594906987341 0.45259116813215772 0 -0.33945755539216582 0.46083690404104272 0 -0.35903601978900862 0.4668294320101527 0 -0.3636594906987341 0.45259116813215772 0 -0.33945755539216582 0.46083690404104272 0 -0.35903601978900862 0.4668294320101527 0 -0.34969032548814538 0.47637365565428952 0 -0.33361387207467458 0.45958948977355291 0 -0.35397028705767941 0.45175568817568751 0 -0.33945755539216582 0.46083690404104272 0 -0.3636594906987341 0.45259116813215772 0 -0.35397028705767941 0.45175568817568751 0 -0.34797539811694939 0.44391372641119659 0 -0.3636594906987341 0.45259116813215772 0 -0.33361387207467458 0.45958948977355291 0 -0.35397028705767941 0.45175568817568751 0 -0.34797539811694939 0.44391372641119659 0 -0.38786142600530288 0.44434543222327372 0 -0.3636594906987341 0.45259116813215772 0 -0.37031446948010971 0.44164379239859503 0 -0.34797539811694939 0.44391372641119659 0 -0.3636594906987341 0.45259116813215772 0 -0.37031446948010971 0.44164379239859503 0 -0.37063698291958719 0.42934778893548009 0 -0.34797539811694939 0.44391372641119659 0 -0.37031446948010971 0.44164379239859503 0 -0.37674471779043378 0.46289695481551602 0 -0.35903601978900862 0.4668294320101527 0 -0.3636594906987341 0.45259116813215772 0 -0.37674471779043378 0.46289695481551602 0 -0.35903601978900862 0.4668294320101527 0 -0.36562800957556379 0.48144847740775781 0 -0.37674471779043378 0.46289695481551602 0 -0.36562800957556379 0.48144847740775781 0 -0.36562800957556379 0.48144847740775781 0 -0.35451130136069398 0.4999999999999995 0 -0.37984386551400101 0.5 0 -0.36562800957556379 0.48144847740775781 0 -0.35451130136069398 0.4999999999999995 0 -0.33427013892530733 0.48487300084816443 0 -0.35451130136069398 0.4999999999999995 0 -0.34969032548814538 0.47637365565428952 0 -0.36562800957556379 0.48144847740775781 0 -0.35451130136069398 0.4999999999999995 0 -0.34969032548814538 0.47637365565428952 0 -0.35903601978900862 0.4668294320101527 0 -0.36562800957556379 0.48144847740775781 0 -0.34969032548814538 0.47637365565428952 0 -0.13298062755884579 0.48255116261061692 0 -0.15843735091332889 0.4710522502620903 0 -0.13298062755884579 0.48255116261061692 0 -0.14150291950411281 0.46425469992345519 0 -0.15843735091332889 0.4710522502620903 0 -0.13975760046378269 0.49999999999999878 0 -0.15843735091332889 0.4710522502620903 0 -0.16099880066542119 0.50000000000000022 0 -0.13975760046378269 0.49999999999999878 0 -0.13298062755884579 0.48255116261061692 0 -0.15843735091332889 0.4710522502620903 0 -0.13975760046378269 0.49999999999999878 0 -0.13298062755884579 0.48255116261061692 0 -0.13975760046378269 0.49999999999999878 0 -0.13298062755884579 0.48255116261061692 0 -0.11380605494256869 0.5 0 -0.13298062755884579 0.48255116261061692 0 -0.12544051825853689 0.4631374593356033 0 -0.14150291950411281 0.46425469992345519 0 -0.13298062755884579 0.48255116261061692 0 -0.12544051825853689 0.4631374593356033 0 -0.1336307511693739 0.45491465667522191 0 -0.12544051825853689 0.4631374593356033 0 -0.14150291950411281 0.46425469992345519 0 -0.1336307511693739 0.45491465667522191 0 -0.13175207046494611 0.44346192959665548 0 -0.11475987009784661 0.45084407402711402 0 -0.13175207046494611 0.44346192959665548 0 -0.15702534962047851 0.44961797073374349 0 -0.14544522351027661 0.43702334659483638 0 -0.1336307511693739 0.45491465667522191 0 -0.13175207046494611 0.44346192959665548 0 -0.15702534962047851 0.44961797073374349 0 -0.15702534962047851 0.44961797073374349 0 -0.14544522351027661 0.43702334659483638 0 -0.1556699124179855 0.4290423380990836 0 -0.13175207046494611 0.44346192959665548 0 -0.15702534962047851 0.44961797073374349 0 -0.1336307511693739 0.45491465667522191 0 -0.14150291950411281 0.46425469992345519 0 -0.15702534962047851 0.44961797073374349 0 -0.14150291950411281 0.46425469992345519 0 -0.15702534962047851 0.44961797073374349 0 -0.15843735091332889 0.4710522502620903 0 -0.15702534962047851 0.44961797073374349 0 -0.15843735091332889 0.4710522502620903 0 -0.16426353778385031 0.46842053638370362 0 -0.16193071402987511 0.45081281469960982 0 -0.15843735091332889 0.4710522502620903 0 -0.15702534962047851 0.44961797073374349 0 -0.16193071402987511 0.45081281469960982 0 -0.15843735091332889 0.4710522502620903 0 -0.16426353778385031 0.46842053638370362 0 -0.16193071402987511 0.45081281469960982 0 -0.17220307999619611 0.44534927840499378 0 -0.16426353778385031 0.46842053638370362 0 -0.17220307999619611 0.44534927840499378 0 -0.15702534962047851 0.44961797073374349 0 -0.1556699124179855 0.4290423380990836 0 -0.16306062424848339 0.44050736484390751 0 -0.15702534962047851 0.44961797073374349 0 -0.1556699124179855 0.4290423380990836 0 -0.16306062424848339 0.44050736484390751 0 -0.15702534962047851 0.44961797073374349 0 -0.16193071402987511 0.45081281469960982 0 -0.15702534962047851 0.44961797073374349 0 -0.16193071402987511 0.45081281469960982 0 -0.16306062424848339 0.44050736484390751 0 -0.16193071402987511 0.45081281469960982 0 -0.17220307999619611 0.44534927840499378 0 -0.16306062424848339 0.44050736484390751 0 -0.17220307999619611 0.44534927840499378 0 -0.16780974434499221 0.43040982398245581 0 -0.17220307999619611 0.44534927840499378 0 -0.18281758700689349 0.4600395918781951 0 -0.19105692089556489 0.43334490180876922 0 -0.18281758700689349 0.4600395918781951 0 -0.19105692089556489 0.43334490180876922 0 -0.18281758700689349 0.4600395918781951 0 -0.17801000380965989 0.47561572280906489 0 -0.19482622675472999 0.46587529032893948 0 -0.16426353778385031 0.46842053638370362 0 -0.17220307999619611 0.44534927840499378 0 -0.18281758700689349 0.4600395918781951 0 -0.16426353778385031 0.46842053638370362 0 -0.18281758700689349 0.4600395918781951 0 -0.17801000380965989 0.47561572280906489 0 -0.16426353778385031 0.46842053638370362 0 -0.18281758700689349 0.4600395918781951 0 -0.18281758700689349 0.4600395918781951 0 -0.17801000380965989 0.47561572280906489 0 -0.17801000380965989 0.47561572280906489 0 -0.17320242061242691 0.49119185373993512 0 -0.190689979325044 0.47856994519631457 0 -0.17801000380965989 0.47561572280906489 0 -0.17014513666291531 0.48171822366538508 0 -0.17320242061242691 0.49119185373993512 0 -0.17801000380965989 0.47561572280906489 0 -0.17320242061242691 0.49119185373993512 0 -0.16116749874829769 0.47741721571243328 0 -0.15843735091332889 0.4710522502620903 0 -0.16099880066542119 0.50000000000000022 0 -0.16426353778385031 0.46842053638370362 0 -0.17801000380965989 0.47561572280906489 0 -0.17014513666291531 0.48171822366538508 0 -0.16426353778385031 0.46842053638370362 0 -0.17014513666291531 0.48171822366538508 0 -0.16116749874829769 0.47741721571243328 0 -0.16426353778385031 0.46842053638370362 0 -0.16116749874829769 0.47741721571243328 0 -0.15843735091332889 0.4710522502620903 0 -0.16426353778385031 0.46842053638370362 0 -0.16116749874829769 0.47741721571243328 0 -0.16426353778385031 0.46842053638370362 0 -0.15843735091332889 0.4710522502620903 0 -0.17014513666291531 0.48171822366538508 0 -0.16116749874829769 0.47741721571243328 0 -0.16099880066542119 0.50000000000000022 0 -0.17014513666291531 0.48171822366538508 0 -0.16099880066542119 0.50000000000000022 0 -0.17320242061242691 0.49119185373993512 0 -0.15843735091332889 0.4710522502620903 0 -0.16099880066542119 0.50000000000000022 0 -0.17048378039640921 0.499999999999996 0 -0.17320242061242691 0.49119185373993512 0 -0.16099880066542119 0.50000000000000022 0 -0.17048378039640921 0.499999999999996 0 -0.17320242061242691 0.49119185373993512 0 -0.16099880066542119 0.50000000000000022 0 -0.17320242061242691 0.49119185373993512 0 -0.17320242061242691 0.49119185373993512 0 -0.190689979325044 0.47856994519631457 0 -0.17048378039640921 0.499999999999996 0 -0.17320242061242691 0.49119185373993512 0 -0.18581873262730181 0.49118729788902749 0 -0.17320242061242691 0.49119185373993512 0 -0.18581873262730181 0.49118729788902749 0 -0.190689979325044 0.47856994519631457 0 -0.17048378039640921 0.499999999999996 0 -0.18581873262730181 0.49118729788902749 0 -0.19554748884705389 0.5 0 -0.18581873262730181 0.49118729788902749 0 -0.19487595816744871 0.48827984865781948 0 -0.19554748884705389 0.5 0 -0.19487595816744871 0.48827984865781948 0 -0.19554748884705389 0.5 0 -0.20744763187039511 0.48336215154593609 0 -0.18581873262730181 0.49118729788902749 0 -0.19487595816744871 0.48827984865781948 0 -0.190689979325044 0.47856994519631457 0 -0.190689979325044 0.47856994519631457 0 -0.20817753803766101 0.46594803665269391 0 -0.190689979325044 0.47856994519631457 0 -0.20817753803766101 0.46594803665269391 0 -0.19482622675472999 0.46587529032893948 0 -0.19487595816744871 0.48827984865781948 0 -0.190689979325044 0.47856994519631457 0 -0.20744763187039511 0.48336215154593609 0 -0.17801000380965989 0.47561572280906489 0 -0.190689979325044 0.47856994519631457 0 -0.19482622675472999 0.46587529032893948 0 -0.190689979325044 0.47856994519631457 0 -0.20744763187039511 0.48336215154593609 0 -0.20817753803766101 0.46594803665269391 0 -0.20744763187039511 0.48336215154593609 0 -0.2232475932131088 0.47874498222143241 0 -0.20817753803766101 0.46594803665269391 0 -0.2232475932131088 0.47874498222143241 0 -0.22334275735617259 0.46647783610587229 0 -0.20817753803766101 0.46594803665269391 0 -0.19554748884705389 0.5 0 -0.20744763187039511 0.48336215154593609 0 -0.22061119729769851 0.50000000000000044 0 -0.20744763187039511 0.48336215154593609 0 -0.22061119729769851 0.50000000000000044 0 -0.2232475932131088 0.47874498222143241 0 -0.22061119729769851 0.50000000000000044 0 -0.22451054213863281 0.50000000000000233 0 -0.24534086517324849 0.48911000964708612 0 -0.22061119729769851 0.50000000000000044 0 -0.2232475932131088 0.47874498222143241 0 -0.24534086517324849 0.48911000964708612 0 -0.22061119729769851 0.50000000000000044 0 -0.24534086517324849 0.48911000964708612 0 -0.22451054213863281 0.50000000000000233 0 -0.24148255890114151 0.49421753813106339 0 -0.2232475932131088 0.47874498222143241 0 -0.23628080142364249 0.46789219744028959 0 -0.22334275735617259 0.46647783610587229 0 -0.2232475932131088 0.47874498222143241 0 -0.24534086517324849 0.48911000964708612 0 -0.23628080142364249 0.46789219744028959 0 -0.25374771190227041 0.46769530379170138 0 -0.24534086517324849 0.48911000964708612 0 -0.23628080142364249 0.46789219744028959 0 -0.22451054213863281 0.50000000000000233 0 -0.24534086517324849 0.48911000964708612 0 -0.24148255890114151 0.49421753813106339 0 -0.25847810702610519 0.48850414280974469 0 -0.24534086517324849 0.48911000964708612 0 -0.24148255890114151 0.49421753813106339 0 -0.22451054213863281 0.50000000000000233 0 -0.24271601658602809 0.5 0 -0.24148255890114151 0.49421753813106339 0 -0.25847810702610519 0.48850414280974469 0 -0.24271601658602809 0.5 0 -0.24148255890114151 0.49421753813106339 0 -0.25847810702610519 0.48850414280974469 0 -0.24148255890114151 0.49421753813106339 0 -0.25440434670568679 0.43727792757369249 0 -0.2470835307717511 0.45204209071788648 0 -0.23583124119127399 0.4374763133559072 0 -0.2470835307717511 0.45204209071788648 0 -0.2256650967502781 0.4533261281090733 0 -0.23583124119127399 0.4374763133559072 0 -0.2470835307717511 0.45204209071788648 0 -0.23628080142364249 0.46789219744028959 0 -0.2256650967502781 0.4533261281090733 0 -0.25374771190227041 0.46769530379170138 0 -0.2470835307717511 0.45204209071788648 0 -0.23628080142364249 0.46789219744028959 0 -0.22334275735617259 0.46647783610587229 0 -0.2256650967502781 0.4533261281090733 0 -0.20817753803766101 0.46594803665269391 0 -0.23628080142364249 0.46789219744028959 0 -0.22334275735617259 0.46647783610587229 0 -0.2256650967502781 0.4533261281090733 0 -0.2256650967502781 0.4533261281090733 0 -0.22084070426585289 0.43538371924467612 0 -0.23583124119127399 0.4374763133559072 0 -0.2256650967502781 0.4533261281090733 0 -0.20831066890565611 0.44852425621752878 0 -0.22084070426585289 0.43538371924467612 0 -0.2256650967502781 0.4533261281090733 0 -0.20831066890565611 0.44852425621752878 0 -0.20817753803766101 0.46594803665269391 0 -0.2256650967502781 0.4533261281090733 0 -0.20817753803766101 0.46594803665269391 0 -0.20831066890565611 0.44852425621752878 0 -0.20817753803766101 0.46594803665269391 0 -0.19482622675472999 0.46587529032893948 0 -0.18281758700689349 0.4600395918781951 0 -0.20831066890565611 0.44852425621752878 0 -0.19482622675472999 0.46587529032893948 0 -0.18281758700689349 0.4600395918781951 0 -0.20831066890565611 0.44852425621752878 0 -0.18281758700689349 0.4600395918781951 0 -0.20831066890565611 0.44852425621752878 0 -0.19105692089556489 0.43334490180876922 0 -0.20831066890565611 0.44852425621752878 0 -0.19105692089556489 0.43334490180876922 0 -0.20810391325395439 0.42398758438242701 0 -0.19105692089556489 0.43334490180876922 0 -0.1992962547842371 0.40665021173934351 0 -0.19105692089556489 0.43334490180876922 0 -0.1992962547842371 0.40665021173934351 0 -0.18014262220854191 0.42227802042628387 0 -0.1992962547842371 0.40665021173934351 0 -0.18808216442088779 0.39920676244757408 0 -0.18014262220854191 0.42227802042628387 0 -0.19105692089556489 0.43334490180876922 0 -0.1992962547842371 0.40665021173934351 0 -0.20810391325395439 0.42398758438242701 0 -0.1992962547842371 0.40665021173934351 0 -0.21742618678061951 0.40692140278904287 0 -0.20810391325395439 0.42398758438242701 0 -0.21742618678061951 0.40692140278904287 0 -0.20810391325395439 0.42398758438242701 0 -0.22035716728969429 0.42060188859009112 0 -0.20831066890565611 0.44852425621752878 0 -0.20810391325395439 0.42398758438242701 0 -0.22084070426585289 0.43538371924467612 0 -0.20810391325395439 0.42398758438242701 0 -0.22084070426585289 0.43538371924467612 0 -0.22035716728969429 0.42060188859009112 0 -0.22084070426585289 0.43538371924467612 0 -0.22806234900785671 0.42609527632417488 0 -0.23583124119127399 0.4374763133559072 0 -0.22806234900785671 0.42609527632417488 0 -0.23583124119127399 0.4374763133559072 0 -0.23813634159033989 0.42290976463926327 0 -0.22084070426585289 0.43538371924467612 0 -0.22806234900785671 0.42609527632417488 0 -0.22035716728969429 0.42060188859009112 0 -0.21742618678061951 0.40692140278904287 0 -0.22961658629595061 0.41319157683878799 0 -0.24158762925674229 0.40378265247242029 0 -0.22806234900785671 0.42609527632417488 0 -0.22035716728969429 0.42060188859009112 0 -0.22961658629595061 0.41319157683878799 0 -0.21742618678061951 0.40692140278904287 0 -0.22035716728969429 0.42060188859009112 0 -0.22961658629595061 0.41319157683878799 0 -0.22806234900785671 0.42609527632417488 0 -0.22961658629595061 0.41319157683878799 0 -0.23813634159033989 0.42290976463926327 0 -0.22961658629595061 0.41319157683878799 0 -0.239163799237434 0.41168781992760201 0 -0.23813634159033989 0.42290976463926327 0 -0.239163799237434 0.41168781992760201 0 -0.24390026663595221 0.4098265108577458 0 -0.23813634159033989 0.42290976463926327 0 -0.22961658629595061 0.41319157683878799 0 -0.239163799237434 0.41168781992760201 0 -0.24158762925674229 0.40378265247242029 0 -0.239163799237434 0.41168781992760201 0 -0.24390026663595221 0.4098265108577458 0 -0.24158762925674229 0.40378265247242029 0 -0.24390026663595221 0.4098265108577458 0 -0.24158762925674229 0.40378265247242029 0 -0.25440434670568679 0.43727792757369249 0 -0.24390026663595221 0.4098265108577458 0 -0.25440434670568679 0.43727792757369249 0 -0.23583124119127399 0.4374763133559072 0 -0.23813634159033989 0.42290976463926327 0 -0.25440434670568679 0.43727792757369249 0 -0.24390026663595221 0.4098265108577458 0 -0.23813634159033989 0.42290976463926327 0 -0.23424469339825599 0.38459258624753379 0 -0.22773539588177269 0.371785806926901 0 -0.24298804513369371 0.37489662163126852 0 -0.24855740320059311 0.38849035142128929 0 -0.23424469339825599 0.38459258624753379 0 -0.24298804513369371 0.37489662163126852 0 -0.24158762925674229 0.40378265247242029 0 -0.23424469339825599 0.38459258624753379 0 -0.24855740320059311 0.38849035142128929 0 -0.24158762925674229 0.40378265247242029 0 -0.23424469339825599 0.38459258624753379 0 -0.24158762925674229 0.40378265247242029 0 -0.22554848148559539 0.39550039904942808 0 -0.23424469339825599 0.38459258624753379 0 -0.21742618678061951 0.40692140278904287 0 -0.24158762925674229 0.40378265247242029 0 -0.21742618678061951 0.40692140278904287 0 -0.24158762925674229 0.40378265247242029 0 -0.22554848148559539 0.39550039904942808 0 -0.21742618678061951 0.40692140278904287 0 -0.22554848148559539 0.39550039904942808 0 -0.2145442316967007 0.39558569262158683 0 -0.22554848148559539 0.39550039904942808 0 -0.2206001822887777 0.38503322384510019 0 -0.2145442316967007 0.39558569262158683 0 -0.22554848148559539 0.39550039904942808 0 -0.2206001822887777 0.38503322384510019 0 -0.23424469339825599 0.38459258624753379 0 -0.2206001822887777 0.38503322384510019 0 -0.23424469339825599 0.38459258624753379 0 -0.22773539588177269 0.371785806926901 0 -0.2206001822887777 0.38503322384510019 0 -0.2075355886729093 0.37995552166991781 0 -0.22773539588177269 0.371785806926901 0 -0.2206001822887777 0.38503322384510019 0 -0.2075355886729093 0.37995552166991781 0 -0.2145442316967007 0.39558569262158683 0 -0.1992962547842371 0.40665021173934351 0 -0.21742618678061951 0.40692140278904287 0 -0.2145442316967007 0.39558569262158683 0 -0.1992962547842371 0.40665021173934351 0 -0.2075355886729093 0.37995552166991781 0 -0.2145442316967007 0.39558569262158683 0 -0.1992962547842371 0.40665021173934351 0 -0.2075355886729093 0.37995552166991781 0 -0.1992962547842371 0.40665021173934351 0 -0.2075355886729093 0.37995552166991781 0 -0.19773392862781691 0.3904870000814249 0 -0.1992962547842371 0.40665021173934351 0 -0.18808216442088779 0.39920676244757408 0 -0.19773392862781691 0.3904870000814249 0 -0.18808216442088779 0.39920676244757408 0 -0.19602170663323359 0.37613550446886429 0 -0.18808216442088779 0.39920676244757408 0 -0.19602170663323359 0.37613550446886429 0 -0.19773392862781691 0.3904870000814249 0 -0.18808216442088779 0.39920676244757408 0 -0.19602170663323359 0.37613550446886429 0 -0.18047408951467989 0.38368683415264299 0 -0.2075355886729093 0.37995552166991781 0 -0.19602170663323359 0.37613550446886429 0 -0.19773392862781691 0.3904870000814249 0 -0.18047408951467989 0.38368683415264299 0 -0.16393263101776051 0.377811301899728 0 -0.17738562461233581 0.36620191856746193 0 -0.19602170663323359 0.37613550446886429 0 -0.18047408951467989 0.38368683415264299 0 -0.18587119209385661 0.37354081621318608 0 -0.16393263101776051 0.377811301899728 0 -0.1697532507094677 0.3985670854867942 0 -0.14892453724321039 0.38998910039625528 0 -0.18047408951467989 0.38368683415264299 0 -0.16393263101776051 0.377811301899728 0 -0.1697532507094677 0.3985670854867942 0 -0.1697532507094677 0.3985670854867942 0 -0.1543144752154926 0.40846670546442382 0 -0.14892453724321039 0.38998910039625528 0 -0.18808216442088779 0.39920676244757408 0 -0.18047408951467989 0.38368683415264299 0 -0.1697532507094677 0.3985670854867942 0 -0.18808216442088779 0.39920676244757408 0 -0.1697532507094677 0.3985670854867942 0 -0.1764876300481629 0.40873099662466561 0 -0.18808216442088779 0.39920676244757408 0 -0.1764876300481629 0.40873099662466561 0 -0.18014262220854191 0.42227802042628387 0 -0.18808216442088779 0.39920676244757408 0 -0.18014262220854191 0.42227802042628387 0 -0.1764876300481629 0.40873099662466561 0 -0.18014262220854191 0.42227802042628387 0 -0.16797248285375421 0.41487211813801012 0 -0.17220307999619611 0.44534927840499378 0 -0.18014262220854191 0.42227802042628387 0 -0.17220307999619611 0.44534927840499378 0 -0.19105692089556489 0.43334490180876922 0 -0.18014262220854191 0.42227802042628387 0 -0.17220307999619611 0.44534927840499378 0 -0.18014262220854191 0.42227802042628387 0 -0.16780974434499221 0.43040982398245581 0 -0.18014262220854191 0.42227802042628387 0 -0.16780974434499221 0.43040982398245581 0 -0.16797248285375421 0.41487211813801012 0 -0.16780974434499221 0.43040982398245581 0 -0.16797248285375421 0.41487211813801012 0 -0.1556699124179855 0.4290423380990836 0 -0.16306062424848339 0.44050736484390751 0 -0.16780974434499221 0.43040982398245581 0 -0.1556699124179855 0.4290423380990836 0 -0.1697532507094677 0.3985670854867942 0 -0.1764876300481629 0.40873099662466561 0 -0.16797248285375421 0.41487211813801012 0 -0.16797248285375421 0.41487211813801012 0 -0.1543144752154926 0.40846670546442382 0 -0.1556699124179855 0.4290423380990836 0 -0.1697532507094677 0.3985670854867942 0 -0.16797248285375421 0.41487211813801012 0 -0.1543144752154926 0.40846670546442382 0 -0.1543144752154926 0.40846670546442382 0 -0.13955083839820601 0.41331054213078378 0 -0.1342738988421254 0.39940632656162323 0 -0.1543144752154926 0.40846670546442382 0 -0.1556699124179855 0.4290423380990836 0 -0.13955083839820601 0.41331054213078378 0 -0.1543144752154926 0.40846670546442382 0 -0.1556699124179855 0.4290423380990836 0 -0.14544522351027661 0.43702334659483638 0 -0.1556699124179855 0.4290423380990836 0 -0.13656638764367751 0.42782024169105087 0 -0.1556699124179855 0.4290423380990836 0 -0.13656638764367751 0.42782024169105087 0 -0.13955083839820601 0.41331054213078378 0 -0.13175207046494611 0.44346192959665548 0 -0.13656638764367751 0.42782024169105087 0 -0.1221002198223846 0.42926878838971572 0 -0.13175207046494611 0.44346192959665548 0 -0.14544522351027661 0.43702334659483638 0 -0.13656638764367751 0.42782024169105087 0 -0.13656638764367751 0.42782024169105087 0 -0.12548201032280559 0.41579856094527679 0 -0.1221002198223846 0.42926878838971572 0 -0.13955083839820601 0.41331054213078378 0 -0.12548201032280559 0.41579856094527679 0 -0.1342738988421254 0.39940632656162323 0 -0.13656638764367751 0.42782024169105087 0 -0.13955083839820601 0.41331054213078378 0 -0.12548201032280559 0.41579856094527679 0 -0.1342738988421254 0.39940632656162323 0 -0.12655549565904481 0.38459039506062281 0 -0.14892453724321039 0.38998910039625528 0 -0.12655549565904481 0.38459039506062281 0 -0.14892453724321039 0.38998910039625528 0 -0.14471747201537141 0.37109278790434008 0 -0.16393263101776051 0.377811301899728 0 -0.14892453724321039 0.38998910039625528 0 -0.14471747201537141 0.37109278790434008 0 -0.1543144752154926 0.40846670546442382 0 -0.1342738988421254 0.39940632656162323 0 -0.14892453724321039 0.38998910039625528 0 -0.14165043288496271 0.34906334461799549 0 -0.15843984593516669 0.3353087962765417 0 -0.16020893970901179 0.3578896071927124 0 -0.14165043288496271 0.34906334461799549 0 -0.14471747201537141 0.37109278790434008 0 -0.16020893970901179 0.3578896071927124 0 -0.12655549565904481 0.38459039506062281 0 -0.14471747201537141 0.37109278790434008 0 -0.12710123171609961 0.3622807710251873 0 -0.14165043288496271 0.34906334461799549 0 -0.14471747201537141 0.37109278790434008 0 -0.12710123171609961 0.3622807710251873 0 -0.14165043288496271 0.34906334461799549 0 -0.12710123171609961 0.3622807710251873 0 -0.1189994847652637 0.3425748687043878 0 -0.14165043288496271 0.34906334461799549 0 -0.1315170279352865 0.33102482385584192 0 -0.1189994847652637 0.3425748687043878 0 -0.14165043288496271 0.34906334461799549 0 -0.1315170279352865 0.33102482385584192 0 -0.1443776795059328 0.33390895980560381 0 -0.1315170279352865 0.33102482385584192 0 -0.14495419486811961 0.31734813855161759 0 -0.12577302420238409 0.3093301053864293 0 -0.1315170279352865 0.33102482385584192 0 -0.14495419486811961 0.31734813855161759 0 -0.1443776795059328 0.33390895980560381 0 -0.14495419486811961 0.31734813855161759 0 -0.15843984593516669 0.3353087962765417 0 -0.16290230207748849 0.31861206890147392 0 -0.14495419486811961 0.31734813855161759 0 -0.1443776795059328 0.33390895980560381 0 -0.15843984593516669 0.3353087962765417 0 -0.14165043288496271 0.34906334461799549 0 -0.1443776795059328 0.33390895980560381 0 -0.15843984593516669 0.3353087962765417 0 -0.15843984593516669 0.3353087962765417 0 -0.17774973011518999 0.33020764546750409 0 -0.17749789925717871 0.34686132115754031 0 -0.15843984593516669 0.3353087962765417 0 -0.16290230207748849 0.31861206890147392 0 -0.17774973011518999 0.33020764546750409 0 -0.17774973011518999 0.33020764546750409 0 -0.19720201262974121 0.32662885324472202 0 -0.17861358928141469 0.31234998356939919 0 -0.16290230207748849 0.31861206890147392 0 -0.17774973011518999 0.33020764546750409 0 -0.17861358928141469 0.31234998356939919 0 -0.17774973011518999 0.33020764546750409 0 -0.17749789925717871 0.34686132115754031 0 -0.1924972983359893 0.34358046834146699 0 -0.17749789925717871 0.34686132115754031 0 -0.17738562461233581 0.36620191856746193 0 -0.1942619271162552 0.36094369023707662 0 -0.17749789925717871 0.34686132115754031 0 -0.16020893970901179 0.3578896071927124 0 -0.17738562461233581 0.36620191856746193 0 -0.15843984593516669 0.3353087962765417 0 -0.17749789925717871 0.34686132115754031 0 -0.16020893970901179 0.3578896071927124 0 -0.16393263101776051 0.377811301899728 0 -0.16020893970901179 0.3578896071927124 0 -0.17738562461233581 0.36620191856746193 0 -0.16393263101776051 0.377811301899728 0 -0.14471747201537141 0.37109278790434008 0 -0.16020893970901179 0.3578896071927124 0 -0.18047408951467989 0.38368683415264299 0 -0.17738562461233581 0.36620191856746193 0 -0.18587119209385661 0.37354081621318608 0 -0.17738562461233581 0.36620191856746193 0 -0.18587119209385661 0.37354081621318608 0 -0.1942619271162552 0.36094369023707662 0 -0.19602170663323359 0.37613550446886429 0 -0.18587119209385661 0.37354081621318608 0 -0.1942619271162552 0.36094369023707662 0 -0.2075355886729093 0.37995552166991781 0 -0.19602170663323359 0.37613550446886429 0 -0.1942619271162552 0.36094369023707662 0 -0.1942619271162552 0.36094369023707662 0 -0.2157749225615814 0.35326083160049221 0 -0.1924972983359893 0.34358046834146699 0 -0.17749789925717871 0.34686132115754031 0 -0.1942619271162552 0.36094369023707662 0 -0.1924972983359893 0.34358046834146699 0 -0.2075355886729093 0.37995552166991781 0 -0.2157749225615814 0.35326083160049221 0 -0.2075355886729093 0.37995552166991781 0 -0.2157749225615814 0.35326083160049221 0 -0.22773539588177269 0.371785806926901 0 -0.2075355886729093 0.37995552166991781 0 -0.1942619271162552 0.36094369023707662 0 -0.2157749225615814 0.35326083160049221 0 -0.2157749225615814 0.35326083160049221 0 -0.22773539588177269 0.371785806926901 0 -0.245130999697667 0.35617292401417999 0 -0.2157749225615814 0.35326083160049221 0 -0.245130999697667 0.35617292401417999 0 -0.23295058751304551 0.34252643707592823 0 -0.25008303346203908 0.33611797840414298 0 -0.245130999697667 0.35617292401417999 0 -0.23295058751304551 0.34252643707592823 0 -0.22773539588177269 0.371785806926901 0 -0.245130999697667 0.35617292401417999 0 -0.24298804513369371 0.37489662163126852 0 -0.2592717334901794 0.37344143954643821 0 -0.245130999697667 0.35617292401417999 0 -0.24298804513369371 0.37489662163126852 0 -0.25008303346203908 0.33611797840414298 0 -0.2434150889916675 0.31528126182336752 0 -0.22401425645025361 0.32656614153106639 0 -0.25008303346203908 0.33611797840414298 0 -0.23295058751304551 0.34252643707592823 0 -0.22401425645025361 0.32656614153106639 0 -0.2157749225615814 0.35326083160049221 0 -0.22401425645025361 0.32656614153106639 0 -0.2157749225615814 0.35326083160049221 0 -0.23295058751304551 0.34252643707592823 0 -0.22401425645025361 0.32656614153106639 0 -0.2434150889916675 0.31528126182336752 0 -0.22401425645025361 0.32656614153106639 0 -0.2322535903389257 0.29987145146164079 0 -0.22401425645025361 0.32656614153106639 0 -0.2322535903389257 0.29987145146164079 0 -0.22401425645025361 0.32656614153106639 0 -0.19720201262974121 0.32662885324472202 0 -0.19906220937645289 0.30981321912625731 0 -0.2157749225615814 0.35326083160049221 0 -0.22401425645025361 0.32656614153106639 0 -0.19720201262974121 0.32662885324472202 0 -0.2157749225615814 0.35326083160049221 0 -0.1924972983359893 0.34358046834146699 0 -0.19720201262974121 0.32662885324472202 0 -0.17774973011518999 0.33020764546750409 0 -0.1924972983359893 0.34358046834146699 0 -0.19720201262974121 0.32662885324472202 0 -0.19720201262974121 0.32662885324472202 0 -0.19906220937645289 0.30981321912625731 0 -0.17861358928141469 0.31234998356939919 0 -0.19906220937645289 0.30981321912625731 0 -0.19856760929965681 0.29512163553205928 0 -0.18259298835682489 0.29782857031946008 0 -0.19085311474529701 0.28244454806871849 0 -0.19856760929965681 0.29512163553205928 0 -0.18259298835682489 0.29782857031946008 0 -0.19085311474529701 0.28244454806871849 0 -0.19856760929965681 0.29512163553205928 0 -0.2071077174296316 0.28582887531117668 0 -0.2071077174296316 0.28582887531117668 0 -0.21338280024082609 0.30038413056083629 0 -0.2192288693812762 0.28355186314419151 0 -0.19856760929965681 0.29512163553205928 0 -0.2071077174296316 0.28582887531117668 0 -0.21338280024082609 0.30038413056083629 0 -0.2071077174296316 0.28582887531117668 0 -0.2192288693812762 0.28355186314419151 0 -0.2134516182061634 0.27614892865934582 0 -0.22401425645025361 0.32656614153106639 0 -0.19906220937645289 0.30981321912625731 0 -0.21338280024082609 0.30038413056083629 0 -0.19906220937645289 0.30981321912625731 0 -0.19856760929965681 0.29512163553205928 0 -0.21338280024082609 0.30038413056083629 0 -0.22401425645025361 0.32656614153106639 0 -0.21338280024082609 0.30038413056083629 0 -0.2322535903389257 0.29987145146164079 0 -0.21338280024082609 0.30038413056083629 0 -0.2322535903389257 0.29987145146164079 0 -0.2192288693812762 0.28355186314419151 0 -0.2322535903389257 0.29987145146164079 0 -0.2192288693812762 0.28355186314419151 0 -0.2404929242275981 0.27317676139221531 0 -0.2322535903389257 0.29987145146164079 0 -0.2404929242275981 0.27317676139221531 0 -0.25040582964490582 0.29567583303740069 0 -0.2322535903389257 0.29987145146164079 0 -0.2404929242275981 0.27317676139221531 0 -0.25040582964490582 0.29567583303740069 0 -0.2404929242275981 0.27317676139221531 0 -0.25040582964490582 0.29567583303740069 0 -0.2434150889916675 0.31528126182336752 0 -0.2322535903389257 0.29987145146164079 0 -0.25054816238852479 0.24059870715785611 0 -0.2546175921406465 0.26128861144859822 0 -0.24164285362834059 0.26945109504960563 0 -0.25054816238852479 0.24059870715785611 0 -0.24164285362834059 0.26945109504960563 0 -0.24164285362834059 0.26945109504960563 0 -0.23310158204141429 0.25640081827561029 0 -0.2466801300010773 0.2452604621424746 0 -0.25054816238852479 0.24059870715785611 0 -0.24164285362834059 0.26945109504960563 0 -0.2466801300010773 0.2452604621424746 0 -0.24164285362834059 0.26945109504960563 0 -0.2394572339012683 0.27082608115536438 0 -0.23310158204141429 0.25640081827561029 0 -0.2394572339012683 0.27082608115536438 0 -0.23310158204141429 0.25640081827561029 0 -0.2546175921406465 0.26128861144859822 0 -0.24164285362834059 0.26945109504960563 0 -0.25982227492027221 0.287750399741656 0 -0.24164285362834059 0.26945109504960563 0 -0.2404929242275981 0.27317676139221531 0 -0.24164285362834059 0.26945109504960563 0 -0.2404929242275981 0.27317676139221531 0 -0.24164285362834059 0.26945109504960563 0 -0.2394572339012683 0.27082608115536438 0 -0.24164285362834059 0.26945109504960563 0 -0.2404929242275981 0.27317676139221531 0 -0.2394572339012683 0.27082608115536438 0 -0.2404929242275981 0.27317676139221531 0 -0.2394572339012683 0.27082608115536438 0 -0.2192288693812762 0.28355186314419151 0 -0.2404929242275981 0.27317676139221531 0 -0.2394572339012683 0.27082608115536438 0 -0.2192288693812762 0.28355186314419151 0 -0.2394572339012683 0.27082608115536438 0 -0.2223662512991782 0.27304179816788748 0 -0.2192288693812762 0.28355186314419151 0 -0.2394572339012683 0.27082608115536438 0 -0.2394572339012683 0.27082608115536438 0 -0.2223662512991782 0.27304179816788748 0 -0.23310158204141429 0.25640081827561029 0 -0.2223662512991782 0.27304179816788748 0 -0.23310158204141429 0.25640081827561029 0 -0.2355501434136231 0.2478522206023164 0 -0.2223662512991782 0.27304179816788748 0 -0.2355501434136231 0.2478522206023164 0 -0.2223662512991782 0.27304179816788748 0 -0.222192014233517 0.25700640751059239 0 -0.2355501434136231 0.2478522206023164 0 -0.2223662512991782 0.27304179816788748 0 -0.222192014233517 0.25700640751059239 0 -0.21287289659801359 0.26516855002046552 0 -0.222192014233517 0.25700640751059239 0 -0.22222104444170529 0.2467327462878163 0 -0.2355501434136231 0.2478522206023164 0 -0.222192014233517 0.25700640751059239 0 -0.21371201764358261 0.25214650866738469 0 -0.22222104444170529 0.2467327462878163 0 -0.222192014233517 0.25700640751059239 0 -0.21371201764358261 0.25214650866738469 0 -0.21287289659801359 0.26516855002046552 0 -0.21371201764358261 0.25214650866738469 0 -0.21287289659801359 0.26516855002046552 0 -0.20206212765223941 0.25873777709478579 0 -0.21287289659801359 0.26516855002046552 0 -0.20374397774259509 0.27266482885045462 0 -0.20206212765223941 0.25873777709478579 0 -0.21371201764358261 0.25214650866738469 0 -0.20206212765223941 0.25873777709478579 0 -0.20132404028626799 0.2438270423260239 0 -0.2192288693812762 0.28355186314419151 0 -0.2223662512991782 0.27304179816788748 0 -0.2134516182061634 0.27614892865934582 0 -0.2223662512991782 0.27304179816788748 0 -0.21287289659801359 0.26516855002046552 0 -0.2134516182061634 0.27614892865934582 0 -0.21287289659801359 0.26516855002046552 0 -0.2134516182061634 0.27614892865934582 0 -0.20374397774259509 0.27266482885045462 0 -0.2071077174296316 0.28582887531117668 0 -0.2134516182061634 0.27614892865934582 0 -0.20374397774259509 0.27266482885045462 0 -0.19085311474529701 0.28244454806871849 0 -0.2071077174296316 0.28582887531117668 0 -0.20374397774259509 0.27266482885045462 0 -0.20374397774259509 0.27266482885045462 0 -0.19076826268548239 0.26827287779833747 0 -0.20206212765223941 0.25873777709478579 0 -0.19085311474529701 0.28244454806871849 0 -0.20374397774259509 0.27266482885045462 0 -0.19076826268548239 0.26827287779833747 0 -0.19076826268548239 0.26827287779833747 0 -0.20206212765223941 0.25873777709478579 0 -0.18859670902218051 0.25052543551881717 0 -0.20206212765223941 0.25873777709478579 0 -0.18859670902218051 0.25052543551881717 0 -0.20132404028626799 0.2438270423260239 0 -0.18859670902218051 0.25052543551881717 0 -0.17798103800664031 0.2589484764895198 0 -0.1765110772481347 0.2431385849621667 0 -0.19076826268548239 0.26827287779833747 0 -0.18859670902218051 0.25052543551881717 0 -0.17798103800664031 0.2589484764895198 0 -0.1593990608277665 0.26226189644582071 0 -0.1613020889038615 0.23837444865205379 0 -0.14911298171075679 0.24967097175487091 0 -0.17798103800664031 0.2589484764895198 0 -0.1593990608277665 0.26226189644582071 0 -0.1765110772481347 0.2431385849621667 0 -0.1593990608277665 0.26226189644582071 0 -0.1613020889038615 0.23837444865205379 0 -0.17798103800664031 0.2589484764895198 0 -0.1593990608277665 0.26226189644582071 0 -0.17625891120693621 0.27267786553860818 0 -0.1593990608277665 0.26226189644582071 0 -0.1625734141651913 0.27864750634068558 0 -0.17625891120693621 0.27267786553860818 0 -0.1625734141651913 0.27864750634068558 0 -0.17625891120693621 0.27267786553860818 0 -0.1759785768112396 0.28549188808856729 0 -0.19076826268548239 0.26827287779833747 0 -0.17798103800664031 0.2589484764895198 0 -0.17625891120693621 0.27267786553860818 0 -0.19085311474529701 0.28244454806871849 0 -0.19076826268548239 0.26827287779833747 0 -0.17625891120693621 0.27267786553860818 0 -0.19085311474529701 0.28244454806871849 0 -0.17625891120693621 0.27267786553860818 0 -0.1759785768112396 0.28549188808856729 0 -0.19085311474529701 0.28244454806871849 0 -0.1759785768112396 0.28549188808856729 0 -0.18259298835682489 0.29782857031946008 0 -0.1759785768112396 0.28549188808856729 0 -0.18259298835682489 0.29782857031946008 0 -0.16136995080389721 0.29864400117774398 0 -0.17861358928141469 0.31234998356939919 0 -0.18259298835682489 0.29782857031946008 0 -0.16136995080389721 0.29864400117774398 0 -0.19906220937645289 0.30981321912625731 0 -0.17861358928141469 0.31234998356939919 0 -0.18259298835682489 0.29782857031946008 0 -0.14495419486811961 0.31734813855161759 0 -0.16290230207748849 0.31861206890147392 0 -0.16136995080389721 0.29864400117774398 0 -0.16290230207748849 0.31861206890147392 0 -0.17861358928141469 0.31234998356939919 0 -0.16136995080389721 0.29864400117774398 0 -0.1625734141651913 0.27864750634068558 0 -0.16136995080389721 0.29864400117774398 0 -0.1450808597671244 0.27950790118027541 0 -0.1625734141651913 0.27864750634068558 0 -0.1759785768112396 0.28549188808856729 0 -0.16136995080389721 0.29864400117774398 0 -0.16136995080389721 0.29864400117774398 0 -0.14126992245711781 0.29947087285495883 0 -0.1450808597671244 0.27950790118027541 0 -0.14495419486811961 0.31734813855161759 0 -0.16136995080389721 0.29864400117774398 0 -0.14126992245711781 0.29947087285495883 0 -0.14126992245711781 0.29947087285495883 0 -0.12577302420238409 0.3093301053864293 0 -0.12922822593455879 0.28960894173240792 0 -0.14495419486811961 0.31734813855161759 0 -0.14126992245711781 0.29947087285495883 0 -0.12577302420238409 0.3093301053864293 0 -0.14126992245711781 0.29947087285495883 0 -0.12922822593455879 0.28960894173240792 0 -0.1450808597671244 0.27950790118027541 0 -0.12922822593455879 0.28960894173240792 0 -0.1349930010153193 0.26255216121800568 0 -0.12922822593455879 0.28960894173240792 0 -0.1349930010153193 0.26255216121800568 0 -0.1450808597671244 0.27950790118027541 0 -0.12922822593455879 0.28960894173240792 0 -0.1349930010153193 0.26255216121800568 0 -0.1154385093851408 0.26413547420137762 0 -0.1593990608277665 0.26226189644582071 0 -0.1349930010153193 0.26255216121800568 0 -0.14911298171075679 0.24967097175487091 0 -0.1593990608277665 0.26226189644582071 0 -0.1349930010153193 0.26255216121800568 0 -0.1450808597671244 0.27950790118027541 0 -0.1593990608277665 0.26226189644582071 0 -0.1625734141651913 0.27864750634068558 0 -0.1450808597671244 0.27950790118027541 0 -0.1125365884501535 0.28353815127968629 0 -0.09362037031597753 0.26527792879994888 0 -0.1125365884501535 0.28353815127968629 0 -0.093128128460342754 0.28254352657507131 0 -0.09362037031597753 0.26527792879994888 0 -0.1154385093851408 0.26413547420137762 0 -0.1125365884501535 0.28353815127968629 0 -0.09362037031597753 0.26527792879994888 0 -0.1154385093851408 0.26413547420137762 0 -0.09362037031597753 0.26527792879994888 0 -0.097135213821017974 0.2450179218164267 0 -0.1154385093851408 0.26413547420137762 0 -0.097135213821017974 0.2450179218164267 0 -0.11832329044822951 0.24304604882281969 0 -0.1349930010153193 0.26255216121800568 0 -0.1154385093851408 0.26413547420137762 0 -0.11832329044822951 0.24304604882281969 0 -0.12922822593455879 0.28960894173240792 0 -0.1154385093851408 0.26413547420137762 0 -0.1125365884501535 0.28353815127968629 0 -0.12922822593455879 0.28960894173240792 0 -0.1125365884501535 0.28353815127968629 0 -0.11715930820710339 0.29724977554595788 0 -0.1125365884501535 0.28353815127968629 0 -0.11715930820710339 0.29724977554595788 0 -0.1038404580068167 0.30398166541893579 0 -0.12577302420238409 0.3093301053864293 0 -0.1038404580068167 0.30398166541893579 0 -0.11250071635914489 0.32397018824961021 0 -0.12577302420238409 0.3093301053864293 0 -0.11715930820710339 0.29724977554595788 0 -0.1038404580068167 0.30398166541893579 0 -0.12577302420238409 0.3093301053864293 0 -0.12922822593455879 0.28960894173240792 0 -0.11715930820710339 0.29724977554595788 0 -0.1125365884501535 0.28353815127968629 0 -0.1038404580068167 0.30398166541893579 0 -0.093128128460342754 0.28254352657507131 0 -0.083140595227089928 0.29591471829194321 0 -0.093128128460342754 0.28254352657507131 0 -0.06936539161773822 0.28020753346750782 0 -0.1038404580068167 0.30398166541893579 0 -0.083140595227089928 0.29591471829194321 0 -0.093128128460342754 0.28254352657507131 0 -0.1038404580068167 0.30398166541893579 0 -0.083140595227089928 0.29591471829194321 0 -0.090988500091643998 0.31647506579520901 0 -0.083140595227089928 0.29591471829194321 0 -0.073171874186503463 0.31004866742903531 0 -0.090988500091643998 0.31647506579520901 0 -0.083140595227089928 0.29591471829194321 0 -0.073171874186503463 0.31004866742903531 0 -0.058649820332164468 0.29485946887662068 0 -0.073171874186503463 0.31004866742903531 0 -0.058649820332164468 0.29485946887662068 0 -0.056101506374375817 0.3128319137626559 0 -0.083140595227089928 0.29591471829194321 0 -0.06936539161773822 0.28020753346750782 0 -0.058649820332164468 0.29485946887662068 0 -0.06936539161773822 0.28020753346750782 0 -0.077315147936728598 0.26324091235374891 0 -0.061029816546774987 0.26105054837526498 0 -0.093128128460342754 0.28254352657507131 0 -0.09362037031597753 0.26527792879994888 0 -0.077315147936728598 0.26324091235374891 0 -0.093128128460342754 0.28254352657507131 0 -0.06936539161773822 0.28020753346750782 0 -0.077315147936728598 0.26324091235374891 0 -0.09362037031597753 0.26527792879994888 0 -0.097135213821017974 0.2450179218164267 0 -0.074704152181801681 0.24701770632021169 0 -0.09362037031597753 0.26527792879994888 0 -0.077315147936728598 0.26324091235374891 0 -0.074704152181801681 0.24701770632021169 0 -0.09362037031597753 0.26527792879994888 0 -0.074704152181801681 0.24701770632021169 0 -0.061029816546774987 0.26105054837526498 0 -0.074704152181801681 0.24701770632021169 0 -0.057747386715908428 0.24463041023760571 0 -0.077315147936728598 0.26324091235374891 0 -0.061029816546774987 0.26105054837526498 0 -0.074704152181801681 0.24701770632021169 0 -0.061029816546774987 0.26105054837526498 0 -0.03742977218140614 0.26357467527551443 0 -0.046594812073733123 0.24823599275617891 0 -0.061029816546774987 0.26105054837526498 0 -0.046594812073733123 0.24823599275617891 0 -0.057747386715908428 0.24463041023760571 0 -0.06936539161773822 0.28020753346750782 0 -0.061029816546774987 0.26105054837526498 0 -0.048476972550706023 0.27982564543664679 0 -0.061029816546774987 0.26105054837526498 0 -0.048476972550706023 0.27982564543664679 0 -0.03742977218140614 0.26357467527551443 0 -0.061029816546774987 0.26105054837526498 0 -0.048476972550706023 0.27982564543664679 0 -0.048476972550706023 0.27982564543664679 0 -0.031819983271387867 0.27999546987022927 0 -0.03742977218140614 0.26357467527551443 0 -0.03742977218140614 0.26357467527551443 0 -0.03189830216395443 0.24568919817845219 0 -0.046594812073733123 0.24823599275617891 0 -0.03742977218140614 0.26357467527551443 0 -0.020565667716041462 0.25572736355358933 0 -0.03189830216395443 0.24568919817845219 0 -0.03742977218140614 0.26357467527551443 0 -0.020565667716041462 0.25572736355358933 0 -0.022715456858953278 0.26994870387583431 0 -0.020565667716041462 0.25572736355358933 0 -0.022715456858953278 0.26994870387583431 0 -0.0080731797928139601 0.26595294531788349 0 -0.031819983271387867 0.27999546987022927 0 -0.03742977218140614 0.26357467527551443 0 -0.022715456858953278 0.26994870387583431 0 -0.031819983271387867 0.27999546987022927 0 -0.022715456858953278 0.26994870387583431 0 -0.01304989637173277 0.28246747093767138 0 -0.022715456858953278 0.26994870387583431 0 -0.0080731797928139601 0.26595294531788349 0 -0.01304989637173277 0.28246747093767138 0 -0.0080731797928139601 0.26595294531788349 0 -0.01304989637173277 0.28246747093767138 0 0.0042686616650212863 0.27440264234540929 0 -0.0080731797928139601 0.26595294531788349 0 -0.004361582131907446 0.25012675423618741 0 0.0045166499774289158 0.26107549289106269 0 -0.020565667716041462 0.25572736355358933 0 -0.0080731797928139601 0.26595294531788349 0 -0.004361582131907446 0.25012675423618741 0 -0.0025045175740335168 0.31031314766219981 0 -0.001308369768482999 0.29320410557187471 0 -0.016598711115656001 0.30159589275249321 0 -0.0025045175740335168 0.31031314766219981 0 -0.016598711115656001 0.30159589275249321 0 -0.021593132986752129 0.32003539370993961 0 -0.001308369768482999 0.29320410557187471 0 -0.01304989637173277 0.28246747093767138 0 0.0042686616650212863 0.27440264234540929 0 -0.001308369768482999 0.29320410557187471 0 -0.01304989637173277 0.28246747093767138 0 -0.016598711115656001 0.30159589275249321 0 -0.01304989637173277 0.28246747093767138 0 -0.035924128554638488 0.29860074249802943 0 -0.01304989637173277 0.28246747093767138 0 -0.016598711115656001 0.30159589275249321 0 -0.035924128554638488 0.29860074249802943 0 -0.031819983271387867 0.27999546987022927 0 -0.01304989637173277 0.28246747093767138 0 -0.035924128554638488 0.29860074249802943 0 -0.016598711115656001 0.30159589275249321 0 -0.035924128554638488 0.29860074249802943 0 -0.021593132986752129 0.32003539370993961 0 -0.035924128554638488 0.29860074249802943 0 -0.021593132986752129 0.32003539370993961 0 -0.035924128554638488 0.29860074249802943 0 -0.056101506374375817 0.3128319137626559 0 -0.035924128554638488 0.29860074249802943 0 -0.038849285662232391 0.31623083740802288 0 -0.021593132986752129 0.32003539370993961 0 -0.035924128554638488 0.29860074249802943 0 -0.056101506374375817 0.3128319137626559 0 -0.038849285662232391 0.31623083740802288 0 -0.048476972550706023 0.27982564543664679 0 -0.031819983271387867 0.27999546987022927 0 -0.035924128554638488 0.29860074249802943 0 -0.048476972550706023 0.27982564543664679 0 -0.035924128554638488 0.29860074249802943 0 -0.06936539161773822 0.28020753346750782 0 -0.048476972550706023 0.27982564543664679 0 -0.058649820332164468 0.29485946887662068 0 -0.048476972550706023 0.27982564543664679 0 -0.035924128554638488 0.29860074249802943 0 -0.058649820332164468 0.29485946887662068 0 -0.035924128554638488 0.29860074249802943 0 -0.058649820332164468 0.29485946887662068 0 -0.056101506374375817 0.3128319137626559 0 -0.056101506374375817 0.3128319137626559 0 -0.061273612338163523 0.34168082392211641 0 -0.041778374733163148 0.33345529966146709 0 -0.041778374733163148 0.33345529966146709 0 -0.038849285662232391 0.31623083740802288 0 -0.021593132986752129 0.32003539370993961 0 -0.056101506374375817 0.3128319137626559 0 -0.041778374733163148 0.33345529966146709 0 -0.038849285662232391 0.31623083740802288 0 -0.021593132986752129 0.32003539370993961 0 -0.0072621374188671052 0.34147004492185079 0 -0.026756520995263839 0.34622662442059521 0 -0.041778374733163148 0.33345529966146709 0 -0.021593132986752129 0.32003539370993961 0 -0.026756520995263839 0.34622662442059521 0 -0.021593132986752129 0.32003539370993961 0 -0.0072621374188671052 0.34147004492185079 0 -0.021593132986752129 0.32003539370993961 0 -0.0072621374188671052 0.34147004492185079 0 -0.00017254440855824261 0.32560037032276101 0 -0.0025045175740335168 0.31031314766219981 0 -0.021593132986752129 0.32003539370993961 0 -0.00017254440855824261 0.32560037032276101 0 -0.017975249263795932 0.36469023687930041 0 -0.0036227877329230301 0.37947700469323042 0 0.0070688581490178301 0.36290469613376197 0 -0.017975249263795932 0.36469023687930041 0 -0.017202423973373768 0.37968737263981228 0 -0.0036227877329230301 0.37947700469323042 0 -0.0072621374188671052 0.34147004492185079 0 0.0070688581490178301 0.36290469613376197 0 -0.0072621374188671052 0.34147004492185079 0 -0.017975249263795932 0.36469023687930041 0 0.0070688581490178301 0.36290469613376197 0 -0.0072621374188671052 0.34147004492185079 0 -0.026756520995263839 0.34622662442059521 0 -0.017975249263795932 0.36469023687930041 0 -0.026756520995263839 0.34622662442059521 0 -0.017975249263795932 0.36469023687930041 0 -0.044972299261370183 0.36017708579622421 0 -0.017975249263795932 0.36469023687930041 0 -0.044972299261370183 0.36017708579622421 0 -0.033696569954803593 0.38151106350699548 0 -0.044972299261370183 0.36017708579622421 0 -0.056355392512392112 0.37995563405969551 0 -0.033696569954803593 0.38151106350699548 0 -0.041778374733163148 0.33345529966146709 0 -0.026756520995263839 0.34622662442059521 0 -0.044972299261370183 0.36017708579622421 0 -0.061273612338163523 0.34168082392211641 0 -0.044972299261370183 0.36017708579622421 0 -0.06521228616511808 0.36405037212009378 0 -0.061273612338163523 0.34168082392211641 0 -0.041778374733163148 0.33345529966146709 0 -0.044972299261370183 0.36017708579622421 0 -0.044972299261370183 0.36017708579622421 0 -0.06521228616511808 0.36405037212009378 0 -0.056355392512392112 0.37995563405969551 0 -0.06521228616511808 0.36405037212009378 0 -0.083611302269088666 0.35468926302163939 0 -0.079848824444575958 0.38374905380079372 0 -0.083611302269088666 0.35468926302163939 0 -0.096975471326963783 0.37148378381343322 0 -0.079848824444575958 0.38374905380079372 0 -0.061273612338163523 0.34168082392211641 0 -0.06521228616511808 0.36405037212009378 0 -0.083611302269088666 0.35468926302163939 0 -0.061273612338163523 0.34168082392211641 0 -0.083611302269088666 0.35468926302163939 0 -0.076278884194113258 0.32706308502728249 0 -0.056101506374375817 0.3128319137626559 0 -0.076278884194113258 0.32706308502728249 0 -0.056101506374375817 0.3128319137626559 0 -0.061273612338163523 0.34168082392211641 0 -0.076278884194113258 0.32706308502728249 0 -0.073171874186503463 0.31004866742903531 0 -0.056101506374375817 0.3128319137626559 0 -0.076278884194113258 0.32706308502728249 0 -0.076278884194113258 0.32706308502728249 0 -0.090988500091643998 0.31647506579520901 0 -0.096998472576195746 0.33787207035444761 0 -0.073171874186503463 0.31004866742903531 0 -0.076278884194113258 0.32706308502728249 0 -0.090988500091643998 0.31647506579520901 0 -0.083611302269088666 0.35468926302163939 0 -0.076278884194113258 0.32706308502728249 0 -0.096998472576195746 0.33787207035444761 0 -0.090988500091643998 0.31647506579520901 0 -0.096998472576195746 0.33787207035444761 0 -0.11250071635914489 0.32397018824961021 0 -0.1038404580068167 0.30398166541893579 0 -0.090988500091643998 0.31647506579520901 0 -0.11250071635914489 0.32397018824961021 0 -0.1315170279352865 0.33102482385584192 0 -0.12577302420238409 0.3093301053864293 0 -0.11250071635914489 0.32397018824961021 0 -0.1315170279352865 0.33102482385584192 0 -0.11250071635914489 0.32397018824961021 0 -0.1189994847652637 0.3425748687043878 0 -0.096998472576195746 0.33787207035444761 0 -0.11250071635914489 0.32397018824961021 0 -0.1189994847652637 0.3425748687043878 0 -0.12710123171609961 0.3622807710251873 0 -0.1189994847652637 0.3425748687043878 0 -0.1089146800649551 0.3561770594294375 0 -0.12710123171609961 0.3622807710251873 0 -0.1130895959368447 0.37246627340933908 0 -0.1089146800649551 0.3561770594294375 0 -0.12655549565904481 0.38459039506062281 0 -0.12710123171609961 0.3622807710251873 0 -0.1130895959368447 0.37246627340933908 0 -0.1130895959368447 0.37246627340933908 0 -0.096975471326963783 0.37148378381343322 0 -0.1089146800649551 0.3561770594294375 0 -0.083611302269088666 0.35468926302163939 0 -0.096975471326963783 0.37148378381343322 0 -0.1089146800649551 0.3561770594294375 0 -0.096998472576195746 0.33787207035444761 0 -0.1189994847652637 0.3425748687043878 0 -0.1089146800649551 0.3561770594294375 0 -0.083611302269088666 0.35468926302163939 0 -0.096998472576195746 0.33787207035444761 0 -0.1089146800649551 0.3561770594294375 0 -0.10335637586111809 0.38776536102133979 0 -0.1122756033997336 0.40440751886529608 0 -0.092626744140319878 0.40339206391310989 0 -0.1130895959368447 0.37246627340933908 0 -0.096975471326963783 0.37148378381343322 0 -0.10335637586111809 0.38776536102133979 0 -0.12655549565904481 0.38459039506062281 0 -0.1130895959368447 0.37246627340933908 0 -0.10335637586111809 0.38776536102133979 0 -0.12655549565904481 0.38459039506062281 0 -0.10335637586111809 0.38776536102133979 0 -0.1122756033997336 0.40440751886529608 0 -0.1342738988421254 0.39940632656162323 0 -0.12655549565904481 0.38459039506062281 0 -0.1122756033997336 0.40440751886529608 0 -0.12548201032280559 0.41579856094527679 0 -0.1122756033997336 0.40440751886529608 0 -0.1104394098233438 0.42174348832390141 0 -0.12548201032280559 0.41579856094527679 0 -0.1342738988421254 0.39940632656162323 0 -0.1122756033997336 0.40440751886529608 0 -0.13175207046494611 0.44346192959665548 0 -0.1221002198223846 0.42926878838971572 0 -0.1064787913094135 0.43730588845956792 0 -0.12548201032280559 0.41579856094527679 0 -0.1104394098233438 0.42174348832390141 0 -0.1221002198223846 0.42926878838971572 0 -0.1104394098233438 0.42174348832390141 0 -0.1221002198223846 0.42926878838971572 0 -0.1064787913094135 0.43730588845956792 0 -0.1064787913094135 0.43730588845956792 0 -0.08120551215388104 0.43114984732248018 0 -0.1064787913094135 0.43730588845956792 0 -0.097026127818036836 0.42472771569137829 0 -0.08120551215388104 0.43114984732248018 0 -0.1104394098233438 0.42174348832390141 0 -0.1064787913094135 0.43730588845956792 0 -0.097026127818036836 0.42472771569137829 0 -0.1122756033997336 0.40440751886529608 0 -0.098824778170087071 0.41543684488035082 0 -0.092626744140319878 0.40339206391310989 0 -0.1122756033997336 0.40440751886529608 0 -0.1104394098233438 0.42174348832390141 0 -0.098824778170087071 0.41543684488035082 0 -0.1104394098233438 0.42174348832390141 0 -0.097026127818036836 0.42472771569137829 0 -0.098824778170087071 0.41543684488035082 0 -0.097026127818036836 0.42472771569137829 0 -0.098824778170087071 0.41543684488035082 0 -0.088182147633458732 0.41800250947059109 0 -0.088182147633458732 0.41800250947059109 0 -0.075766822878524695 0.41019172804676379 0 -0.092626744140319878 0.40339206391310989 0 -0.088182147633458732 0.41800250947059109 0 -0.08120551215388104 0.43114984732248018 0 -0.075766822878524695 0.41019172804676379 0 -0.098824778170087071 0.41543684488035082 0 -0.088182147633458732 0.41800250947059109 0 -0.092626744140319878 0.40339206391310989 0 -0.08120551215388104 0.43114984732248018 0 -0.071684821312473307 0.43663440229273398 0 -0.093222345705159748 0.44373923815992428 0 -0.097026127818036836 0.42472771569137829 0 -0.088182147633458732 0.41800250947059109 0 -0.08120551215388104 0.43114984732248018 0 -0.1064787913094135 0.43730588845956792 0 -0.08120551215388104 0.43114984732248018 0 -0.093222345705159748 0.44373923815992428 0 -0.065135249615538293 0.42231944082984091 0 -0.071684821312473307 0.43663440229273398 0 -0.055943765893954757 0.43144171565494821 0 -0.065135249615538293 0.42231944082984091 0 -0.071684821312473307 0.43663440229273398 0 -0.075766822878524695 0.41019172804676379 0 -0.08120551215388104 0.43114984732248018 0 -0.071684821312473307 0.43663440229273398 0 -0.075766822878524695 0.41019172804676379 0 -0.071684821312473307 0.43663440229273398 0 -0.055943765893954757 0.43144171565494821 0 -0.071684821312473307 0.43663440229273398 0 -0.075766822878524695 0.41019172804676379 0 -0.065135249615538293 0.42231944082984091 0 -0.075766822878524695 0.41019172804676379 0 -0.05600936231039217 0.41342904923233581 0 -0.075766822878524695 0.41019172804676379 0 -0.063299398534094969 0.39691509799282482 0 -0.05600936231039217 0.41342904923233581 0 -0.075766822878524695 0.41019172804676379 0 -0.063299398534094969 0.39691509799282482 0 -0.079848824444575958 0.38374905380079372 0 -0.075766822878524695 0.41019172804676379 0 -0.079848824444575958 0.38374905380079372 0 -0.10335637586111809 0.38776536102133979 0 -0.092626744140319878 0.40339206391310989 0 -0.079848824444575958 0.38374905380079372 0 -0.075766822878524695 0.41019172804676379 0 -0.092626744140319878 0.40339206391310989 0 -0.079848824444575958 0.38374905380079372 0 -0.096975471326963783 0.37148378381343322 0 -0.10335637586111809 0.38776536102133979 0 -0.079848824444575958 0.38374905380079372 0 -0.06521228616511808 0.36405037212009378 0 -0.079848824444575958 0.38374905380079372 0 -0.056355392512392112 0.37995563405969551 0 -0.063299398534094969 0.39691509799282482 0 -0.079848824444575958 0.38374905380079372 0 -0.056355392512392112 0.37995563405969551 0 -0.063299398534094969 0.39691509799282482 0 -0.056355392512392112 0.37995563405969551 0 -0.048516590524589932 0.3972500248245352 0 -0.063299398534094969 0.39691509799282482 0 -0.048516590524589932 0.3972500248245352 0 -0.05600936231039217 0.41342904923233581 0 -0.048516590524589932 0.3972500248245352 0 -0.032850518460687449 0.39898186447299261 0 -0.037770955976974781 0.41204834058667128 0 -0.048516590524589932 0.3972500248245352 0 -0.032850518460687449 0.39898186447299261 0 -0.033696569954803593 0.38151106350699548 0 -0.056355392512392112 0.37995563405969551 0 -0.048516590524589932 0.3972500248245352 0 -0.033696569954803593 0.38151106350699548 0 -0.017975249263795932 0.36469023687930041 0 -0.033696569954803593 0.38151106350699548 0 -0.017202423973373768 0.37968737263981228 0 -0.033696569954803593 0.38151106350699548 0 -0.017202423973373768 0.37968737263981228 0 -0.018646700241063071 0.39302480292672293 0 -0.018646700241063071 0.39302480292672293 0 -0.0081246324890641812 0.40805065625530412 0 -0.02380123978217763 0.41023834757766542 0 -0.032850518460687449 0.39898186447299261 0 -0.018646700241063071 0.39302480292672293 0 -0.02380123978217763 0.41023834757766542 0 -0.032850518460687449 0.39898186447299261 0 -0.033696569954803593 0.38151106350699548 0 -0.018646700241063071 0.39302480292672293 0 -0.018646700241063071 0.39302480292672293 0 -0.0081246324890641812 0.40805065625530412 0 0.0058412231562265226 0.39891749499975832 0 -0.018646700241063071 0.39302480292672293 0 -0.0036227877329230301 0.37947700469323042 0 0.0058412231562265226 0.39891749499975832 0 -0.017202423973373768 0.37968737263981228 0 -0.018646700241063071 0.39302480292672293 0 -0.0036227877329230301 0.37947700469323042 0 -0.0072392309157056894 0.43649428994281841 0 -0.01082192781792536 0.4212785973985777 0 -0.025245314308565012 0.42614172839533782 0 -0.0072392309157056894 0.43649428994281841 0 -0.01082192781792536 0.4212785973985777 0 0.0059488009041311612 0.41735624870114602 0 -0.0081246324890641812 0.40805065625530412 0 -0.01082192781792536 0.4212785973985777 0 -0.02380123978217763 0.41023834757766542 0 -0.0081246324890641812 0.40805065625530412 0 -0.01082192781792536 0.4212785973985777 0 0.0059488009041311612 0.41735624870114602 0 -0.02380123978217763 0.41023834757766542 0 -0.025245314308565012 0.42614172839533782 0 -0.037770955976974781 0.41204834058667128 0 -0.01082192781792536 0.4212785973985777 0 -0.02380123978217763 0.41023834757766542 0 -0.025245314308565012 0.42614172839533782 0 -0.0072392309157056894 0.43649428994281841 0 -0.025245314308565012 0.42614172839533782 0 -0.027102965719072159 0.44246949839488359 0 -0.025245314308565012 0.42614172839533782 0 -0.040202710475436512 0.4262490290171615 0 -0.027102965719072159 0.44246949839488359 0 -0.040202710475436512 0.4262490290171615 0 -0.037770955976974781 0.41204834058667128 0 -0.05600936231039217 0.41342904923233581 0 -0.032850518460687449 0.39898186447299261 0 -0.02380123978217763 0.41023834757766542 0 -0.037770955976974781 0.41204834058667128 0 -0.025245314308565012 0.42614172839533782 0 -0.040202710475436512 0.4262490290171615 0 -0.037770955976974781 0.41204834058667128 0 -0.048516590524589932 0.3972500248245352 0 -0.037770955976974781 0.41204834058667128 0 -0.05600936231039217 0.41342904923233581 0 -0.040202710475436512 0.4262490290171615 0 -0.055943765893954757 0.43144171565494821 0 -0.065135249615538293 0.42231944082984091 0 -0.05600936231039217 0.41342904923233581 0 -0.055943765893954757 0.43144171565494821 0 -0.040202710475436512 0.4262490290171615 0 -0.055943765893954757 0.43144171565494821 0 -0.044517274739645132 0.44459183642540612 0 -0.040202710475436512 0.4262490290171615 0 -0.05600936231039217 0.41342904923233581 0 -0.055943765893954757 0.43144171565494821 0 -0.058335943557526457 0.44624868987483279 0 -0.051109653666529857 0.46081922680591902 0 -0.044517274739645132 0.44459183642540612 0 -0.071684821312473307 0.43663440229273398 0 -0.055943765893954757 0.43144171565494821 0 -0.058335943557526457 0.44624868987483279 0 -0.055943765893954757 0.43144171565494821 0 -0.058335943557526457 0.44624868987483279 0 -0.044517274739645132 0.44459183642540612 0 -0.051109653666529857 0.46081922680591902 0 -0.065163583037585071 0.47887813409757868 0 -0.068424202175029258 0.45775626819515641 0 -0.058335943557526457 0.44624868987483279 0 -0.051109653666529857 0.46081922680591902 0 -0.068424202175029258 0.45775626819515641 0 -0.051109653666529857 0.46081922680591902 0 -0.032757904119458489 0.46093040696708881 0 -0.044531910374045837 0.48023148171387958 0 -0.051109653666529857 0.46081922680591902 0 -0.032757904119458489 0.46093040696708881 0 -0.044517274739645132 0.44459183642540612 0 -0.040202710475436512 0.4262490290171615 0 -0.044517274739645132 0.44459183642540612 0 -0.027102965719072159 0.44246949839488359 0 -0.032757904119458489 0.46093040696708881 0 -0.044517274739645132 0.44459183642540612 0 -0.027102965719072159 0.44246949839488359 0 -0.0072392309157056894 0.43649428994281841 0 -0.027102965719072159 0.44246949839488359 0 -0.01461213653914459 0.45725057482734738 0 -0.032757904119458489 0.46093040696708881 0 -0.027102965719072159 0.44246949839488359 0 -0.01461213653914459 0.45725057482734738 0 -0.032757904119458489 0.46093040696708881 0 -0.01461213653914459 0.45725057482734738 0 -0.02185909025790168 0.48076112241269181 0 -0.01461213653914459 0.45725057482734738 0 -0.003089566724048357 0.47326761514296101 0 0.0026031304198410629 0.45131346537392758 0 -0.0072392309157056894 0.43649428994281841 0 -0.01461213653914459 0.45725057482734738 0 0.0026031304198410629 0.45131346537392758 0 -0.0068935706251778139 0.5 0 -0.003089566724048357 0.47326761514296101 0 -0.02185909025790168 0.48076112241269181 0 -0.01461213653914459 0.45725057482734738 0 -0.003089566724048357 0.47326761514296101 0 -0.02185909025790168 0.48076112241269181 0 -0.0068935706251778139 0.5 0 -0.02185909025790168 0.48076112241269181 0 -0.034398267262659273 0.5 0 -0.02185909025790168 0.48076112241269181 0 -0.034398267262659273 0.5 0 -0.044531910374045837 0.48023148171387958 0 -0.032757904119458489 0.46093040696708881 0 -0.02185909025790168 0.48076112241269181 0 -0.044531910374045837 0.48023148171387958 0 -0.051109653666529857 0.46081922680591902 0 -0.044531910374045837 0.48023148171387958 0 -0.065163583037585071 0.47887813409757868 0 -0.044531910374045837 0.48023148171387958 0 -0.061902963900140731 0.50000000000000089 0 -0.065163583037585071 0.47887813409757868 0 -0.034398267262659273 0.5 0 -0.044531910374045837 0.48023148171387958 0 -0.061902963900140731 0.50000000000000089 0 -0.061902963900140731 0.50000000000000089 0 -0.065163583037585071 0.47887813409757868 0 -0.061902963900140731 0.50000000000000089 0 -0.077838109667281524 0.48710250329852411 0 -0.087854509421354754 0.5 0 -0.061902963900140731 0.50000000000000089 0 -0.077838109667281524 0.48710250329852411 0 -0.065163583037585071 0.47887813409757868 0 -0.077838109667281524 0.48710250329852411 0 -0.087854509421354754 0.5 0 -0.093631833857276997 0.48378290981445132 0 -0.077838109667281524 0.48710250329852411 0 -0.093631833857276997 0.48378290981445132 0 -0.080637658120050082 0.47285147258059063 0 -0.093631833857276997 0.48378290981445132 0 -0.080637658120050082 0.47285147258059063 0 -0.095304075467821936 0.46893627996427029 0 -0.080637658120050082 0.47285147258059063 0 -0.065163583037585071 0.47887813409757868 0 -0.068424202175029258 0.45775626819515641 0 -0.077838109667281524 0.48710250329852411 0 -0.080637658120050082 0.47285147258059063 0 -0.065163583037585071 0.47887813409757868 0 -0.065163583037585071 0.47887813409757868 0 -0.068424202175029258 0.45775626819515641 0 -0.068424202175029258 0.45775626819515641 0 -0.079579065155363032 0.44906004053067289 0 -0.084984891428789844 0.45811025347487683 0 -0.080637658120050082 0.47285147258059063 0 -0.068424202175029258 0.45775626819515641 0 -0.084984891428789844 0.45811025347487683 0 -0.071684821312473307 0.43663440229273398 0 -0.058335943557526457 0.44624868987483279 0 -0.068424202175029258 0.45775626819515641 0 -0.071684821312473307 0.43663440229273398 0 -0.068424202175029258 0.45775626819515641 0 -0.071684821312473307 0.43663440229273398 0 -0.068424202175029258 0.45775626819515641 0 -0.079579065155363032 0.44906004053067289 0 -0.071684821312473307 0.43663440229273398 0 -0.079579065155363032 0.44906004053067289 0 -0.093222345705159748 0.44373923815992428 0 -0.071684821312473307 0.43663440229273398 0 -0.093222345705159748 0.44373923815992428 0 -0.079579065155363032 0.44906004053067289 0 -0.093222345705159748 0.44373923815992428 0 -0.084984891428789844 0.45811025347487683 0 -0.093222345705159748 0.44373923815992428 0 -0.084984891428789844 0.45811025347487683 0 -0.099437105326258865 0.45731761566948659 0 -0.084984891428789844 0.45811025347487683 0 -0.099437105326258865 0.45731761566948659 0 -0.095304075467821936 0.46893627996427029 0 -0.080637658120050082 0.47285147258059063 0 -0.084984891428789844 0.45811025347487683 0 -0.095304075467821936 0.46893627996427029 0 -0.099437105326258865 0.45731761566948659 0 -0.10891434393167621 0.46495823272124781 0 -0.095304075467821936 0.46893627996427029 0 -0.099437105326258865 0.45731761566948659 0 -0.10891434393167621 0.46495823272124781 0 -0.11475987009784661 0.45084407402711402 0 -0.093222345705159748 0.44373923815992428 0 -0.099437105326258865 0.45731761566948659 0 -0.11475987009784661 0.45084407402711402 0 -0.1064787913094135 0.43730588845956792 0 -0.093222345705159748 0.44373923815992428 0 -0.11475987009784661 0.45084407402711402 0 -0.093222345705159748 0.44373923815992428 0 -0.11475987009784661 0.45084407402711402 0 -0.13175207046494611 0.44346192959665548 0 -0.1064787913094135 0.43730588845956792 0 -0.13175207046494611 0.44346192959665548 0 -0.1064787913094135 0.43730588845956792 0 -0.11475987009784661 0.45084407402711402 0 -0.1336307511693739 0.45491465667522191 0 -0.12544051825853689 0.4631374593356033 0 -0.11475987009784661 0.45084407402711402 0 -0.12544051825853689 0.4631374593356033 0 -0.10891434393167621 0.46495823272124781 0 -0.1136160252334053 0.47771856728300521 0 -0.12544051825853689 0.4631374593356033 0 -0.10891434393167621 0.46495823272124781 0 -0.11475987009784661 0.45084407402711402 0 -0.13298062755884579 0.48255116261061692 0 -0.12544051825853689 0.4631374593356033 0 -0.1136160252334053 0.47771856728300521 0 -0.13298062755884579 0.48255116261061692 0 -0.1058458182692171 0.49480807365413371 0 -0.13298062755884579 0.48255116261061692 0 -0.11380605494256869 0.5 0 -0.1058458182692171 0.49480807365413371 0 -0.13298062755884579 0.48255116261061692 0 -0.1136160252334053 0.47771856728300521 0 -0.1058458182692171 0.49480807365413371 0 -0.087854509421354754 0.5 0 -0.11380605494256869 0.5 0 -0.1058458182692171 0.49480807365413371 0 -0.087854509421354754 0.5 0 -0.093631833857276997 0.48378290981445132 0 -0.1058458182692171 0.49480807365413371 0 -0.1136160252334053 0.47771856728300521 0 -0.1058458182692171 0.49480807365413371 0 -0.1043559736166358 0.48381945471134902 0 -0.093631833857276997 0.48378290981445132 0 -0.1058458182692171 0.49480807365413371 0 -0.1043559736166358 0.48381945471134902 0 -0.093631833857276997 0.48378290981445132 0 -0.1048057889081305 0.47442420204765762 0 -0.1043559736166358 0.48381945471134902 0 -0.093631833857276997 0.48378290981445132 0 -0.095304075467821936 0.46893627996427029 0 -0.1048057889081305 0.47442420204765762 0 -0.10891434393167621 0.46495823272124781 0 -0.1136160252334053 0.47771856728300521 0 -0.1048057889081305 0.47442420204765762 0 -0.10891434393167621 0.46495823272124781 0 -0.095304075467821936 0.46893627996427029 0 -0.1048057889081305 0.47442420204765762 0 -0.1136160252334053 0.47771856728300521 0 -0.1048057889081305 0.47442420204765762 0 -0.1043559736166358 0.48381945471134902 0 -0.16372231175516949 0.08442819848465731 0 -0.15093626356447659 0.087069345181943508 0 -0.15518952671466241 0.069788713381716036 0 -0.16372231175516949 0.08442819848465731 0 -0.1756345505012066 0.070889783495268699 0 -0.1751333004977583 0.097143888168289519 0 -0.16372231175516949 0.08442819848465731 0 -0.1751333004977583 0.097143888168289519 0 -0.16171791749774381 0.097249262196068775 0 -0.16372231175516949 0.08442819848465731 0 -0.16171791749774381 0.097249262196068775 0 -0.15093626356447659 0.087069345181943508 0 -0.16372231175516949 0.08442819848465731 0 -0.1756345505012066 0.070889783495268699 0 -0.15518952671466241 0.069788713381716036 0 -0.1756345505012066 0.070889783495268699 0 -0.15518952671466241 0.069788713381716036 0 -0.16223695238926561 0.052594200190125132 0 -0.1756345505012066 0.070889783495268699 0 -0.19053419445951161 0.052610770621845292 0 -0.19612483249420401 0.068091746174319415 0 -0.1756345505012066 0.070889783495268699 0 -0.18871947576181089 0.093673214670465021 0 -0.19612483249420401 0.068091746174319415 0 -0.1756345505012066 0.070889783495268699 0 -0.1751333004977583 0.097143888168289519 0 -0.1756345505012066 0.070889783495268699 0 -0.1751333004977583 0.097143888168289519 0 -0.18871947576181089 0.093673214670465021 0 -0.18131411902941769 0.11925468316661041 0 -0.18871947576181089 0.093673214670465021 0 -0.1751333004977583 0.097143888168289519 0 -0.18131411902941769 0.11925468316661041 0 -0.18871947576181089 0.093673214670465021 0 -0.1751333004977583 0.097143888168289519 0 -0.17463205049430791 0.1233979928413103 0 -0.18131411902941769 0.11925468316661041 0 -0.17463205049430791 0.1233979928413103 0 -0.19892457962824481 0.1205653340059829 0 -0.17463205049430791 0.1233979928413103 0 -0.19892457962824481 0.1205653340059829 0 -0.18530606321329801 0.12949084902847491 0 -0.1751333004977583 0.097143888168289519 0 -0.18131411902941769 0.11925468316661041 0 -0.17463205049430791 0.1233979928413103 0 -0.17463205049430791 0.1233979928413103 0 -0.19892457962824481 0.1205653340059829 0 -0.1751333004977583 0.097143888168289519 0 -0.17463205049430791 0.1233979928413103 0 -0.165591889364022 0.1100935584672583 0 -0.17463205049430791 0.1233979928413103 0 -0.1598554046101329 0.12512104095579701 0 -0.17463205049430791 0.1233979928413103 0 -0.16396547557359309 0.1179523604009539 0 -0.1598554046101329 0.12512104095579701 0 -0.17463205049430791 0.1233979928413103 0 -0.165591889364022 0.1100935584672583 0 -0.16396547557359309 0.1179523604009539 0 -0.165591889364022 0.1100935584672583 0 -0.16396547557359309 0.1179523604009539 0 -0.1557825578259103 0.11319684933944919 0 -0.16396547557359309 0.1179523604009539 0 -0.1557825578259103 0.11319684933944919 0 -0.1598554046101329 0.12512104095579701 0 -0.1751333004977583 0.097143888168289519 0 -0.165591889364022 0.1100935584672583 0 -0.16171791749774381 0.097249262196068775 0 -0.165591889364022 0.1100935584672583 0 -0.1513048045227823 0.10252569531319269 0 -0.1557825578259103 0.11319684933944919 0 -0.165591889364022 0.1100935584672583 0 -0.16171791749774381 0.097249262196068775 0 -0.1513048045227823 0.10252569531319269 0 -0.1513048045227823 0.10252569531319269 0 -0.1355182161913136 0.10914070680675041 0 -0.13964798444238999 0.092855372928561969 0 -0.16171791749774381 0.097249262196068775 0 -0.1513048045227823 0.10252569531319269 0 -0.15093626356447659 0.087069345181943508 0 -0.1513048045227823 0.10252569531319269 0 -0.1557825578259103 0.11319684933944919 0 -0.1355182161913136 0.10914070680675041 0 -0.1513048045227823 0.10252569531319269 0 -0.13964798444238999 0.092855372928561969 0 -0.15093626356447659 0.087069345181943508 0 -0.1557825578259103 0.11319684933944919 0 -0.1355182161913136 0.10914070680675041 0 -0.1598554046101329 0.12512104095579701 0 -0.1355182161913136 0.10914070680675041 0 -0.1598554046101329 0.12512104095579701 0 -0.14280445220814469 0.1192500300409249 0 -0.1598554046101329 0.12512104095579701 0 -0.13922952195075211 0.12752614618091959 0 -0.14280445220814469 0.1192500300409249 0 -0.1355182161913136 0.10914070680675041 0 -0.1598554046101329 0.12512104095579701 0 -0.13074244959953979 0.11946175785799951 0 -0.1355182161913136 0.10914070680675041 0 -0.123743476780604 0.10140915347104661 0 -0.14280445220814469 0.1192500300409249 0 -0.13074244959953979 0.11946175785799951 0 -0.13922952195075211 0.12752614618091959 0 -0.14280445220814469 0.1192500300409249 0 -0.1355182161913136 0.10914070680675041 0 -0.14280445220814469 0.1192500300409249 0 -0.13074244959953979 0.11946175785799951 0 -0.1355182161913136 0.10914070680675041 0 -0.1355182161913136 0.10914070680675041 0 -0.12576525993317081 0.095608920700106598 0 -0.13964798444238999 0.092855372928561969 0 -0.1355182161913136 0.10914070680675041 0 -0.12576525993317081 0.095608920700106598 0 -0.1355182161913136 0.10914070680675041 0 -0.12576525993317081 0.095608920700106598 0 -0.123743476780604 0.10140915347104661 0 -0.1355182161913136 0.10914070680675041 0 -0.123743476780604 0.10140915347104661 0 -0.12576525993317081 0.095608920700106598 0 -0.13964798444238999 0.092855372928561969 0 -0.13471537800020611 0.069932196640817734 0 -0.12576525993317081 0.095608920700106598 0 -0.13471537800020611 0.069932196640817734 0 -0.1158200249735767 0.081810356583590621 0 -0.12576525993317081 0.095608920700106598 0 -0.13471537800020611 0.069932196640817734 0 -0.13964798444238999 0.092855372928561969 0 -0.15093626356447659 0.087069345181943508 0 -0.13471537800020611 0.069932196640817734 0 -0.15093626356447659 0.087069345181943508 0 -0.15518952671466241 0.069788713381716036 0 -0.13471537800020611 0.069932196640817734 0 -0.13471537800020611 0.069932196640817734 0 -0.12657932631233151 0.049909814768299969 0 -0.1143187324205953 0.061132814960732959 0 -0.13471537800020611 0.069932196640817734 0 -0.14366549606724091 0.044255472581528732 0 -0.13471537800020611 0.069932196640817734 0 -0.12657932631233151 0.049909814768299969 0 -0.14366549606724091 0.044255472581528732 0 -0.12657932631233151 0.049909814768299969 0 -0.1284208098020175 0.033179877632891097 0 -0.14366549606724091 0.044255472581528732 0 -0.1284208098020175 0.033179877632891097 0 -0.14366549606724091 0.044255472581528732 0 -0.1467564914265658 0.025061264112791169 0 -0.14366549606724091 0.044255472581528732 0 -0.16223695238926561 0.052594200190125132 0 -0.1605593881585633 0.033401352669864208 0 -0.14366549606724091 0.044255472581528732 0 -0.1467564914265658 0.025061264112791169 0 -0.1605593881585633 0.033401352669864208 0 -0.15518952671466241 0.069788713381716036 0 -0.13471537800020611 0.069932196640817734 0 -0.14366549606724091 0.044255472581528732 0 -0.15518952671466241 0.069788713381716036 0 -0.14366549606724091 0.044255472581528732 0 -0.16223695238926561 0.052594200190125132 0 -0.13137048688310951 -0.003337023478303953 0 -0.13460564055411489 0.01723703355858653 0 -0.11131614731463491 0.019777731715017489 0 -0.13137048688310951 -0.003337023478303953 0 -0.13460564055411489 0.01723703355858653 0 -0.1433170204333889 0.0042533116210359059 0 -0.13137048688310951 -0.003337023478303953 0 -0.1433170204333889 0.0042533116210359059 0 -0.1284208098020175 0.033179877632891097 0 -0.13460564055411489 0.01723703355858653 0 -0.1467564914265658 0.025061264112791169 0 -0.13460564055411489 0.01723703355858653 0 -0.1467564914265658 0.025061264112791169 0 -0.15542372099760421 0.0119454102405231 0 -0.1467564914265658 0.025061264112791169 0 -0.15542372099760421 0.0119454102405231 0 -0.1605593881585633 0.033401352669864208 0 -0.13460564055411489 0.01723703355858653 0 -0.15542372099760421 0.0119454102405231 0 -0.1433170204333889 0.0042533116210359059 0 -0.15542372099760421 0.0119454102405231 0 -0.1433170204333889 0.0042533116210359059 0 -0.1564869492866878 -0.00059129627401754796 0 -0.15542372099760421 0.0119454102405231 0 -0.1433170204333889 0.0042533116210359059 0 -0.15542372099760421 0.0119454102405231 0 -0.17947695511209899 0.027227843959349921 0 -0.17208342559322409 0.0058404778805985873 0 -0.1564869492866878 -0.00059129627401754796 0 -0.15542372099760421 0.0119454102405231 0 -0.17208342559322409 0.0058404778805985873 0 -0.15542372099760421 0.0119454102405231 0 -0.17947695511209899 0.027227843959349921 0 -0.1605593881585633 0.033401352669864208 0 -0.15542372099760421 0.0119454102405231 0 -0.17947695511209899 0.027227843959349921 0 -0.18418091461086311 -0.0067458590849352237 0 -0.17208342559322409 0.0058404778805985873 0 -0.19246094727398991 0.01350162855121731 0 -0.17947695511209899 0.027227843959349921 0 -0.17208342559322409 0.0058404778805985873 0 -0.19246094727398991 0.01350162855121731 0 -0.1756345505012066 0.070889783495268699 0 -0.16223695238926561 0.052594200190125132 0 -0.17613580050465499 0.044635678822247941 0 -0.16223695238926561 0.052594200190125132 0 -0.1605593881585633 0.033401352669864208 0 -0.17613580050465499 0.044635678822247941 0 -0.17947695511209899 0.027227843959349921 0 -0.17613580050465499 0.044635678822247941 0 -0.19053419445951161 0.052610770621845292 0 -0.17947695511209899 0.027227843959349921 0 -0.1605593881585633 0.033401352669864208 0 -0.17613580050465499 0.044635678822247941 0 -0.1756345505012066 0.070889783495268699 0 -0.17613580050465499 0.044635678822247941 0 -0.1756345505012066 0.070889783495268699 0 -0.17613580050465499 0.044635678822247941 0 -0.19053419445951161 0.052610770621845292 0 -0.20353018922659619 0.042510277678173593 0 -0.19612483249420401 0.068091746174319415 0 -0.19053419445951161 0.052610770621845292 0 -0.20353018922659619 0.042510277678173593 0 -0.19612483249420401 0.068091746174319415 0 -0.17947695511209899 0.027227843959349921 0 -0.20353018922659619 0.042510277678173593 0 -0.17947695511209899 0.027227843959349921 0 -0.19053419445951161 0.052610770621845292 0 -0.20353018922659619 0.042510277678173593 0 -0.20353018922659619 0.042510277678173593 0 -0.21955159654467851 0.052689619643397433 0 -0.22113039192623851 0.032431486205985689 0 -0.20353018922659619 0.042510277678173593 0 -0.2127216369241372 0.066942535097736622 0 -0.19612483249420401 0.068091746174319415 0 -0.20353018922659619 0.042510277678173593 0 -0.21955159654467851 0.052689619643397433 0 -0.20353018922659619 0.042510277678173593 0 -0.21955159654467851 0.052689619643397433 0 -0.2127216369241372 0.066942535097736622 0 -0.2008908429601583 -0.001101000049535744 0 -0.19246094727398991 0.01350162855121731 0 -0.21117588750041991 0.016098560242972841 0 -0.18418091461086311 -0.0067458590849352237 0 -0.2008908429601583 -0.001101000049535744 0 -0.19246094727398991 0.01350162855121731 0 -0.17947695511209899 0.027227843959349921 0 -0.20353018922659619 0.042510277678173593 0 -0.19246094727398991 0.01350162855121731 0 -0.20353018922659619 0.042510277678173593 0 -0.19246094727398991 0.01350162855121731 0 -0.21117588750041991 0.016098560242972841 0 -0.20353018922659619 0.042510277678173593 0 -0.21117588750041991 0.016098560242972841 0 -0.22113039192623851 0.032431486205985689 0 -0.20353018922659619 0.042510277678173593 0 -0.21117588750041991 0.016098560242972841 0 -0.21882158577424271 -0.0103131571922281 0 -0.21117588750041991 0.016098560242972841 0 -0.2008908429601583 -0.001101000049535744 0 -0.21882158577424271 -0.0103131571922281 0 -0.21117588750041991 0.016098560242972841 0 -0.21882158577424271 -0.0103131571922281 0 -0.21117588750041991 0.016098560242972841 0 -0.23546354233931949 0.0078270751002715265 0 -0.23546354233931949 0.0078270751002715265 0 -0.22113039192623851 0.032431486205985689 0 -0.24192231969137759 0.032530148466345048 0 -0.21117588750041991 0.016098560242972841 0 -0.23546354233931949 0.0078270751002715265 0 -0.22113039192623851 0.032431486205985689 0 -0.26249405175029211 0.007662734938978108 0 -0.23546354233931949 0.0078270751002715265 0 -0.24192231969137759 0.032530148466345048 0 -0.21955159654467851 0.052689619643397433 0 -0.235573003862763 0.062868961608618018 0 -0.21955159654467851 0.052689619643397433 0 -0.235573003862763 0.062868961608618018 0 -0.2127216369241372 0.066942535097736622 0 -0.21955159654467851 0.052689619643397433 0 -0.24450296286368231 0.049373315754277197 0 -0.235573003862763 0.062868961608618018 0 -0.21955159654467851 0.052689619643397433 0 -0.22113039192623851 0.032431486205985689 0 -0.24192231969137759 0.032530148466345048 0 -0.21955159654467851 0.052689619643397433 0 -0.24192231969137759 0.032530148466345048 0 -0.24450296286368231 0.049373315754277197 0 -0.2559826395353394 0.061597363551489349 0 -0.24450296286368231 0.049373315754277197 0 -0.235573003862763 0.062868961608618018 0 -0.2559826395353394 0.061597363551489349 0 -0.235573003862763 0.062868961608618018 0 -0.24672703352553629 0.080158677613093823 0 -0.235573003862763 0.062868961608618018 0 -0.24672703352553629 0.080158677613093823 0 -0.2291931736768115 0.079240865998811236 0 -0.24672703352553629 0.080158677613093823 0 -0.2291931736768115 0.079240865998811236 0 -0.23621836434907981 0.095400964388867249 0 -0.25734245126200062 0.1014160866788785 0 -0.24672703352553629 0.080158677613093823 0 -0.23621836434907981 0.095400964388867249 0 -0.2291931736768115 0.079240865998811236 0 -0.21482055865464289 0.083254774020096164 0 -0.2224133943648228 0.095863443882093446 0 -0.2291931736768115 0.079240865998811236 0 -0.2224133943648228 0.095863443882093446 0 -0.23621836434907981 0.095400964388867249 0 -0.235573003862763 0.062868961608618018 0 -0.2291931736768115 0.079240865998811236 0 -0.2127216369241372 0.066942535097736622 0 -0.2291931736768115 0.079240865998811236 0 -0.2127216369241372 0.066942535097736622 0 -0.21482055865464289 0.083254774020096164 0 -0.2127216369241372 0.066942535097736622 0 -0.21482055865464289 0.083254774020096164 0 -0.203099952488771 0.082051867707200909 0 -0.2127216369241372 0.066942535097736622 0 -0.203099952488771 0.082051867707200909 0 -0.19612483249420401 0.068091746174319415 0 -0.21482055865464289 0.083254774020096164 0 -0.203099952488771 0.082051867707200909 0 -0.20375886312158339 0.098403164090322431 0 -0.21482055865464289 0.083254774020096164 0 -0.20375886312158339 0.098403164090322431 0 -0.2224133943648228 0.095863443882093446 0 -0.203099952488771 0.082051867707200909 0 -0.18871947576181089 0.093673214670465021 0 -0.19612483249420401 0.068091746174319415 0 -0.203099952488771 0.082051867707200909 0 -0.18871947576181089 0.093673214670465021 0 -0.20375886312158339 0.098403164090322431 0 -0.18871947576181089 0.093673214670465021 0 -0.19612483249420401 0.068091746174319415 0 -0.18131411902941769 0.11925468316661041 0 -0.19892457962824481 0.1205653340059829 0 -0.19516396372389291 0.10855896077987801 0 -0.19892457962824481 0.1205653340059829 0 -0.19516396372389291 0.10855896077987801 0 -0.2064149638336307 0.1103678524700213 0 -0.18131411902941769 0.11925468316661041 0 -0.18871947576181089 0.093673214670465021 0 -0.19516396372389291 0.10855896077987801 0 -0.18871947576181089 0.093673214670465021 0 -0.19516396372389291 0.10855896077987801 0 -0.20375886312158339 0.098403164090322431 0 -0.19516396372389291 0.10855896077987801 0 -0.20375886312158339 0.098403164090322431 0 -0.2064149638336307 0.1103678524700213 0 -0.20375886312158339 0.098403164090322431 0 -0.21522430961498251 0.1066047727861448 0 -0.2064149638336307 0.1103678524700213 0 -0.20375886312158339 0.098403164090322431 0 -0.21522430961498251 0.1066047727861448 0 -0.2224133943648228 0.095863443882093446 0 -0.19892457962824481 0.1205653340059829 0 -0.2064149638336307 0.1103678524700213 0 -0.22321710876218179 0.117732675170656 0 -0.19892457962824481 0.1205653340059829 0 -0.22321710876218179 0.117732675170656 0 -0.21198243415042209 0.1273270768851994 0 -0.19892457962824481 0.1205653340059829 0 -0.22321710876218179 0.117732675170656 0 -0.21522430961498251 0.1066047727861448 0 -0.2064149638336307 0.1103678524700213 0 -0.22321710876218179 0.117732675170656 0 -0.22321710876218179 0.117732675170656 0 -0.22699489982736379 0.11729216141517949 0 -0.22321710876218179 0.117732675170656 0 -0.22699489982736379 0.11729216141517949 0 -0.22407622611686431 0.1086811689817279 0 -0.21522430961498251 0.1066047727861448 0 -0.22321710876218179 0.117732675170656 0 -0.21522430961498251 0.1066047727861448 0 -0.22321710876218179 0.117732675170656 0 -0.22407622611686431 0.1086811689817279 0 -0.22699489982736379 0.11729216141517949 0 -0.22407622611686431 0.1086811689817279 0 -0.23779668997176759 0.1099640720218579 0 -0.21522430961498251 0.1066047727861448 0 -0.2224133943648228 0.095863443882093446 0 -0.22407622611686431 0.1086811689817279 0 -0.22407622611686431 0.1086811689817279 0 -0.23621836434907981 0.095400964388867249 0 -0.23779668997176759 0.1099640720218579 0 -0.2224133943648228 0.095863443882093446 0 -0.22407622611686431 0.1086811689817279 0 -0.23621836434907981 0.095400964388867249 0 -0.25734245126200062 0.1014160866788785 0 -0.23621836434907981 0.095400964388867249 0 -0.23779668997176759 0.1099640720218579 0 -0.25734245126200062 0.1014160866788785 0 -0.23779668997176759 0.1099640720218579 0 -0.24895710550971339 0.12165530893482571 0 -0.2385801137665676 0.122701518390659 0 -0.23779668997176759 0.1099640720218579 0 -0.24895710550971339 0.12165530893482571 0 -0.22699489982736379 0.11729216141517949 0 -0.2385801137665676 0.122701518390659 0 -0.23779668997176759 0.1099640720218579 0 -0.22699489982736379 0.11729216141517949 0 -0.2385801137665676 0.122701518390659 0 -0.2405717597574257 0.1418945311907728 0 -0.2385801137665676 0.122701518390659 0 -0.24895710550971339 0.12165530893482571 0 -0.2405717597574257 0.1418945311907728 0 -0.25608290515330878 0.14176455504424121 0 -0.24895710550971339 0.12165530893482571 0 -0.2405717597574257 0.1418945311907728 0 -0.24895710550971339 0.12165530893482571 0 -0.2405717597574257 0.1418945311907728 0 -0.22321710876218179 0.117732675170656 0 -0.22354757195218369 0.13155214617265881 0 -0.2405717597574257 0.1418945311907728 0 -0.22321710876218179 0.117732675170656 0 -0.22699489982736379 0.11729216141517949 0 -0.2405717597574257 0.1418945311907728 0 -0.22321710876218179 0.117732675170656 0 -0.2405717597574257 0.1418945311907728 0 -0.22354757195218369 0.13155214617265881 0 -0.22866128532361621 0.14153149423513051 0 -0.2405717597574257 0.1418945311907728 0 -0.21878746546912231 0.1392010645796998 0 -0.22354757195218369 0.13155214617265881 0 -0.22866128532361621 0.14153149423513051 0 -0.21878746546912231 0.1392010645796998 0 -0.22354757195218369 0.13155214617265881 0 -0.2159650745918322 0.13357921232561451 0 -0.22321710876218179 0.117732675170656 0 -0.22354757195218369 0.13155214617265881 0 -0.21198243415042209 0.1273270768851994 0 -0.22866128532361621 0.14153149423513051 0 -0.2405717597574257 0.1418945311907728 0 -0.23379856030635021 0.15824260950785349 0 -0.2220979066771098 0.14976549412664819 0 -0.22866128532361621 0.14153149423513051 0 -0.23379856030635021 0.15824260950785349 0 -0.2220979066771098 0.14976549412664819 0 -0.23379856030635021 0.15824260950785349 0 -0.21909321543322929 0.1606009590281276 0 -0.21878746546912231 0.1392010645796998 0 -0.2220979066771098 0.14976549412664819 0 -0.22866128532361621 0.14153149423513051 0 -0.25072842261960387 0.15603505327837411 0 -0.2405717597574257 0.1418945311907728 0 -0.23379856030635021 0.15824260950785349 0 -0.2405717597574257 0.1418945311907728 0 -0.23379856030635021 0.15824260950785349 0 -0.25072842261960387 0.15603505327837411 0 -0.25608290515330878 0.14176455504424121 0 -0.2405717597574257 0.1418945311907728 0 -0.25072842261960387 0.15603505327837411 0 -0.2405717597574257 0.1418945311907728 0 -0.24346313069296871 0.16633892637512099 0 -0.22702536085527411 0.17459068782493389 0 -0.23379856030635021 0.15824260950785349 0 -0.25072842261960387 0.15603505327837411 0 -0.24346313069296871 0.16633892637512099 0 -0.23379856030635021 0.15824260950785349 0 -0.24593749817207319 0.17922101447869401 0 -0.22702536085527411 0.17459068782493389 0 -0.23531355475386351 0.19206411553567329 0 -0.24346313069296871 0.16633892637512099 0 -0.24593749817207319 0.17922101447869401 0 -0.22702536085527411 0.17459068782493389 0 -0.22702536085527411 0.17459068782493389 0 -0.23531355475386351 0.19206411553567329 0 -0.21668486691279551 0.1896349297876268 0 -0.22702536085527411 0.17459068782493389 0 -0.21909321543322929 0.1606009590281276 0 -0.21078083849551829 0.1734645188772713 0 -0.22702536085527411 0.17459068782493389 0 -0.23379856030635021 0.15824260950785349 0 -0.22702536085527411 0.17459068782493389 0 -0.23379856030635021 0.15824260950785349 0 -0.21909321543322929 0.1606009590281276 0 -0.21909321543322929 0.1606009590281276 0 -0.20917883787537819 0.16210322782447459 0 -0.21014900685323101 0.14925134328242939 0 -0.21909321543322929 0.1606009590281276 0 -0.20917883787537819 0.16210322782447459 0 -0.21078083849551829 0.1734645188772713 0 -0.20917883787537819 0.16210322782447459 0 -0.21078083849551829 0.1734645188772713 0 -0.19690649474481761 0.16930016240990661 0 -0.22702536085527411 0.17459068782493389 0 -0.21078083849551829 0.1734645188772713 0 -0.21668486691279551 0.1896349297876268 0 -0.21078083849551829 0.1734645188772713 0 -0.21668486691279551 0.1896349297876268 0 -0.19675568901559279 0.189567439062066 0 -0.21078083849551829 0.1734645188772713 0 -0.19690649474481761 0.16930016240990661 0 -0.19675568901559279 0.189567439062066 0 -0.19690649474481761 0.16930016240990661 0 -0.19675568901559279 0.189567439062066 0 -0.1806498087268969 0.1809583004820513 0 -0.20917883787537819 0.16210322782447459 0 -0.20149615309500679 0.15718250099910261 0 -0.19690649474481761 0.16930016240990661 0 -0.20149615309500679 0.15718250099910261 0 -0.19690649474481761 0.16930016240990661 0 -0.1900737238031488 0.15648625425656729 0 -0.19690649474481761 0.16930016240990661 0 -0.1900737238031488 0.15648625425656729 0 -0.18329050548046091 0.16641049957591181 0 -0.1900737238031488 0.15648625425656729 0 -0.1892816596668532 0.14729824464464031 0 -0.18348409084234379 0.15060627553684849 0 -0.1900737238031488 0.15648625425656729 0 -0.19814782504055481 0.14911065488519101 0 -0.1892816596668532 0.14729824464464031 0 -0.20149615309500679 0.15718250099910261 0 -0.1900737238031488 0.15648625425656729 0 -0.19814782504055481 0.14911065488519101 0 -0.19814782504055481 0.14911065488519101 0 -0.2022681758196824 0.14167303138421811 0 -0.1943649823155553 0.141902467696427 0 -0.19814782504055481 0.14911065488519101 0 -0.1943649823155553 0.141902467696427 0 -0.1892816596668532 0.14729824464464031 0 -0.1943649823155553 0.141902467696427 0 -0.1892816596668532 0.14729824464464031 0 -0.18843187665971381 0.14117764216521481 0 -0.1943649823155553 0.141902467696427 0 -0.18843187665971381 0.14117764216521481 0 -0.1909929067815555 0.135001194222511 0 -0.18843187665971381 0.14117764216521481 0 -0.1909929067815555 0.135001194222511 0 -0.18421136551585299 0.13733957154214979 0 -0.19892457962824481 0.1205653340059829 0 -0.1909929067815555 0.135001194222511 0 -0.18530606321329801 0.12949084902847491 0 -0.19892457962824481 0.1205653340059829 0 -0.1909929067815555 0.135001194222511 0 -0.20124287374027899 0.13384974139548031 0 -0.2022681758196824 0.14167303138421811 0 -0.1943649823155553 0.141902467696427 0 -0.20124287374027899 0.13384974139548031 0 -0.1943649823155553 0.141902467696427 0 -0.1909929067815555 0.135001194222511 0 -0.20124287374027899 0.13384974139548031 0 -0.2022681758196824 0.14167303138421811 0 -0.20124287374027899 0.13384974139548031 0 -0.20954282679560091 0.1362365616649002 0 -0.20124287374027899 0.13384974139548031 0 -0.20954282679560091 0.1362365616649002 0 -0.21198243415042209 0.1273270768851994 0 -0.19892457962824481 0.1205653340059829 0 -0.20124287374027899 0.13384974139548031 0 -0.21198243415042209 0.1273270768851994 0 -0.22354757195218369 0.13155214617265881 0 -0.21198243415042209 0.1273270768851994 0 -0.2159650745918322 0.13357921232561451 0 -0.20954282679560091 0.1362365616649002 0 -0.21198243415042209 0.1273270768851994 0 -0.2159650745918322 0.13357921232561451 0 -0.21878746546912231 0.1392010645796998 0 -0.20954282679560091 0.1362365616649002 0 -0.2159650745918322 0.13357921232561451 0 -0.21878746546912231 0.1392010645796998 0 -0.2220979066771098 0.14976549412664819 0 -0.21014900685323101 0.14925134328242939 0 -0.21878746546912231 0.1392010645796998 0 -0.20954282679560091 0.1362365616649002 0 -0.21014900685323101 0.14925134328242939 0 -0.2220979066771098 0.14976549412664819 0 -0.21909321543322929 0.1606009590281276 0 -0.21014900685323101 0.14925134328242939 0 -0.20149615309500679 0.15718250099910261 0 -0.19814782504055481 0.14911065488519101 0 -0.21014900685323101 0.14925134328242939 0 -0.20917883787537819 0.16210322782447459 0 -0.20149615309500679 0.15718250099910261 0 -0.21014900685323101 0.14925134328242939 0 -0.19814782504055481 0.14911065488519101 0 -0.2022681758196824 0.14167303138421811 0 -0.21014900685323101 0.14925134328242939 0 -0.2022681758196824 0.14167303138421811 0 -0.20954282679560091 0.1362365616649002 0 -0.21014900685323101 0.14925134328242939 0 -0.2254770662958033 0.23770261769940551 0 -0.2355501434136231 0.2478522206023164 0 -0.23301571208005251 0.22631711136445781 0 -0.2254770662958033 0.23770261769940551 0 -0.21946187770755399 0.2272335662722752 0 -0.2144294763495698 0.23954399660221651 0 -0.22222104444170529 0.2467327462878163 0 -0.2254770662958033 0.23770261769940551 0 -0.2144294763495698 0.23954399660221651 0 -0.22222104444170529 0.2467327462878163 0 -0.2254770662958033 0.23770261769940551 0 -0.2355501434136231 0.2478522206023164 0 -0.25210514226647263 0.23555423440704959 0 -0.2355501434136231 0.2478522206023164 0 -0.2466801300010773 0.2452604621424746 0 -0.2355501434136231 0.2478522206023164 0 -0.248734035528067 0.22266264303674471 0 -0.25210514226647263 0.23555423440704959 0 -0.2355501434136231 0.2478522206023164 0 -0.248734035528067 0.22266264303674471 0 -0.23310158204141429 0.25640081827561029 0 -0.2355501434136231 0.2478522206023164 0 -0.2466801300010773 0.2452604621424746 0 -0.25210514226647263 0.23555423440704959 0 -0.2466801300010773 0.2452604621424746 0 -0.25054816238852479 0.24059870715785611 0 -0.25210514226647263 0.23555423440704959 0 -0.2466801300010773 0.2452604621424746 0 -0.25272816581491458 0.21503132644266379 0 -0.23589780562791721 0.22466705357138941 0 -0.2355501434136231 0.2478522206023164 0 -0.23589780562791721 0.22466705357138941 0 -0.23301571208005251 0.22631711136445781 0 -0.2355501434136231 0.2478522206023164 0 -0.248734035528067 0.22266264303674471 0 -0.23589780562791721 0.22466705357138941 0 -0.25272816581491458 0.21503132644266379 0 -0.248734035528067 0.22266264303674471 0 -0.23589780562791721 0.22466705357138941 0 -0.248734035528067 0.22266264303674471 0 -0.23589780562791721 0.22466705357138941 0 -0.23589780562791721 0.22466705357138941 0 -0.23301571208005251 0.22631711136445781 0 -0.23589780562791721 0.22466705357138941 0 -0.21946187770755399 0.2272335662722752 0 -0.225888155969557 0.21631124094479351 0 -0.23589780562791721 0.22466705357138941 0 -0.23301571208005251 0.22631711136445781 0 -0.21946187770755399 0.2272335662722752 0 -0.23589780562791721 0.22466705357138941 0 -0.21946187770755399 0.2272335662722752 0 -0.2254770662958033 0.23770261769940551 0 -0.23301571208005251 0.22631711136445781 0 -0.21946187770755399 0.2272335662722752 0 -0.21946187770755399 0.2272335662722752 0 -0.225888155969557 0.21631124094479351 0 -0.2147498456923036 0.21679580952784941 0 -0.225888155969557 0.21631124094479351 0 -0.2163983660951504 0.20664118688365379 0 -0.2147498456923036 0.21679580952784941 0 -0.225888155969557 0.21631124094479351 0 -0.22900898315534271 0.20498679461036609 0 -0.2163983660951504 0.20664118688365379 0 -0.225888155969557 0.21631124094479351 0 -0.22900898315534271 0.20498679461036609 0 -0.23632785610705401 0.21457891752941979 0 -0.23589780562791721 0.22466705357138941 0 -0.225888155969557 0.21631124094479351 0 -0.23632785610705401 0.21457891752941979 0 -0.25272816581491458 0.21503132644266379 0 -0.23632785610705401 0.21457891752941979 0 -0.24165148627456459 0.20791054123727601 0 -0.25272816581491458 0.21503132644266379 0 -0.23589780562791721 0.22466705357138941 0 -0.23632785610705401 0.21457891752941979 0 -0.25462413856064708 0.2114088186030785 0 -0.24165148627456459 0.20791054123727601 0 -0.23531355475386351 0.19206411553567329 0 -0.25272816581491458 0.21503132644266379 0 -0.25462413856064708 0.2114088186030785 0 -0.24165148627456459 0.20791054123727601 0 -0.22900898315534271 0.20498679461036609 0 -0.23632785610705401 0.21457891752941979 0 -0.24165148627456459 0.20791054123727601 0 -0.25193880530206408 0.19370481573741441 0 -0.24593749817207319 0.17922101447869401 0 -0.23531355475386351 0.19206411553567329 0 -0.25462413856064708 0.2114088186030785 0 -0.23531355475386351 0.19206411553567329 0 -0.25193880530206408 0.19370481573741441 0 -0.25462413856064708 0.2114088186030785 0 -0.23531355475386351 0.19206411553567329 0 -0.22900898315534271 0.20498679461036609 0 -0.24165148627456459 0.20791054123727601 0 -0.23531355475386351 0.19206411553567329 0 -0.22900898315534271 0.20498679461036609 0 -0.21668486691279551 0.1896349297876268 0 -0.2163983660951504 0.20664118688365379 0 -0.22900898315534271 0.20498679461036609 0 -0.23531355475386351 0.19206411553567329 0 -0.21668486691279551 0.1896349297876268 0 -0.21668486691279551 0.1896349297876268 0 -0.20588600075920099 0.20051631774142969 0 -0.2163983660951504 0.20664118688365379 0 -0.21668486691279551 0.1896349297876268 0 -0.20588600075920099 0.20051631774142969 0 -0.19675568901559279 0.189567439062066 0 -0.20588600075920099 0.20051631774142969 0 -0.19675568901559279 0.189567439062066 0 -0.1872373767624223 0.2114249087681892 0 -0.20588600075920099 0.20051631774142969 0 -0.203925412238775 0.2130566048024192 0 -0.1872373767624223 0.2114249087681892 0 -0.203925412238775 0.2130566048024192 0 -0.20302594978719091 0.22980007897316179 0 -0.1872373767624223 0.2114249087681892 0 -0.20588600075920099 0.20051631774142969 0 -0.203925412238775 0.2130566048024192 0 -0.2163983660951504 0.20664118688365379 0 -0.203925412238775 0.2130566048024192 0 -0.2163983660951504 0.20664118688365379 0 -0.2147498456923036 0.21679580952784941 0 -0.21946187770755399 0.2272335662722752 0 -0.20302594978719091 0.22980007897316179 0 -0.2144294763495698 0.23954399660221651 0 -0.21946187770755399 0.2272335662722752 0 -0.20302594978719091 0.22980007897316179 0 -0.21946187770755399 0.2272335662722752 0 -0.2147498456923036 0.21679580952784941 0 -0.20302594978719091 0.22980007897316179 0 -0.203925412238775 0.2130566048024192 0 -0.2147498456923036 0.21679580952784941 0 -0.20302594978719091 0.22980007897316179 0 -0.20302594978719091 0.22980007897316179 0 -0.1861179612628448 0.23220845709977719 0 -0.1872373767624223 0.2114249087681892 0 -0.18859670902218051 0.25052543551881717 0 -0.20132404028626799 0.2438270423260239 0 -0.1861179612628448 0.23220845709977719 0 -0.20302594978719091 0.22980007897316179 0 -0.20132404028626799 0.2438270423260239 0 -0.1861179612628448 0.23220845709977719 0 -0.21371201764358261 0.25214650866738469 0 -0.20132404028626799 0.2438270423260239 0 -0.2144294763495698 0.23954399660221651 0 -0.20302594978719091 0.22980007897316179 0 -0.20132404028626799 0.2438270423260239 0 -0.2144294763495698 0.23954399660221651 0 -0.21371201764358261 0.25214650866738469 0 -0.22222104444170529 0.2467327462878163 0 -0.2144294763495698 0.23954399660221651 0 -0.1613020889038615 0.23837444865205379 0 -0.1765110772481347 0.2431385849621667 0 -0.17254032084098081 0.22750047358122369 0 -0.1593990608277665 0.26226189644582071 0 -0.1613020889038615 0.23837444865205379 0 -0.1765110772481347 0.2431385849621667 0 -0.18859670902218051 0.25052543551881717 0 -0.1765110772481347 0.2431385849621667 0 -0.1861179612628448 0.23220845709977719 0 -0.17254032084098081 0.22750047358122369 0 -0.1861179612628448 0.23220845709977719 0 -0.1872373767624223 0.2114249087681892 0 -0.1765110772481347 0.2431385849621667 0 -0.17254032084098081 0.22750047358122369 0 -0.1861179612628448 0.23220845709977719 0 -0.1613020889038615 0.23837444865205379 0 -0.17254032084098081 0.22750047358122369 0 -0.16320511697995649 0.2144870008582867 0 -0.1613020889038615 0.23837444865205379 0 -0.16320511697995649 0.2144870008582867 0 -0.1529468832891846 0.22419885760078639 0 -0.1613020889038615 0.23837444865205379 0 -0.16320511697995649 0.2144870008582867 0 -0.16320511697995649 0.2144870008582867 0 -0.1872373767624223 0.2114249087681892 0 -0.17633970375998559 0.20030682361007979 0 -0.17254032084098081 0.22750047358122369 0 -0.16320511697995649 0.2144870008582867 0 -0.1872373767624223 0.2114249087681892 0 -0.19675568901559279 0.189567439062066 0 -0.17633970375998559 0.20030682361007979 0 -0.1806498087268969 0.1809583004820513 0 -0.19675568901559279 0.189567439062066 0 -0.1872373767624223 0.2114249087681892 0 -0.17633970375998559 0.20030682361007979 0 -0.17633970375998559 0.20030682361007979 0 -0.16510814505605159 0.19059955306451951 0 -0.1806498087268969 0.1809583004820513 0 -0.16320511697995649 0.2144870008582867 0 -0.16510814505605159 0.19059955306451951 0 -0.16320511697995649 0.2144870008582867 0 -0.17633970375998559 0.20030682361007979 0 -0.16510814505605159 0.19059955306451951 0 -0.16320511697995649 0.2144870008582867 0 -0.16510814505605159 0.19059955306451951 0 -0.15189646247486119 0.19678216421774269 0 -0.15189646247486119 0.19678216421774269 0 -0.1348313290251755 0.19391948141146001 0 -0.14981517013628179 0.1764661855652461 0 -0.15189646247486119 0.19678216421774269 0 -0.1348313290251755 0.19391948141146001 0 -0.1465225511768404 0.20843860018920141 0 -0.16510814505605159 0.19059955306451951 0 -0.15189646247486119 0.19678216421774269 0 -0.14981517013628179 0.1764661855652461 0 -0.1348313290251755 0.19391948141146001 0 -0.1252468427212147 0.2168953735999099 0 -0.1203089118816133 0.20055052938219861 0 -0.1348313290251755 0.19391948141146001 0 -0.1252468427212147 0.2168953735999099 0 -0.1465225511768404 0.20843860018920141 0 -0.16320511697995649 0.2144870008582867 0 -0.1465225511768404 0.20843860018920141 0 -0.1529468832891846 0.22419885760078639 0 -0.16320511697995649 0.2144870008582867 0 -0.15189646247486119 0.19678216421774269 0 -0.1465225511768404 0.20843860018920141 0 -0.1465225511768404 0.20843860018920141 0 -0.14075777609607981 0.2354953807036036 0 -0.1465225511768404 0.20843860018920141 0 -0.1529468832891846 0.22419885760078639 0 -0.14075777609607981 0.2354953807036036 0 -0.1613020889038615 0.23837444865205379 0 -0.1529468832891846 0.22419885760078639 0 -0.14075777609607981 0.2354953807036036 0 -0.1252468427212147 0.2168953735999099 0 -0.1465225511768404 0.20843860018920141 0 -0.14075777609607981 0.2354953807036036 0 -0.1252468427212147 0.2168953735999099 0 -0.14075777609607981 0.2354953807036036 0 -0.11832329044822951 0.24304604882281969 0 -0.1349930010153193 0.26255216121800568 0 -0.14075777609607981 0.2354953807036036 0 -0.1349930010153193 0.26255216121800568 0 -0.14075777609607981 0.2354953807036036 0 -0.11832329044822951 0.24304604882281969 0 -0.1349930010153193 0.26255216121800568 0 -0.14075777609607981 0.2354953807036036 0 -0.14911298171075679 0.24967097175487091 0 -0.1613020889038615 0.23837444865205379 0 -0.14075777609607981 0.2354953807036036 0 -0.14911298171075679 0.24967097175487091 0 -0.1662144153725649 0.14970975453020571 0 -0.1667765488875127 0.13812225091292091 0 -0.17427879965612819 0.14190030589397651 0 -0.1662144153725649 0.14970975453020571 0 -0.15453424001036289 0.15945434353378279 0 -0.15202557664741981 0.14720865995561999 0 -0.1662144153725649 0.14970975453020571 0 -0.15911751616331751 0.1391979048316449 0 -0.15202557664741981 0.14720865995561999 0 -0.1662144153725649 0.14970975453020571 0 -0.15911751616331751 0.1391979048316449 0 -0.1667765488875127 0.13812225091292091 0 -0.15911751616331751 0.1391979048316449 0 -0.1598554046101329 0.12512104095579701 0 -0.1667765488875127 0.13812225091292091 0 -0.15911751616331751 0.1391979048316449 0 -0.1598554046101329 0.12512104095579701 0 -0.1500033633973421 0.13584755301834109 0 -0.1598554046101329 0.12512104095579701 0 -0.1667765488875127 0.13812225091292091 0 -0.1744166086354216 0.1346822483529781 0 -0.17463205049430791 0.1233979928413103 0 -0.1598554046101329 0.12512104095579701 0 -0.1744166086354216 0.1346822483529781 0 -0.1598554046101329 0.12512104095579701 0 -0.1744166086354216 0.1346822483529781 0 -0.1667765488875127 0.13812225091292091 0 -0.1744166086354216 0.1346822483529781 0 -0.17427879965612819 0.14190030589397651 0 -0.1744166086354216 0.1346822483529781 0 -0.17427879965612819 0.14190030589397651 0 -0.1744166086354216 0.1346822483529781 0 -0.17777111929803571 0.13688489396563699 0 -0.17427879965612819 0.14190030589397651 0 -0.1744166086354216 0.1346822483529781 0 -0.17777111929803571 0.13688489396563699 0 -0.1744166086354216 0.1346822483529781 0 -0.17777111929803571 0.13688489396563699 0 -0.1798721579770142 0.13261044405125519 0 -0.17777111929803571 0.13688489396563699 0 -0.17908323016457489 0.14155253666455231 0 -0.17427879965612819 0.14190030589397651 0 -0.17463205049430791 0.1233979928413103 0 -0.1744166086354216 0.1346822483529781 0 -0.1798721579770142 0.13261044405125519 0 -0.17463205049430791 0.1233979928413103 0 -0.1744166086354216 0.1346822483529781 0 -0.17463205049430791 0.1233979928413103 0 -0.18530606321329801 0.12949084902847491 0 -0.1798721579770142 0.13261044405125519 0 -0.1909929067815555 0.135001194222511 0 -0.18530606321329801 0.12949084902847491 0 -0.18421136551585299 0.13733957154214979 0 -0.18530606321329801 0.12949084902847491 0 -0.1798721579770142 0.13261044405125519 0 -0.18421136551585299 0.13733957154214979 0 -0.17777111929803571 0.13688489396563699 0 -0.18421136551585299 0.13733957154214979 0 -0.17908323016457489 0.14155253666455231 0 -0.17777111929803571 0.13688489396563699 0 -0.1798721579770142 0.13261044405125519 0 -0.18421136551585299 0.13733957154214979 0 -0.1892816596668532 0.14729824464464031 0 -0.18843187665971381 0.14117764216521481 0 -0.183308469018752 0.14434673272034601 0 -0.18843187665971381 0.14117764216521481 0 -0.18421136551585299 0.13733957154214979 0 -0.183308469018752 0.14434673272034601 0 -0.1892816596668532 0.14729824464464031 0 -0.183308469018752 0.14434673272034601 0 -0.18348409084234379 0.15060627553684849 0 -0.183308469018752 0.14434673272034601 0 -0.1769770860414964 0.14813931566199959 0 -0.18348409084234379 0.15060627553684849 0 -0.183308469018752 0.14434673272034601 0 -0.17908323016457489 0.14155253666455231 0 -0.1769770860414964 0.14813931566199959 0 -0.18421136551585299 0.13733957154214979 0 -0.183308469018752 0.14434673272034601 0 -0.17908323016457489 0.14155253666455231 0 -0.1662144153725649 0.14970975453020571 0 -0.1769770860414964 0.14813931566199959 0 -0.17427879965612819 0.14190030589397651 0 -0.17908323016457489 0.14155253666455231 0 -0.1769770860414964 0.14813931566199959 0 -0.17427879965612819 0.14190030589397651 0 -0.1662144153725649 0.14970975453020571 0 -0.1769770860414964 0.14813931566199959 0 -0.17777951568146841 0.15676083040068911 0 -0.1769770860414964 0.14813931566199959 0 -0.18348409084234379 0.15060627553684849 0 -0.17777951568146841 0.15676083040068911 0 -0.1900737238031488 0.15648625425656729 0 -0.18348409084234379 0.15060627553684849 0 -0.17777951568146841 0.15676083040068911 0 -0.18329050548046091 0.16641049957591181 0 -0.1806498087268969 0.1809583004820513 0 -0.16701117313214661 0.16671210527075239 0 -0.18329050548046091 0.16641049957591181 0 -0.17777951568146841 0.15676083040068911 0 -0.16701117313214661 0.16671210527075239 0 -0.1900737238031488 0.15648625425656729 0 -0.18329050548046091 0.16641049957591181 0 -0.17777951568146841 0.15676083040068911 0 -0.19690649474481761 0.16930016240990661 0 -0.18329050548046091 0.16641049957591181 0 -0.1806498087268969 0.1809583004820513 0 -0.16510814505605159 0.19059955306451951 0 -0.16701117313214661 0.16671210527075239 0 -0.16510814505605159 0.19059955306451951 0 -0.1806498087268969 0.1809583004820513 0 -0.16701117313214661 0.16671210527075239 0 -0.16510814505605159 0.19059955306451951 0 -0.16701117313214661 0.16671210527075239 0 -0.14981517013628179 0.1764661855652461 0 -0.1662144153725649 0.14970975453020571 0 -0.16701117313214661 0.16671210527075239 0 -0.15453424001036289 0.15945434353378279 0 -0.1662144153725649 0.14970975453020571 0 -0.17777951568146841 0.15676083040068911 0 -0.16701117313214661 0.16671210527075239 0 -0.16701117313214661 0.16671210527075239 0 -0.15453424001036289 0.15945434353378279 0 -0.14981517013628179 0.1764661855652461 0 -0.14981517013628179 0.1764661855652461 0 -0.13268914273538329 0.1750509562650924 0 -0.1400456084615111 0.15909886324928099 0 -0.15453424001036289 0.15945434353378279 0 -0.14981517013628179 0.1764661855652461 0 -0.1400456084615111 0.15909886324928099 0 -0.1348313290251755 0.19391948141146001 0 -0.13268914273538329 0.1750509562650924 0 -0.1144809389531023 0.1869767666301351 0 -0.1348313290251755 0.19391948141146001 0 -0.14981517013628179 0.1764661855652461 0 -0.13268914273538329 0.1750509562650924 0 -0.1400456084615111 0.15909886324928099 0 -0.12711493411718411 0.1494661060528254 0 -0.1194513481457689 0.1635609988765839 0 -0.13268914273538329 0.1750509562650924 0 -0.1400456084615111 0.15909886324928099 0 -0.1194513481457689 0.1635609988765839 0 -0.1400456084615111 0.15909886324928099 0 -0.12711493411718411 0.1494661060528254 0 -0.1393467656979451 0.14225431360183649 0 -0.12711493411718411 0.1494661060528254 0 -0.1393467656979451 0.14225431360183649 0 -0.12653041952395039 0.1354161737842513 0 -0.1400456084615111 0.15909886324928099 0 -0.1393467656979451 0.14225431360183649 0 -0.15202557664741981 0.14720865995561999 0 -0.1393467656979451 0.14225431360183649 0 -0.15202557664741981 0.14720865995561999 0 -0.1500033633973421 0.13584755301834109 0 -0.15911751616331751 0.1391979048316449 0 -0.15202557664741981 0.14720865995561999 0 -0.1500033633973421 0.13584755301834109 0 -0.15453424001036289 0.15945434353378279 0 -0.1400456084615111 0.15909886324928099 0 -0.15202557664741981 0.14720865995561999 0 -0.1598554046101329 0.12512104095579701 0 -0.1500033633973421 0.13584755301834109 0 -0.13922952195075211 0.12752614618091959 0 -0.1598554046101329 0.12512104095579701 0 -0.13922952195075211 0.12752614618091959 0 -0.1393467656979451 0.14225431360183649 0 -0.1500033633973421 0.13584755301834109 0 -0.13922952195075211 0.12752614618091959 0 -0.13074244959953979 0.11946175785799951 0 -0.13922952195075211 0.12752614618091959 0 -0.12653041952395039 0.1354161737842513 0 -0.1393467656979451 0.14225431360183649 0 -0.13922952195075211 0.12752614618091959 0 -0.12653041952395039 0.1354161737842513 0 -0.12653041952395039 0.1354161737842513 0 -0.11549744085296181 0.12506595749432459 0 -0.1072514049253199 0.14872276151760261 0 -0.13074244959953979 0.11946175785799951 0 -0.12653041952395039 0.1354161737842513 0 -0.11549744085296181 0.12506595749432459 0 -0.11549744085296181 0.12506595749432459 0 -0.1072514049253199 0.14872276151760261 0 -0.11549744085296181 0.12506595749432459 0 -0.097351596905396909 0.1366011738647028 0 -0.095157466154961498 0.1222738246889692 0 -0.11549744085296181 0.12506595749432459 0 -0.097351596905396909 0.1366011738647028 0 -0.1072514049253199 0.14872276151760261 0 -0.097351596905396909 0.1366011738647028 0 -0.1072514049253199 0.14872276151760261 0 -0.095429287301162569 0.1538271060288352 0 -0.12711493411718411 0.1494661060528254 0 -0.12653041952395039 0.1354161737842513 0 -0.1072514049253199 0.14872276151760261 0 -0.12711493411718411 0.1494661060528254 0 -0.1072514049253199 0.14872276151760261 0 -0.1194513481457689 0.1635609988765839 0 -0.1194513481457689 0.1635609988765839 0 -0.1144809389531023 0.1869767666301351 0 -0.099005368997678006 0.1723795655408806 0 -0.13268914273538329 0.1750509562650924 0 -0.1194513481457689 0.1635609988765839 0 -0.1144809389531023 0.1869767666301351 0 -0.1144809389531023 0.1869767666301351 0 -0.099005368997678006 0.1723795655408806 0 -0.0907593330700361 0.19603636956415871 0 -0.099005368997678006 0.1723795655408806 0 -0.0907593330700361 0.19603636956415871 0 -0.1072514049253199 0.14872276151760261 0 -0.1194513481457689 0.1635609988765839 0 -0.099005368997678006 0.1723795655408806 0 -0.1072514049253199 0.14872276151760261 0 -0.095429287301162569 0.1538271060288352 0 -0.099005368997678006 0.1723795655408806 0 -0.1072514049253199 0.14872276151760261 0 -0.099005368997678006 0.1723795655408806 0 -0.095429287301162569 0.1538271060288352 0 -0.099005368997678006 0.1723795655408806 0 -0.089264976304947813 0.16305913715607981 0 -0.089264976304947813 0.16305913715607981 0 -0.078726297129264447 0.1568051313220773 0 -0.070728802668765189 0.16298784849958539 0 -0.099005368997678006 0.1723795655408806 0 -0.089264976304947813 0.16305913715607981 0 -0.083173158014857834 0.1819778711413477 0 -0.089264976304947813 0.16305913715607981 0 -0.083173158014857834 0.1819778711413477 0 -0.06435517074193417 0.179531982830265 0 -0.099005368997678006 0.1723795655408806 0 -0.083173158014857834 0.1819778711413477 0 -0.0907593330700361 0.19603636956415871 0 -0.083173158014857834 0.1819778711413477 0 -0.06435517074193417 0.179531982830265 0 -0.072480940959693013 0.1988823006153542 0 -0.089264976304947813 0.16305913715607981 0 -0.06435517074193417 0.179531982830265 0 -0.070728802668765189 0.16298784849958539 0 -0.089264976304947813 0.16305913715607981 0 -0.06435517074193417 0.179531982830265 0 -0.06435517074193417 0.179531982830265 0 -0.070728802668765189 0.16298784849958539 0 -0.060817304647522517 0.16063211997463811 0 -0.078726297129264447 0.1568051313220773 0 -0.070728802668765189 0.16298784849958539 0 -0.070638320170874583 0.15280064756773359 0 -0.070728802668765189 0.16298784849958539 0 -0.070638320170874583 0.15280064756773359 0 -0.060817304647522517 0.16063211997463811 0 -0.070638320170874583 0.15280064756773359 0 -0.06050925962069742 0.14933122419088271 0 -0.060817304647522517 0.16063211997463811 0 -0.078726297129264447 0.1568051313220773 0 -0.070638320170874583 0.15280064756773359 0 -0.084273089372470245 0.14837289206491031 0 -0.070638320170874583 0.15280064756773359 0 -0.073986689617270868 0.1403986132245284 0 -0.084273089372470245 0.14837289206491031 0 -0.073986689617270868 0.1403986132245284 0 -0.060395274942560528 0.13416549391068189 0 -0.06050925962069742 0.14933122419088271 0 -0.070638320170874583 0.15280064756773359 0 -0.073986689617270868 0.1403986132245284 0 -0.06050925962069742 0.14933122419088271 0 -0.073986689617270868 0.1403986132245284 0 -0.079964733767734122 0.12668506296934109 0 -0.060395274942560528 0.13416549391068189 0 -0.060395274942560528 0.13416549391068189 0 -0.068008023874607193 0.1194813826226566 0 -0.073986689617270868 0.1403986132245284 0 -0.085757333202322553 0.1342092020786384 0 -0.079964733767734122 0.12668506296934109 0 -0.097351596905396909 0.1366011738647028 0 -0.085757333202322553 0.1342092020786384 0 -0.095157466154961498 0.1222738246889692 0 -0.085757333202322553 0.1342092020786384 0 -0.079964733767734122 0.12668506296934109 0 -0.095157466154961498 0.1222738246889692 0 -0.097351596905396909 0.1366011738647028 0 -0.085757333202322553 0.1342092020786384 0 -0.084273089372470245 0.14837289206491031 0 -0.097351596905396909 0.1366011738647028 0 -0.095429287301162569 0.1538271060288352 0 -0.084273089372470245 0.14837289206491031 0 -0.095429287301162569 0.1538271060288352 0 -0.089264976304947813 0.16305913715607981 0 -0.084273089372470245 0.14837289206491031 0 -0.089264976304947813 0.16305913715607981 0 -0.078726297129264447 0.1568051313220773 0 -0.084273089372470245 0.14837289206491031 0 -0.073986689617270868 0.1403986132245284 0 -0.085757333202322553 0.1342092020786384 0 -0.084273089372470245 0.14837289206491031 0 -0.097135213821017974 0.2450179218164267 0 -0.11832329044822951 0.24304604882281969 0 -0.10188732904743091 0.22416775388930879 0 -0.1252468427212147 0.2168953735999099 0 -0.11832329044822951 0.24304604882281969 0 -0.10188732904743091 0.22416775388930879 0 -0.10188732904743091 0.22416775388930879 0 -0.10553645135762139 0.20639637139721009 0 -0.085647611720234704 0.211582202570961 0 -0.10553645135762139 0.20639637139721009 0 -0.0907593330700361 0.19603636956415871 0 -0.085647611720234704 0.211582202570961 0 -0.1252468427212147 0.2168953735999099 0 -0.10553645135762139 0.20639637139721009 0 -0.1203089118816133 0.20055052938219861 0 -0.1252468427212147 0.2168953735999099 0 -0.10188732904743091 0.22416775388930879 0 -0.10553645135762139 0.20639637139721009 0 -0.1144809389531023 0.1869767666301351 0 -0.10553645135762139 0.20639637139721009 0 -0.1203089118816133 0.20055052938219861 0 -0.1348313290251755 0.19391948141146001 0 -0.1144809389531023 0.1869767666301351 0 -0.1203089118816133 0.20055052938219861 0 -0.1144809389531023 0.1869767666301351 0 -0.10553645135762139 0.20639637139721009 0 -0.0907593330700361 0.19603636956415871 0 -0.083173158014857834 0.1819778711413477 0 -0.0907593330700361 0.19603636956415871 0 -0.072480940959693013 0.1988823006153542 0 -0.0907593330700361 0.19603636956415871 0 -0.072480940959693013 0.1988823006153542 0 -0.085647611720234704 0.211582202570961 0 -0.06435517074193417 0.179531982830265 0 -0.072480940959693013 0.1988823006153542 0 -0.057501641022342467 0.1963435114306189 0 -0.065516926835851183 0.21659017637723951 0 -0.085647611720234704 0.211582202570961 0 -0.078837631547527487 0.22646261886489361 0 -0.072480940959693013 0.1988823006153542 0 -0.065516926835851183 0.21659017637723951 0 -0.085647611720234704 0.211582202570961 0 -0.072480940959693013 0.1988823006153542 0 -0.065516926835851183 0.21659017637723951 0 -0.056774781747103042 0.20807563334730969 0 -0.097135213821017974 0.2450179218164267 0 -0.10188732904743091 0.22416775388930879 0 -0.078837631547527487 0.22646261886489361 0 -0.10188732904743091 0.22416775388930879 0 -0.078837631547527487 0.22646261886489361 0 -0.10188732904743091 0.22416775388930879 0 -0.085647611720234704 0.211582202570961 0 -0.078837631547527487 0.22646261886489361 0 -0.078837631547527487 0.22646261886489361 0 -0.055787934047623812 0.22875748384047651 0 -0.078837631547527487 0.22646261886489361 0 -0.074704152181801681 0.24701770632021169 0 -0.055787934047623812 0.22875748384047651 0 -0.065516926835851183 0.21659017637723951 0 -0.078837631547527487 0.22646261886489361 0 -0.055787934047623812 0.22875748384047651 0 -0.074704152181801681 0.24701770632021169 0 -0.055787934047623812 0.22875748384047651 0 -0.074704152181801681 0.24701770632021169 0 -0.057747386715908428 0.24463041023760571 0 -0.055787934047623812 0.22875748384047651 0 -0.097135213821017974 0.2450179218164267 0 -0.078837631547527487 0.22646261886489361 0 -0.074704152181801681 0.24701770632021169 0 -0.03189830216395443 0.24568919817845219 0 -0.04135776092400012 0.23809779795821551 0 -0.030614146685572802 0.23126382662090891 0 -0.04135776092400012 0.23809779795821551 0 -0.046594812073733123 0.24823599275617891 0 -0.049952252460554 0.2397627017524232 0 -0.03189830216395443 0.24568919817845219 0 -0.04135776092400012 0.23809779795821551 0 -0.046594812073733123 0.24823599275617891 0 -0.046594812073733123 0.24823599275617891 0 -0.057747386715908428 0.24463041023760571 0 -0.049952252460554 0.2397627017524232 0 -0.057747386715908428 0.24463041023760571 0 -0.049952252460554 0.2397627017524232 0 -0.055787934047623812 0.22875748384047651 0 -0.04135776092400012 0.23809779795821551 0 -0.049952252460554 0.2397627017524232 0 -0.055787934047623812 0.22875748384047651 0 -0.055787934047623812 0.22875748384047651 0 -0.052323738254648429 0.22541342291643321 0 -0.065516926835851183 0.21659017637723951 0 -0.055787934047623812 0.22875748384047651 0 -0.054616056031908368 0.21893633417385969 0 -0.055787934047623812 0.22875748384047651 0 -0.052323738254648429 0.22541342291643321 0 -0.042225130782071622 0.22351742659662871 0 -0.054616056031908368 0.21893633417385969 0 -0.052323738254648429 0.22541342291643321 0 -0.049046602241481829 0.2206752111693363 0 -0.052323738254648429 0.22541342291643321 0 -0.049046602241481829 0.2206752111693363 0 -0.042225130782071622 0.22351742659662871 0 -0.055787934047623812 0.22875748384047651 0 -0.054616056031908368 0.21893633417385969 0 -0.052323738254648429 0.22541342291643321 0 -0.055787934047623812 0.22875748384047651 0 -0.042225130782071622 0.22351742659662871 0 -0.030614146685572802 0.23126382662090891 0 -0.055787934047623812 0.22875748384047651 0 -0.030614146685572802 0.23126382662090891 0 -0.049046602241481829 0.2206752111693363 0 -0.042225130782071622 0.22351742659662871 0 -0.047021483897298919 0.2148336609904237 0 -0.04135776092400012 0.23809779795821551 0 -0.055787934047623812 0.22875748384047651 0 -0.030614146685572802 0.23126382662090891 0 -0.042225130782071622 0.22351742659662871 0 -0.035706106933987618 0.212040288753787 0 -0.024813853389476559 0.2211714782904188 0 -0.042225130782071622 0.22351742659662871 0 -0.024813853389476559 0.2211714782904188 0 -0.030614146685572802 0.23126382662090891 0 -0.035706106933987618 0.212040288753787 0 -0.047940973094851513 0.204892605264445 0 -0.039445365178920423 0.19600482850445031 0 -0.035706106933987618 0.212040288753787 0 -0.047021483897298919 0.2148336609904237 0 -0.047940973094851513 0.204892605264445 0 -0.042225130782071622 0.22351742659662871 0 -0.035706106933987618 0.212040288753787 0 -0.047021483897298919 0.2148336609904237 0 -0.054616056031908368 0.21893633417385969 0 -0.049046602241481829 0.2206752111693363 0 -0.047021483897298919 0.2148336609904237 0 -0.054616056031908368 0.21893633417385969 0 -0.047021483897298919 0.2148336609904237 0 -0.056774781747103042 0.20807563334730969 0 -0.065516926835851183 0.21659017637723951 0 -0.054616056031908368 0.21893633417385969 0 -0.056774781747103042 0.20807563334730969 0 -0.047021483897298919 0.2148336609904237 0 -0.056774781747103042 0.20807563334730969 0 -0.047940973094851513 0.204892605264445 0 -0.047940973094851513 0.204892605264445 0 -0.057501641022342467 0.1963435114306189 0 -0.039445365178920423 0.19600482850445031 0 -0.06435517074193417 0.179531982830265 0 -0.039445365178920423 0.19600482850445031 0 -0.072480940959693013 0.1988823006153542 0 -0.056774781747103042 0.20807563334730969 0 -0.057501641022342467 0.1963435114306189 0 -0.056774781747103042 0.20807563334730969 0 -0.047940973094851513 0.204892605264445 0 -0.057501641022342467 0.1963435114306189 0 -0.06435517074193417 0.179531982830265 0 -0.057501641022342467 0.1963435114306189 0 -0.039445365178920423 0.19600482850445031 0 -0.039445365178920423 0.19600482850445031 0 -0.027727343604313569 0.197178151178412 0 -0.038616654050395688 0.17617393208916859 0 -0.039445365178920423 0.19600482850445031 0 -0.027727343604313569 0.197178151178412 0 -0.014535559615906669 0.2124776741786355 0 -0.027727343604313569 0.197178151178412 0 -0.010915521324717001 0.1993315760592379 0 -0.014535559615906669 0.2124776741786355 0 -0.027727343604313569 0.197178151178412 0 -0.010915521324717001 0.1993315760592379 0 -0.020104729349334449 0.1840085448946619 0 -0.027727343604313569 0.197178151178412 0 -0.028750072776026619 0.18228756371234331 0 -0.020104729349334449 0.1840085448946619 0 -0.010915521324717001 0.1993315760592379 0 -0.0058150648891281392 0.18464487058732859 0 0.0047479160901643591 0.19966970600779571 0 -0.010915521324717001 0.1993315760592379 0 -0.020104729349334449 0.1840085448946619 0 -0.0058150648891281392 0.18464487058732859 0 -0.010915521324717001 0.1993315760592379 0 -0.001618838316679704 0.21186515805952549 0 -0.014535559615906669 0.2124776741786355 0 -0.010915521324717001 0.1993315760592379 0 -0.001618838316679704 0.21186515805952549 0 0.0047479160901643591 0.19966970600779571 0 -0.001618838316679704 0.21186515805952549 0 -0.010819744977475119 0.2201826338773481 0 0.0022205822065663882 0.22338098429998751 0 -0.001618838316679704 0.21186515805952549 0 -0.014535559615906669 0.2124776741786355 0 -0.010819744977475119 0.2201826338773481 0 -0.039445365178920423 0.19600482850445031 0 -0.014535559615906669 0.2124776741786355 0 -0.035706106933987618 0.212040288753787 0 -0.039445365178920423 0.19600482850445031 0 -0.014535559615906669 0.2124776741786355 0 -0.014535559615906669 0.2124776741786355 0 -0.024813853389476559 0.2211714782904188 0 -0.010819744977475119 0.2201826338773481 0 -0.035706106933987618 0.212040288753787 0 -0.014535559615906669 0.2124776741786355 0 -0.024813853389476559 0.2211714782904188 0 -0.030614146685572802 0.23126382662090891 0 -0.0054403593235216562 0.23377016940133941 0 -0.030614146685572802 0.23126382662090891 0 -0.0054403593235216562 0.23377016940133941 0 -0.01514813330815701 0.23061359466582701 0 -0.024813853389476559 0.2211714782904188 0 -0.030614146685572802 0.23126382662090891 0 -0.01514813330815701 0.23061359466582701 0 -0.024813853389476559 0.2211714782904188 0 -0.010819744977475119 0.2201826338773481 0 -0.01514813330815701 0.23061359466582701 0 -0.010819744977475119 0.2201826338773481 0 -0.01514813330815701 0.23061359466582701 0 0.0022205822065663882 0.22338098429998751 0 -0.01514813330815701 0.23061359466582701 0 0.0022205822065663882 0.22338098429998751 0 -0.0054403593235216562 0.23377016940133941 0 -0.01514813330815701 0.23061359466582701 0 0.0022205822065663882 0.22338098429998751 0 -0.004361582131907446 0.25012675423618741 0 -0.0054403593235216562 0.23377016940133941 0 0.0051881906427589239 0.2429023142665572 0 -0.004361582131907446 0.25012675423618741 0 -0.0054403593235216562 0.23377016940133941 0 -0.018506566158488919 0.2431339505957798 0 -0.020565667716041462 0.25572736355358933 0 -0.004361582131907446 0.25012675423618741 0 -0.018506566158488919 0.2431339505957798 0 -0.030614146685572802 0.23126382662090891 0 -0.0054403593235216562 0.23377016940133941 0 -0.018506566158488919 0.2431339505957798 0 -0.03189830216395443 0.24568919817845219 0 -0.030614146685572802 0.23126382662090891 0 -0.018506566158488919 0.2431339505957798 0 -0.020565667716041462 0.25572736355358933 0 -0.03189830216395443 0.24568919817845219 0 -0.018506566158488919 0.2431339505957798 0 -0.042460363287522958 0.14347988613362259 0 -0.044473419521311869 0.15297756029890641 0 -0.037891307588098999 0.15301779907060481 0 -0.044473419521311869 0.15297756029890641 0 -0.037891307588098999 0.15301779907060481 0 -0.031636506627965313 0.16150224911057051 0 -0.042460363287522958 0.14347988613362259 0 -0.035174347344809967 0.15001976644272921 0 -0.037891307588098999 0.15301779907060481 0 -0.035174347344809967 0.15001976644272921 0 -0.037891307588098999 0.15301779907060481 0 -0.033404653207921721 0.15507918068198209 0 -0.035174347344809967 0.15001976644272921 0 -0.033404653207921721 0.15507918068198209 0 -0.02776282729533102 0.15476173176141739 0 -0.035174347344809967 0.15001976644272921 0 -0.034180114506779158 0.14292432320853909 0 -0.02883591677782232 0.14796437992771719 0 -0.042460363287522958 0.14347988613362259 0 -0.035174347344809967 0.15001976644272921 0 -0.034180114506779158 0.14292432320853909 0 -0.042460363287522958 0.14347988613362259 0 -0.034180114506779158 0.14292432320853909 0 -0.038211226953362397 0.13781437243294631 0 -0.034180114506779158 0.14292432320853909 0 -0.032488323731578138 0.13717556183428281 0 -0.038211226953362397 0.13781437243294631 0 -0.034180114506779158 0.14292432320853909 0 -0.032488323731578138 0.13717556183428281 0 -0.027483842170251089 0.14162756103877569 0 -0.032488323731578138 0.13717556183428281 0 -0.035266368379565052 0.13009707587939279 0 -0.02667969692195489 0.13460984520473249 0 -0.032488323731578138 0.13717556183428281 0 -0.038211226953362397 0.13781437243294631 0 -0.035266368379565052 0.13009707587939279 0 -0.035266368379565052 0.13009707587939279 0 -0.046331318124510253 0.13174141938699169 0 -0.041763705598505362 0.11912362676530031 0 -0.038211226953362397 0.13781437243294631 0 -0.035266368379565052 0.13009707587939279 0 -0.046331318124510253 0.13174141938699169 0 -0.042460363287522958 0.14347988613362259 0 -0.038211226953362397 0.13781437243294631 0 -0.046331318124510253 0.13174141938699169 0 -0.042460363287522958 0.14347988613362259 0 -0.046331318124510253 0.13174141938699169 0 -0.060395274942560528 0.13416549391068189 0 -0.046331318124510253 0.13174141938699169 0 -0.060395274942560528 0.13416549391068189 0 -0.057376161549244957 0.12328487032798489 0 -0.060395274942560528 0.13416549391068189 0 -0.057376161549244957 0.12328487032798489 0 -0.068008023874607193 0.1194813826226566 0 -0.044473419521311869 0.15297756029890641 0 -0.060395274942560528 0.13416549391068189 0 -0.049505964496477838 0.1551697129999251 0 -0.060395274942560528 0.13416549391068189 0 -0.049505964496477838 0.1551697129999251 0 -0.060395274942560528 0.13416549391068189 0 -0.049505964496477838 0.1551697129999251 0 -0.06050925962069742 0.14933122419088271 0 -0.042460363287522958 0.14347988613362259 0 -0.044473419521311869 0.15297756029890641 0 -0.060395274942560528 0.13416549391068189 0 -0.044473419521311869 0.15297756029890641 0 -0.060395274942560528 0.13416549391068189 0 -0.06050925962069742 0.14933122419088271 0 -0.055951783244603238 0.15683636846341581 0 -0.060817304647522517 0.16063211997463811 0 -0.049505964496477838 0.1551697129999251 0 -0.06050925962069742 0.14933122419088271 0 -0.055951783244603238 0.15683636846341581 0 -0.06435517074193417 0.179531982830265 0 -0.060817304647522517 0.16063211997463811 0 -0.054190933413391887 0.1696376128955723 0 -0.055951783244603238 0.15683636846341581 0 -0.060817304647522517 0.16063211997463811 0 -0.051816527970478227 0.163689949284544 0 -0.060817304647522517 0.16063211997463811 0 -0.054190933413391887 0.1696376128955723 0 -0.051816527970478227 0.163689949284544 0 -0.054190933413391887 0.1696376128955723 0 -0.051816527970478227 0.163689949284544 0 -0.038616654050395688 0.17617393208916859 0 -0.049505964496477838 0.1551697129999251 0 -0.055951783244603238 0.15683636846341581 0 -0.051816527970478227 0.163689949284544 0 -0.06435517074193417 0.179531982830265 0 -0.039445365178920423 0.19600482850445031 0 -0.038616654050395688 0.17617393208916859 0 -0.06435517074193417 0.179531982830265 0 -0.054190933413391887 0.1696376128955723 0 -0.038616654050395688 0.17617393208916859 0 -0.027727343604313569 0.197178151178412 0 -0.038616654050395688 0.17617393208916859 0 -0.027727343604313569 0.197178151178412 0 -0.038616654050395688 0.17617393208916859 0 -0.028750072776026619 0.18228756371234331 0 -0.038616654050395688 0.17617393208916859 0 -0.028551564100062751 0.1717896266871306 0 -0.028750072776026619 0.18228756371234331 0 -0.044473419521311869 0.15297756029890641 0 -0.028551564100062751 0.1717896266871306 0 -0.049505964496477838 0.1551697129999251 0 -0.051816527970478227 0.163689949284544 0 -0.038616654050395688 0.17617393208916859 0 -0.044473419521311869 0.15297756029890641 0 -0.031636506627965313 0.16150224911057051 0 -0.028551564100062751 0.1717896266871306 0 -0.049505964496477838 0.1551697129999251 0 -0.038616654050395688 0.17617393208916859 0 -0.044473419521311869 0.15297756029890641 0 -0.049505964496477838 0.1551697129999251 0 -0.038616654050395688 0.17617393208916859 0 -0.044473419521311869 0.15297756029890641 0 -0.038616654050395688 0.17617393208916859 0 -0.028551564100062751 0.1717896266871306 0 -0.037891307588098999 0.15301779907060481 0 -0.033404653207921721 0.15507918068198209 0 -0.031636506627965313 0.16150224911057051 0 -0.031636506627965313 0.16150224911057051 0 -0.02253447650115362 0.1626338424728738 0 -0.02776282729533102 0.15476173176141739 0 -0.033404653207921721 0.15507918068198209 0 -0.031636506627965313 0.16150224911057051 0 -0.02776282729533102 0.15476173176141739 0 -0.031636506627965313 0.16150224911057051 0 -0.028551564100062751 0.1717896266871306 0 -0.02253447650115362 0.1626338424728738 0 -0.028551564100062751 0.1717896266871306 0 -0.02253447650115362 0.1626338424728738 0 -0.01498566762474032 0.1721399223420339 0 -0.02253447650115362 0.1626338424728738 0 -0.01498566762474032 0.1721399223420339 0 -0.012046897657486009 0.15973393686910059 0 -0.02253447650115362 0.1626338424728738 0 -0.012046897657486009 0.15973393686910059 0 -0.01974455104335017 0.1550417818637245 0 -0.02253447650115362 0.1626338424728738 0 -0.01974455104335017 0.1550417818637245 0 -0.02776282729533102 0.15476173176141739 0 -0.028551564100062751 0.1717896266871306 0 -0.028750072776026619 0.18228756371234331 0 -0.020104729349334449 0.1840085448946619 0 -0.028551564100062751 0.1717896266871306 0 -0.020104729349334449 0.1840085448946619 0 -0.01498566762474032 0.1721399223420339 0 -0.020104729349334449 0.1840085448946619 0 -0.01498566762474032 0.1721399223420339 0 -0.0058150648891281392 0.18464487058732859 0 -0.01498566762474032 0.1721399223420339 0 -0.0058150648891281392 0.18464487058732859 0 9.8439874396488518e-06 0.16909653965514321 0 -0.01498566762474032 0.1721399223420339 0 -0.012046897657486009 0.15973393686910059 0 9.8439874396488518e-06 0.16909653965514321 0 -0.012046897657486009 0.15973393686910059 0 -0.001399927819642065 0.15853034608675531 0 -0.0067216127360385028 0.15176017281181059 0 -0.012046897657486009 0.15973393686910059 0 -0.001399927819642065 0.15853034608675531 0 9.8439874396488518e-06 0.16909653965514321 0 -0.0067216127360385028 0.15176017281181059 0 -0.001932496299644968 0.1459540675981712 0 0.002037105597096525 0.15151695060409001 0 -0.001399927819642065 0.15853034608675531 0 -0.0067216127360385028 0.15176017281181059 0 0.002037105597096525 0.15151695060409001 0 -0.001932496299644968 0.1459540675981712 0 -0.0047871023855838284 0.14117591745817429 0 0.000228448927285114 0.14012311706009631 0 -0.0067216127360385028 0.15176017281181059 0 -0.001932496299644968 0.1459540675981712 0 -0.0088873299160877918 0.1454187600715697 0 -0.001932496299644968 0.1459540675981712 0 -0.0047871023855838284 0.14117591745817429 0 -0.0088873299160877918 0.1454187600715697 0 -0.0047871023855838284 0.14117591745817429 0 -0.0088873299160877918 0.1454187600715697 0 -0.010460643721398131 0.13913610184510419 0 -0.0088873299160877918 0.1454187600715697 0 -0.015535574841907601 0.14368344141407929 0 -0.010460643721398131 0.13913610184510419 0 -0.0088873299160877918 0.1454187600715697 0 -0.015535574841907601 0.14368344141407929 0 -0.014413369338275051 0.15020994658701309 0 -0.012046897657486009 0.15973393686910059 0 -0.014413369338275051 0.15020994658701309 0 -0.01974455104335017 0.1550417818637245 0 -0.012046897657486009 0.15973393686910059 0 -0.0067216127360385028 0.15176017281181059 0 -0.014413369338275051 0.15020994658701309 0 -0.0067216127360385028 0.15176017281181059 0 -0.0088873299160877918 0.1454187600715697 0 -0.014413369338275051 0.15020994658701309 0 -0.01974455104335017 0.1550417818637245 0 -0.021965184424505169 0.1478694516282176 0 -0.02776282729533102 0.15476173176141739 0 -0.014413369338275051 0.15020994658701309 0 -0.01974455104335017 0.1550417818637245 0 -0.021965184424505169 0.1478694516282176 0 -0.015535574841907601 0.14368344141407929 0 -0.014413369338275051 0.15020994658701309 0 -0.021965184424505169 0.1478694516282176 0 -0.015535574841907601 0.14368344141407929 0 -0.02085887518683055 0.14051112573817109 0 -0.01572570720539903 0.1386245228663322 0 -0.015535574841907601 0.14368344141407929 0 -0.021965184424505169 0.1478694516282176 0 -0.02085887518683055 0.14051112573817109 0 -0.021965184424505169 0.1478694516282176 0 -0.027483842170251089 0.14162756103877569 0 -0.02085887518683055 0.14051112573817109 0 -0.021965184424505169 0.1478694516282176 0 -0.027483842170251089 0.14162756103877569 0 -0.02883591677782232 0.14796437992771719 0 -0.034180114506779158 0.14292432320853909 0 -0.027483842170251089 0.14162756103877569 0 -0.02883591677782232 0.14796437992771719 0 -0.035174347344809967 0.15001976644272921 0 -0.02883591677782232 0.14796437992771719 0 -0.02776282729533102 0.15476173176141739 0 -0.021965184424505169 0.1478694516282176 0 -0.02883591677782232 0.14796437992771719 0 -0.02776282729533102 0.15476173176141739 0 -0.035266368379565052 0.13009707587939279 0 -0.02498016711913827 0.1241785180753891 0 -0.033110622576494379 0.1214386067867833 0 -0.02667969692195489 0.13460984520473249 0 -0.019000604944366228 0.13406922866238341 0 -0.02498016711913827 0.1241785180753891 0 -0.035266368379565052 0.13009707587939279 0 -0.02667969692195489 0.13460984520473249 0 -0.02498016711913827 0.1241785180753891 0 -0.032488323731578138 0.13717556183428281 0 -0.027483842170251089 0.14162756103877569 0 -0.02667969692195489 0.13460984520473249 0 -0.027483842170251089 0.14162756103877569 0 -0.02667969692195489 0.13460984520473249 0 -0.02085887518683055 0.14051112573817109 0 -0.02667969692195489 0.13460984520473249 0 -0.02085887518683055 0.14051112573817109 0 -0.019000604944366228 0.13406922866238341 0 -0.02085887518683055 0.14051112573817109 0 -0.01572570720539903 0.1386245228663322 0 -0.019000604944366228 0.13406922866238341 0 -0.019000604944366228 0.13406922866238341 0 -0.013108962008021981 0.1259178359004969 0 -0.02498016711913827 0.1241785180753891 0 -0.019000604944366228 0.13406922866238341 0 -0.013108962008021981 0.1259178359004969 0 -0.011245417678365909 0.1339710152718474 0 -0.013108962008021981 0.1259178359004969 0 -0.011245417678365909 0.1339710152718474 0 -0.0043823690024683438 0.12942386948176529 0 -0.015535574841907601 0.14368344141407929 0 -0.01572570720539903 0.1386245228663322 0 -0.010460643721398131 0.13913610184510419 0 -0.01572570720539903 0.1386245228663322 0 -0.011245417678365909 0.1339710152718474 0 -0.010460643721398131 0.13913610184510419 0 -0.01572570720539903 0.1386245228663322 0 -0.019000604944366228 0.13406922866238341 0 -0.011245417678365909 0.1339710152718474 0 -0.011245417678365909 0.1339710152718474 0 -0.010460643721398131 0.13913610184510419 0 -0.0049074646713017818 0.13634897063783119 0 -0.0047871023855838284 0.14117591745817429 0 -0.010460643721398131 0.13913610184510419 0 -0.0049074646713017818 0.13634897063783119 0 -0.011245417678365909 0.1339710152718474 0 -0.0049074646713017818 0.13634897063783119 0 -0.0043823690024683438 0.12942386948176529 0 -0.0049074646713017818 0.13634897063783119 0 -0.0043823690024683438 0.12942386948176529 0 0.0012022958327204049 0.13426380270999949 0 -0.0047871023855838284 0.14117591745817429 0 -0.0049074646713017818 0.13634897063783119 0 0.000228448927285114 0.14012311706009631 0 -0.0049074646713017818 0.13634897063783119 0 0.000228448927285114 0.14012311706009631 0 0.0012022958327204049 0.13426380270999949 0 -0.0043823690024683438 0.12942386948176529 0 -0.0015382865690094869 0.1195819360983075 0 0.0028297340199113529 0.12737786763030409 0 -0.0043823690024683438 0.12942386948176529 0 0.0028297340199113529 0.12737786763030409 0 0.0012022958327204049 0.13426380270999949 0 -0.013108962008021981 0.1259178359004969 0 -0.0015382865690094869 0.1195819360983075 0 -0.018013141318310021 0.1118215823196331 0 -0.0015382865690094869 0.1195819360983075 0 -0.0093267163156350585 0.10220622611456499 0 -0.018013141318310021 0.1118215823196331 0 -0.0015382865690094869 0.1195819360983075 0 -0.0093267163156350585 0.10220622611456499 0 0.0088418889268726004 0.1125261115153213 0 -0.013108962008021981 0.1259178359004969 0 -0.0043823690024683438 0.12942386948176529 0 -0.0015382865690094869 0.1195819360983075 0 -0.0093267163156350585 0.10220622611456499 0 -0.028384651446471159 0.094232735224306696 0 -0.028384651446471159 0.094232735224306696 0 -0.030432249208768851 0.112355206427051 0 -0.018013141318310021 0.1118215823196331 0 -0.0093267163156350585 0.10220622611456499 0 -0.028384651446471159 0.094232735224306696 0 -0.018013141318310021 0.1118215823196331 0 -0.030432249208768851 0.112355206427051 0 -0.02498016711913827 0.1241785180753891 0 -0.018013141318310021 0.1118215823196331 0 -0.030432249208768851 0.112355206427051 0 -0.02498016711913827 0.1241785180753891 0 -0.033110622576494379 0.1214386067867833 0 -0.013108962008021981 0.1259178359004969 0 -0.02498016711913827 0.1241785180753891 0 -0.018013141318310021 0.1118215823196331 0 -0.019815605255134251 0.077564307382831099 0 -0.01123722517146284 0.061714947321965113 0 0.0078113760670387236 0.068869370431613411 0 -0.019815605255134251 0.077564307382831099 0 0.0078113760670387236 0.068869370431613411 0 -0.0022168413230157229 0.085736250976024914 0 -0.019815605255134251 0.077564307382831099 0 0.0078113760670387236 0.068869370431613411 0 -0.0093267163156350585 0.10220622611456499 0 -0.0022168413230157229 0.085736250976024914 0 -0.019815605255134251 0.077564307382831099 0 -0.0093267163156350585 0.10220622611456499 0 -0.028384651446471159 0.094232735224306696 0 -0.019815605255134251 0.077564307382831099 0 -0.019815605255134251 0.077564307382831099 0 -0.02897814582929455 0.062873885781940531 0 -0.01123722517146284 0.061714947321965113 0 -0.019815605255134251 0.077564307382831099 0 -0.02897814582929455 0.062873885781940531 0 -0.037351726516990362 0.072256576054196331 0 -0.037351726516990362 0.072256576054196331 0 -0.04744258657730735 0.086259244334048468 0 -0.048521472395479701 0.069705355416953899 0 -0.042000822527735973 0.064880087355207783 0 -0.037351726516990362 0.072256576054196331 0 -0.048521472395479701 0.069705355416953899 0 -0.042000822527735973 0.064880087355207783 0 -0.048521472395479701 0.069705355416953899 0 -0.048543751051203898 0.057697742817346243 0 -0.02897814582929455 0.062873885781940531 0 -0.042000822527735973 0.064880087355207783 0 -0.037351726516990362 0.072256576054196331 0 -0.028384651446471159 0.094232735224306696 0 -0.048484368781985768 0.092953390863835139 0 -0.04744258657730735 0.086259244334048468 0 -0.019815605255134251 0.077564307382831099 0 -0.037351726516990362 0.072256576054196331 0 -0.04744258657730735 0.086259244334048468 0 -0.019815605255134251 0.077564307382831099 0 -0.04744258657730735 0.086259244334048468 0 -0.028384651446471159 0.094232735224306696 0 -0.04744258657730735 0.086259244334048468 0 -0.028384651446471159 0.094232735224306696 0 -0.019815605255134251 0.077564307382831099 0 -0.04744258657730735 0.086259244334048468 0 -0.04744258657730735 0.086259244334048468 0 -0.056352896539992578 0.082531333895216066 0 -0.048521472395479701 0.069705355416953899 0 -0.04744258657730735 0.086259244334048468 0 -0.055667229109567583 0.088847755450422561 0 -0.048484368781985768 0.092953390863835139 0 -0.04744258657730735 0.086259244334048468 0 -0.055667229109567583 0.088847755450422561 0 -0.055667229109567583 0.088847755450422561 0 -0.056352896539992578 0.082531333895216066 0 -0.055667229109567583 0.088847755450422561 0 -0.056352896539992578 0.082531333895216066 0 -0.068535421204038979 0.084669133357873919 0 -0.04744258657730735 0.086259244334048468 0 -0.055667229109567583 0.088847755450422561 0 -0.056352896539992578 0.082531333895216066 0 -0.04744258657730735 0.086259244334048468 0 -0.056352896539992578 0.082531333895216066 0 -0.056352896539992578 0.082531333895216066 0 -0.048521472395479701 0.069705355416953899 0 -0.059557339835071388 0.053011753697425897 0 -0.056352896539992578 0.082531333895216066 0 -0.065455038900646412 0.063135680861219914 0 -0.059557339835071388 0.053011753697425897 0 -0.056352896539992578 0.082531333895216066 0 -0.059557339835071388 0.053011753697425897 0 -0.041763705598505362 0.11912362676530031 0 -0.040355805924582322 0.10811297036328291 0 -0.053061720868948711 0.1128498994681193 0 -0.030432249208768851 0.112355206427051 0 -0.041763705598505362 0.11912362676530031 0 -0.033110622576494379 0.1214386067867833 0 -0.035266368379565052 0.13009707587939279 0 -0.041763705598505362 0.11912362676530031 0 -0.033110622576494379 0.1214386067867833 0 -0.030432249208768851 0.112355206427051 0 -0.041763705598505362 0.11912362676530031 0 -0.040355805924582322 0.10811297036328291 0 -0.028384651446471159 0.094232735224306696 0 -0.040355805924582322 0.10811297036328291 0 -0.047601570349403252 0.1001146928854318 0 -0.028384651446471159 0.094232735224306696 0 -0.048484368781985768 0.092953390863835139 0 -0.047601570349403252 0.1001146928854318 0 -0.028384651446471159 0.094232735224306696 0 -0.030432249208768851 0.112355206427051 0 -0.040355805924582322 0.10811297036328291 0 -0.055667229109567583 0.088847755450422561 0 -0.047601570349403252 0.1001146928854318 0 -0.053061720868948711 0.1128498994681193 0 -0.055667229109567583 0.088847755450422561 0 -0.053061720868948711 0.1128498994681193 0 -0.040355805924582322 0.10811297036328291 0 -0.047601570349403252 0.1001146928854318 0 -0.053061720868948711 0.1128498994681193 0 -0.055667229109567583 0.088847755450422561 0 -0.061317563763440802 0.10299561175118491 0 -0.053061720868948711 0.1128498994681193 0 -0.048484368781985768 0.092953390863835139 0 -0.055667229109567583 0.088847755450422561 0 -0.047601570349403252 0.1001146928854318 0 -0.055667229109567583 0.088847755450422561 0 -0.061317563763440802 0.10299561175118491 0 -0.06797342141030252 0.10030920148610591 0 -0.061317563763440802 0.10299561175118491 0 -0.053061720868948711 0.1128498994681193 0 -0.066574353573826517 0.1091611438734031 0 -0.046331318124510253 0.13174141938699169 0 -0.041763705598505362 0.11912362676530031 0 -0.057376161549244957 0.12328487032798489 0 -0.041763705598505362 0.11912362676530031 0 -0.053061720868948711 0.1128498994681193 0 -0.057376161549244957 0.12328487032798489 0 -0.053061720868948711 0.1128498994681193 0 -0.057376161549244957 0.12328487032798489 0 -0.068008023874607193 0.1194813826226566 0 -0.060395274942560528 0.13416549391068189 0 -0.068008023874607193 0.1194813826226566 0 -0.077957056184904241 0.1134158145620357 0 -0.060395274942560528 0.13416549391068189 0 -0.077957056184904241 0.1134158145620357 0 -0.079964733767734122 0.12668506296934109 0 -0.060395274942560528 0.13416549391068189 0 -0.077957056184904241 0.1134158145620357 0 -0.053061720868948711 0.1128498994681193 0 -0.068008023874607193 0.1194813826226566 0 -0.066574353573826517 0.1091611438734031 0 -0.068008023874607193 0.1194813826226566 0 -0.075620772806654399 0.1047972713346316 0 -0.066574353573826517 0.1091611438734031 0 -0.068008023874607193 0.1194813826226566 0 -0.077957056184904241 0.1134158145620357 0 -0.075620772806654399 0.1047972713346316 0 -0.068008023874607193 0.1194813826226566 0 -0.075620772806654399 0.1047972713346316 0 -0.079964733767734122 0.12668506296934109 0 -0.077957056184904241 0.1134158145620357 0 -0.086534582504385088 0.1156474293511931 0 -0.077957056184904241 0.1134158145620357 0 -0.086534582504385088 0.1156474293511931 0 -0.083947310206231279 0.1074935535689709 0 -0.086534582504385088 0.1156474293511931 0 -0.095157466154961498 0.1222738246889692 0 -0.093760682860616423 0.1071519620079809 0 -0.086534582504385088 0.1156474293511931 0 -0.083947310206231279 0.1074935535689709 0 -0.093760682860616423 0.1071519620079809 0 -0.079964733767734122 0.12668506296934109 0 -0.086534582504385088 0.1156474293511931 0 -0.095157466154961498 0.1222738246889692 0 -0.084868150004751591 0.098297010781769723 0 -0.085645907343274513 0.087820148674278453 0 -0.093949525724613639 0.096173232947952741 0 -0.084868150004751591 0.098297010781769723 0 -0.093760682860616423 0.1071519620079809 0 -0.093949525724613639 0.096173232947952741 0 -0.083947310206231279 0.1074935535689709 0 -0.084868150004751591 0.098297010781769723 0 -0.093760682860616423 0.1071519620079809 0 -0.083947310206231279 0.1074935535689709 0 -0.084868150004751591 0.098297010781769723 0 -0.075620772806654399 0.1047972713346316 0 -0.077957056184904241 0.1134158145620357 0 -0.083947310206231279 0.1074935535689709 0 -0.075620772806654399 0.1047972713346316 0 -0.084868150004751591 0.098297010781769723 0 -0.07416284546680918 0.094668811910581629 0 -0.075620772806654399 0.1047972713346316 0 -0.07416284546680918 0.094668811910581629 0 -0.075620772806654399 0.1047972713346316 0 -0.06797342141030252 0.10030920148610591 0 -0.055667229109567583 0.088847755450422561 0 -0.07416284546680918 0.094668811910581629 0 -0.06797342141030252 0.10030920148610591 0 -0.075620772806654399 0.1047972713346316 0 -0.066574353573826517 0.1091611438734031 0 -0.06797342141030252 0.10030920148610591 0 -0.061317563763440802 0.10299561175118491 0 -0.066574353573826517 0.1091611438734031 0 -0.06797342141030252 0.10030920148610591 0 -0.055667229109567583 0.088847755450422561 0 -0.07416284546680918 0.094668811910581629 0 -0.055667229109567583 0.088847755450422561 0 -0.07416284546680918 0.094668811910581629 0 -0.068535421204038979 0.084669133357873919 0 -0.056352896539992578 0.082531333895216066 0 -0.068535421204038979 0.084669133357873919 0 -0.079954973421325709 0.072656657351692189 0 -0.068535421204038979 0.084669133357873919 0 -0.077074786858862099 0.084953687823606544 0 -0.079954973421325709 0.072656657351692189 0 -0.07416284546680918 0.094668811910581629 0 -0.068535421204038979 0.084669133357873919 0 -0.077074786858862099 0.084953687823606544 0 -0.056352896539992578 0.082531333895216066 0 -0.079954973421325709 0.072656657351692189 0 -0.056352896539992578 0.082531333895216066 0 -0.065455038900646412 0.063135680861219914 0 -0.079954973421325709 0.072656657351692189 0 -0.065455038900646412 0.063135680861219914 0 -0.079954973421325709 0.072656657351692189 0 -0.065455038900646412 0.063135680861219914 0 -0.079954973421325709 0.072656657351692189 0 -0.076524839145482512 0.060394734624827362 0 -0.079954973421325709 0.072656657351692189 0 -0.093524594780215381 0.066979376389898315 0 -0.098442440583084309 0.07567796336267002 0 -0.079954973421325709 0.072656657351692189 0 -0.087851637875022454 0.059069255740853588 0 -0.076524839145482512 0.060394734624827362 0 -0.079954973421325709 0.072656657351692189 0 -0.093524594780215381 0.066979376389898315 0 -0.079954973421325709 0.072656657351692189 0 -0.093524594780215381 0.066979376389898315 0 -0.087851637875022454 0.059069255740853588 0 -0.079954973421325709 0.072656657351692189 0 -0.085645907343274513 0.087820148674278453 0 -0.1018492251009645 0.087032905411369765 0 -0.079954973421325709 0.072656657351692189 0 -0.1018492251009645 0.087032905411369765 0 -0.079954973421325709 0.072656657351692189 0 -0.1018492251009645 0.087032905411369765 0 -0.098442440583084309 0.07567796336267002 0 -0.084868150004751591 0.098297010781769723 0 -0.07416284546680918 0.094668811910581629 0 -0.085645907343274513 0.087820148674278453 0 -0.07416284546680918 0.094668811910581629 0 -0.077074786858862099 0.084953687823606544 0 -0.085645907343274513 0.087820148674278453 0 -0.077074786858862099 0.084953687823606544 0 -0.079954973421325709 0.072656657351692189 0 -0.085645907343274513 0.087820148674278453 0 -0.085645907343274513 0.087820148674278453 0 -0.1018492251009645 0.087032905411369765 0 -0.093949525724613639 0.096173232947952741 0 -0.1018492251009645 0.087032905411369765 0 -0.098442440583084309 0.07567796336267002 0 -0.1104905068726369 0.082990227197258584 0 -0.093524594780215381 0.066979376389898315 0 -0.106392902740279 0.068730650463131246 0 -0.095695867018895209 0.061386095523021718 0 -0.093524594780215381 0.066979376389898315 0 -0.098442440583084309 0.07567796336267002 0 -0.106392902740279 0.068730650463131246 0 -0.098442440583084309 0.07567796336267002 0 -0.106392902740279 0.068730650463131246 0 -0.1104905068726369 0.082990227197258584 0 -0.106392902740279 0.068730650463131246 0 -0.1143187324205953 0.061132814960732959 0 -0.1040003188276042 0.06051796656090451 0 -0.13471537800020611 0.069932196640817734 0 -0.1158200249735767 0.081810356583590621 0 -0.1143187324205953 0.061132814960732959 0 -0.1158200249735767 0.081810356583590621 0 -0.1143187324205953 0.061132814960732959 0 -0.106392902740279 0.068730650463131246 0 -0.1158200249735767 0.081810356583590621 0 -0.1143187324205953 0.061132814960732959 0 -0.106392902740279 0.068730650463131246 0 -0.1104905068726369 0.082990227197258584 0 -0.1158200249735767 0.081810356583590621 0 -0.106392902740279 0.068730650463131246 0 -0.1158200249735767 0.081810356583590621 0 -0.1104905068726369 0.082990227197258584 0 -0.1158200249735767 0.081810356583590621 0 -0.123743476780604 0.10140915347104661 0 -0.12576525993317081 0.095608920700106598 0 -0.1158200249735767 0.081810356583590621 0 -0.123743476780604 0.10140915347104661 0 -0.1018492251009645 0.087032905411369765 0 -0.1104905068726369 0.082990227197258584 0 -0.123743476780604 0.10140915347104661 0 -0.12576525993317081 0.095608920700106598 0 -0.1158200249735767 0.081810356583590621 0 -0.1018492251009645 0.087032905411369765 0 -0.123743476780604 0.10140915347104661 0 -0.10362366331346121 0.1005641378643648 0 -0.123743476780604 0.10140915347104661 0 -0.1048537663643479 0.1137288284916211 0 -0.10362366331346121 0.1005641378643648 0 -0.1018492251009645 0.087032905411369765 0 -0.123743476780604 0.10140915347104661 0 -0.12576525993317081 0.095608920700106598 0 -0.123743476780604 0.10140915347104661 0 -0.13074244959953979 0.11946175785799951 0 -0.11549744085296181 0.12506595749432459 0 -0.123743476780604 0.10140915347104661 0 -0.11549744085296181 0.12506595749432459 0 -0.123743476780604 0.10140915347104661 0 -0.1048537663643479 0.1137288284916211 0 -0.11549744085296181 0.12506595749432459 0 -0.123743476780604 0.10140915347104661 0 -0.11549744085296181 0.12506595749432459 0 -0.1048537663643479 0.1137288284916211 0 -0.095157466154961498 0.1222738246889692 0 -0.1048537663643479 0.1137288284916211 0 -0.095157466154961498 0.1222738246889692 0 -0.093760682860616423 0.1071519620079809 0 -0.1048537663643479 0.1137288284916211 0 -0.093760682860616423 0.1071519620079809 0 -0.10362366331346121 0.1005641378643648 0 -0.093760682860616423 0.1071519620079809 0 -0.093949525724613639 0.096173232947952741 0 -0.10362366331346121 0.1005641378643648 0 -0.1018492251009645 0.087032905411369765 0 -0.093949525724613639 0.096173232947952741 0 -0.10362366331346121 0.1005641378643648 0 -0.098111174817663571 0.029299933210101211 0 -0.11131614731463491 0.019777731715017489 0 -0.093270919285344131 0.021002023320940321 0 -0.099902477996615974 0.0097047614334804834 0 -0.11131614731463491 0.019777731715017489 0 -0.093270919285344131 0.021002023320940321 0 -0.098111174817663571 0.029299933210101211 0 -0.11131614731463491 0.019777731715017489 0 -0.1037154685123088 0.036850908914803658 0 -0.11131614731463491 0.019777731715017489 0 -0.1037154685123088 0.036850908914803658 0 -0.099902477996615974 0.0097047614334804834 0 -0.1099986790197032 0.001632030897992919 0 -0.11131614731463491 0.019777731715017489 0 -0.097318817554363779 -0.0057286893867275063 0 -0.099902477996615974 0.0097047614334804834 0 -0.087524390624848222 0.006688577221896419 0 -0.097318817554363779 -0.0057286893867275063 0 -0.099902477996615974 0.0097047614334804834 0 -0.1099986790197032 0.001632030897992919 0 -0.1236122261121546 -0.0078425818954372464 0 -0.13137048688310951 -0.003337023478303953 0 -0.11131614731463491 0.019777731715017489 0 -0.1099986790197032 0.001632030897992919 0 -0.11131614731463491 0.019777731715017489 0 -0.1236122261121546 -0.0078425818954372464 0 -0.1099986790197032 0.001632030897992919 0 -0.11131614731463491 0.019777731715017489 0 -0.1236122261121546 -0.0078425818954372464 0 -0.11131614731463491 0.019777731715017489 0 -0.1284208098020175 0.033179877632891097 0 -0.13460564055411489 0.01723703355858653 0 -0.11131614731463491 0.019777731715017489 0 -0.11131614731463491 0.019777731715017489 0 -0.1128174398676144 0.040455273337875242 0 -0.1284208098020175 0.033179877632891097 0 -0.11131614731463491 0.019777731715017489 0 -0.1128174398676144 0.040455273337875242 0 -0.12657932631233151 0.049909814768299969 0 -0.1284208098020175 0.033179877632891097 0 -0.1128174398676144 0.040455273337875242 0 -0.12657932631233151 0.049909814768299969 0 -0.1128174398676144 0.040455273337875242 0 -0.1143187324205953 0.061132814960732959 0 -0.1128174398676144 0.040455273337875242 0 -0.1143187324205953 0.061132814960732959 0 -0.1082223027228006 0.050485275180462093 0 -0.1128174398676144 0.040455273337875242 0 -0.1143187324205953 0.061132814960732959 0 -0.1143187324205953 0.061132814960732959 0 -0.10610639822075781 0.055771586811031351 0 -0.1082223027228006 0.050485275180462093 0 -0.1025152677102278 0.050750948389364392 0 -0.096114789709981496 0.053924086114589299 0 -0.1037154685123088 0.036850908914803658 0 -0.106392902740279 0.068730650463131246 0 -0.1040003188276042 0.06051796656090451 0 -0.096965780506980889 0.055650944342672051 0 -0.106392902740279 0.068730650463131246 0 -0.096965780506980889 0.055650944342672051 0 -0.1143187324205953 0.061132814960732959 0 -0.1040003188276042 0.06051796656090451 0 -0.10610639822075781 0.055771586811031351 0 -0.1040003188276042 0.06051796656090451 0 -0.10610639822075781 0.055771586811031351 0 -0.1014753694225613 0.055970928963692809 0 -0.10610639822075781 0.055771586811031351 0 -0.1025152677102278 0.050750948389364392 0 -0.1014753694225613 0.055970928963692809 0 -0.10610639822075781 0.055771586811031351 0 -0.1082223027228006 0.050485275180462093 0 -0.1025152677102278 0.050750948389364392 0 -0.1082223027228006 0.050485275180462093 0 -0.1025152677102278 0.050750948389364392 0 -0.1067356553623631 0.044178634216678392 0 -0.096408734094846682 0.047028599374544268 0 -0.094016665615900177 0.045027451179461733 0 -0.091788012541196298 0.052311951289322388 0 -0.096114789709981496 0.053924086114589299 0 -0.093744419191978248 0.056500250678553403 0 -0.091788012541196298 0.052311951289322388 0 -0.096408734094846682 0.047028599374544268 0 -0.096114789709981496 0.053924086114589299 0 -0.091788012541196298 0.052311951289322388 0 -0.096114789709981496 0.053924086114589299 0 -0.099124967027144822 0.054450492792824511 0 -0.096965780506980889 0.055650944342672051 0 -0.1025152677102278 0.050750948389364392 0 -0.096114789709981496 0.053924086114589299 0 -0.099124967027144822 0.054450492792824511 0 -0.1025152677102278 0.050750948389364392 0 -0.099124967027144822 0.054450492792824511 0 -0.1014753694225613 0.055970928963692809 0 -0.106392902740279 0.068730650463131246 0 -0.096965780506980889 0.055650944342672051 0 -0.095695867018895209 0.061386095523021718 0 -0.1040003188276042 0.06051796656090451 0 -0.1014753694225613 0.055970928963692809 0 -0.096965780506980889 0.055650944342672051 0 -0.099124967027144822 0.054450492792824511 0 -0.1014753694225613 0.055970928963692809 0 -0.096965780506980889 0.055650944342672051 0 -0.096965780506980889 0.055650944342672051 0 -0.095695867018895209 0.061386095523021718 0 -0.093744419191978248 0.056500250678553403 0 -0.096114789709981496 0.053924086114589299 0 -0.096965780506980889 0.055650944342672051 0 -0.093744419191978248 0.056500250678553403 0 -0.096408734094846682 0.047028599374544268 0 -0.096114789709981496 0.053924086114589299 0 -0.1037154685123088 0.036850908914803658 0 -0.11131614731463491 0.019777731715017489 0 -0.1128174398676144 0.040455273337875242 0 -0.1037154685123088 0.036850908914803658 0 -0.096114789709981496 0.053924086114589299 0 -0.1037154685123088 0.036850908914803658 0 -0.1128174398676144 0.040455273337875242 0 -0.1037154685123088 0.036850908914803658 0 -0.1067356553623631 0.044178634216678392 0 -0.1128174398676144 0.040455273337875242 0 -0.1082223027228006 0.050485275180462093 0 -0.1067356553623631 0.044178634216678392 0 -0.1025152677102278 0.050750948389364392 0 -0.1037154685123088 0.036850908914803658 0 -0.1067356553623631 0.044178634216678392 0 -0.096408734094846682 0.047028599374544268 0 -0.1037154685123088 0.036850908914803658 0 -0.094016665615900177 0.045027451179461733 0 -0.1037154685123088 0.036850908914803658 0 -0.094016665615900177 0.045027451179461733 0 -0.094491571965461013 0.037104767562455593 0 -0.098111174817663571 0.029299933210101211 0 -0.1037154685123088 0.036850908914803658 0 -0.094491571965461013 0.037104767562455593 0 -0.098111174817663571 0.029299933210101211 0 -0.094491571965461013 0.037104767562455593 0 -0.087647185425064736 0.031842659612238623 0 -0.087647185425064736 0.031842659612238623 0 -0.089854685869044451 0.040908764775179712 0 -0.081629424010395357 0.041419166804349421 0 -0.094491571965461013 0.037104767562455593 0 -0.087647185425064736 0.031842659612238623 0 -0.089854685869044451 0.040908764775179712 0 -0.089854685869044451 0.040908764775179712 0 -0.081629424010395357 0.041419166804349421 0 -0.086707275669269182 0.049908642651155542 0 -0.094016665615900177 0.045027451179461733 0 -0.089854685869044451 0.040908764775179712 0 -0.086707275669269182 0.049908642651155542 0 -0.094016665615900177 0.045027451179461733 0 -0.094491571965461013 0.037104767562455593 0 -0.089854685869044451 0.040908764775179712 0 -0.087647185425064736 0.031842659612238623 0 -0.081629424010395357 0.041419166804349421 0 -0.076164181077954182 0.032009494226678391 0 -0.095695867018895209 0.061386095523021718 0 -0.087851637875022454 0.059069255740853588 0 -0.093744419191978248 0.056500250678553403 0 -0.093524594780215381 0.066979376389898315 0 -0.095695867018895209 0.061386095523021718 0 -0.087851637875022454 0.059069255740853588 0 -0.087851637875022454 0.059069255740853588 0 -0.093744419191978248 0.056500250678553403 0 -0.091788012541196298 0.052311951289322388 0 -0.087851637875022454 0.059069255740853588 0 -0.091788012541196298 0.052311951289322388 0 -0.086707275669269182 0.049908642651155542 0 -0.094016665615900177 0.045027451179461733 0 -0.091788012541196298 0.052311951289322388 0 -0.086707275669269182 0.049908642651155542 0 -0.086707275669269182 0.049908642651155542 0 -0.081818850965788142 0.055238295402956307 0 -0.077896340682555187 0.050949615115596543 0 -0.081629424010395357 0.041419166804349421 0 -0.086707275669269182 0.049908642651155542 0 -0.077896340682555187 0.050949615115596543 0 -0.087851637875022454 0.059069255740853588 0 -0.086707275669269182 0.049908642651155542 0 -0.081818850965788142 0.055238295402956307 0 -0.081818850965788142 0.055238295402956307 0 -0.076524839145482512 0.060394734624827362 0 -0.077896340682555187 0.050949615115596543 0 -0.087851637875022454 0.059069255740853588 0 -0.081818850965788142 0.055238295402956307 0 -0.076524839145482512 0.060394734624827362 0 -0.076524839145482512 0.060394734624827362 0 -0.077896340682555187 0.050949615115596543 0 -0.069328576095109715 0.053744354209428961 0 -0.065455038900646412 0.063135680861219914 0 -0.076524839145482512 0.060394734624827362 0 -0.069328576095109715 0.053744354209428961 0 -0.077896340682555187 0.050949615115596543 0 -0.069328576095109715 0.053744354209428961 0 -0.071506875338484571 0.042895824445247768 0 -0.069328576095109715 0.053744354209428961 0 -0.071506875338484571 0.042895824445247768 0 -0.059557339835071388 0.053011753697425897 0 -0.065455038900646412 0.063135680861219914 0 -0.069328576095109715 0.053744354209428961 0 -0.059557339835071388 0.053011753697425897 0 -0.076164181077954182 0.032009494226678391 0 -0.071506875338484571 0.042895824445247768 0 -0.062761783130148519 0.02349217349963555 0 -0.071506875338484571 0.042895824445247768 0 -0.062761783130148519 0.02349217349963555 0 -0.059557339835071388 0.053011753697425897 0 -0.081629424010395357 0.041419166804349421 0 -0.076164181077954182 0.032009494226678391 0 -0.071506875338484571 0.042895824445247768 0 -0.081629424010395357 0.041419166804349421 0 -0.077896340682555187 0.050949615115596543 0 -0.071506875338484571 0.042895824445247768 0 -0.076164181077954182 0.032009494226678391 0 -0.062761783130148519 0.02349217349963555 0 -0.078304733749917463 0.018406078267593839 0 -0.087647185425064736 0.031842659612238623 0 -0.076164181077954182 0.032009494226678391 0 -0.078304733749917463 0.018406078267593839 0 -0.098111174817663571 0.029299933210101211 0 -0.087647185425064736 0.031842659612238623 0 -0.093270919285344131 0.021002023320940321 0 -0.087647185425064736 0.031842659612238623 0 -0.078304733749917463 0.018406078267593839 0 -0.093270919285344131 0.021002023320940321 0 -0.099902477996615974 0.0097047614334804834 0 -0.093270919285344131 0.021002023320940321 0 -0.087524390624848222 0.006688577221896419 0 -0.078304733749917463 0.018406078267593839 0 -0.093270919285344131 0.021002023320940321 0 -0.087524390624848222 0.006688577221896419 0 -0.065966226425225663 -0.0060274066981548767 0 -0.062761783130148519 0.02349217349963555 0 -0.078304733749917463 0.018406078267593839 0 -0.065966226425225663 -0.0060274066981548767 0 -0.078304733749917463 0.018406078267593839 0 -0.087524390624848222 0.006688577221896419 0 -0.065966226425225663 -0.0060274066981548767 0 -0.062761783130148519 0.02349217349963555 0 -0.065966226425225663 -0.0060274066981548767 0 -0.062761783130148519 0.02349217349963555 0 -0.041285176168578859 0.002941795093874656 0 -0.062761783130148519 0.02349217349963555 0 -0.036272784281526353 0.030700192342145501 0 -0.041285176168578859 0.002941795093874656 0 -0.036272784281526353 0.030700192342145501 0 -0.041285176168578859 0.002941795093874656 0 -0.01693898921702304 0.0117618500821222 0 -0.048521472395479701 0.069705355416953899 0 -0.048543751051203898 0.057697742817346243 0 -0.059557339835071388 0.053011753697425897 0 -0.048543751051203898 0.057697742817346243 0 -0.059557339835071388 0.053011753697425897 0 -0.04189961413571635 0.0481337511233643 0 -0.062761783130148519 0.02349217349963555 0 -0.059557339835071388 0.053011753697425897 0 -0.062761783130148519 0.02349217349963555 0 -0.036272784281526353 0.030700192342145501 0 -0.04189961413571635 0.0481337511233643 0 -0.062761783130148519 0.02349217349963555 0 -0.059557339835071388 0.053011753697425897 0 -0.04189961413571635 0.0481337511233643 0 -0.036272784281526353 0.030700192342145501 0 -0.04189961413571635 0.0481337511233643 0 -0.022255981323007819 0.049811798938199467 0 -0.042000822527735973 0.064880087355207783 0 -0.048543751051203898 0.057697742817346243 0 -0.04189961413571635 0.0481337511233643 0 -0.02897814582929455 0.062873885781940531 0 -0.042000822527735973 0.064880087355207783 0 -0.04189961413571635 0.0481337511233643 0 -0.02897814582929455 0.062873885781940531 0 -0.022255981323007819 0.049811798938199467 0 -0.01123722517146284 0.061714947321965113 0 -0.02897814582929455 0.062873885781940531 0 -0.04189961413571635 0.0481337511233643 0 -0.022255981323007819 0.049811798938199467 0 -0.036272784281526353 0.030700192342145501 0 -0.022255981323007819 0.049811798938199467 0 -0.01438021634244922 0.03170234610626791 0 -0.01438021634244922 0.03170234610626791 0 0.0022615025708572051 0.02103125876278546 0 0.0031430691038015031 0.043008717564808917 0 -0.022255981323007819 0.049811798938199467 0 -0.01438021634244922 0.03170234610626791 0 0.0031430691038015031 0.043008717564808917 0 -0.022255981323007819 0.049811798938199467 0 -0.01123722517146284 0.061714947321965113 0 0.0031430691038015031 0.043008717564808917 0 -0.01123722517146284 0.061714947321965113 0 0.0031430691038015031 0.043008717564808917 0 0.0078113760670387236 0.068869370431613411 0 -0.018090432812363919 -0.0051789454257338127 0 -0.041285176168578859 0.002941795093874656 0 -0.01693898921702304 0.0117618500821222 0 -0.036272784281526353 0.030700192342145501 0 -0.01693898921702304 0.0117618500821222 0 -0.036272784281526353 0.030700192342145501 0 -0.01438021634244922 0.03170234610626791 0 -0.01693898921702304 0.0117618500821222 0 -0.01438021634244922 0.03170234610626791 0 -0.01693898921702304 0.0117618500821222 0 0.0022615025708572051 0.02103125876278546 0 -0.01693898921702304 0.0117618500821222 0 0.002394805847480138 -0.0071764921779012506 0 -0.01693898921702304 0.0117618500821222 0 0.0022615025708572051 0.02103125876278546 0 0.002394805847480138 -0.0071764921779012506 0 0.0022615025708572051 0.02103125876278546 0 0.01988593924933146 0.01021281285273932 0 0.002394805847480138 -0.0071764921779012506 0 0.01988593924933146 0.01021281285273932 0 0.018044735406519189 -0.0027914786915071068 0 0.002394805847480138 -0.0071764921779012506 0 0.01988593924933146 0.01021281285273932 0 0.002394805847480138 -0.0071764921779012506 0 0.0022615025708572051 0.02103125876278546 0 0.01988593924933146 0.01021281285273932 0 0.01967507988536589 0.033248318378640847 0 0.01988593924933146 0.01021281285273932 0 0.037377072651182792 0.027602117883379889 0 0.01988593924933146 0.01021281285273932 0 0.01967507988536589 0.033248318378640847 0 0.037377072651182792 0.027602117883379889 0 0.01988593924933146 0.01021281285273932 0 0.035622497167505339 0.0063925700628825917 0 0.018044735406519189 -0.0027914786915071068 0 0.01988593924933146 0.01021281285273932 0 0.035622497167505339 0.0063925700628825917 0 0.037377072651182792 0.027602117883379889 0 0.0031430691038015031 0.043008717564808917 0 0.019783223174817739 0.050872415177661792 0 0.0078113760670387236 0.068869370431613411 0 0.0031430691038015031 0.043008717564808917 0 0.0078113760670387236 0.068869370431613411 0 0.0031430691038015031 0.043008717564808917 0 0.01967507988536589 0.033248318378640847 0 0.019783223174817739 0.050872415177661792 0 0.0022615025708572051 0.02103125876278546 0 0.0031430691038015031 0.043008717564808917 0 0.01967507988536589 0.033248318378640847 0 0.01967507988536589 0.033248318378640847 0 0.019783223174817739 0.050872415177661792 0 0.035662389103733989 0.047481221614176811 0 0.01967507988536589 0.033248318378640847 0 0.035662389103733989 0.047481221614176811 0 0.037377072651182792 0.027602117883379889 0 0.019783223174817739 0.050872415177661792 0 0.035662389103733989 0.047481221614176811 0 0.032141493454138102 0.060275729162332752 0 0.019783223174817739 0.050872415177661792 0 0.021142096610139102 0.064673842397447556 0 0.0078113760670387236 0.068869370431613411 0 0.019783223174817739 0.050872415177661792 0 0.032141493454138102 0.060275729162332752 0 0.021142096610139102 0.064673842397447556 0 0.035662389103733989 0.047481221614176811 0 0.032141493454138102 0.060275729162332752 0 0.049290572992936238 0.066355209737614357 0 0.035662389103733989 0.047481221614176811 0 0.054868206053034503 0.044991422914020113 0 0.049290572992936238 0.066355209737614357 0 0.054868206053034503 0.044991422914020113 0 0.037377072651182792 0.027602117883379889 0 0.035662389103733989 0.047481221614176811 0 0.054868206053034503 0.044991422914020113 0 0.037377072651182792 0.027602117883379889 0 0.054868206053034503 0.044991422914020113 0 0.037377072651182792 0.027602117883379889 0 0.059466454908930037 0.027378932586910581 0 0.054868206053034503 0.044991422914020113 0 0.059466454908930037 0.027378932586910581 0 0.054868206053034503 0.044991422914020113 0 0.049290572992936238 0.066355209737614357 0 0.054868206053034503 0.044991422914020113 0 0.067806688972275458 0.057854581689803772 0 0.049290572992936238 0.066355209737614357 0 0.054868206053034503 0.044991422914020113 0 0.067806688972275458 0.057854581689803772 0 0.035622497167505339 0.0063925700628825917 0 0.048661329883321183 0.016868832195515299 0 0.04884534130661923 0.0054823796607835363 0 0.035622497167505339 0.0063925700628825917 0 0.04884534130661923 0.0054823796607835363 0 0.045210290485040869 -0.0034719151203993228 0 0.035622497167505339 0.0063925700628825917 0 0.037377072651182792 0.027602117883379889 0 0.048661329883321183 0.016868832195515299 0 0.037377072651182792 0.027602117883379889 0 0.048661329883321183 0.016868832195515299 0 0.059466454908930037 0.027378932586910581 0 0.048661329883321183 0.016868832195515299 0 0.059466454908930037 0.027378932586910581 0 0.059551554903704583 0.012329945274186901 0 0.048661329883321183 0.016868832195515299 0 0.059551554903704583 0.012329945274186901 0 0.04884534130661923 0.0054823796607835363 0 0.04884534130661923 0.0054823796607835363 0 0.058196269712748661 -0.0010094984802769141 0 0.045210290485040869 -0.0034719151203993228 0 0.059551554903704583 0.012329945274186901 0 0.04884534130661923 0.0054823796607835363 0 0.058196269712748661 -0.0010094984802769141 0 0.059551554903704583 0.012329945274186901 0 0.070381517258247442 0.0054324954822656396 0 0.058196269712748661 -0.0010094984802769141 0 0.059551554903704583 0.012329945274186901 0 0.070381517258247442 0.0054324954822656396 0 0.071076364355982968 0.019572888861291889 0 0.070381517258247442 0.0054324954822656396 0 0.083131704911828669 0.010948624559543209 0 0.071076364355982968 0.019572888861291889 0 0.083131704911828669 0.010948624559543209 0 0.096167504599054904 0.0042442054759202954 0 0.09879577097810871 0.02017555683513389 0 0.070381517258247442 0.0054324954822656396 0 0.083131704911828669 0.010948624559543209 0 0.081717153665888317 -0.0025063239881197622 0 0.083131704911828669 0.010948624559543209 0 0.096167504599054904 0.0042442054759202954 0 0.081717153665888317 -0.0025063239881197622 0 0.083131704911828669 0.010948624559543209 0 0.084020254894405358 0.02481244236443322 0 0.09879577097810871 0.02017555683513389 0 0.084020254894405358 0.02481244236443322 0 0.089449236229465365 0.03685286092118592 0 0.09879577097810871 0.02017555683513389 0 0.083131704911828669 0.010948624559543209 0 0.084020254894405358 0.02481244236443322 0 0.071076364355982968 0.019572888861291889 0 0.084020254894405358 0.02481244236443322 0 0.071076364355982968 0.019572888861291889 0 0.073196751006103261 0.040000434485980937 0 0.059466454908930037 0.027378932586910581 0 0.071076364355982968 0.019572888861291889 0 0.073196751006103261 0.040000434485980937 0 0.059466454908930037 0.027378932586910581 0 0.059551554903704583 0.012329945274186901 0 0.071076364355982968 0.019572888861291889 0 0.054868206053034503 0.044991422914020113 0 0.059466454908930037 0.027378932586910581 0 0.073196751006103261 0.040000434485980937 0 0.073196751006103261 0.040000434485980937 0 0.067806688972275458 0.057854581689803772 0 0.092977810154944648 0.053070117425326267 0 0.054868206053034503 0.044991422914020113 0 0.073196751006103261 0.040000434485980937 0 0.067806688972275458 0.057854581689803772 0 0.092977810154944648 0.053070117425326267 0 0.080745171891517087 0.070717740465586792 0 0.067806688972275458 0.057854581689803772 0 0.092977810154944648 0.053070117425326267 0 0.080745171891517087 0.070717740465586792 0 0.084020254894405358 0.02481244236443322 0 0.073196751006103261 0.040000434485980937 0 0.089449236229465365 0.03685286092118592 0 0.073196751006103261 0.040000434485980937 0 0.092977810154944648 0.053070117425326267 0 0.089449236229465365 0.03685286092118592 0 0.092977810154944648 0.053070117425326267 0 0.10521044841837041 0.035422494385064417 0 0.092977810154944648 0.053070117425326267 0 0.089449236229465365 0.03685286092118592 0 0.10521044841837041 0.035422494385064417 0 0.092977810154944648 0.053070117425326267 0 0.1133392402374467 0.053204142399891047 0 0.1035655079248483 0.069632380985197889 0 0.092977810154944648 0.053070117425326267 0 0.10521044841837041 0.035422494385064417 0 0.1133392402374467 0.053204142399891047 0 0.1133392402374467 0.053204142399891047 0 0.1220245952479405 0.07004619687739172 0 0.13318341665519781 0.054736537254868822 0 0.1133392402374467 0.053204142399891047 0 0.12506256882025399 0.035699134337412737 0 0.13318341665519781 0.054736537254868822 0 0.10521044841837041 0.035422494385064417 0 0.1133392402374467 0.053204142399891047 0 0.12506256882025399 0.035699134337412737 0 0.10521044841837041 0.035422494385064417 0 0.11744308668179609 0.017774871344802521 0 0.12506256882025399 0.035699134337412737 0 0.10521044841837041 0.035422494385064417 0 0.11744308668179609 0.017774871344802521 0 0.10847276501169199 0.0092252325767439008 0 0.12681727907172599 0.0028609529651058472 0 0.11158832231026521 -0.002538519333972472 0 0.11744308668179609 0.017774871344802521 0 0.10847276501169199 0.0092252325767439008 0 0.12681727907172599 0.0028609529651058472 0 0.10847276501169199 0.0092252325767439008 0 0.096167504599054904 0.0042442054759202954 0 0.09879577097810871 0.02017555683513389 0 0.10847276501169199 0.0092252325767439008 0 0.096167504599054904 0.0042442054759202954 0 0.11158832231026521 -0.002538519333972472 0 0.10521044841837041 0.035422494385064417 0 0.11744308668179609 0.017774871344802521 0 0.09879577097810871 0.02017555683513389 0 0.089449236229465365 0.03685286092118592 0 0.10521044841837041 0.035422494385064417 0 0.09879577097810871 0.02017555683513389 0 0.11744308668179609 0.017774871344802521 0 0.10847276501169199 0.0092252325767439008 0 0.09879577097810871 0.02017555683513389 0 0.10882650996042049 0.098635597023528671 0 0.099321881767187231 0.10979448526446239 0 0.11057203073837581 0.10974959828000851 0 0.10882650996042049 0.098635597023528671 0 0.099321881767187231 0.10979448526446239 0 0.093532106097527157 0.097201512098380446 0 0.099321881767187231 0.10979448526446239 0 0.10718004060487731 0.1186919078288297 0 0.094925170845575335 0.12812185349131111 0 0.099321881767187231 0.10979448526446239 0 0.10718004060487731 0.1186919078288297 0 0.11057203073837581 0.10974959828000851 0 0.10718004060487731 0.1186919078288297 0 0.11057203073837581 0.10974959828000851 0 0.11923934643535521 0.1171320194813406 0 0.11923934643535521 0.1171320194813406 0 0.11184177323789279 0.12866158262702601 0 0.12877089149896251 0.12628235461406201 0 0.11057203073837581 0.10974959828000851 0 0.11923934643535521 0.1171320194813406 0 0.1204523462490521 0.10350528248164099 0 0.10718004060487731 0.1186919078288297 0 0.11923934643535521 0.1171320194813406 0 0.11184177323789279 0.12866158262702601 0 0.11923934643535521 0.1171320194813406 0 0.1204523462490521 0.10350528248164099 0 0.13278919984088661 0.11230677671938701 0 0.10882650996042049 0.098635597023528671 0 0.1204523462490521 0.10350528248164099 0 0.1175203890912727 0.086079419998433368 0 0.1204523462490521 0.10350528248164099 0 0.1175203890912727 0.086079419998433368 0 0.13376660142800201 0.097128283387147629 0 0.10882650996042049 0.098635597023528671 0 0.11057203073837581 0.10974959828000851 0 0.1204523462490521 0.10350528248164099 0 0.1175203890912727 0.086079419998433368 0 0.1220245952479405 0.07004619687739172 0 0.1035655079248483 0.069632380985197889 0 0.1133392402374467 0.053204142399891047 0 0.1220245952479405 0.07004619687739172 0 0.1035655079248483 0.069632380985197889 0 0.1175203890912727 0.086079419998433368 0 0.1035655079248483 0.069632380985197889 0 0.094785840925968687 0.084676668744557898 0 0.10882650996042049 0.098635597023528671 0 0.1175203890912727 0.086079419998433368 0 0.094785840925968687 0.084676668744557898 0 0.10882650996042049 0.098635597023528671 0 0.094785840925968687 0.084676668744557898 0 0.10882650996042049 0.098635597023528671 0 0.094785840925968687 0.084676668744557898 0 0.093532106097527157 0.097201512098380446 0 0.094785840925968687 0.084676668744557898 0 0.083309168386930019 0.090214104788044758 0 0.093532106097527157 0.097201512098380446 0 0.094785840925968687 0.084676668744557898 0 0.083309168386930019 0.090214104788044758 0 0.080745171891517087 0.070717740465586792 0 0.092977810154944648 0.053070117425326267 0 0.1035655079248483 0.069632380985197889 0 0.080745171891517087 0.070717740465586792 0 0.1035655079248483 0.069632380985197889 0 0.094785840925968687 0.084676668744557898 0 0.080745171891517087 0.070717740465586792 0 0.094785840925968687 0.084676668744557898 0 0.080745171891517087 0.070717740465586792 0 0.067806688972275458 0.057854581689803772 0 0.080745171891517087 0.070717740465586792 0 0.06101355018332804 0.07564509050647375 0 0.067806688972275458 0.057854581689803772 0 0.080745171891517087 0.070717740465586792 0 0.080745171891517087 0.070717740465586792 0 0.063512377127071362 0.095578924078155048 0 0.083309168386930019 0.090214104788044758 0 0.080745171891517087 0.070717740465586792 0 0.063512377127071362 0.095578924078155048 0 0.080745171891517087 0.070717740465586792 0 0.063512377127071362 0.095578924078155048 0 0.06101355018332804 0.07564509050647375 0 0.083309168386930019 0.090214104788044758 0 0.063512377127071362 0.095578924078155048 0 0.081417129447129324 0.1026867046713085 0 0.063512377127071362 0.095578924078155048 0 0.081417129447129324 0.1026867046713085 0 0.063512377127071362 0.095578924078155048 0 0.081417129447129324 0.1026867046713085 0 0.067817743154455989 0.1135840018968045 0 0.099321881767187231 0.10979448526446239 0 0.081417129447129324 0.1026867046713085 0 0.093532106097527157 0.097201512098380446 0 0.099321881767187231 0.10979448526446239 0 0.081417129447129324 0.1026867046713085 0 0.083309168386930019 0.090214104788044758 0 0.081417129447129324 0.1026867046713085 0 0.093532106097527157 0.097201512098380446 0 0.099321881767187231 0.10979448526446239 0 0.081417129447129324 0.1026867046713085 0 0.08262403040743542 0.1174427642681065 0 0.099321881767187231 0.10979448526446239 0 0.08262403040743542 0.1174427642681065 0 0.094925170845575335 0.12812185349131111 0 0.067817743154455989 0.1135840018968045 0 0.056785074219297037 0.123962922715022 0 0.069638226822829233 0.13302677601664631 0 0.08262403040743542 0.1174427642681065 0 0.067817743154455989 0.1135840018968045 0 0.069638226822829233 0.13302677601664631 0 0.081417129447129324 0.1026867046713085 0 0.08262403040743542 0.1174427642681065 0 0.067817743154455989 0.1135840018968045 0 0.067817743154455989 0.1135840018968045 0 0.056785074219297037 0.123962922715022 0 0.051472524226887043 0.11294842204475181 0 0.056785074219297037 0.123962922715022 0 0.051472524226887043 0.11294842204475181 0 0.045358146108277778 0.122235841909611 0 0.063512377127071362 0.095578924078155048 0 0.067817743154455989 0.1135840018968045 0 0.051472524226887043 0.11294842204475181 0 0.063512377127071362 0.095578924078155048 0 0.04894346805059932 0.099918275759685315 0 0.043712939932840048 0.087718996561209156 0 0.063512377127071362 0.095578924078155048 0 0.051472524226887043 0.11294842204475181 0 0.04894346805059932 0.099918275759685315 0 0.063512377127071362 0.095578924078155048 0 0.051472524226887043 0.11294842204475181 0 0.038417021745327531 0.1080037420749501 0 0.043712939932840048 0.087718996561209156 0 0.028330160343379221 0.096092512071592709 0 0.051472524226887043 0.11294842204475181 0 0.04894346805059932 0.099918275759685315 0 0.038417021745327531 0.1080037420749501 0 0.04894346805059932 0.099918275759685315 0 0.038417021745327531 0.1080037420749501 0 0.043712939932840048 0.087718996561209156 0 0.038417021745327531 0.1080037420749501 0 0.043712939932840048 0.087718996561209156 0 0.038417021745327531 0.1080037420749501 0 0.028403759718925791 0.1183090902513565 0 0.03312110355781811 0.12828848758869171 0 0.038417021745327531 0.1080037420749501 0 0.03312110355781811 0.12828848758869171 0 0.038417021745327531 0.1080037420749501 0 0.045358146108277778 0.122235841909611 0 0.03312110355781811 0.12828848758869171 0 0.051472524226887043 0.11294842204475181 0 0.038417021745327531 0.1080037420749501 0 0.045358146108277778 0.122235841909611 0 0.06101355018332804 0.07564509050647375 0 0.049290572992936238 0.066355209737614357 0 0.043712939932840048 0.087718996561209156 0 0.067806688972275458 0.057854581689803772 0 0.06101355018332804 0.07564509050647375 0 0.049290572992936238 0.066355209737614357 0 0.063512377127071362 0.095578924078155048 0 0.06101355018332804 0.07564509050647375 0 0.043712939932840048 0.087718996561209156 0 0.063512377127071362 0.095578924078155048 0 0.043712939932840048 0.087718996561209156 0 0.043712939932840048 0.087718996561209156 0 0.034829185389063419 0.071995956884763276 0 0.02079066235970875 0.078619372239532512 0 0.043712939932840048 0.087718996561209156 0 0.02079066235970875 0.078619372239532512 0 0.032141493454138102 0.060275729162332752 0 0.049290572992936238 0.066355209737614357 0 0.034829185389063419 0.071995956884763276 0 0.049290572992936238 0.066355209737614357 0 0.043712939932840048 0.087718996561209156 0 0.049290572992936238 0.066355209737614357 0 0.043712939932840048 0.087718996561209156 0 0.034829185389063419 0.071995956884763276 0 0.032141493454138102 0.060275729162332752 0 0.034829185389063419 0.071995956884763276 0 0.021142096610139102 0.064673842397447556 0 0.034829185389063419 0.071995956884763276 0 0.021142096610139102 0.064673842397447556 0 0.02079066235970875 0.078619372239532512 0 0.021142096610139102 0.064673842397447556 0 0.02079066235970875 0.078619372239532512 0 0.0078113760670387236 0.068869370431613411 0 0.043712939932840048 0.087718996561209156 0 0.02079066235970875 0.078619372239532512 0 0.028330160343379221 0.096092512071592709 0 0.02079066235970875 0.078619372239532512 0 0.028330160343379221 0.096092512071592709 0 0.013121597576430799 0.098285986815611973 0 -0.0022168413230157229 0.085736250976024914 0 0.0078113760670387236 0.068869370431613411 0 0.013121597576430799 0.098285986815611973 0 0.02079066235970875 0.078619372239532512 0 0.0078113760670387236 0.068869370431613411 0 0.013121597576430799 0.098285986815611973 0 0.0078113760670387236 0.068869370431613411 0 0.013121597576430799 0.098285986815611973 0 0.021142096610139102 0.064673842397447556 0 0.0078113760670387236 0.068869370431613411 0 0.013121597576430799 0.098285986815611973 0 0.018955942675363529 0.12769885014017149 0 0.018915766464259819 0.12208814763948179 0 0.025608580102588829 0.10783446266666021 0 0.013121597576430799 0.098285986815611973 0 0.018915766464259819 0.12208814763948179 0 0.013121597576430799 0.098285986815611973 0 0.018955942675363529 0.12769885014017149 0 0.018915766464259819 0.12208814763948179 0 0.018955942675363529 0.12769885014017149 0 0.028403759718925791 0.1183090902513565 0 0.025756287217072099 0.1254558848223972 0 0.03312110355781811 0.12828848758869171 0 0.018915766464259819 0.12208814763948179 0 0.028403759718925791 0.1183090902513565 0 0.025756287217072099 0.1254558848223972 0 0.038417021745327531 0.1080037420749501 0 0.028403759718925791 0.1183090902513565 0 0.025608580102588829 0.10783446266666021 0 0.018915766464259819 0.12208814763948179 0 0.028403759718925791 0.1183090902513565 0 0.025608580102588829 0.10783446266666021 0 0.038417021745327531 0.1080037420749501 0 0.025608580102588829 0.10783446266666021 0 0.028330160343379221 0.096092512071592709 0 0.025608580102588829 0.10783446266666021 0 0.028330160343379221 0.096092512071592709 0 0.013121597576430799 0.098285986815611973 0 -0.0093267163156350585 0.10220622611456499 0 -0.0022168413230157229 0.085736250976024914 0 0.013121597576430799 0.098285986815611973 0 -0.0093267163156350585 0.10220622611456499 0 0.013121597576430799 0.098285986815611973 0 0.0088418889268726004 0.1125261115153213 0 -0.0015382865690094869 0.1195819360983075 0 0.0088418889268726004 0.1125261115153213 0 0.0068357907514690393 0.1194307534492897 0 0.013121597576430799 0.098285986815611973 0 0.0088418889268726004 0.1125261115153213 0 0.018955942675363529 0.12769885014017149 0 0.01159030187937234 0.123800118292041 0 0.0068357907514690393 0.1194307534492897 0 0.0093864348306887096 0.12963523465885829 0 0.0088418889268726004 0.1125261115153213 0 0.01159030187937234 0.123800118292041 0 0.0068357907514690393 0.1194307534492897 0 0.0088418889268726004 0.1125261115153213 0 0.01159030187937234 0.123800118292041 0 0.018955942675363529 0.12769885014017149 0 -0.0015382865690094869 0.1195819360983075 0 0.0068357907514690393 0.1194307534492897 0 0.0028297340199113529 0.12737786763030409 0 0.0068357907514690393 0.1194307534492897 0 0.0028297340199113529 0.12737786763030409 0 0.0093864348306887096 0.12963523465885829 0 0.0028297340199113529 0.12737786763030409 0 0.0012022958327204049 0.13426380270999949 0 0.0063902301850321547 0.13414384741273511 0 0.0028297340199113529 0.12737786763030409 0 0.0063902301850321547 0.13414384741273511 0 0.0093864348306887096 0.12963523465885829 0 0.000228448927285114 0.14012311706009631 0 0.0012022958327204049 0.13426380270999949 0 0.0046739851119457828 0.13844047711548191 0 0.0012022958327204049 0.13426380270999949 0 0.0063902301850321547 0.13414384741273511 0 0.0046739851119457828 0.13844047711548191 0 0.0063902301850321547 0.13414384741273511 0 0.0046739851119457828 0.13844047711548191 0 0.0087417741184536643 0.13987837293796551 0 0.0063902301850321547 0.13414384741273511 0 0.0087417741184536643 0.13987837293796551 0 0.01188448664637911 0.13630481734698929 0 0.0087417741184536643 0.13987837293796551 0 0.01188448664637911 0.13630481734698929 0 0.01238480926519909 0.14086949425419931 0 0.0063902301850321547 0.13414384741273511 0 0.01188448664637911 0.13630481734698929 0 0.0093864348306887096 0.12963523465885829 0 0.01538181754864224 0.13462442671806851 0 0.01188448664637911 0.13630481734698929 0 0.01363814740762942 0.13063558522106289 0 0.01538181754864224 0.13462442671806851 0 0.01188448664637911 0.13630481734698929 0 0.014424460637306021 0.13832412831929569 0 0.01188448664637911 0.13630481734698929 0 0.014424460637306021 0.13832412831929569 0 0.01238480926519909 0.14086949425419931 0 0.014424460637306021 0.13832412831929569 0 0.01238480926519909 0.14086949425419931 0 0.015363480448823189 0.14129096320990631 0 0.01159030187937234 0.123800118292041 0 0.0093864348306887096 0.12963523465885829 0 0.01363814740762942 0.13063558522106289 0 0.01188448664637911 0.13630481734698929 0 0.0093864348306887096 0.12963523465885829 0 0.01363814740762942 0.13063558522106289 0 0.01159030187937234 0.123800118292041 0 0.01363814740762942 0.13063558522106289 0 0.018955942675363529 0.12769885014017149 0 0.018915766464259819 0.12208814763948179 0 0.018955942675363529 0.12769885014017149 0 0.022387711081268351 0.13069146168119281 0 0.025814451866404291 0.1323851931955756 0 0.019064338777337181 0.1428366210673169 0 0.044351282800083193 0.13793169854198151 0 0.018915766464259819 0.12208814763948179 0 0.022387711081268351 0.13069146168119281 0 0.025756287217072099 0.1254558848223972 0 0.01538181754864224 0.13462442671806851 0 0.01363814740762942 0.13063558522106289 0 0.018955942675363529 0.12769885014017149 0 0.022387711081268351 0.13069146168119281 0 0.025814451866404291 0.1323851931955756 0 0.019064338777337181 0.1428366210673169 0 0.01538181754864224 0.13462442671806851 0 0.018955942675363529 0.12769885014017149 0 0.01710770927748647 0.13853094006731531 0 0.018955942675363529 0.12769885014017149 0 0.01710770927748647 0.13853094006731531 0 0.019064338777337181 0.1428366210673169 0 0.018955942675363529 0.12769885014017149 0 0.019064338777337181 0.1428366210673169 0 0.018955942675363529 0.12769885014017149 0 0.022387711081268351 0.13069146168119281 0 0.019064338777337181 0.1428366210673169 0 0.01538181754864224 0.13462442671806851 0 0.014424460637306021 0.13832412831929569 0 0.01710770927748647 0.13853094006731531 0 0.014424460637306021 0.13832412831929569 0 0.01710770927748647 0.13853094006731531 0 0.015363480448823189 0.14129096320990631 0 0.01710770927748647 0.13853094006731531 0 0.017202595513394939 0.14154074390788901 0 0.015363480448823189 0.14129096320990631 0 0.025756287217072099 0.1254558848223972 0 0.025814451866404291 0.1323851931955756 0 0.03312110355781811 0.12828848758869171 0 0.022387711081268351 0.13069146168119281 0 0.025756287217072099 0.1254558848223972 0 0.025814451866404291 0.1323851931955756 0 0.019064338777337181 0.1428366210673169 0 0.01923932509198778 0.16727387202292701 0 0.034840635627581551 0.15270641195697809 0 0.019064338777337181 0.1428366210673169 0 0.01923932509198778 0.16727387202292701 0 0.01710770927748647 0.13853094006731531 0 0.019064338777337181 0.1428366210673169 0 0.017202595513394939 0.14154074390788901 0 0.019064338777337181 0.1428366210673169 0 0.017214352546369539 0.14319546392027949 0 0.017202595513394939 0.14154074390788901 0 0.019064338777337181 0.1428366210673169 0 0.017214352546369539 0.14319546392027949 0 0.017214352546369539 0.14319546392027949 0 0.017202595513394939 0.14154074390788901 0 0.015363480448823189 0.14129096320990631 0 0.019064338777337181 0.1428366210673169 0 0.010573304973877311 0.14810099588445341 0 0.0097219217107780143 0.1605441304936322 0 0.019064338777337181 0.1428366210673169 0 0.017214352546369539 0.14319546392027949 0 0.010573304973877311 0.14810099588445341 0 0.017214352546369539 0.14319546392027949 0 0.015363480448823189 0.14129096320990631 0 0.01311844662929992 0.14341517628664141 0 0.01238480926519909 0.14086949425419931 0 0.015363480448823189 0.14129096320990631 0 0.01311844662929992 0.14341517628664141 0 0.01238480926519909 0.14086949425419931 0 0.01311844662929992 0.14341517628664141 0 0.010056285912230499 0.14361896416436881 0 0.017214352546369539 0.14319546392027949 0 0.01311844662929992 0.14341517628664141 0 0.010573304973877311 0.14810099588445341 0 0.010573304973877311 0.14810099588445341 0 0.010056285912230499 0.14361896416436881 0 0.0052711451322874966 0.14430649706712931 0 0.01311844662929992 0.14341517628664141 0 0.010573304973877311 0.14810099588445341 0 0.010056285912230499 0.14361896416436881 0 0.0087417741184536643 0.13987837293796551 0 0.010056285912230499 0.14361896416436881 0 0.0052711451322874966 0.14430649706712931 0 0.0087417741184536643 0.13987837293796551 0 0.01238480926519909 0.14086949425419931 0 0.010056285912230499 0.14361896416436881 0 0.010573304973877311 0.14810099588445341 0 0.0052711451322874966 0.14430649706712931 0 0.002037105597096525 0.15151695060409001 0 0.0046739851119457828 0.13844047711548191 0 0.0087417741184536643 0.13987837293796551 0 0.0052711451322874966 0.14430649706712931 0 -0.001932496299644968 0.1459540675981712 0 0.0052711451322874966 0.14430649706712931 0 0.002037105597096525 0.15151695060409001 0 -0.001932496299644968 0.1459540675981712 0 0.000228448927285114 0.14012311706009631 0 0.0052711451322874966 0.14430649706712931 0 0.000228448927285114 0.14012311706009631 0 0.0046739851119457828 0.13844047711548191 0 0.0052711451322874966 0.14430649706712931 0 0.010573304973877311 0.14810099588445341 0 0.002037105597096525 0.15151695060409001 0 0.0097219217107780143 0.1605441304936322 0 -0.001399927819642065 0.15853034608675531 0 9.8439874396488518e-06 0.16909653965514321 0 0.0097219217107780143 0.1605441304936322 0 9.8439874396488518e-06 0.16909653965514321 0 0.0097219217107780143 0.1605441304936322 0 0.01923932509198778 0.16727387202292701 0 -0.001399927819642065 0.15853034608675531 0 0.002037105597096525 0.15151695060409001 0 0.0097219217107780143 0.1605441304936322 0 0.0075192663374202447 0.1824792222503463 0 0.01923932509198778 0.16727387202292701 0 0.019414311406637581 0.19171112297853721 0 9.8439874396488518e-06 0.16909653965514321 0 0.0075192663374202447 0.1824792222503463 0 0.01923932509198778 0.16727387202292701 0 -0.0058150648891281392 0.18464487058732859 0 9.8439874396488518e-06 0.16909653965514321 0 0.0075192663374202447 0.1824792222503463 0 0.01923932509198778 0.16727387202292701 0 0.019414311406637581 0.19171112297853721 0 0.01923932509198778 0.16727387202292701 0 0.041253151311174942 0.18351428487242299 0 0.019414311406637581 0.19171112297853721 0 0.019064338777337181 0.1428366210673169 0 0.0097219217107780143 0.1605441304936322 0 0.01923932509198778 0.16727387202292701 0 0.01923932509198778 0.16727387202292701 0 0.045192968381937218 0.16506141320240761 0 0.034840635627581551 0.15270641195697809 0 0.01923932509198778 0.16727387202292701 0 0.045192968381937218 0.16506141320240761 0 0.041253151311174942 0.18351428487242299 0 0.041253151311174942 0.18351428487242299 0 0.056495320393279057 0.1758938039325593 0 0.06399941055398814 0.19765529411200519 0 0.045192968381937218 0.16506141320240761 0 0.041253151311174942 0.18351428487242299 0 0.056495320393279057 0.1758938039325593 0 0.045192968381937218 0.16506141320240761 0 0.058418108920392182 0.16045602069262471 0 0.053913444208845418 0.15009958673064799 0 0.045192968381937218 0.16506141320240761 0 0.056495320393279057 0.1758938039325593 0 0.058418108920392182 0.16045602069262471 0 0.058418108920392182 0.16045602069262471 0 0.053913444208845418 0.15009958673064799 0 0.071039442700249214 0.1514151999732502 0 0.053913444208845418 0.15009958673064799 0 0.044351282800083193 0.13793169854198151 0 0.069638226822829233 0.13302677601664631 0 0.044351282800083193 0.13793169854198151 0 0.069638226822829233 0.13302677601664631 0 0.056785074219297037 0.123962922715022 0 0.045358146108277778 0.122235841909611 0 0.044351282800083193 0.13793169854198151 0 0.056785074219297037 0.123962922715022 0 0.044351282800083193 0.13793169854198151 0 0.069638226822829233 0.13302677601664631 0 0.025814451866404291 0.1323851931955756 0 0.044351282800083193 0.13793169854198151 0 0.03312110355781811 0.12828848758869171 0 0.045358146108277778 0.122235841909611 0 0.044351282800083193 0.13793169854198151 0 0.03312110355781811 0.12828848758869171 0 0.019064338777337181 0.1428366210673169 0 0.044351282800083193 0.13793169854198151 0 0.053913444208845418 0.15009958673064799 0 0.044351282800083193 0.13793169854198151 0 0.034840635627581551 0.15270641195697809 0 0.045192968381937218 0.16506141320240761 0 0.053913444208845418 0.15009958673064799 0 0.034840635627581551 0.15270641195697809 0 0.019064338777337181 0.1428366210673169 0 0.044351282800083193 0.13793169854198151 0 0.034840635627581551 0.15270641195697809 0 0.019733428038529611 0.23627651218177001 0 0.032395297456559217 0.24990448186487541 0 0.01992807415890703 0.26345930130890138 0 0.019733428038529611 0.23627651218177001 0 0.01992807415890703 0.26345930130890138 0 0.019733428038529611 0.23627651218177001 0 0.032900500049065431 0.23758744706011731 0 0.032395297456559217 0.24990448186487541 0 0.019733428038529611 0.23627651218177001 0 0.032900500049065431 0.23758744706011731 0 -0.0054403593235216562 0.23377016940133941 0 0.019733428038529611 0.23627651218177001 0 -0.0054403593235216562 0.23377016940133941 0 0.019733428038529611 0.23627651218177001 0 0.0051881906427589239 0.2429023142665572 0 0.019733428038529611 0.23627651218177001 0 0.0051881906427589239 0.2429023142665572 0 0.0108212759879371 0.25143582124693198 0 -0.004361582131907446 0.25012675423618741 0 0.0051881906427589239 0.2429023142665572 0 0.0108212759879371 0.25143582124693198 0 -0.0054403593235216562 0.23377016940133941 0 0.019733428038529611 0.23627651218177001 0 0.0022205822065663882 0.22338098429998751 0 0.0022205822065663882 0.22338098429998751 0 0.019589297721289551 0.2161483739341474 0 0.019733428038529611 0.23627651218177001 0 0.0022205822065663882 0.22338098429998751 0 0.019589297721289551 0.2161483739341474 0 0.019733428038529611 0.23627651218177001 0 0.019589297721289551 0.2161483739341474 0 0.034101449494264802 0.22244897456428839 0 0.019733428038529611 0.23627651218177001 0 0.019589297721289551 0.2161483739341474 0 0.019733428038529611 0.23627651218177001 0 0.034101449494264802 0.22244897456428839 0 0.032900500049065431 0.23758744706011731 0 0.019589297721289551 0.2161483739341474 0 0.019414311406637581 0.19171112297853721 0 0.041794354137638927 0.20690183402307669 0 0.019589297721289551 0.2161483739341474 0 0.041794354137638927 0.20690183402307669 0 0.019589297721289551 0.2161483739341474 0 0.019414311406637581 0.19171112297853721 0 -0.001618838316679704 0.21186515805952549 0 0.0022205822065663882 0.22338098429998751 0 0.019589297721289551 0.2161483739341474 0 -0.001618838316679704 0.21186515805952549 0 0.019589297721289551 0.2161483739341474 0 0.0047479160901643591 0.19966970600779571 0 0.0075192663374202447 0.1824792222503463 0 0.0047479160901643591 0.19966970600779571 0 0.019414311406637581 0.19171112297853721 0 0.019589297721289551 0.2161483739341474 0 0.0047479160901643591 0.19966970600779571 0 0.019414311406637581 0.19171112297853721 0 -0.0058150648891281392 0.18464487058732859 0 0.0075192663374202447 0.1824792222503463 0 0.0047479160901643591 0.19966970600779571 0 0.041253151311174942 0.18351428487242299 0 0.019414311406637581 0.19171112297853721 0 0.041794354137638927 0.20690183402307669 0 0.041253151311174942 0.18351428487242299 0 0.041794354137638927 0.20690183402307669 0 0.06399941055398814 0.19765529411200519 0 0.041794354137638927 0.20690183402307669 0 0.06399941055398814 0.19765529411200519 0 0.061093413050727782 0.21440081318481749 0 0.041794354137638927 0.20690183402307669 0 0.06399941055398814 0.19765529411200519 0 0.061093413050727782 0.21440081318481749 0 0.041794354137638927 0.20690183402307669 0 0.049967951794046297 0.22590254710105601 0 0.019589297721289551 0.2161483739341474 0 0.041794354137638927 0.20690183402307669 0 0.034101449494264802 0.22244897456428839 0 0.041794354137638927 0.20690183402307669 0 0.034101449494264802 0.22244897456428839 0 0.049967951794046297 0.22590254710105601 0 0.034101449494264802 0.22244897456428839 0 0.049967951794046297 0.22590254710105601 0 0.032900500049065431 0.23758744706011731 0 0.049967951794046297 0.22590254710105601 0 0.049298807743375681 0.24401567068345059 0 0.070152213389441304 0.23042254488525729 0 0.061093413050727782 0.21440081318481749 0 0.049967951794046297 0.22590254710105601 0 0.070152213389441304 0.23042254488525729 0 0.049298807743375681 0.24401567068345059 0 0.032900500049065431 0.23758744706011731 0 0.032395297456559217 0.24990448186487541 0 0.049967951794046297 0.22590254710105601 0 0.049298807743375681 0.24401567068345059 0 0.032900500049065431 0.23758744706011731 0 0.081494970558903312 0.2413152449973858 0 0.068539877812152941 0.25484826761588569 0 0.094153496178737847 0.25278652485753728 0 0.081494970558903312 0.2413152449973858 0 0.092408256837057293 0.22639029288367121 0 0.094153496178737847 0.25278652485753728 0 0.081494970558903312 0.2413152449973858 0 0.070152213389441304 0.23042254488525729 0 0.068539877812152941 0.25484826761588569 0 0.049298807743375681 0.24401567068345059 0 0.070152213389441304 0.23042254488525729 0 0.068539877812152941 0.25484826761588569 0 0.070152213389441304 0.23042254488525729 0 0.079553135378524209 0.21112184580269211 0 0.081494970558903312 0.2413152449973858 0 0.070152213389441304 0.23042254488525729 0 0.092408256837057293 0.22639029288367121 0 0.070152213389441304 0.23042254488525729 0 0.092408256837057293 0.22639029288367121 0 0.079553135378524209 0.21112184580269211 0 0.092408256837057293 0.22639029288367121 0 0.090685729118578778 0.2092827598877062 0 0.079553135378524209 0.21112184580269211 0 0.090685729118578778 0.2092827598877062 0 0.079553135378524209 0.21112184580269211 0 0.088954057367607559 0.19182114672012679 0 0.061093413050727782 0.21440081318481749 0 0.070152213389441304 0.23042254488525729 0 0.079553135378524209 0.21112184580269211 0 0.061093413050727782 0.21440081318481749 0 0.079553135378524209 0.21112184580269211 0 0.06399941055398814 0.19765529411200519 0 0.079553135378524209 0.21112184580269211 0 0.06399941055398814 0.19765529411200519 0 0.086204466970337151 0.18840875420093359 0 0.06399941055398814 0.19765529411200519 0 0.086204466970337151 0.18840875420093359 0 0.079553135378524209 0.21112184580269211 0 0.088954057367607559 0.19182114672012679 0 0.079553135378524209 0.21112184580269211 0 0.086204466970337151 0.18840875420093359 0 0.088954057367607559 0.19182114672012679 0 0.088954057367607559 0.19182114672012679 0 0.091738629482519291 0.1861042405989983 0 0.086204466970337151 0.18840875420093359 0 0.088954057367607559 0.19182114672012679 0 0.091738629482519291 0.1861042405989983 0 0.086204466970337151 0.18840875420093359 0 0.088954057367607559 0.19182114672012679 0 0.10188013338443321 0.1945805347119858 0 0.1223034951297057 0.2015047654836217 0 0.1018274668911264 0.2077977541443348 0 0.090685729118578778 0.2092827598877062 0 0.088954057367607559 0.19182114672012679 0 0.1018274668911264 0.2077977541443348 0 0.088954057367607559 0.19182114672012679 0 0.10188013338443321 0.1945805347119858 0 0.1018274668911264 0.2077977541443348 0 0.088954057367607559 0.19182114672012679 0 0.1018274668911264 0.2077977541443348 0 0.088954057367607559 0.19182114672012679 0 0.10188013338443321 0.1945805347119858 0 0.091738629482519291 0.1861042405989983 0 0.10188013338443321 0.1945805347119858 0 0.1223034951297057 0.2015047654836217 0 0.1143056367611561 0.17670697857169981 0 0.1223034951297057 0.2015047654836217 0 0.1018274668911264 0.2077977541443348 0 0.11470087641464451 0.22377436156854341 0 0.1223034951297057 0.2015047654836217 0 0.11470087641464451 0.22377436156854341 0 0.12985428442346111 0.22473904082679019 0 0.092408256837057293 0.22639029288367121 0 0.090685729118578778 0.2092827598877062 0 0.1018274668911264 0.2077977541443348 0 0.1018274668911264 0.2077977541443348 0 0.11470087641464451 0.22377436156854341 0 0.092408256837057293 0.22639029288367121 0 0.11470087641464451 0.22377436156854341 0 0.1077236677954151 0.23904346403323151 0 0.092408256837057293 0.22639029288367121 0 0.1018274668911264 0.2077977541443348 0 0.11470087641464451 0.22377436156854341 0 0.11470087641464451 0.22377436156854341 0 0.12757428593816261 0.239750968992752 0 0.11470087641464451 0.22377436156854341 0 0.1077236677954151 0.23904346403323151 0 0.12757428593816261 0.239750968992752 0 0.11470087641464451 0.22377436156854341 0 0.12757428593816261 0.239750968992752 0 0.12985428442346111 0.22473904082679019 0 0.1077236677954151 0.23904346403323151 0 0.12757428593816261 0.239750968992752 0 0.1197671145453226 0.2507247820991888 0 0.1077236677954151 0.23904346403323151 0 0.1197671145453226 0.2507247820991888 0 0.094153496178737847 0.25278652485753728 0 0.092408256837057293 0.22639029288367121 0 0.1077236677954151 0.23904346403323151 0 0.094153496178737847 0.25278652485753728 0 0.089241880289002096 0.14489141207420311 0 0.071039442700249214 0.1514151999732502 0 0.087740544640930687 0.16123122417456451 0 0.08262403040743542 0.1174427642681065 0 0.069638226822829233 0.13302677601664631 0 0.094925170845575335 0.12812185349131111 0 0.069638226822829233 0.13302677601664631 0 0.094925170845575335 0.12812185349131111 0 0.089241880289002096 0.14489141207420311 0 0.069638226822829233 0.13302677601664631 0 0.094925170845575335 0.12812185349131111 0 0.053913444208845418 0.15009958673064799 0 0.069638226822829233 0.13302677601664631 0 0.071039442700249214 0.1514151999732502 0 0.089241880289002096 0.14489141207420311 0 0.069638226822829233 0.13302677601664631 0 0.071039442700249214 0.1514151999732502 0 0.058418108920392182 0.16045602069262471 0 0.071039442700249214 0.1514151999732502 0 0.073612962798902823 0.17278200678333611 0 0.071039442700249214 0.1514151999732502 0 0.073612962798902823 0.17278200678333611 0 0.087740544640930687 0.16123122417456451 0 0.056495320393279057 0.1758938039325593 0 0.058418108920392182 0.16045602069262471 0 0.073612962798902823 0.17278200678333611 0 0.06399941055398814 0.19765529411200519 0 0.086204466970337151 0.18840875420093359 0 0.073612962798902823 0.17278200678333611 0 0.056495320393279057 0.1758938039325593 0 0.06399941055398814 0.19765529411200519 0 0.073612962798902823 0.17278200678333611 0 0.086204466970337151 0.18840875420093359 0 0.073612962798902823 0.17278200678333611 0 0.086204466970337151 0.18840875420093359 0 0.073612962798902823 0.17278200678333611 0 0.087615468279621078 0.1760345128920231 0 0.087615468279621078 0.1760345128920231 0 0.091738629482519291 0.1861042405989983 0 0.098780737505415703 0.17164633870228399 0 0.086204466970337151 0.18840875420093359 0 0.087615468279621078 0.1760345128920231 0 0.091738629482519291 0.1861042405989983 0 0.086204466970337151 0.18840875420093359 0 0.091738629482519291 0.1861042405989983 0 0.073612962798902823 0.17278200678333611 0 0.087615468279621078 0.1760345128920231 0 0.087740544640930687 0.16123122417456451 0 0.087615468279621078 0.1760345128920231 0 0.087740544640930687 0.16123122417456451 0 0.098780737505415703 0.17164633870228399 0 0.087740544640930687 0.16123122417456451 0 0.098780737505415703 0.17164633870228399 0 0.10582284552831139 0.15718843680556929 0 0.098780737505415703 0.17164633870228399 0 0.1143056367611561 0.17670697857169981 0 0.11439408025226031 0.1643128731168863 0 0.098780737505415703 0.17164633870228399 0 0.10582284552831139 0.15718843680556929 0 0.11439408025226031 0.1643128731168863 0 0.098780737505415703 0.17164633870228399 0 0.10582284552831139 0.15718843680556929 0 0.091738629482519291 0.1861042405989983 0 0.1143056367611561 0.17670697857169981 0 0.10188013338443321 0.1945805347119858 0 0.091738629482519291 0.1861042405989983 0 0.1143056367611561 0.17670697857169981 0 0.091738629482519291 0.1861042405989983 0 0.098780737505415703 0.17164633870228399 0 0.1143056367611561 0.17670697857169981 0 0.091738629482519291 0.1861042405989983 0 0.098780737505415703 0.17164633870228399 0 0.1223034951297057 0.2015047654836217 0 0.1143056367611561 0.17670697857169981 0 0.12984245568560021 0.18336402612102581 0 0.10582284552831139 0.15718843680556929 0 0.11439408025226031 0.1643128731168863 0 0.118827144549028 0.15045938834785799 0 0.1143056367611561 0.17670697857169981 0 0.11439408025226031 0.1643128731168863 0 0.1269873440417035 0.1621457976822499 0 0.11439408025226031 0.1643128731168863 0 0.118827144549028 0.15045938834785799 0 0.1269873440417035 0.1621457976822499 0 0.10582284552831139 0.15718843680556929 0 0.118827144549028 0.15045938834785799 0 0.1060715668831175 0.14085190817348309 0 0.118827144549028 0.15045938834785799 0 0.1060715668831175 0.14085190817348309 0 0.12165438094055341 0.1382202250837688 0 0.089241880289002096 0.14489141207420311 0 0.10582284552831139 0.15718843680556929 0 0.1060715668831175 0.14085190817348309 0 0.089241880289002096 0.14489141207420311 0 0.087740544640930687 0.16123122417456451 0 0.10582284552831139 0.15718843680556929 0 0.1060715668831175 0.14085190817348309 0 0.094925170845575335 0.12812185349131111 0 0.11184177323789279 0.12866158262702601 0 0.10718004060487731 0.1186919078288297 0 0.094925170845575335 0.12812185349131111 0 0.11184177323789279 0.12866158262702601 0 0.089241880289002096 0.14489141207420311 0 0.1060715668831175 0.14085190817348309 0 0.094925170845575335 0.12812185349131111 0 0.11184177323789279 0.12866158262702601 0 0.12165438094055341 0.1382202250837688 0 0.12877089149896251 0.12628235461406201 0 0.1060715668831175 0.14085190817348309 0 0.11184177323789279 0.12866158262702601 0 0.12165438094055341 0.1382202250837688 0 0.12877089149896251 0.12628235461406201 0 0.13720160688724839 0.13964518263404729 0 0.14559099576285081 0.1211645137464301 0 0.12165438094055341 0.1382202250837688 0 0.13720160688724839 0.13964518263404729 0 0.12165438094055341 0.1382202250837688 0 0.12877089149896251 0.12628235461406201 0 0.13720160688724839 0.13964518263404729 0 0.13720160688724839 0.13964518263404729 0 0.15632661280319129 0.13068902382275449 0 0.14559099576285081 0.1211645137464301 0 0.13720160688724839 0.13964518263404729 0 0.14559099576285081 0.1211645137464301 0 0.13720160688724839 0.13964518263404729 0 0.15632661280319129 0.13068902382275449 0 0.16429194695006341 0.14212810690262639 0 0.13720160688724839 0.13964518263404729 0 0.16429194695006341 0.14212810690262639 0 0.13720160688724839 0.13964518263404729 0 0.14941591407077959 0.14904867938194569 0 0.13673045112737631 0.1565089734740045 0 0.13720160688724839 0.13964518263404729 0 0.14941591407077959 0.14904867938194569 0 0.16429194695006341 0.14212810690262639 0 0.14941591407077959 0.14904867938194569 0 0.13673045112737631 0.1565089734740045 0 0.15943965131843141 0.15791245451710681 0 0.118827144549028 0.15045938834785799 0 0.13720160688724839 0.13964518263404729 0 0.1269873440417035 0.1621457976822499 0 0.13720160688724839 0.13964518263404729 0 0.1269873440417035 0.1621457976822499 0 0.13720160688724839 0.13964518263404729 0 0.1269873440417035 0.1621457976822499 0 0.13673045112737631 0.1565089734740045 0 0.118827144549028 0.15045938834785799 0 0.12165438094055341 0.1382202250837688 0 0.13720160688724839 0.13964518263404729 0 0.1143056367611561 0.17670697857169981 0 0.1269873440417035 0.1621457976822499 0 0.1368726440397933 0.1673097165444021 0 0.1269873440417035 0.1621457976822499 0 0.1368726440397933 0.1673097165444021 0 0.13673045112737631 0.1565089734740045 0 0.1143056367611561 0.17670697857169981 0 0.1368726440397933 0.1673097165444021 0 0.12984245568560021 0.18336402612102581 0 0.1143056367611561 0.17670697857169981 0 0.1368726440397933 0.1673097165444021 0 0.1368726440397933 0.1673097165444021 0 0.12984245568560021 0.18336402612102581 0 0.14395995749662011 0.19046676877908139 0 0.1368726440397933 0.1673097165444021 0 0.1557014301669345 0.17418450516490519 0 0.14395995749662011 0.19046676877908139 0 0.13673045112737631 0.1565089734740045 0 0.15943965131843141 0.15791245451710681 0 0.1368726440397933 0.1673097165444021 0 0.15943965131843141 0.15791245451710681 0 0.1368726440397933 0.1673097165444021 0 0.1557014301669345 0.17418450516490519 0 0.15943965131843141 0.15791245451710681 0 0.1368726440397933 0.1673097165444021 0 0.13673045112737631 0.1565089734740045 0 0.15943965131843141 0.15791245451710681 0 0.1557014301669345 0.17418450516490519 0 0.15943965131843141 0.15791245451710681 0 0.16838221510295989 0.1692040805085635 0 0.15943965131843141 0.15791245451710681 0 0.16838221510295989 0.1692040805085635 0 0.17970147406593759 0.15916468197935521 0 0.15943965131843141 0.15791245451710681 0 0.17970147406593759 0.15916468197935521 0 0.1557014301669345 0.17418450516490519 0 0.16985268287686869 0.18602950547537461 0 0.14395995749662011 0.19046676877908139 0 0.1557014301669345 0.17418450516490519 0 0.16838221510295989 0.1692040805085635 0 0.16985268287686869 0.18602950547537461 0 0.16985268287686869 0.18602950547537461 0 0.17776577537378679 0.1717491724038096 0 0.19009851561998109 0.17546705170333859 0 0.16985268287686869 0.18602950547537461 0 0.1921007491770006 0.19413511782623061 0 0.19009851561998109 0.17546705170333859 0 0.16838221510295989 0.1692040805085635 0 0.16985268287686869 0.18602950547537461 0 0.17776577537378679 0.1717491724038096 0 0.17776577537378679 0.1717491724038096 0 0.17970147406593759 0.15916468197935521 0 0.19009851561998109 0.17546705170333859 0 0.16838221510295989 0.1692040805085635 0 0.17776577537378679 0.1717491724038096 0 0.17970147406593759 0.15916468197935521 0 0.17970147406593759 0.15916468197935521 0 0.17541096916565421 0.151261742844153 0 0.19138228701287849 0.14461103117120311 0 0.17541096916565421 0.151261742844153 0 0.19138228701287849 0.14461103117120311 0 0.17541096916565421 0.151261742844153 0 0.16429194695006341 0.14212810690262639 0 0.19138228701287849 0.14461103117120311 0 0.16429194695006341 0.14212810690262639 0 0.19138228701287849 0.14461103117120311 0 0.1826996939178501 0.134395064982826 0 0.17014020092281509 0.1303647164313487 0 0.16429194695006341 0.14212810690262639 0 0.1826996939178501 0.134395064982826 0 0.16429194695006341 0.14212810690262639 0 0.19138228701287849 0.14461103117120311 0 0.1826996939178501 0.134395064982826 0 0.19400001601888209 0.1301444430180784 0 0.18282874988353909 0.12176719670840121 0 0.1826996939178501 0.134395064982826 0 0.17014020092281509 0.1303647164313487 0 0.18282874988353909 0.12176719670840121 0 0.17014020092281509 0.1303647164313487 0 0.15632661280319129 0.13068902382275449 0 0.1644083134929788 0.12014259939932 0 0.17014020092281509 0.1303647164313487 0 0.15632661280319129 0.13068902382275449 0 0.16429194695006341 0.14212810690262639 0 0.14941591407077959 0.14904867938194569 0 0.15943965131843141 0.15791245451710681 0 0.16429194695006341 0.14212810690262639 0 0.15943965131843141 0.15791245451710681 0 0.17970147406593759 0.15916468197935521 0 0.17541096916565421 0.151261742844153 0 0.15943965131843141 0.15791245451710681 0 0.17541096916565421 0.151261742844153 0 0.15943965131843141 0.15791245451710681 0 0.17541096916565421 0.151261742844153 0 0.16429194695006341 0.14212810690262639 0 0.15269041899089261 0.24018887904249059 0 0.1453807329119074 0.24866303934084041 0 0.15466915334416509 0.25190660019890743 0 0.15269041899089261 0.24018887904249059 0 0.1453807329119074 0.24866303934084041 0 0.14060451702156199 0.2357308345711725 0 0.1453807329119074 0.24866303934084041 0 0.12757428593816261 0.239750968992752 0 0.14060451702156199 0.2357308345711725 0 0.1453807329119074 0.24866303934084041 0 0.1197671145453226 0.2507247820991888 0 0.1453807329119074 0.24866303934084041 0 0.12757428593816261 0.239750968992752 0 0.1197671145453226 0.2507247820991888 0 0.14060451702156199 0.2357308345711725 0 0.12985428442346111 0.22473904082679019 0 0.14752286284338639 0.22531224465298941 0 0.12985428442346111 0.22473904082679019 0 0.14752286284338639 0.22531224465298941 0 0.1398831682024731 0.2101323370399282 0 0.12757428593816261 0.239750968992752 0 0.14060451702156199 0.2357308345711725 0 0.12985428442346111 0.22473904082679019 0 0.15269041899089261 0.24018887904249059 0 0.14752286284338639 0.22531224465298941 0 0.16513181717874489 0.22933158445530699 0 0.14752286284338639 0.22531224465298941 0 0.155775241119192 0.20863886545715829 0 0.16513181717874489 0.22933158445530699 0 0.15269041899089261 0.24018887904249059 0 0.14060451702156199 0.2357308345711725 0 0.14752286284338639 0.22531224465298941 0 0.14752286284338639 0.22531224465298941 0 0.155775241119192 0.20863886545715829 0 0.1398831682024731 0.2101323370399282 0 0.1223034951297057 0.2015047654836217 0 0.12985428442346111 0.22473904082679019 0 0.1398831682024731 0.2101323370399282 0 0.1223034951297057 0.2015047654836217 0 0.12984245568560021 0.18336402612102581 0 0.14395995749662011 0.19046676877908139 0 0.1223034951297057 0.2015047654836217 0 0.1398831682024731 0.2101323370399282 0 0.14395995749662011 0.19046676877908139 0 0.155775241119192 0.20863886545715829 0 0.1398831682024731 0.2101323370399282 0 0.14395995749662011 0.19046676877908139 0 0.16985268287686869 0.18602950547537461 0 0.155775241119192 0.20863886545715829 0 0.17615578699577941 0.211297655888005 0 0.16985268287686869 0.18602950547537461 0 0.155775241119192 0.20863886545715829 0 0.14395995749662011 0.19046676877908139 0 0.16985268287686869 0.18602950547537461 0 0.17615578699577941 0.211297655888005 0 0.1921007491770006 0.19413511782623061 0 0.155775241119192 0.20863886545715829 0 0.17615578699577941 0.211297655888005 0 0.16513181717874489 0.22933158445530699 0 0.17615578699577941 0.211297655888005 0 0.1832321526603185 0.22988712241990911 0 0.19922996910836269 0.2206298732412626 0 0.17615578699577941 0.211297655888005 0 0.16513181717874489 0.22933158445530699 0 0.1832321526603185 0.22988712241990911 0 0.1832321526603185 0.22988712241990911 0 0.17921266192405369 0.24485401564359771 0 0.19643052809465181 0.2433224828713732 0 0.16513181717874489 0.22933158445530699 0 0.1832321526603185 0.22988712241990911 0 0.17921266192405369 0.24485401564359771 0 0.17921266192405369 0.24485401564359771 0 0.19643052809465181 0.2433224828713732 0 0.18608903078984079 0.25995697105729071 0 0.17921266192405369 0.24485401564359771 0 0.1648484701696567 0.24744362212440471 0 0.17332134199895571 0.25758983019522791 0 0.15269041899089261 0.24018887904249059 0 0.16513181717874489 0.22933158445530699 0 0.1648484701696567 0.24744362212440471 0 0.16513181717874489 0.22933158445530699 0 0.17921266192405369 0.24485401564359771 0 0.1648484701696567 0.24744362212440471 0 0.15269041899089261 0.24018887904249059 0 0.1648484701696567 0.24744362212440471 0 0.15466915334416509 0.25190660019890743 0 0.21227379049082179 0.2367256787841478 0 0.19643052809465181 0.2433224828713732 0 0.21668623523937189 0.25273648673926968 0 0.21227379049082179 0.2367256787841478 0 0.19643052809465181 0.2433224828713732 0 0.19922996910836269 0.2206298732412626 0 0.1832321526603185 0.22988712241990911 0 0.19643052809465181 0.2433224828713732 0 0.19922996910836269 0.2206298732412626 0 0.21227379049082179 0.2367256787841478 0 0.19922996910836269 0.2206298732412626 0 0.219709047837161 0.22243828454522341 0 0.19922996910836269 0.2206298732412626 0 0.21843520523288221 0.2053181895842969 0 0.1921007491770006 0.19413511782623061 0 0.19922996910836269 0.2206298732412626 0 0.21843520523288221 0.2053181895842969 0 0.219709047837161 0.22243828454522341 0 0.17615578699577941 0.211297655888005 0 0.19922996910836269 0.2206298732412626 0 0.1921007491770006 0.19413511782623061 0 0.21843520523288221 0.2053181895842969 0 0.1921007491770006 0.19413511782623061 0 0.21508853132578909 0.18630480878971589 0 0.21843520523288221 0.2053181895842969 0 0.1921007491770006 0.19413511782623061 0 0.21843520523288221 0.2053181895842969 0 0.23255597692269961 0.1986700960591046 0 0.21508853132578909 0.18630480878971589 0 0.23255597692269961 0.1986700960591046 0 0.21508853132578909 0.18630480878971589 0 0.23658713197922801 0.1849604865578777 0 0.23255597692269961 0.1986700960591046 0 0.24443808169503289 0.19165573435540739 0 0.23658713197922801 0.1849604865578777 0 0.24443808169503289 0.19165573435540739 0 0.2445919001722652 0.2027793092260104 0 0.25672659357731442 0.18931439154619459 0 0.23255597692269961 0.1986700960591046 0 0.24443808169503289 0.19165573435540739 0 0.2445919001722652 0.2027793092260104 0 0.2445919001722652 0.2027793092260104 0 0.2447696612887639 0.21650126134236319 0 0.26045320274891359 0.2075872277184421 0 0.23255597692269961 0.1986700960591046 0 0.2445919001722652 0.2027793092260104 0 0.2447696612887639 0.21650126134236319 0 0.21843520523288221 0.2053181895842969 0 0.2447696612887639 0.21650126134236319 0 0.21843520523288221 0.2053181895842969 0 0.2447696612887639 0.21650126134236319 0 0.2325803478497725 0.22060216126394189 0 0.21843520523288221 0.2053181895842969 0 0.219709047837161 0.22243828454522341 0 0.2325803478497725 0.22060216126394189 0 0.21843520523288221 0.2053181895842969 0 0.23255597692269961 0.1986700960591046 0 0.2447696612887639 0.21650126134236319 0 0.219709047837161 0.22243828454522341 0 0.2325803478497725 0.22060216126394189 0 0.2358022310961575 0.23066856374322481 0 0.21227379049082179 0.2367256787841478 0 0.219709047837161 0.22243828454522341 0 0.2358022310961575 0.23066856374322481 0 0.2325803478497725 0.22060216126394189 0 0.24210869832250451 0.2249280049623063 0 0.2358022310961575 0.23066856374322481 0 0.2447696612887639 0.21650126134236319 0 0.2325803478497725 0.22060216126394189 0 0.24210869832250451 0.2249280049623063 0 0.2447696612887639 0.21650126134236319 0 0.24210869832250451 0.2249280049623063 0 0.24965972363503919 0.22122943443424911 0 0.24210869832250451 0.2249280049623063 0 0.24965972363503919 0.22122943443424911 0 0.2477315277427897 0.2356386040277525 0 0.24210869832250451 0.2249280049623063 0 0.2358022310961575 0.23066856374322481 0 0.2477315277427897 0.2356386040277525 0 0.2477315277427897 0.2356386040277525 0 0.24791323415382371 0.2458877298954085 0 0.23190300684591059 0.2469757189771403 0 0.2358022310961575 0.23066856374322481 0 0.2477315277427897 0.2356386040277525 0 0.23190300684591059 0.2469757189771403 0 0.21227379049082179 0.2367256787841478 0 0.23190300684591059 0.2469757189771403 0 0.21227379049082179 0.2367256787841478 0 0.23190300684591059 0.2469757189771403 0 0.21668623523937189 0.25273648673926968 0 0.21227379049082179 0.2367256787841478 0 0.2358022310961575 0.23066856374322481 0 0.23190300684591059 0.2469757189771403 0 0.20748271977021249 0.138902265540051 0 0.1939758213121906 0.1435310420930529 0 0.2197013820994709 0.14720657512863261 0 0.19138228701287849 0.14461103117120311 0 0.19996329681344399 0.160416909441601 0 0.2197013820994709 0.14720657512863261 0 0.19138228701287849 0.14461103117120311 0 0.2197013820994709 0.14720657512863261 0 0.2166933327952508 0.13146831334115849 0 0.20748271977021249 0.138902265540051 0 0.2197013820994709 0.14720657512863261 0 0.2166933327952508 0.13146831334115849 0 0.20603233854846789 0.12643210165642249 0 0.20748271977021249 0.138902265540051 0 0.20603233854846789 0.12643210165642249 0 0.20748271977021249 0.138902265540051 0 0.1992161984030385 0.13597632749908109 0 0.20748271977021249 0.138902265540051 0 0.1992161984030385 0.13597632749908109 0 0.1939758213121906 0.1435310420930529 0 0.20603233854846789 0.12643210165642249 0 0.1992161984030385 0.13597632749908109 0 0.19400001601888209 0.1301444430180784 0 0.20603233854846789 0.12643210165642249 0 0.19400001601888209 0.1301444430180784 0 0.19603586944622961 0.11914225126713909 0 0.1826996939178501 0.134395064982826 0 0.19400001601888209 0.1301444430180784 0 0.19225480333296779 0.137731581752848 0 0.1826996939178501 0.134395064982826 0 0.19225480333296779 0.137731581752848 0 0.19138228701287849 0.14461103117120311 0 0.1992161984030385 0.13597632749908109 0 0.19225480333296779 0.137731581752848 0 0.1939758213121906 0.1435310420930529 0 0.1992161984030385 0.13597632749908109 0 0.19400001601888209 0.1301444430180784 0 0.19225480333296779 0.137731581752848 0 0.17970147406593759 0.15916468197935521 0 0.19138228701287849 0.14461103117120311 0 0.19996329681344399 0.160416909441601 0 0.19138228701287849 0.14461103117120311 0 0.1939758213121906 0.1435310420930529 0 0.2197013820994709 0.14720657512863261 0 0.19225480333296779 0.137731581752848 0 0.19138228701287849 0.14461103117120311 0 0.1939758213121906 0.1435310420930529 0 0.19138228701287849 0.14461103117120311 0 0.1939758213121906 0.1435310420930529 0 0.17970147406593759 0.15916468197935521 0 0.19996329681344399 0.160416909441601 0 0.19009851561998109 0.17546705170333859 0 0.19996329681344399 0.160416909441601 0 0.19009851561998109 0.17546705170333859 0 0.20950303158443601 0.17060862998040069 0 0.17970147406593759 0.15916468197935521 0 0.19996329681344399 0.160416909441601 0 0.1921007491770006 0.19413511782623061 0 0.19009851561998109 0.17546705170333859 0 0.21508853132578909 0.18630480878971589 0 0.19009851561998109 0.17546705170333859 0 0.21508853132578909 0.18630480878971589 0 0.20950303158443601 0.17060862998040069 0 0.21508853132578909 0.18630480878971589 0 0.20950303158443601 0.17060862998040069 0 0.2262564526410854 0.1725101510884221 0 0.19996329681344399 0.160416909441601 0 0.22022511956095039 0.16166913690384679 0 0.2197013820994709 0.14720657512863261 0 0.19996329681344399 0.160416909441601 0 0.22022511956095039 0.16166913690384679 0 0.20950303158443601 0.17060862998040069 0 0.22022511956095039 0.16166913690384679 0 0.2262564526410854 0.1725101510884221 0 0.19996329681344399 0.160416909441601 0 0.20950303158443601 0.17060862998040069 0 0.22022511956095039 0.16166913690384679 0 0.22022511956095039 0.16166913690384679 0 0.23219216216083469 0.16070882341124321 0 0.2197013820994709 0.14720657512863261 0 0.23219216216083469 0.16070882341124321 0 0.2262564526410854 0.1725101510884221 0 0.24394273923527451 0.1708090208874482 0 0.22022511956095039 0.16166913690384679 0 0.23219216216083469 0.16070882341124321 0 0.2262564526410854 0.1725101510884221 0 0.21508853132578909 0.18630480878971589 0 0.2262564526410854 0.1725101510884221 0 0.23658713197922801 0.1849604865578777 0 0.2262564526410854 0.1725101510884221 0 0.23658713197922801 0.1849604865578777 0 0.24394273923527451 0.1708090208874482 0 0.23658713197922801 0.1849604865578777 0 0.24394273923527451 0.1708090208874482 0 0.25069145747160237 0.17986975870422739 0 0.24443808169503289 0.19165573435540739 0 0.23658713197922801 0.1849604865578777 0 0.25069145747160237 0.17986975870422739 0 0.23219216216083469 0.16070882341124321 0 0.24394273923527451 0.1708090208874482 0 0.24802047718606329 0.14980211908606039 0 0.24802047718606329 0.14980211908606039 0 0.2197013820994709 0.14720657512863261 0 0.23748423865396681 0.1372069433891186 0 0.24802047718606329 0.14980211908606039 0 0.23748423865396681 0.1372069433891186 0 0.23219216216083469 0.16070882341124321 0 0.24802047718606329 0.14980211908606039 0 0.2197013820994709 0.14720657512863261 0 0.24802047718606329 0.14980211908606039 0 0.2197013820994709 0.14720657512863261 0 0.2166933327952508 0.13146831334115849 0 0.23748423865396681 0.1372069433891186 0 0.2269480001218708 0.1246117676921763 0 0.2166933327952508 0.13146831334115849 0 0.2197013820994709 0.14720657512863261 0 0.23748423865396681 0.1372069433891186 0 0.23748423865396681 0.1372069433891186 0 0.2269480001218708 0.1246117676921763 0 0.23748423865396681 0.1372069433891186 0 0.23787758618680691 0.12376630322824581 0 0.2269480001218708 0.1246117676921763 0 0.24802047718606329 0.14980211908606039 0 0.23748423865396681 0.1372069433891186 0 0.25370366287882878 0.1241816415692342 0 0.23748423865396681 0.1372069433891186 0 0.23787758618680691 0.12376630322824581 0 0.25370366287882878 0.1241816415692342 0 0.24537668551697431 0.097277083683747018 0 0.23337444309256139 0.1090648602624541 0 0.25370366287882878 0.1241816415692342 0 0.24537668551697431 0.097277083683747018 0 0.25370366287882878 0.1241816415692342 0 0.23787758618680691 0.12376630322824581 0 0.23337444309256139 0.1090648602624541 0 0.25370366287882878 0.1241816415692342 0 0.24537668551697431 0.097277083683747018 0 0.23337444309256139 0.1090648602624541 0 0.22484289426170589 0.086614640480542404 0 0.23337444309256139 0.1090648602624541 0 0.21826071202707401 0.1016769895838342 0 0.22484289426170589 0.086614640480542404 0 0.23337444309256139 0.1090648602624541 0 0.21899261390952071 0.1157063141952675 0 0.21826071202707401 0.1016769895838342 0 0.2166933327952508 0.13146831334115849 0 0.2269480001218708 0.1246117676921763 0 0.21899261390952071 0.1157063141952675 0 0.23787758618680691 0.12376630322824581 0 0.23337444309256139 0.1090648602624541 0 0.2269480001218708 0.1246117676921763 0 0.23337444309256139 0.1090648602624541 0 0.2269480001218708 0.1246117676921763 0 0.21899261390952071 0.1157063141952675 0 0.20603233854846789 0.12643210165642249 0 0.21899261390952071 0.1157063141952675 0 0.20619401079708341 0.1103047766005421 0 0.2166933327952508 0.13146831334115849 0 0.20603233854846789 0.12643210165642249 0 0.21899261390952071 0.1157063141952675 0 0.20619401079708341 0.1103047766005421 0 0.20469956129863859 0.094216075576966402 0 0.21826071202707401 0.1016769895838342 0 0.21899261390952071 0.1157063141952675 0 0.20619401079708341 0.1103047766005421 0 0.21826071202707401 0.1016769895838342 0 0.20469956129863859 0.094216075576966402 0 0.21826071202707401 0.1016769895838342 0 0.22484289426170589 0.086614640480542404 0 0.20469956129863859 0.094216075576966402 0 0.1920226837756919 0.1062731432897658 0 0.18562998291260069 0.083724599791867624 0 0.20619401079708341 0.1103047766005421 0 0.20469956129863859 0.094216075576966402 0 0.1920226837756919 0.1062731432897658 0 0.1920226837756919 0.1062731432897658 0 0.19603586944622961 0.11914225126713909 0 0.18282874988353909 0.12176719670840121 0 0.20603233854846789 0.12643210165642249 0 0.20619401079708341 0.1103047766005421 0 0.19603586944622961 0.11914225126713909 0 0.19400001601888209 0.1301444430180784 0 0.19603586944622961 0.11914225126713909 0 0.18282874988353909 0.12176719670840121 0 0.20619401079708341 0.1103047766005421 0 0.1920226837756919 0.1062731432897658 0 0.19603586944622961 0.11914225126713909 0 0.19477888427106471 0.068028226971776184 0 0.20783404156105389 0.078077887697304768 0 0.18562998291260069 0.083724599791867624 0 0.20469956129863859 0.094216075576966402 0 0.20783404156105389 0.078077887697304768 0 0.18562998291260069 0.083724599791867624 0 0.20469956129863859 0.094216075576966402 0 0.20783404156105389 0.078077887697304768 0 0.22484289426170589 0.086614640480542404 0 0.20783404156105389 0.078077887697304768 0 0.2213202312424721 0.066581526905057059 0 0.20805697342917059 0.059178341543759817 0 0.20783404156105389 0.078077887697304768 0 0.2213202312424721 0.066581526905057059 0 0.22484289426170589 0.086614640480542404 0 0.19477888427106471 0.068028226971776184 0 0.20783404156105389 0.078077887697304768 0 0.20805697342917059 0.059178341543759817 0 0.2213202312424721 0.066581526905057059 0 0.23704970815511969 0.070372525798259866 0 0.2300545306497668 0.055557326715756347 0 0.2213202312424721 0.066581526905057059 0 0.22484289426170589 0.086614640480542404 0 0.23704970815511969 0.070372525798259866 0 0.24537668551697431 0.097277083683747018 0 0.22484289426170589 0.086614640480542404 0 0.23704970815511969 0.070372525798259866 0 0.24537668551697431 0.097277083683747018 0 0.23704970815511969 0.070372525798259866 0 0.25923100858263742 0.079351551944828513 0 0.24537668551697431 0.097277083683747018 0 0.23704970815511969 0.070372525798259866 0 0.23704970815511969 0.070372525798259866 0 0.24612717135886061 0.053158967820149818 0 0.25923100858263742 0.079351551944828513 0 0.23704970815511969 0.070372525798259866 0 0.24612717135886061 0.053158967820149818 0 0.2300545306497668 0.055557326715756347 0 0.24612717135886061 0.053158967820149818 0 0.22874243829254329 0.043439904086905012 0 0.2300545306497668 0.055557326715756347 0 0.24612717135886061 0.053158967820149818 0 0.24915942417082321 0.043562136642382059 0 0.25194780840825542 0.047502886957762752 0 0.24612717135886061 0.053158967820149818 0 0.2330233341350838 0.026966383695471149 0 0.24915942417082321 0.043562136642382059 0 0.24442705739527931 0.034620488068712277 0 0.25585841565974538 0.042233258010133973 0 0.24442705739527931 0.034620488068712277 0 0.2489069739425 0.021637400389674748 0 0.25585841565974538 0.042233258010133973 0 0.24612717135886061 0.053158967820149818 0 0.24442705739527931 0.034620488068712277 0 0.2330233341350838 0.026966383695471149 0 0.24612717135886061 0.053158967820149818 0 0.24915942417082321 0.043562136642382059 0 0.24442705739527931 0.034620488068712277 0 0.24612717135886061 0.053158967820149818 0 0.22874243829254329 0.043439904086905012 0 0.2330233341350838 0.026966383695471149 0 0.22874243829254329 0.043439904086905012 0 0.2330233341350838 0.026966383695471149 0 0.21578861999574539 0.032179983081358873 0 0.22874243829254329 0.043439904086905012 0 0.21871853532325961 0.049336859121788867 0 0.21578861999574539 0.032179983081358873 0 0.22874243829254329 0.043439904086905012 0 0.2300545306497668 0.055557326715756347 0 0.21871853532325961 0.049336859121788867 0 0.2213202312424721 0.066581526905057059 0 0.2300545306497668 0.055557326715756347 0 0.21871853532325961 0.049336859121788867 0 0.2489069739425 0.021637400389674748 0 0.2403210271001277 -0.0038011986657945939 0 0.2489069739425 0.021637400389674748 0 0.25900523844679291 0.0090906536209348996 0 0.2403210271001277 -0.0038011986657945939 0 0.23441323542690259 0.011205599980234709 0 0.2489069739425 0.021637400389674748 0 0.2403210271001277 -0.0038011986657945939 0 0.23441323542690259 0.011205599980234709 0 0.24019265022494121 0.023607468033523541 0 0.2330233341350838 0.026966383695471149 0 0.23441323542690259 0.011205599980234709 0 0.2489069739425 0.021637400389674748 0 0.23441323542690259 0.011205599980234709 0 0.2489069739425 0.021637400389674748 0 0.24019265022494121 0.023607468033523541 0 0.24442705739527931 0.034620488068712277 0 0.2489069739425 0.021637400389674748 0 0.24019265022494121 0.023607468033523541 0 0.24442705739527931 0.034620488068712277 0 0.24019265022494121 0.023607468033523541 0 0.2330233341350838 0.026966383695471149 0 0.2330233341350838 0.026966383695471149 0 0.2171386306806895 0.017395263111216398 0 0.21578861999574539 0.032179983081358873 0 0.23441323542690259 0.011205599980234709 0 0.2330233341350838 0.026966383695471149 0 0.21991949691130641 0.00077379957079282309 0 0.2330233341350838 0.026966383695471149 0 0.21991949691130641 0.00077379957079282309 0 0.2171386306806895 0.017395263111216398 0 0.2330233341350838 0.026966383695471149 0 0.21991949691130641 0.00077379957079282309 0 0.23441323542690259 0.011205599980234709 0 0.21991949691130641 0.00077379957079282309 0 0.2403210271001277 -0.0038011986657945939 0 0.23441323542690259 0.011205599980234709 0 0.21991949691130641 0.00077379957079282309 0 0.21991949691130641 0.00077379957079282309 0 0.21233724185039379 0.0083260795074358591 0 0.2171386306806895 0.017395263111216398 0 0.1913914811785945 0.0015479160267864781 0 0.21709144706251299 -0.0012616760615819459 0 0.21233724185039379 0.0083260795074358591 0 0.1913914811785945 0.0015479160267864781 0 0.21709144706251299 -0.0012616760615819459 0 0.21991949691130641 0.00077379957079282309 0 0.21233724185039379 0.0083260795074358591 0 0.21709144706251299 -0.0012616760615819459 0 0.21233724185039379 0.0083260795074358591 0 0.20462446051091829 0.018730069701022731 0 0.2171386306806895 0.017395263111216398 0 0.20462446051091829 0.018730069701022731 0 0.21578861999574539 0.032179983081358873 0 0.19600975553610309 0.033109727657073172 0 0.20462446051091829 0.018730069701022731 0 0.2171386306806895 0.017395263111216398 0 0.21578861999574539 0.032179983081358873 0 0.20462446051091829 0.018730069701022731 0 0.18949896143577891 0.016667400663256809 0 0.19600975553610309 0.033109727657073172 0 0.18949896143577891 0.016667400663256809 0 0.19600975553610309 0.033109727657073172 0 0.17707217964719771 0.025267716345226881 0 0.20462446051091829 0.018730069701022731 0 0.18949896143577891 0.016667400663256809 0 0.1913914811785945 0.0015479160267864781 0 0.21233724185039379 0.0083260795074358591 0 0.20462446051091829 0.018730069701022731 0 0.1913914811785945 0.0015479160267864781 0 0.2213202312424721 0.066581526905057059 0 0.20805697342917059 0.059178341543759817 0 0.21871853532325961 0.049336859121788867 0 0.20805697342917059 0.059178341543759817 0 0.2071731341036451 0.043988411023532258 0 0.1951942265281848 0.052365244609145413 0 0.20805697342917059 0.059178341543759817 0 0.21871853532325961 0.049336859121788867 0 0.2071731341036451 0.043988411023532258 0 0.21578861999574539 0.032179983081358873 0 0.2071731341036451 0.043988411023532258 0 0.19600975553610309 0.033109727657073172 0 0.21871853532325961 0.049336859121788867 0 0.21578861999574539 0.032179983081358873 0 0.2071731341036451 0.043988411023532258 0 0.19600975553610309 0.033109727657073172 0 0.1951942265281848 0.052365244609145413 0 0.18205947828297289 0.04260924739081328 0 0.2071731341036451 0.043988411023532258 0 0.19600975553610309 0.033109727657073172 0 0.1951942265281848 0.052365244609145413 0 0.19477888427106471 0.068028226971776184 0 0.20805697342917059 0.059178341543759817 0 0.1951942265281848 0.052365244609145413 0 0.19477888427106471 0.068028226971776184 0 0.1951942265281848 0.052365244609145413 0 0.1764837945120816 0.061910742511003793 0 0.1951942265281848 0.052365244609145413 0 0.1764837945120816 0.061910742511003793 0 0.18205947828297289 0.04260924739081328 0 0.1764837945120816 0.061910742511003793 0 0.18205947828297289 0.04260924739081328 0 0.16553743519129729 0.040392805831617133 0 0.18205947828297289 0.04260924739081328 0 0.16553743519129729 0.040392805831617133 0 0.17707217964719771 0.025267716345226881 0 0.19600975553610309 0.033109727657073172 0 0.18205947828297289 0.04260924739081328 0 0.17707217964719771 0.025267716345226881 0 0.16553743519129729 0.040392805831617133 0 0.1613139894326964 0.024121653580078981 0 0.1482006011997502 0.031747138067586222 0 0.1764837945120816 0.061910742511003793 0 0.16553743519129729 0.040392805831617133 0 0.15002216982279071 0.058334232048501217 0 0.177795833794237 0.0058736288592868176 0 0.17707217964719771 0.025267716345226881 0 0.16471785852727919 0.01090484445761932 0 0.18949896143577891 0.016667400663256809 0 0.1913914811785945 0.0015479160267864781 0 0.177795833794237 0.0058736288592868176 0 0.18949896143577891 0.016667400663256809 0 0.177795833794237 0.0058736288592868176 0 0.17707217964719771 0.025267716345226881 0 0.16553743519129729 0.040392805831617133 0 0.17707217964719771 0.025267716345226881 0 0.1613139894326964 0.024121653580078981 0 0.17707217964719771 0.025267716345226881 0 0.1613139894326964 0.024121653580078981 0 0.16471785852727919 0.01090484445761932 0 0.1613139894326964 0.024121653580078981 0 0.16471785852727919 0.01090484445761932 0 0.1510418725979574 0.012295763198345371 0 0.16471785852727919 0.01090484445761932 0 0.15628357420278671 0.003810722324721363 0 0.1510418725979574 0.012295763198345371 0 0.16471785852727919 0.01090484445761932 0 0.15628357420278671 0.003810722324721363 0 0.16638725000284621 -0.0041024332455818144 0 0.177795833794237 0.0058736288592868176 0 0.16471785852727919 0.01090484445761932 0 0.16638725000284621 -0.0041024332455818144 0 0.15628357420278671 0.003810722324721363 0 0.1463790325767105 0.0051600440866713393 0 0.1510418725979574 0.012295763198345371 0 0.15628357420278671 0.003810722324721363 0 0.1463790325767105 0.0051600440866713393 0 0.15462421245165581 -0.0058893527151400796 0 0.1463790325767105 0.0051600440866713393 0 0.1510418725979574 0.012295763198345371 0 0.1613139894326964 0.024121653580078981 0 0.1510418725979574 0.012295763198345371 0 0.1482006011997502 0.031747138067586222 0 0.1463790325767105 0.0051600440866713393 0 0.1482006011997502 0.031747138067586222 0 0.1463790325767105 0.0051600440866713393 0 0.1510418725979574 0.012295763198345371 0 0.1482006011997502 0.031747138067586222 0 0.1463790325767105 0.0051600440866713393 0 0.13437116548480091 0.018926778797625429 0 0.1482006011997502 0.031747138067586222 0 0.11744308668179609 0.017774871344802521 0 0.13437116548480091 0.018926778797625429 0 0.12506256882025399 0.035699134337412737 0 0.13437116548480091 0.018926778797625429 0 0.1482006011997502 0.031747138067586222 0 0.12506256882025399 0.035699134337412737 0 0.11744308668179609 0.017774871344802521 0 0.13437116548480091 0.018926778797625429 0 0.12681727907172599 0.0028609529651058472 0 0.1463790325767105 0.0051600440866713393 0 0.13437116548480091 0.018926778797625429 0 0.12681727907172599 0.0028609529651058472 0 0.15002216982279071 0.058334232048501217 0 0.1482006011997502 0.031747138067586222 0 0.13318341665519781 0.054736537254868822 0 0.16553743519129729 0.040392805831617133 0 0.15002216982279071 0.058334232048501217 0 0.1482006011997502 0.031747138067586222 0 0.15002216982279071 0.058334232048501217 0 0.1482006011997502 0.031747138067586222 0 0.1482006011997502 0.031747138067586222 0 0.12506256882025399 0.035699134337412737 0 0.13318341665519781 0.054736537254868822 0 0.1220245952479405 0.07004619687739172 0 0.13318341665519781 0.054736537254868822 0 0.140451324603005 0.079388379798429956 0 0.15002216982279071 0.058334232048501217 0 0.13318341665519781 0.054736537254868822 0 0.140451324603005 0.079388379798429956 0 0.15002216982279071 0.058334232048501217 0 0.140451324603005 0.079388379798429956 0 0.16236977351405571 0.08420317597119574 0 0.140451324603005 0.079388379798429956 0 0.13376660142800201 0.097128283387147629 0 0.1539803846384532 0.10268384485881291 0 0.140451324603005 0.079388379798429956 0 0.1539803846384532 0.10268384485881291 0 0.16236977351405571 0.08420317597119574 0 0.1175203890912727 0.086079419998433368 0 0.140451324603005 0.079388379798429956 0 0.13376660142800201 0.097128283387147629 0 0.1175203890912727 0.086079419998433368 0 0.1220245952479405 0.07004619687739172 0 0.140451324603005 0.079388379798429956 0 0.13376660142800201 0.097128283387147629 0 0.13278919984088661 0.11230677671938701 0 0.1539803846384532 0.10268384485881291 0 0.1204523462490521 0.10350528248164099 0 0.13376660142800201 0.097128283387147629 0 0.13278919984088661 0.11230677671938701 0 0.12877089149896251 0.12628235461406201 0 0.13278919984088661 0.11230677671938701 0 0.14559099576285081 0.1211645137464301 0 0.11923934643535521 0.1171320194813406 0 0.12877089149896251 0.12628235461406201 0 0.13278919984088661 0.11230677671938701 0 0.14559099576285081 0.1211645137464301 0 0.1539803846384532 0.10268384485881291 0 0.15632661280319129 0.13068902382275449 0 0.14559099576285081 0.1211645137464301 0 0.1644083134929788 0.12014259939932 0 0.13278919984088661 0.11230677671938701 0 0.14559099576285081 0.1211645137464301 0 0.1539803846384532 0.10268384485881291 0 0.14559099576285081 0.1211645137464301 0 0.1539803846384532 0.10268384485881291 0 0.1644083134929788 0.12014259939932 0 0.1539803846384532 0.10268384485881291 0 0.1644083134929788 0.12014259939932 0 0.1735399813695532 0.1031324266698939 0 0.1539803846384532 0.10268384485881291 0 0.1735399813695532 0.1031324266698939 0 0.16236977351405571 0.08420317597119574 0 0.1644083134929788 0.12014259939932 0 0.18282874988353909 0.12176719670840121 0 0.1735399813695532 0.1031324266698939 0 0.17014020092281509 0.1303647164313487 0 0.1644083134929788 0.12014259939932 0 0.18282874988353909 0.12176719670840121 0 0.1920226837756919 0.1062731432897658 0 0.18282874988353909 0.12176719670840121 0 0.1735399813695532 0.1031324266698939 0 0.1920226837756919 0.1062731432897658 0 0.1735399813695532 0.1031324266698939 0 0.18562998291260069 0.083724599791867624 0 0.1735399813695532 0.1031324266698939 0 0.18562998291260069 0.083724599791867624 0 0.16236977351405571 0.08420317597119574 0 0.1764837945120816 0.061910742511003793 0 0.18562998291260069 0.083724599791867624 0 0.16236977351405571 0.08420317597119574 0 0.19477888427106471 0.068028226971776184 0 0.1764837945120816 0.061910742511003793 0 0.18562998291260069 0.083724599791867624 0 0.1764837945120816 0.061910742511003793 0 0.15002216982279071 0.058334232048501217 0 0.16236977351405571 0.08420317597119574 0 0.1539803846384532 0.10268384485881291 0 0.16236977351405571 0.08420317597119574 0 0.1048222847563673 0.4786668097115272 0 0.091479988498646442 0.48354315307299939 0 0.09327677099031946 0.46903920507515112 0 0.1048222847563673 0.4786668097115272 0 0.10316008329641591 0.49260778903299252 0 0.092978519966910561 0.49654355170423659 0 0.1048222847563673 0.4786668097115272 0 0.092978519966910561 0.49654355170423659 0 0.1048222847563673 0.4786668097115272 0 0.091479988498646442 0.48354315307299939 0 0.092978519966910561 0.49654355170423659 0 0.10316008329641591 0.49260778903299252 0 0.10312521592474901 0.5 0 0.092978519966910561 0.49654355170423659 0 0.10316008329641591 0.49260778903299252 0 0.10312521592474901 0.5 0 0.1137569863567818 0.48891352741171218 0 0.1048222847563673 0.4786668097115272 0 0.10316008329641591 0.49260778903299252 0 0.1137569863567818 0.48891352741171218 0 0.1048222847563673 0.4786668097115272 0 0.10316008329641591 0.49260778903299252 0 0.1137569863567818 0.48891352741171218 0 0.12567845600013469 0.47929569400969452 0 0.1306299125622308 0.5 0 0.10312521592474901 0.5 0 0.1137569863567818 0.48891352741171218 0 0.1306299125622308 0.5 0 0.1048222847563673 0.4786668097115272 0 0.11648320602364499 0.46106604807885698 0 0.12567845600013469 0.47929569400969452 0 0.1048222847563673 0.4786668097115272 0 0.1137569863567818 0.48891352741171218 0 0.12567845600013469 0.47929569400969452 0 0.1048222847563673 0.4786668097115272 0 0.11648320602364499 0.46106604807885698 0 0.1048222847563673 0.4786668097115272 0 0.11648320602364499 0.46106604807885698 0 0.1073203574995146 0.45771532982499841 0 0.1119099515656637 0.4541769576285038 0 0.11648320602364499 0.46106604807885698 0 0.1073203574995146 0.45771532982499841 0 0.1119099515656637 0.4541769576285038 0 0.11648320602364499 0.46106604807885698 0 0.128144127290927 0.44346528644618949 0 0.1119099515656637 0.4541769576285038 0 0.1098184302426566 0.43676384993846878 0 0.128144127290927 0.44346528644618949 0 0.1119099515656637 0.4541769576285038 0 0.1073203574995146 0.45771532982499841 0 0.1098184302426566 0.43676384993846878 0 0.11648320602364499 0.46106604807885698 0 0.128144127290927 0.44346528644618949 0 0.1119099515656637 0.4541769576285038 0 0.1098184302426566 0.43676384993846878 0 0.1007171253458153 0.44820701469258212 0 0.1073203574995146 0.45771532982499841 0 0.1098184302426566 0.43676384993846878 0 0.1073203574995146 0.45771532982499841 0 0.1098184302426566 0.43676384993846878 0 0.1007171253458153 0.44820701469258212 0 0.097642268156116166 0.44157878137516282 0 0.1098184302426566 0.43676384993846878 0 0.097642268156116166 0.44157878137516282 0 0.1020591419526216 0.43422428691783338 0 0.1098184302426566 0.43676384993846878 0 0.097642268156116166 0.44157878137516282 0 0.1098184302426566 0.43676384993846878 0 0.09475968248970798 0.44694335582238792 0 0.1007171253458153 0.44820701469258212 0 0.092889002414179245 0.45276651635374332 0 0.1007171253458153 0.44820701469258212 0 0.096868601935243229 0.45789063626048049 0 0.092889002414179245 0.45276651635374332 0 0.09475968248970798 0.44694335582238792 0 0.1007171253458153 0.44820701469258212 0 0.097642268156116166 0.44157878137516282 0 0.09475968248970798 0.44694335582238792 0 0.097642268156116166 0.44157878137516282 0 0.088987703810336438 0.44500113512203671 0 0.1007171253458153 0.44820701469258212 0 0.097642268156116166 0.44157878137516282 0 0.1048222847563673 0.4786668097115272 0 0.1073203574995146 0.45771532982499841 0 0.09327677099031946 0.46903920507515112 0 0.1048222847563673 0.4786668097115272 0 0.1073203574995146 0.45771532982499841 0 0.1007171253458153 0.44820701469258212 0 0.1073203574995146 0.45771532982499841 0 0.096868601935243229 0.45789063626048049 0 0.1073203574995146 0.45771532982499841 0 0.096868601935243229 0.45789063626048049 0 0.09327677099031946 0.46903920507515112 0 0.090139753426387581 0.46172511535592747 0 0.079256630923375745 0.46616111205340521 0 0.09327677099031946 0.46903920507515112 0 0.096868601935243229 0.45789063626048049 0 0.090139753426387581 0.46172511535592747 0 0.09327677099031946 0.46903920507515112 0 0.090139753426387581 0.46172511535592747 0 0.092889002414179245 0.45276651635374332 0 0.081384578054001289 0.45283886102268139 0 0.096868601935243229 0.45789063626048049 0 0.090139753426387581 0.46172511535592747 0 0.092889002414179245 0.45276651635374332 0 0.090139753426387581 0.46172511535592747 0 0.079256630923375745 0.46616111205340521 0 0.081384578054001289 0.45283886102268139 0 0.088987703810336438 0.44500113512203671 0 0.082419728037930629 0.44071508101891732 0 0.08961571608665983 0.43565438773200948 0 0.097642268156116166 0.44157878137516282 0 0.088987703810336438 0.44500113512203671 0 0.097642268156116166 0.44157878137516282 0 0.088987703810336438 0.44500113512203671 0 0.08961571608665983 0.43565438773200948 0 0.088987703810336438 0.44500113512203671 0 0.092889002414179245 0.45276651635374332 0 0.081384578054001289 0.45283886102268139 0 0.09475968248970798 0.44694335582238792 0 0.088987703810336438 0.44500113512203671 0 0.092889002414179245 0.45276651635374332 0 0.088987703810336438 0.44500113512203671 0 0.081384578054001289 0.45283886102268139 0 0.082419728037930629 0.44071508101891732 0 0.067599685253138281 0.45287595272104653 0 0.081892131328371143 0.4314429342789402 0 0.067599685253138281 0.45287595272104653 0 0.066001473138610989 0.43632828312433408 0 0.081892131328371143 0.4314429342789402 0 0.082419728037930629 0.44071508101891732 0 0.067599685253138281 0.45287595272104653 0 0.081892131328371143 0.4314429342789402 0 0.081384578054001289 0.45283886102268139 0 0.082419728037930629 0.44071508101891732 0 0.067599685253138281 0.45287595272104653 0 0.079256630923375745 0.46616111205340521 0 0.067599685253138281 0.45287595272104653 0 0.069001794002684108 0.47224329730437981 0 0.067599685253138281 0.45287595272104653 0 0.069001794002684108 0.47224329730437981 0 0.053307239177905349 0.47430897116315313 0 0.079256630923375745 0.46616111205340521 0 0.081384578054001289 0.45283886102268139 0 0.067599685253138281 0.45287595272104653 0 0.069001794002684108 0.47224329730437981 0 0.079794243665170225 0.47979706117662119 0 0.065051170993830898 0.48807338940767292 0 0.079256630923375745 0.46616111205340521 0 0.069001794002684108 0.47224329730437981 0 0.079794243665170225 0.47979706117662119 0 0.079256630923375745 0.46616111205340521 0 0.079794243665170225 0.47979706117662119 0 0.09327677099031946 0.46903920507515112 0 0.079794243665170225 0.47979706117662119 0 0.091479988498646442 0.48354315307299939 0 0.09327677099031946 0.46903920507515112 0 0.092978519966910561 0.49654355170423659 0 0.084553660660575528 0.49009386622585083 0 0.075620519287267318 0.5 0 0.10312521592474901 0.5 0 0.092978519966910561 0.49654355170423659 0 0.075620519287267318 0.5 0 0.091479988498646442 0.48354315307299939 0 0.092978519966910561 0.49654355170423659 0 0.084553660660575528 0.49009386622585083 0 0.079794243665170225 0.47979706117662119 0 0.091479988498646442 0.48354315307299939 0 0.084553660660575528 0.49009386622585083 0 0.079794243665170225 0.47979706117662119 0 0.084553660660575528 0.49009386622585083 0 0.065051170993830898 0.48807338940767292 0 0.065051170993830898 0.48807338940767292 0 0.075620519287267318 0.5 0 0.048115822649785527 0.5 0 0.084553660660575528 0.49009386622585083 0 0.065051170993830898 0.48807338940767292 0 0.075620519287267318 0.5 0 0.065051170993830898 0.48807338940767292 0 0.048115822649785527 0.5 0 0.053307239177905349 0.47430897116315313 0 0.069001794002684108 0.47224329730437981 0 0.065051170993830898 0.48807338940767292 0 0.053307239177905349 0.47430897116315313 0 0.053307239177905349 0.47430897116315313 0 0.036467756559221701 0.47774208688151631 0 0.038707058205945111 0.46145460703462421 0 0.036467756559221701 0.47774208688151631 0 0.024551868698660679 0.47115282030446087 0 0.038707058205945111 0.46145460703462421 0 0.053307239177905349 0.47430897116315313 0 0.036467756559221701 0.47774208688151631 0 0.039014793102672522 0.49574198960525939 0 0.053307239177905349 0.47430897116315313 0 0.039014793102672522 0.49574198960525939 0 0.048115822649785527 0.5 0 0.053307239177905349 0.47430897116315313 0 0.039014793102672522 0.49574198960525939 0 0.048115822649785527 0.5 0 0.039014793102672522 0.49574198960525939 0 0.020611126012303801 0.5 0 0.036467756559221701 0.47774208688151631 0 0.039014793102672522 0.49574198960525939 0 0.026757823610924832 0.48605204630008392 0 0.039014793102672522 0.49574198960525939 0 0.020611126012303801 0.5 0 0.026757823610924832 0.48605204630008392 0 0.020611126012303801 0.5 0 0.026757823610924832 0.48605204630008392 0 0.01184792134048173 0.48364435332619582 0 0.036467756559221701 0.47774208688151631 0 0.026757823610924832 0.48605204630008392 0 0.024551868698660679 0.47115282030446087 0 0.024551868698660679 0.47115282030446087 0 0.01184792134048173 0.48364435332619582 0 0.0113986727330041 0.46548394976725249 0 0.026757823610924832 0.48605204630008392 0 0.024551868698660679 0.47115282030446087 0 0.01184792134048173 0.48364435332619582 0 -0.003089566724048357 0.47326761514296101 0 0.01184792134048173 0.48364435332619582 0 0.0113986727330041 0.46548394976725249 0 -0.0068935706251778139 0.5 0 -0.003089566724048357 0.47326761514296101 0 0.01184792134048173 0.48364435332619582 0 -0.0068935706251778139 0.5 0 0.020611126012303801 0.5 0 0.01184792134048173 0.48364435332619582 0 -0.0072392309157056894 0.43649428994281841 0 0.0026031304198410629 0.45131346537392758 0 0.017959463550051329 0.43401198815683267 0 0.0026031304198410629 0.45131346537392758 0 0.021372524407465811 0.45253342051953771 0 0.017959463550051329 0.43401198815683267 0 0.0026031304198410629 0.45131346537392758 0 0.0113986727330041 0.46548394976725249 0 0.021372524407465811 0.45253342051953771 0 -0.003089566724048357 0.47326761514296101 0 0.0026031304198410629 0.45131346537392758 0 0.0113986727330041 0.46548394976725249 0 0.024551868698660679 0.47115282030446087 0 0.0113986727330041 0.46548394976725249 0 0.021372524407465811 0.45253342051953771 0 0.024551868698660679 0.47115282030446087 0 0.021372524407465811 0.45253342051953771 0 0.038707058205945111 0.46145460703462421 0 0.021372524407465811 0.45253342051953771 0 0.037958531274121507 0.44366308696102769 0 0.017959463550051329 0.43401198815683267 0 0.037958531274121507 0.44366308696102769 0 0.05227214254911447 0.45021359508833869 0 0.050058868244965561 0.43265066952584708 0 0.021372524407465811 0.45253342051953771 0 0.037958531274121507 0.44366308696102769 0 0.038707058205945111 0.46145460703462421 0 0.037958531274121507 0.44366308696102769 0 0.038707058205945111 0.46145460703462421 0 0.05227214254911447 0.45021359508833869 0 0.067599685253138281 0.45287595272104653 0 0.053307239177905349 0.47430897116315313 0 0.053307239177905349 0.47430897116315313 0 0.038707058205945111 0.46145460703462421 0 0.05227214254911447 0.45021359508833869 0 0.067599685253138281 0.45287595272104653 0 0.053307239177905349 0.47430897116315313 0 0.05227214254911447 0.45021359508833869 0 0.05227214254911447 0.45021359508833869 0 0.050058868244965561 0.43265066952584708 0 0.066001473138610989 0.43632828312433408 0 0.067599685253138281 0.45287595272104653 0 0.05227214254911447 0.45021359508833869 0 0.066001473138610989 0.43632828312433408 0 0.050058868244965561 0.43265066952584708 0 0.068804754243522781 0.41994166461739918 0 0.066001473138610989 0.43632828312433408 0 0.050058868244965561 0.43265066952584708 0 0.048852687291388877 0.41459777654824598 0 0.068804754243522781 0.41994166461739918 0 0.048852687291388877 0.41459777654824598 0 0.061313779414970418 0.39987885693449271 0 0.068804754243522781 0.41994166461739918 0 0.048852687291388877 0.41459777654824598 0 0.068804754243522781 0.41994166461739918 0 0.048852687291388877 0.41459777654824598 0 0.036746034139956453 0.42683548193420928 0 0.028900620339254991 0.40925388847909272 0 0.048852687291388877 0.41459777654824598 0 0.028900620339254991 0.40925388847909272 0 0.048852687291388877 0.41459777654824598 0 0.028900620339254991 0.40925388847909272 0 0.042007131815748507 0.39655655075565333 0 0.050058868244965561 0.43265066952584708 0 0.048852687291388877 0.41459777654824598 0 0.036746034139956453 0.42683548193420928 0 0.037958531274121507 0.44366308696102769 0 0.050058868244965561 0.43265066952584708 0 0.036746034139956453 0.42683548193420928 0 0.037958531274121507 0.44366308696102769 0 0.036746034139956453 0.42683548193420928 0 0.017959463550051329 0.43401198815683267 0 0.036746034139956453 0.42683548193420928 0 0.017959463550051329 0.43401198815683267 0 0.028900620339254991 0.40925388847909272 0 0.017959463550051329 0.43401198815683267 0 0.028900620339254991 0.40925388847909272 0 0.0059488009041311612 0.41735624870114602 0 0.028900620339254991 0.40925388847909272 0 0.0059488009041311612 0.41735624870114602 0 0.0058412231562265226 0.39891749499975832 0 -0.0081246324890641812 0.40805065625530412 0 0.0059488009041311612 0.41735624870114602 0 0.0058412231562265226 0.39891749499975832 0 -0.0072392309157056894 0.43649428994281841 0 0.017959463550051329 0.43401198815683267 0 0.0059488009041311612 0.41735624870114602 0 -0.0036227877329230301 0.37947700469323042 0 0.0058412231562265226 0.39891749499975832 0 0.017841208666312069 0.37762534579018298 0 0.028900620339254991 0.40925388847909272 0 0.0058412231562265226 0.39891749499975832 0 0.024450360446550148 0.39274026509825583 0 0.024450360446550148 0.39274026509825583 0 0.017841208666312069 0.37762534579018298 0 0.035089121590226528 0.38253825820529852 0 0.0058412231562265226 0.39891749499975832 0 0.024450360446550148 0.39274026509825583 0 0.017841208666312069 0.37762534579018298 0 0.035089121590226528 0.38253825820529852 0 0.042007131815748507 0.39655655075565333 0 0.051605655867250001 0.38149668432143541 0 0.035089121590226528 0.38253825820529852 0 0.051605655867250001 0.38149668432143541 0 0.039541251155271878 0.36427244506096468 0 0.024450360446550148 0.39274026509825583 0 0.035089121590226528 0.38253825820529852 0 0.042007131815748507 0.39655655075565333 0 0.028900620339254991 0.40925388847909272 0 0.024450360446550148 0.39274026509825583 0 0.042007131815748507 0.39655655075565333 0 0.048852687291388877 0.41459777654824598 0 0.042007131815748507 0.39655655075565333 0 0.061313779414970418 0.39987885693449271 0 0.042007131815748507 0.39655655075565333 0 0.061313779414970418 0.39987885693449271 0 0.051605655867250001 0.38149668432143541 0 0.051605655867250001 0.38149668432143541 0 0.071205150989249344 0.38459031979425368 0 0.062117748859898458 0.36500130546073062 0 0.061313779414970418 0.39987885693449271 0 0.051605655867250001 0.38149668432143541 0 0.071205150989249344 0.38459031979425368 0 0.071205150989249344 0.38459031979425368 0 0.082619379705498486 0.3760424233717975 0 0.075022727430642186 0.36942391052545742 0 0.082619379705498486 0.3760424233717975 0 0.089989672908486834 0.38531380646189939 0 0.096111415589441723 0.36906918257109511 0 0.071205150989249344 0.38459031979425368 0 0.082619379705498486 0.3760424233717975 0 0.089989672908486834 0.38531380646189939 0 0.071205150989249344 0.38459031979425368 0 0.089989672908486834 0.38531380646189939 0 0.080292553118600216 0.40417933412777668 0 0.089989672908486834 0.38531380646189939 0 0.080292553118600216 0.40417933412777668 0 0.098794269534858231 0.4008464147916751 0 0.071205150989249344 0.38459031979425368 0 0.080292553118600216 0.40417933412777668 0 0.061313779414970418 0.39987885693449271 0 0.071205150989249344 0.38459031979425368 0 0.080292553118600216 0.40417933412777668 0 0.061313779414970418 0.39987885693449271 0 0.080292553118600216 0.40417933412777668 0 0.068804754243522781 0.41994166461739918 0 0.068804754243522781 0.41994166461739918 0 0.066001473138610989 0.43632828312433408 0 0.081892131328371143 0.4314429342789402 0 0.068804754243522781 0.41994166461739918 0 0.088756821195656727 0.42528555268655249 0 0.089379955247950782 0.42376834846129979 0 0.068804754243522781 0.41994166461739918 0 0.081892131328371143 0.4314429342789402 0 0.088756821195656727 0.42528555268655249 0 0.068804754243522781 0.41994166461739918 0 0.088756821195656727 0.42528555268655249 0 0.097642268156116166 0.44157878137516282 0 0.090272059233259302 0.42569138845737808 0 0.08961571608665983 0.43565438773200948 0 0.082419728037930629 0.44071508101891732 0 0.088756821195656727 0.42528555268655249 0 0.082419728037930629 0.44071508101891732 0 0.081892131328371143 0.4314429342789402 0 0.088756821195656727 0.42528555268655249 0 0.088756821195656727 0.42528555268655249 0 0.090272059233259302 0.42569138845737808 0 0.08961571608665983 0.43565438773200948 0 0.089379955247950782 0.42376834846129979 0 0.090272059233259302 0.42569138845737808 0 0.100849049247472 0.42323949502706593 0 0.088756821195656727 0.42528555268655249 0 0.089379955247950782 0.42376834846129979 0 0.090272059233259302 0.42569138845737808 0 0.088756821195656727 0.42528555268655249 0 0.090272059233259302 0.42569138845737808 0 0.089379955247950782 0.42376834846129979 0 0.090272059233259302 0.42569138845737808 0 0.088756821195656727 0.42528555268655249 0 0.089379955247950782 0.42376834846129979 0 0.082419728037930629 0.44071508101891732 0 0.088756821195656727 0.42528555268655249 0 0.08961571608665983 0.43565438773200948 0 0.080292553118600216 0.40417933412777668 0 0.089379955247950782 0.42376834846129979 0 0.080292553118600216 0.40417933412777668 0 0.068804754243522781 0.41994166461739918 0 0.089379955247950782 0.42376834846129979 0 0.080292553118600216 0.40417933412777668 0 0.089379955247950782 0.42376834846129979 0 0.098794269534858231 0.4008464147916751 0 0.089379955247950782 0.42376834846129979 0 0.10179294521624289 0.41380452076605601 0 0.098794269534858231 0.4008464147916751 0 0.089379955247950782 0.42376834846129979 0 0.098794269534858231 0.4008464147916751 0 0.10179294521624289 0.41380452076605601 0 0.1107041231999616 0.42933549212480232 0 0.10945635351086461 0.40362998662342647 0 0.089379955247950782 0.42376834846129979 0 0.10179294521624289 0.41380452076605601 0 0.100849049247472 0.42323949502706593 0 0.097642268156116166 0.44157878137516282 0 0.090272059233259302 0.42569138845737808 0 0.1020591419526216 0.43422428691783338 0 0.090272059233259302 0.42569138845737808 0 0.1020591419526216 0.43422428691783338 0 0.1093682320879097 0.430806037006286 0 0.090272059233259302 0.42569138845737808 0 0.1093682320879097 0.430806037006286 0 0.090272059233259302 0.42569138845737808 0 0.100849049247472 0.42323949502706593 0 0.1093682320879097 0.430806037006286 0 0.097642268156116166 0.44157878137516282 0 0.090272059233259302 0.42569138845737808 0 0.100849049247472 0.42323949502706593 0 0.1093682320879097 0.430806037006286 0 0.1107041231999616 0.42933549212480232 0 0.10179294521624289 0.41380452076605601 0 0.100849049247472 0.42323949502706593 0 0.1107041231999616 0.42933549212480232 0 0.1020591419526216 0.43422428691783338 0 0.1093682320879097 0.430806037006286 0 0.1103398931765668 0.43239031029619718 0 0.1020591419526216 0.43422428691783338 0 0.1098184302426566 0.43676384993846878 0 0.1103398931765668 0.43239031029619718 0 0.1020591419526216 0.43422428691783338 0 0.1103398931765668 0.43239031029619718 0 0.1103398931765668 0.43239031029619718 0 0.1206950902667107 0.42206632785564402 0 0.13429496844172059 0.42708486797366702 0 0.1098184302426566 0.43676384993846878 0 0.1103398931765668 0.43239031029619718 0 0.13429496844172059 0.42708486797366702 0 0.1098184302426566 0.43676384993846878 0 0.13429496844172059 0.42708486797366702 0 0.128144127290927 0.44346528644618949 0 0.1103398931765668 0.43239031029619718 0 0.13429496844172059 0.42708486797366702 0 0.1098184302426566 0.43676384993846878 0 0.13429496844172059 0.42708486797366702 0 0.1098184302426566 0.43676384993846878 0 0.1103398931765668 0.43239031029619718 0 0.1093682320879097 0.430806037006286 0 0.1103398931765668 0.43239031029619718 0 0.1107041231999616 0.42933549212480232 0 0.1103398931765668 0.43239031029619718 0 0.1107041231999616 0.42933549212480232 0 0.1103398931765668 0.43239031029619718 0 0.1107041231999616 0.42933549212480232 0 0.1206950902667107 0.42206632785564402 0 0.1107041231999616 0.42933549212480232 0 0.10945635351086461 0.40362998662342647 0 0.1107041231999616 0.42933549212480232 0 0.1127079119913361 0.41252960019287183 0 0.10945635351086461 0.40362998662342647 0 0.1107041231999616 0.42933549212480232 0 0.1206950902667107 0.42206632785564402 0 0.1127079119913361 0.41252960019287183 0 0.1107041231999616 0.42933549212480232 0 0.1127079119913361 0.41252960019287183 0 0.1127079119913361 0.41252960019287183 0 0.11966152561727041 0.40521647558469348 0 0.10945635351086461 0.40362998662342647 0 0.1206950902667107 0.42206632785564402 0 0.1127079119913361 0.41252960019287183 0 0.1238244133614653 0.41259348140785829 0 0.1127079119913361 0.41252960019287183 0 0.1238244133614653 0.41259348140785829 0 0.11966152561727041 0.40521647558469348 0 0.10945635351086461 0.40362998662342647 0 0.12302526621810631 0.39483339242702431 0 0.1082085838217669 0.37792448112205068 0 0.11966152561727041 0.40521647558469348 0 0.12302526621810631 0.39483339242702431 0 0.1317921164680903 0.40545952647836342 0 0.11966152561727041 0.40521647558469348 0 0.10945635351086461 0.40362998662342647 0 0.12302526621810631 0.39483339242702431 0 0.12302526621810631 0.39483339242702431 0 0.1082085838217669 0.37792448112205068 0 0.12936302614305781 0.3806702380723882 0 0.1082085838217669 0.37792448112205068 0 0.1269429757455281 0.3700741961410311 0 0.12936302614305781 0.3806702380723882 0 0.089989672908486834 0.38531380646189939 0 0.1082085838217669 0.37792448112205068 0 0.098794269534858231 0.4008464147916751 0 0.089989672908486834 0.38531380646189939 0 0.1082085838217669 0.37792448112205068 0 0.096111415589441723 0.36906918257109511 0 0.1082085838217669 0.37792448112205068 0 0.098794269534858231 0.4008464147916751 0 0.10945635351086461 0.40362998662342647 0 0.1082085838217669 0.37792448112205068 0 0.098794269534858231 0.4008464147916751 0 0.10945635351086461 0.40362998662342647 0 0.1082085838217669 0.37792448112205068 0 0.10179294521624289 0.41380452076605601 0 0.10945635351086461 0.40362998662342647 0 0.098794269534858231 0.4008464147916751 0 0.1071786794515654 0.3567072543489932 0 0.10614877508136331 0.33549002757593549 0 0.1071786794515654 0.3567072543489932 0 0.113306419652784 0.34577619835524942 0 0.10614877508136331 0.33549002757593549 0 0.1071786794515654 0.3567072543489932 0 0.095546341163152998 0.34721348103654748 0 0.10614877508136331 0.33549002757593549 0 0.1071786794515654 0.3567072543489932 0 0.095546341163152998 0.34721348103654748 0 0.095306363846323322 0.35760506086541671 0 0.1082085838217669 0.37792448112205068 0 0.1071786794515654 0.3567072543489932 0 0.096111415589441723 0.36906918257109511 0 0.1082085838217669 0.37792448112205068 0 0.1071786794515654 0.3567072543489932 0 0.1071786794515654 0.3567072543489932 0 0.095306363846323322 0.35760506086541671 0 0.096111415589441723 0.36906918257109511 0 0.1082085838217669 0.37792448112205068 0 0.1071786794515654 0.3567072543489932 0 0.1164276567709608 0.35791271614101089 0 0.1082085838217669 0.37792448112205068 0 0.1207019799918789 0.36117572882690419 0 0.1269429757455281 0.3700741961410311 0 0.1082085838217669 0.37792448112205068 0 0.1207019799918789 0.36117572882690419 0 0.1164276567709608 0.35791271614101089 0 0.1082085838217669 0.37792448112205068 0 0.1164276567709608 0.35791271614101089 0 0.1207019799918789 0.36117572882690419 0 0.12020614592151201 0.35183052892485178 0 0.1164276567709608 0.35791271614101089 0 0.1207019799918789 0.36117572882690419 0 0.12020614592151201 0.35183052892485178 0 0.1327104347709552 0.34833671648866182 0 0.1071786794515654 0.3567072543489932 0 0.1164276567709608 0.35791271614101089 0 0.1142797254492055 0.35305667444252631 0 0.1071786794515654 0.3567072543489932 0 0.1142797254492055 0.35305667444252631 0 0.113306419652784 0.34577619835524942 0 0.12020614592151201 0.35183052892485178 0 0.1164276567709608 0.35791271614101089 0 0.1142797254492055 0.35305667444252631 0 0.12020614592151201 0.35183052892485178 0 0.1142797254492055 0.35305667444252631 0 0.113306419652784 0.34577619835524942 0 0.12020614592151201 0.35183052892485178 0 0.113306419652784 0.34577619835524942 0 0.12565642337597641 0.34531162420386119 0 0.113306419652784 0.34577619835524942 0 0.10614877508136331 0.33549002757593549 0 0.12728204636342119 0.33264440370185788 0 0.113306419652784 0.34577619835524942 0 0.12728204636342119 0.33264440370185788 0 0.12565642337597641 0.34531162420386119 0 0.1046413786221535 0.32421374287331212 0 0.10614877508136331 0.33549002757593549 0 0.12728204636342119 0.33264440370185788 0 0.1046413786221535 0.32421374287331212 0 0.12728204636342119 0.33264440370185788 0 0.1167242617350734 0.31677866348064548 0 0.1046413786221535 0.32421374287331212 0 0.12728204636342119 0.33264440370185788 0 0.1167242617350734 0.31677866348064548 0 0.1046413786221535 0.32421374287331212 0 0.1046413786221535 0.32421374287331212 0 0.077692308094581719 0.31417877058986282 0 0.103629968386694 0.31192557858664272 0 0.1167242617350734 0.31677866348064548 0 0.1046413786221535 0.32421374287331212 0 0.103629968386694 0.31192557858664272 0 0.1046413786221535 0.32421374287331212 0 0.08294133613319174 0.33756664360252769 0 0.1046413786221535 0.32421374287331212 0 0.10614877508136331 0.33549002757593549 0 0.08294133613319174 0.33756664360252769 0 0.095546341163152998 0.34721348103654748 0 0.10614877508136331 0.33549002757593549 0 0.08294133613319174 0.33756664360252769 0 0.1046413786221535 0.32421374287331212 0 0.077692308094581719 0.31417877058986282 0 0.1046413786221535 0.32421374287331212 0 0.08294133613319174 0.33756664360252769 0 0.077692308094581719 0.31417877058986282 0 0.077692308094581719 0.31417877058986282 0 0.067976715374811009 0.32361441744144559 0 0.058789612577710128 0.31476722793512929 0 0.08294133613319174 0.33756664360252769 0 0.077692308094581719 0.31417877058986282 0 0.067976715374811009 0.32361441744144559 0 0.08294133613319174 0.33756664360252769 0 0.067976715374811009 0.32361441744144559 0 0.060135280265193262 0.33376627043538171 0 0.08294133613319174 0.33756664360252769 0 0.061241293644231747 0.35091954433174621 0 0.060135280265193262 0.33376627043538171 0 0.08294133613319174 0.33756664360252769 0 0.061241293644231747 0.35091954433174621 0 0.08294133613319174 0.33756664360252769 0 0.074215767858206258 0.35718016320722129 0 0.061241293644231747 0.35091954433174621 0 0.074215767858206258 0.35718016320722129 0 0.062117748859898458 0.36500130546073062 0 0.061241293644231747 0.35091954433174621 0 0.08294133613319174 0.33756664360252769 0 0.074215767858206258 0.35718016320722129 0 0.086887140600208246 0.35260595290123381 0 0.074215767858206258 0.35718016320722129 0 0.086887140600208246 0.35260595290123381 0 0.085272644414092907 0.36373677956425621 0 0.095546341163152998 0.34721348103654748 0 0.095306363846323322 0.35760506086541671 0 0.086887140600208246 0.35260595290123381 0 0.095306363846323322 0.35760506086541671 0 0.086887140600208246 0.35260595290123381 0 0.085272644414092907 0.36373677956425621 0 0.095546341163152998 0.34721348103654748 0 0.08294133613319174 0.33756664360252769 0 0.086887140600208246 0.35260595290123381 0 0.082619379705498486 0.3760424233717975 0 0.096111415589441723 0.36906918257109511 0 0.085272644414092907 0.36373677956425621 0 0.095306363846323322 0.35760506086541671 0 0.096111415589441723 0.36906918257109511 0 0.085272644414092907 0.36373677956425621 0 0.074215767858206258 0.35718016320722129 0 0.085272644414092907 0.36373677956425621 0 0.075022727430642186 0.36942391052545742 0 0.082619379705498486 0.3760424233717975 0 0.085272644414092907 0.36373677956425621 0 0.075022727430642186 0.36942391052545742 0 0.071205150989249344 0.38459031979425368 0 0.075022727430642186 0.36942391052545742 0 0.062117748859898458 0.36500130546073062 0 0.071205150989249344 0.38459031979425368 0 0.062117748859898458 0.36500130546073062 0 0.074215767858206258 0.35718016320722129 0 0.075022727430642186 0.36942391052545742 0 0.062117748859898458 0.36500130546073062 0 0.062117748859898458 0.36500130546073062 0 0.061241293644231747 0.35091954433174621 0 0.039541251155271878 0.36427244506096468 0 0.051605655867250001 0.38149668432143541 0 0.062117748859898458 0.36500130546073062 0 0.039541251155271878 0.36427244506096468 0 0.061241293644231747 0.35091954433174621 0 0.039541251155271878 0.36427244506096468 0 0.061241293644231747 0.35091954433174621 0 0.044784474582475392 0.34869393697364293 0 0.052607857505341568 0.34198871306916279 0 0.061241293644231747 0.35091954433174621 0 0.044784474582475392 0.34869393697364293 0 0.039541251155271878 0.36427244506096468 0 0.044784474582475392 0.34869393697364293 0 0.039541251155271878 0.36427244506096468 0 0.023969970644136189 0.34780247639640383 0 0.017841208666312069 0.37762534579018298 0 0.039541251155271878 0.36427244506096468 0 0.022364176625033282 0.36301365865426333 0 0.017841208666312069 0.37762534579018298 0 0.035089121590226528 0.38253825820529852 0 0.039541251155271878 0.36427244506096468 0 0.017841208666312069 0.37762534579018298 0 0.039541251155271878 0.36427244506096468 0 0.017841208666312069 0.37762534579018298 0 0.022364176625033282 0.36301365865426333 0 0.0070688581490178301 0.36290469613376197 0 0.022364176625033282 0.36301365865426333 0 0.023969970644136189 0.34780247639640383 0 0.0070688581490178301 0.36290469613376197 0 0.039541251155271878 0.36427244506096468 0 0.022364176625033282 0.36301365865426333 0 0.023969970644136189 0.34780247639640383 0 0.023969970644136189 0.34780247639640383 0 0.0070688581490178301 0.36290469613376197 0 0.010160838263171251 0.33572436441868259 0 -0.0072621374188671052 0.34147004492185079 0 0.0070688581490178301 0.36290469613376197 0 0.010160838263171251 0.33572436441868259 0 -0.0036227877329230301 0.37947700469323042 0 0.017841208666312069 0.37762534579018298 0 0.0070688581490178301 0.36290469613376197 0 -0.00017254440855824261 0.32560037032276101 0 0.010160838263171251 0.33572436441868259 0 0.020336227673690289 0.32045890090113183 0 -0.0025045175740335168 0.31031314766219981 0 -0.00017254440855824261 0.32560037032276101 0 0.020336227673690289 0.32045890090113183 0 -0.0072621374188671052 0.34147004492185079 0 -0.00017254440855824261 0.32560037032276101 0 0.010160838263171251 0.33572436441868259 0 0.023969970644136189 0.34780247639640383 0 0.010160838263171251 0.33572436441868259 0 0.020336227673690289 0.32045890090113183 0 0.023969970644136189 0.34780247639640383 0 0.020336227673690289 0.32045890090113183 0 0.041998086792626607 0.33406523967628299 0 0.04333949094528719 0.3160267531553359 0 0.041998086792626607 0.33406523967628299 0 0.052729264779742331 0.32427979797466039 0 0.020336227673690289 0.32045890090113183 0 0.04333949094528719 0.3160267531553359 0 0.041998086792626607 0.33406523967628299 0 0.044784474582475392 0.34869393697364293 0 0.023969970644136189 0.34780247639640383 0 0.041998086792626607 0.33406523967628299 0 0.044784474582475392 0.34869393697364293 0 0.041998086792626607 0.33406523967628299 0 0.052607857505341568 0.34198871306916279 0 0.061241293644231747 0.35091954433174621 0 0.052607857505341568 0.34198871306916279 0 0.060135280265193262 0.33376627043538171 0 0.041998086792626607 0.33406523967628299 0 0.060135280265193262 0.33376627043538171 0 0.052729264779742331 0.32427979797466039 0 0.041998086792626607 0.33406523967628299 0 0.052607857505341568 0.34198871306916279 0 0.060135280265193262 0.33376627043538171 0 0.04333949094528719 0.3160267531553359 0 0.052729264779742331 0.32427979797466039 0 0.058789612577710128 0.31476722793512929 0 0.067976715374811009 0.32361441744144559 0 0.052729264779742331 0.32427979797466039 0 0.058789612577710128 0.31476722793512929 0 0.067976715374811009 0.32361441744144559 0 0.060135280265193262 0.33376627043538171 0 0.052729264779742331 0.32427979797466039 0 0.058789612577710128 0.31476722793512929 0 0.050743237567011198 0.30414379830640997 0 0.077692308094581719 0.31417877058986282 0 0.058789612577710128 0.31476722793512929 0 0.050743237567011198 0.30414379830640997 0 0.04333949094528719 0.3160267531553359 0 0.058789612577710128 0.31476722793512929 0 0.050743237567011198 0.30414379830640997 0 0.050743237567011198 0.30414379830640997 0 0.057014991513141711 0.27962034081982778 0 0.068251428351683213 0.29416468787043332 0 0.050743237567011198 0.30414379830640997 0 0.035335655862959579 0.28380154980765537 0 0.057014991513141711 0.27962034081982778 0 0.050743237567011198 0.30414379830640997 0 0.035335655862959579 0.28380154980765537 0 0.050743237567011198 0.30414379830640997 0 0.035335655862959579 0.28380154980765537 0 0.035440516280943121 0.29844555413839979 0 0.020336227673690289 0.32045890090113183 0 0.04333949094528719 0.3160267531553359 0 0.035440516280943121 0.29844555413839979 0 0.04333949094528719 0.3160267531553359 0 0.050743237567011198 0.30414379830640997 0 0.035440516280943121 0.29844555413839979 0 0.050743237567011198 0.30414379830640997 0 0.035440516280943121 0.29844555413839979 0 0.020336227673690289 0.32045890090113183 0 0.035440516280943121 0.29844555413839979 0 0.020137794994874249 0.2927473099703915 0 0.020336227673690289 0.32045890090113183 0 0.020137794994874249 0.2927473099703915 0 0.020336227673690289 0.32045890090113183 0 0.020137794994874249 0.2927473099703915 0 0.010209922096268529 0.3014659822355169 0 0.035335655862959579 0.28380154980765537 0 0.035440516280943121 0.29844555413839979 0 0.020137794994874249 0.2927473099703915 0 0.035440516280943121 0.29844555413839979 0 0.020137794994874249 0.2927473099703915 0 0.020137794994874249 0.2927473099703915 0 0.014388475155295941 0.29060644707198668 0 0.01992807415890703 0.26345930130890138 0 0.020137794994874249 0.2927473099703915 0 0.014388475155295941 0.29060644707198668 0 0.020137794994874249 0.2927473099703915 0 0.014388475155295941 0.29060644707198668 0 0.010209922096268529 0.3014659822355169 0 -0.001308369768482999 0.29320410557187471 0 0.014388475155295941 0.29060644707198668 0 0.010209922096268529 0.3014659822355169 0 -0.001308369768482999 0.29320410557187471 0 0.014388475155295941 0.29060644707198668 0 0.0042686616650212863 0.27440264234540929 0 -0.0025045175740335168 0.31031314766219981 0 0.020336227673690289 0.32045890090113183 0 0.010209922096268529 0.3014659822355169 0 -0.0025045175740335168 0.31031314766219981 0 -0.001308369768482999 0.29320410557187471 0 0.010209922096268529 0.3014659822355169 0 0.0108212759879371 0.25143582124693198 0 0.0045166499774289158 0.26107549289106269 0 0.01992807415890703 0.26345930130890138 0 0.0108212759879371 0.25143582124693198 0 0.01992807415890703 0.26345930130890138 0 -0.004361582131907446 0.25012675423618741 0 0.0108212759879371 0.25143582124693198 0 0.0045166499774289158 0.26107549289106269 0 -0.0080731797928139601 0.26595294531788349 0 0.0045166499774289158 0.26107549289106269 0 0.0042686616650212863 0.27440264234540929 0 0.014388475155295941 0.29060644707198668 0 0.0042686616650212863 0.27440264234540929 0 0.01992807415890703 0.26345930130890138 0 0.0045166499774289158 0.26107549289106269 0 0.0042686616650212863 0.27440264234540929 0 0.01992807415890703 0.26345930130890138 0 0.020137794994874249 0.2927473099703915 0 0.01992807415890703 0.26345930130890138 0 0.035335655862959579 0.28380154980765537 0 0.020137794994874249 0.2927473099703915 0 0.01992807415890703 0.26345930130890138 0 0.035335655862959579 0.28380154980765537 0 0.01992807415890703 0.26345930130890138 0 0.019733428038529611 0.23627651218177001 0 0.0108212759879371 0.25143582124693198 0 0.01992807415890703 0.26345930130890138 0 0.032395297456559217 0.24990448186487541 0 0.01992807415890703 0.26345930130890138 0 0.043558334625058162 0.26267399305688549 0 0.049298807743375681 0.24401567068345059 0 0.032395297456559217 0.24990448186487541 0 0.043558334625058162 0.26267399305688549 0 0.035335655862959579 0.28380154980765537 0 0.01992807415890703 0.26345930130890138 0 0.043558334625058162 0.26267399305688549 0 0.035335655862959579 0.28380154980765537 0 0.043558334625058162 0.26267399305688549 0 0.057014991513141711 0.27962034081982778 0 0.043558334625058162 0.26267399305688549 0 0.057014991513141711 0.27962034081982778 0 0.068539877812152941 0.25484826761588569 0 0.049298807743375681 0.24401567068345059 0 0.043558334625058162 0.26267399305688549 0 0.068539877812152941 0.25484826761588569 0 0.068539877812152941 0.25484826761588569 0 0.094153496178737847 0.25278652485753728 0 0.068539877812152941 0.25484826761588569 0 0.094153496178737847 0.25278652485753728 0 0.094570315268327418 0.27155612350054997 0 0.076756394676448791 0.2775889904003081 0 0.087579642181032397 0.29054902922906578 0 0.094570315268327418 0.27155612350054997 0 0.068539877812152941 0.25484826761588569 0 0.076756394676448791 0.2775889904003081 0 0.094570315268327418 0.27155612350054997 0 0.057014991513141711 0.27962034081982778 0 0.068539877812152941 0.25484826761588569 0 0.076756394676448791 0.2775889904003081 0 0.076756394676448791 0.2775889904003081 0 0.068251428351683213 0.29416468787043332 0 0.087579642181032397 0.29054902922906578 0 0.057014991513141711 0.27962034081982778 0 0.076756394676448791 0.2775889904003081 0 0.068251428351683213 0.29416468787043332 0 0.077692308094581719 0.31417877058986282 0 0.050743237567011198 0.30414379830640997 0 0.068251428351683213 0.29416468787043332 0 0.077692308094581719 0.31417877058986282 0 0.050743237567011198 0.30414379830640997 0 0.077692308094581719 0.31417877058986282 0 0.068251428351683213 0.29416468787043332 0 0.087579642181032397 0.29054902922906578 0 0.077692308094581719 0.31417877058986282 0 0.087579642181032397 0.29054902922906578 0 0.1000908984509512 0.30112340397666981 0 0.087579642181032397 0.29054902922906578 0 0.1081165082442021 0.28468219903657133 0 0.1000908984509512 0.30112340397666981 0 0.1081165082442021 0.28468219903657133 0 0.1000908984509512 0.30112340397666981 0 0.1144297267004354 0.30168664743999352 0 0.087579642181032397 0.29054902922906578 0 0.1081165082442021 0.28468219903657133 0 0.094570315268327418 0.27155612350054997 0 0.077692308094581719 0.31417877058986282 0 0.1000908984509512 0.30112340397666981 0 0.103629968386694 0.31192557858664272 0 0.1000908984509512 0.30112340397666981 0 0.103629968386694 0.31192557858664272 0 0.1144297267004354 0.30168664743999352 0 0.1167242617350734 0.31677866348064548 0 0.1144297267004354 0.30168664743999352 0 0.13022117462186741 0.30154725623692402 0 0.1167242617350734 0.31677866348064548 0 0.103629968386694 0.31192557858664272 0 0.1144297267004354 0.30168664743999352 0 0.1081165082442021 0.28468219903657133 0 0.1144297267004354 0.30168664743999352 0 0.12390947864198219 0.28542069115612873 0 0.1144297267004354 0.30168664743999352 0 0.12390947864198219 0.28542069115612873 0 0.13022117462186741 0.30154725623692402 0 0.112671388523889 0.26641905049976811 0 0.123100174820058 0.26168293397560438 0 0.12910128816626559 0.2715879755468264 0 0.1081165082442021 0.28468219903657133 0 0.12390947864198219 0.28542069115612873 0 0.112671388523889 0.26641905049976811 0 0.12390947864198219 0.28542069115612873 0 0.112671388523889 0.26641905049976811 0 0.12910128816626559 0.2715879755468264 0 0.112671388523889 0.26641905049976811 0 0.123100174820058 0.26168293397560438 0 0.1197671145453226 0.2507247820991888 0 0.112671388523889 0.26641905049976811 0 0.1197671145453226 0.2507247820991888 0 0.094153496178737847 0.25278652485753728 0 0.112671388523889 0.26641905049976811 0 0.094153496178737847 0.25278652485753728 0 0.094570315268327418 0.27155612350054997 0 0.1197671145453226 0.2507247820991888 0 0.094153496178737847 0.25278652485753728 0 0.1081165082442021 0.28468219903657133 0 0.112671388523889 0.26641905049976811 0 0.094570315268327418 0.27155612350054997 0 0.1484138213405074 0.25936399499983281 0 0.14891678559523411 0.28660101817668943 0 0.16201232330786131 0.26387346548696822 0 0.1484138213405074 0.25936399499983281 0 0.1401857002278207 0.2693725498640136 0 0.14891678559523411 0.28660101817668943 0 0.1484138213405074 0.25936399499983281 0 0.14891678559523411 0.28660101817668943 0 0.15466915334416509 0.25190660019890743 0 0.1484138213405074 0.25936399499983281 0 0.16201232330786131 0.26387346548696822 0 0.1453807329119074 0.24866303934084041 0 0.15466915334416509 0.25190660019890743 0 0.1484138213405074 0.25936399499983281 0 0.1453807329119074 0.24866303934084041 0 0.1484138213405074 0.25936399499983281 0 0.13431090580927579 0.25993721073270593 0 0.1484138213405074 0.25936399499983281 0 0.13431090580927579 0.25993721073270593 0 0.1401857002278207 0.2693725498640136 0 0.1453807329119074 0.24866303934084041 0 0.1197671145453226 0.2507247820991888 0 0.13431090580927579 0.25993721073270593 0 0.123100174820058 0.26168293397560438 0 0.1197671145453226 0.2507247820991888 0 0.13431090580927579 0.25993721073270593 0 0.123100174820058 0.26168293397560438 0 0.13431090580927579 0.25993721073270593 0 0.12910128816626559 0.2715879755468264 0 0.12910128816626559 0.2715879755468264 0 0.1401857002278207 0.2693725498640136 0 0.14891678559523411 0.28660101817668943 0 0.12390947864198219 0.28542069115612873 0 0.12910128816626559 0.2715879755468264 0 0.14891678559523411 0.28660101817668943 0 0.13431090580927579 0.25993721073270593 0 0.12910128816626559 0.2715879755468264 0 0.1401857002278207 0.2693725498640136 0 0.12390947864198219 0.28542069115612873 0 0.13022117462186741 0.30154725623692402 0 0.14891678559523411 0.28660101817668943 0 0.13022117462186741 0.30154725623692402 0 0.1494197498499607 0.31383804135354598 0 0.13362732087883861 0.31825791726589631 0 0.1167242617350734 0.31677866348064548 0 0.13022117462186741 0.30154725623692402 0 0.13362732087883861 0.31825791726589631 0 0.14891678559523411 0.28660101817668943 0 0.16502192730860321 0.29833672799327199 0 0.1494197498499607 0.31383804135354598 0 0.14891678559523411 0.28660101817668943 0 0.1494197498499607 0.31383804135354598 0 0.13022117462186741 0.30154725623692402 0 0.14891678559523411 0.28660101817668943 0 0.1494197498499607 0.31383804135354598 0 0.14891678559523411 0.28660101817668943 0 0.16502192730860321 0.29833672799327199 0 0.17258825255407231 0.27567175281796641 0 0.16502192730860321 0.29833672799327199 0 0.17750724151807151 0.31691505049664243 0 0.1494197498499607 0.31383804135354598 0 0.16502192730860321 0.29833672799327199 0 0.18306544781706219 0.29535972807124689 0 0.17750724151807151 0.31691505049664243 0 0.18306544781706219 0.29535972807124689 0 0.19825331032735899 0.30649929221888439 0 0.17750724151807151 0.31691505049664243 0 0.16502192730860321 0.29833672799327199 0 0.18306544781706219 0.29535972807124689 0 0.17258825255407231 0.27567175281796641 0 0.18306544781706219 0.29535972807124689 0 0.17258825255407231 0.27567175281796641 0 0.19225514168233229 0.27637801024750158 0 0.17258825255407231 0.27567175281796641 0 0.18608903078984079 0.25995697105729071 0 0.19225514168233229 0.27637801024750158 0 0.17258825255407231 0.27567175281796641 0 0.16201232330786131 0.26387346548696822 0 0.17332134199895571 0.25758983019522791 0 0.14891678559523411 0.28660101817668943 0 0.17258825255407231 0.27567175281796641 0 0.16201232330786131 0.26387346548696822 0 0.1648484701696567 0.24744362212440471 0 0.15466915334416509 0.25190660019890743 0 0.16201232330786131 0.26387346548696822 0 0.1648484701696567 0.24744362212440471 0 0.16201232330786131 0.26387346548696822 0 0.17332134199895571 0.25758983019522791 0 0.17921266192405369 0.24485401564359771 0 0.17332134199895571 0.25758983019522791 0 0.18608903078984079 0.25995697105729071 0 0.17258825255407231 0.27567175281796641 0 0.17332134199895571 0.25758983019522791 0 0.18608903078984079 0.25995697105729071 0 0.19643052809465181 0.2433224828713732 0 0.18608903078984079 0.25995697105729071 0 0.20272625848497891 0.26192573456807738 0 0.18608903078984079 0.25995697105729071 0 0.20272625848497891 0.26192573456807738 0 0.19225514168233229 0.27637801024750158 0 0.19225514168233229 0.27637801024750158 0 0.20931999553351249 0.2747097540570328 0 0.20479240245397259 0.28930189362021808 0 0.20272625848497891 0.26192573456807738 0 0.19225514168233229 0.27637801024750158 0 0.20931999553351249 0.2747097540570328 0 0.20272625848497891 0.26192573456807738 0 0.20931999553351249 0.2747097540570328 0 0.22276706595432569 0.26722786124429282 0 0.19643052809465181 0.2433224828713732 0 0.20272625848497891 0.26192573456807738 0 0.21668623523937189 0.25273648673926968 0 0.20272625848497891 0.26192573456807738 0 0.21668623523937189 0.25273648673926968 0 0.22276706595432569 0.26722786124429282 0 0.23190300684591059 0.2469757189771403 0 0.21668623523937189 0.25273648673926968 0 0.2340167615655426 0.26024144399058702 0 0.21668623523937189 0.25273648673926968 0 0.2340167615655426 0.26024144399058702 0 0.22276706595432569 0.26722786124429282 0 0.20931999553351249 0.2747097540570328 0 0.22276706595432569 0.26722786124429282 0 0.23407023324957901 0.28358253799766081 0 0.22276706595432569 0.26722786124429282 0 0.2428012282252888 0.27040414858390061 0 0.23407023324957901 0.28358253799766081 0 0.2340167615655426 0.26024144399058702 0 0.22276706595432569 0.26722786124429282 0 0.2428012282252888 0.27040414858390061 0 0.2428012282252888 0.27040414858390061 0 0.23407023324957901 0.28358253799766081 0 0.25491758893057909 0.27951005592881761 0 0.2428012282252888 0.27040414858390061 0 0.23407023324957901 0.28358253799766081 0 0.2428012282252888 0.27040414858390061 0 0.25153222320099622 0.25722575917013901 0 0.25536006440587672 0.26878811273571068 0 0.2428012282252888 0.27040414858390061 0 0.25153222320099622 0.25722575917013901 0 0.2340167615655426 0.26024144399058702 0 0.2428012282252888 0.27040414858390061 0 0.25153222320099622 0.25722575917013901 0 0.24791323415382371 0.2458877298954085 0 0.23190300684591059 0.2469757189771403 0 0.25153222320099622 0.25722575917013901 0 0.23190300684591059 0.2469757189771403 0 0.2340167615655426 0.26024144399058702 0 0.25153222320099622 0.25722575917013901 0 0.23190300684591059 0.2469757189771403 0 0.25153222320099622 0.25722575917013901 0 0.24543399627141721 0.29887735901603257 0 0.2199905643657564 0.30483410896799212 0 0.2412863906095909 0.31706614216088019 0 0.24543399627141721 0.29887735901603257 0 0.2412863906095909 0.31706614216088019 0 0.26071219069447599 0.31197788889560879 0 0.24543399627141721 0.29887735901603257 0 0.23407023324957901 0.28358253799766081 0 0.25491758893057909 0.27951005592881761 0 0.23407023324957901 0.28358253799766081 0 0.25491758893057909 0.27951005592881761 0 0.23407023324957901 0.28358253799766081 0 0.2199905643657564 0.30483410896799212 0 0.20479240245397259 0.28930189362021808 0 0.24543399627141721 0.29887735901603257 0 0.23407023324957901 0.28358253799766081 0 0.2199905643657564 0.30483410896799212 0 0.23407023324957901 0.28358253799766081 0 0.20479240245397259 0.28930189362021808 0 0.23407023324957901 0.28358253799766081 0 0.2199905643657564 0.30483410896799212 0 0.2199905643657564 0.30483410896799212 0 0.19825331032735899 0.30649929221888439 0 0.20591089548193209 0.32608567993832238 0 0.2199905643657564 0.30483410896799212 0 0.20479240245397259 0.28930189362021808 0 0.19825331032735899 0.30649929221888439 0 0.20931999553351249 0.2747097540570328 0 0.23407023324957901 0.28358253799766081 0 0.20479240245397259 0.28930189362021808 0 0.18306544781706219 0.29535972807124689 0 0.19225514168233229 0.27637801024750158 0 0.20479240245397259 0.28930189362021808 0 0.18306544781706219 0.29535972807124689 0 0.20479240245397259 0.28930189362021808 0 0.19825331032735899 0.30649929221888439 0 0.19825331032735899 0.30649929221888439 0 0.20591089548193209 0.32608567993832238 0 0.17750724151807151 0.31691505049664243 0 0.20591089548193209 0.32608567993832238 0 0.1834453935528689 0.33477958080273051 0 0.17750724151807151 0.31691505049664243 0 0.20591089548193209 0.32608567993832238 0 0.1918312265981009 0.34733725090864831 0 0.1834453935528689 0.33477958080273051 0 0.20591089548193209 0.32608567993832238 0 0.1918312265981009 0.34733725090864831 0 0.2120062173118393 0.34341212619813682 0 0.20591089548193209 0.32608567993832238 0 0.2241124479696345 0.32285479690430968 0 0.2120062173118393 0.34341212619813682 0 0.20591089548193209 0.32608567993832238 0 0.1918312265981009 0.34733725090864831 0 0.2199905643657564 0.30483410896799212 0 0.20591089548193209 0.32608567993832238 0 0.2199905643657564 0.30483410896799212 0 0.20591089548193209 0.32608567993832238 0 0.2241124479696345 0.32285479690430968 0 0.2199905643657564 0.30483410896799212 0 0.2241124479696345 0.32285479690430968 0 0.2412863906095909 0.31706614216088019 0 0.2241124479696345 0.32285479690430968 0 0.23218120802557979 0.3394870014876365 0 0.2412863906095909 0.31706614216088019 0 0.2120062173118393 0.34341212619813682 0 0.2241124479696345 0.32285479690430968 0 0.23218120802557979 0.3394870014876365 0 0.2120062173118393 0.34341212619813682 0 0.23218120802557979 0.3394870014876365 0 0.23218120802557979 0.3394870014876365 0 0.2412863906095909 0.31706614216088019 0 0.25235619873932041 0.33556187677713623 0 0.23218120802557979 0.3394870014876365 0 0.25235619873932041 0.33556187677713623 0 0.23218120802557979 0.3394870014876365 0 0.2438273554430464 0.34812574592335249 0 0.25235619873932041 0.33556187677713623 0 0.2412863906095909 0.31706614216088019 0 0.25496362040665271 0.32267745764425643 0 0.25235619873932041 0.33556187677713623 0 0.2444030594993066 0.36261468031945582 0 0.22630598985240971 0.37543582988375418 0 0.247713784970646 0.38075050805242922 0 0.2444030594993066 0.36261468031945582 0 0.22630598985240971 0.37543582988375418 0 0.2444030594993066 0.36261468031945582 0 0.247713784970646 0.38075050805242922 0 0.25490457918629872 0.37507349251653871 0 0.2444030594993066 0.36261468031945582 0 0.2438273554430464 0.34812574592335249 0 0.25711451900508148 0.35258648987221092 0 0.23218120802557979 0.3394870014876365 0 0.2438273554430464 0.34812574592335249 0 0.2288636426087374 0.35578594420060722 0 0.2444030594993066 0.36261468031945582 0 0.2438273554430464 0.34812574592335249 0 0.2288636426087374 0.35578594420060722 0 0.2120062173118393 0.34341212619813682 0 0.23218120802557979 0.3394870014876365 0 0.2288636426087374 0.35578594420060722 0 0.2444030594993066 0.36261468031945582 0 0.2288636426087374 0.35578594420060722 0 0.22630598985240971 0.37543582988375418 0 0.2288636426087374 0.35578594420060722 0 0.21324276167256731 0.36206450472990792 0 0.22630598985240971 0.37543582988375418 0 0.21324276167256731 0.36206450472990792 0 0.19654986060048771 0.37047802484019998 0 0.20820892020551271 0.38825697944805271 0 0.2120062173118393 0.34341212619813682 0 0.2288636426087374 0.35578594420060722 0 0.21324276167256731 0.36206450472990792 0 0.2120062173118393 0.34341212619813682 0 0.21324276167256731 0.36206450472990792 0 0.1918312265981009 0.34733725090864831 0 0.2120062173118393 0.34341212619813682 0 0.1918312265981009 0.34733725090864831 0 0.1918312265981009 0.34733725090864831 0 0.19654986060048771 0.37047802484019998 0 0.1753588575145448 0.37220031576602253 0 0.21324276167256731 0.36206450472990792 0 0.1918312265981009 0.34733725090864831 0 0.19654986060048771 0.37047802484019998 0 0.1918312265981009 0.34733725090864831 0 0.1753588575145448 0.37220031576602253 0 0.1731188016947007 0.36781558424519839 0 0.1753588575145448 0.37220031576602253 0 0.1802318714797885 0.35236122573149797 0 0.1731188016947007 0.36781558424519839 0 0.167364966647951 0.35975083588178058 0 0.1802318714797885 0.35236122573149797 0 0.1731188016947007 0.36781558424519839 0 0.1753588575145448 0.37220031576602253 0 0.1731188016947007 0.36781558424519839 0 0.1753588575145448 0.37220031576602253 0 0.16523354001105911 0.37409983959611109 0 0.1731188016947007 0.36781558424519839 0 0.16523354001105911 0.37409983959611109 0 0.1662459251842697 0.36710584608423269 0 0.167364966647951 0.35975083588178058 0 0.15926639238336801 0.36675712461384091 0 0.15018796347142391 0.35543911342959528 0 0.167364966647951 0.35975083588178058 0 0.1662459251842697 0.36710584608423269 0 0.15926639238336801 0.36675712461384091 0 0.1731188016947007 0.36781558424519839 0 0.167364966647951 0.35975083588178058 0 0.1662459251842697 0.36710584608423269 0 0.16523354001105911 0.37409983959611109 0 0.15926639238336801 0.36675712461384091 0 0.15062115634747231 0.37889780715207888 0 0.16523354001105911 0.37409983959611109 0 0.1662459251842697 0.36710584608423269 0 0.15926639238336801 0.36675712461384091 0 0.1753506460241005 0.35054361342806389 0 0.14992271410468949 0.34107506453040248 0 0.167364966647951 0.35975083588178058 0 0.1753506460241005 0.35054361342806389 0 0.15018796347142391 0.35543911342959528 0 0.1753506460241005 0.35054361342806389 0 0.14992271410468949 0.34107506453040248 0 0.15018796347142391 0.35543911342959528 0 0.1753506460241005 0.35054361342806389 0 0.15018796347142391 0.35543911342959528 0 0.1918312265981009 0.34733725090864831 0 0.1753506460241005 0.35054361342806389 0 0.1918312265981009 0.34733725090864831 0 0.1753506460241005 0.35054361342806389 0 0.1834453935528689 0.33477958080273051 0 0.1918312265981009 0.34733725090864831 0 0.1753506460241005 0.35054361342806389 0 0.1802318714797885 0.35236122573149797 0 0.1918312265981009 0.34733725090864831 0 0.1753588575145448 0.37220031576602253 0 0.1802318714797885 0.35236122573149797 0 0.1753506460241005 0.35054361342806389 0 0.1802318714797885 0.35236122573149797 0 0.167364966647951 0.35975083588178058 0 0.1753506460241005 0.35054361342806389 0 0.1802318714797885 0.35236122573149797 0 0.1753506460241005 0.35054361342806389 0 0.1834453935528689 0.33477958080273051 0 0.1666269581421321 0.33301630924197367 0 0.1834453935528689 0.33477958080273051 0 0.17750724151807151 0.31691505049664243 0 0.1666269581421321 0.33301630924197367 0 0.17750724151807151 0.31691505049664243 0 0.1666269581421321 0.33301630924197367 0 0.1494197498499607 0.31383804135354598 0 0.1753506460241005 0.35054361342806389 0 0.1666269581421321 0.33301630924197367 0 0.14992271410468949 0.34107506453040248 0 0.1666269581421321 0.33301630924197367 0 0.14992271410468949 0.34107506453040248 0 0.1494197498499607 0.31383804135354598 0 0.14992271410468949 0.34107506453040248 0 0.1494197498499607 0.31383804135354598 0 0.14992271410468949 0.34107506453040248 0 0.1494197498499607 0.31383804135354598 0 0.13362732087883861 0.31825791726589631 0 0.1167242617350734 0.31677866348064548 0 0.13362732087883861 0.31825791726589631 0 0.12728204636342119 0.33264440370185788 0 0.14992271410468949 0.34107506453040248 0 0.13362732087883861 0.31825791726589631 0 0.12728204636342119 0.33264440370185788 0 0.14992271410468949 0.34107506453040248 0 0.12728204636342119 0.33264440370185788 0 0.1327104347709552 0.34833671648866182 0 0.14992271410468949 0.34107506453040248 0 0.12728204636342119 0.33264440370185788 0 0.12728204636342119 0.33264440370185788 0 0.12565642337597641 0.34531162420386119 0 0.1327104347709552 0.34833671648866182 0 0.1207019799918789 0.36117572882690419 0 0.1327104347709552 0.34833671648866182 0 0.15018796347142391 0.35543911342959528 0 0.12020614592151201 0.35183052892485178 0 0.12565642337597641 0.34531162420386119 0 0.1327104347709552 0.34833671648866182 0 0.1207019799918789 0.36117572882690419 0 0.15018796347142391 0.35543911342959528 0 0.1207019799918789 0.36117572882690419 0 0.13593835547877689 0.36822566204290602 0 0.15018796347142391 0.35543911342959528 0 0.1207019799918789 0.36117572882690419 0 0.1269429757455281 0.3700741961410311 0 0.13593835547877689 0.36822566204290602 0 0.1269429757455281 0.3700741961410311 0 0.13593835547877689 0.36822566204290602 0 0.12936302614305781 0.3806702380723882 0 0.13593835547877689 0.36822566204290602 0 0.15018796347142391 0.35543911342959528 0 0.15062115634747231 0.37889780715207888 0 0.15018796347142391 0.35543911342959528 0 0.15062115634747231 0.37889780715207888 0 0.15926639238336801 0.36675712461384091 0 0.15018796347142391 0.35543911342959528 0 0.15062115634747231 0.37889780715207888 0 0.14992271410468949 0.34107506453040248 0 0.1327104347709552 0.34833671648866182 0 0.15018796347142391 0.35543911342959528 0 0.14992271410468949 0.34107506453040248 0 0.15018796347142391 0.35543911342959528 0 0.14138495384440489 0.39322107909200571 0 0.1317921164680903 0.40545952647836342 0 0.15222999220591241 0.40711056306127658 0 0.14138495384440489 0.39322107909200571 0 0.15222999220591241 0.40711056306127658 0 0.16379442486022849 0.38965543941364961 0 0.14138495384440489 0.39322107909200571 0 0.15062115634747231 0.37889780715207888 0 0.16379442486022849 0.38965543941364961 0 0.13593835547877689 0.36822566204290602 0 0.15062115634747231 0.37889780715207888 0 0.12936302614305781 0.3806702380723882 0 0.14138495384440489 0.39322107909200571 0 0.15062115634747231 0.37889780715207888 0 0.12936302614305781 0.3806702380723882 0 0.12302526621810631 0.39483339242702431 0 0.14138495384440489 0.39322107909200571 0 0.12936302614305781 0.3806702380723882 0 0.12302526621810631 0.39483339242702431 0 0.14138495384440489 0.39322107909200571 0 0.1317921164680903 0.40545952647836342 0 0.1238244133614653 0.41259348140785829 0 0.11966152561727041 0.40521647558469348 0 0.1317921164680903 0.40545952647836342 0 0.1238244133614653 0.41259348140785829 0 0.1317921164680903 0.40545952647836342 0 0.13391702338258271 0.41648007558095218 0 0.1317921164680903 0.40545952647836342 0 0.13391702338258271 0.41648007558095218 0 0.15222999220591241 0.40711056306127658 0 0.1206950902667107 0.42206632785564402 0 0.1238244133614653 0.41259348140785829 0 0.13391702338258271 0.41648007558095218 0 0.14066555955159241 0.42456568670890099 0 0.128144127290927 0.44346528644618949 0 0.13429496844172059 0.42708486797366702 0 0.14066555955159241 0.42456568670890099 0 0.128144127290927 0.44346528644618949 0 0.14066555955159241 0.42456568670890099 0 0.1468621194973313 0.4432032004000479 0 0.128144127290927 0.44346528644618949 0 0.1206950902667107 0.42206632785564402 0 0.13391702338258271 0.41648007558095218 0 0.13429496844172059 0.42708486797366702 0 0.13391702338258271 0.41648007558095218 0 0.13429496844172059 0.42708486797366702 0 0.14066555955159241 0.42456568670890099 0 0.13429496844172059 0.42708486797366702 0 0.14066555955159241 0.42456568670890099 0 0.14066555955159241 0.42456568670890099 0 0.16808955766080291 0.41960022257260449 0 0.15915405200730839 0.43380743940711708 0 0.14066555955159241 0.42456568670890099 0 0.16808955766080291 0.41960022257260449 0 0.14066555955159241 0.42456568670890099 0 0.15915405200730839 0.43380743940711708 0 0.1468621194973313 0.4432032004000479 0 0.14066555955159241 0.42456568670890099 0 0.15222999220591241 0.40711056306127658 0 0.14066555955159241 0.42456568670890099 0 0.15222999220591241 0.40711056306127658 0 0.16201542307939579 0.41612311438285787 0 0.14066555955159241 0.42456568670890099 0 0.16201542307939579 0.41612311438285787 0 0.13391702338258271 0.41648007558095218 0 0.14066555955159241 0.42456568670890099 0 0.15222999220591241 0.40711056306127658 0 0.16201542307939579 0.41612311438285787 0 0.16941052998224071 0.40948279892878392 0 0.18336528660720119 0.40768054205682042 0 0.16808955766080291 0.41960022257260449 0 0.16201542307939579 0.41612311438285787 0 0.18336528660720119 0.40768054205682042 0 0.14066555955159241 0.42456568670890099 0 0.16808955766080291 0.41960022257260449 0 0.16201542307939579 0.41612311438285787 0 0.15222999220591241 0.40711056306127658 0 0.16201542307939579 0.41612311438285787 0 0.1623232745498161 0.40583988766108697 0 0.16201542307939579 0.41612311438285787 0 0.16941052998224071 0.40948279892878392 0 0.1623232745498161 0.40583988766108697 0 0.16808955766080291 0.41960022257260449 0 0.15915405200730839 0.43380743940711708 0 0.1766721112776041 0.43405941705504181 0 0.18398920852212189 0.42222731617319992 0 0.1766721112776041 0.43405941705504181 0 0.19310721835761019 0.42992761007563862 0 0.16808955766080291 0.41960022257260449 0 0.18398920852212189 0.42222731617319992 0 0.1766721112776041 0.43405941705504181 0 0.1766721112776041 0.43405941705504181 0 0.19310721835761019 0.42992761007563862 0 0.189468296445607 0.44161966517716561 0 0.16808955766080291 0.41960022257260449 0 0.18398920852212189 0.42222731617319992 0 0.19637406676339619 0.41333592033168631 0 0.16201542307939579 0.41612311438285787 0 0.18336528660720119 0.40768054205682042 0 0.16808955766080291 0.41960022257260449 0 0.19637406676339619 0.41333592033168631 0 0.16808955766080291 0.41960022257260449 0 0.18336528660720119 0.40768054205682042 0 0.19637406676339619 0.41333592033168631 0 0.16941052998224071 0.40948279892878392 0 0.18336528660720119 0.40768054205682042 0 0.18177969473327391 0.40698117398671069 0 0.16941052998224071 0.40948279892878392 0 0.18177969473327391 0.40698117398671069 0 0.17544170441619431 0.40324048585703531 0 0.17550339911694879 0.39641485139935639 0 0.16379442486022849 0.38965543941364961 0 0.18273535403657959 0.38663922238918558 0 0.18177969473327391 0.40698117398671069 0 0.18171278421578699 0.39924093208501849 0 0.19011185055861429 0.40107812901234902 0 0.18336528660720119 0.40768054205682042 0 0.18177969473327391 0.40698117398671069 0 0.19011185055861429 0.40107812901234902 0 0.18177969473327391 0.40698117398671069 0 0.19011185055861429 0.40107812901234902 0 0.18171278421578699 0.39924093208501849 0 0.17550339911694879 0.39641485139935639 0 0.18273535403657959 0.38663922238918558 0 0.18171278421578699 0.39924093208501849 0 0.18273535403657959 0.38663922238918558 0 0.19011185055861429 0.40107812901234902 0 0.18273535403657959 0.38663922238918558 0 0.19011185055861429 0.40107812901234902 0 0.18177969473327391 0.40698117398671069 0 0.18171278421578699 0.39924093208501849 0 0.17544170441619431 0.40324048585703531 0 0.18171278421578699 0.39924093208501849 0 0.17550339911694879 0.39641485139935639 0 0.17544170441619431 0.40324048585703531 0 0.17550339911694879 0.39641485139935639 0 0.17544170441619431 0.40324048585703531 0 0.1689722959232661 0.40169126431279728 0 0.16941052998224071 0.40948279892878392 0 0.17544170441619431 0.40324048585703531 0 0.1689722959232661 0.40169126431279728 0 0.1689722959232661 0.40169126431279728 0 0.1623232745498161 0.40583988766108697 0 0.16379442486022849 0.38965543941364961 0 0.15222999220591241 0.40711056306127658 0 0.1623232745498161 0.40583988766108697 0 0.16379442486022849 0.38965543941364961 0 0.15222999220591241 0.40711056306127658 0 0.16379442486022849 0.38965543941364961 0 0.16941052998224071 0.40948279892878392 0 0.1689722959232661 0.40169126431279728 0 0.1623232745498161 0.40583988766108697 0 0.17550339911694879 0.39641485139935639 0 0.1689722959232661 0.40169126431279728 0 0.16379442486022849 0.38965543941364961 0 0.1753588575145448 0.37220031576602253 0 0.16523354001105911 0.37409983959611109 0 0.16379442486022849 0.38965543941364961 0 0.1753588575145448 0.37220031576602253 0 0.16379442486022849 0.38965543941364961 0 0.16523354001105911 0.37409983959611109 0 0.15062115634747231 0.37889780715207888 0 0.16379442486022849 0.38965543941364961 0 0.1753588575145448 0.37220031576602253 0 0.18273535403657959 0.38663922238918558 0 0.1753588575145448 0.37220031576602253 0 0.16379442486022849 0.38965543941364961 0 0.18273535403657959 0.38663922238918558 0 0.19654986060048771 0.37047802484019998 0 0.1753588575145448 0.37220031576602253 0 0.18273535403657959 0.38663922238918558 0 0.19654986060048771 0.37047802484019998 0 0.18273535403657959 0.38663922238918558 0 0.20820892020551271 0.38825697944805271 0 0.19011185055861429 0.40107812901234902 0 0.20820892020551271 0.38825697944805271 0 0.19011185055861429 0.40107812901234902 0 0.20429538739721931 0.40183734425620671 0 0.20820892020551271 0.38825697944805271 0 0.18273535403657959 0.38663922238918558 0 0.19011185055861429 0.40107812901234902 0 0.20820892020551271 0.38825697944805271 0 0.19011185055861429 0.40107812901234902 0 0.20429538739721931 0.40183734425620671 0 0.19637406676339619 0.41333592033168631 0 0.20429538739721931 0.40183734425620671 0 0.20820892020551271 0.38825697944805271 0 0.2202735525657262 0.39552406566479109 0 0.20429538739721931 0.40183734425620671 0 0.2202735525657262 0.39552406566479109 0 0.2145024493426794 0.40932094283274068 0 0.21324276167256731 0.36206450472990792 0 0.20820892020551271 0.38825697944805271 0 0.22630598985240971 0.37543582988375418 0 0.20820892020551271 0.38825697944805271 0 0.22630598985240971 0.37543582988375418 0 0.20820892020551271 0.38825697944805271 0 0.22630598985240971 0.37543582988375418 0 0.2202735525657262 0.39552406566479109 0 0.22630598985240971 0.37543582988375418 0 0.2319341774640927 0.38940141535347877 0 0.2202735525657262 0.39552406566479109 0 0.2202735525657262 0.39552406566479109 0 0.23263083192196299 0.40530596533379709 0 0.2145024493426794 0.40932094283274068 0 0.2319341774640927 0.38940141535347877 0 0.2202735525657262 0.39552406566479109 0 0.23263083192196299 0.40530596533379709 0 0.2386671862694576 0.40396906576347452 0 0.24985329529781791 0.39990667252734718 0 0.247713784970646 0.38075050805242922 0 0.2319341774640927 0.38940141535347877 0 0.23263083192196299 0.40530596533379709 0 0.247713784970646 0.38075050805242922 0 0.23263083192196299 0.40530596533379709 0 0.247713784970646 0.38075050805242922 0 0.23263083192196299 0.40530596533379709 0 0.2386671862694576 0.40396906576347452 0 0.247713784970646 0.38075050805242922 0 0.23263083192196299 0.40530596533379709 0 0.2386671862694576 0.40396906576347452 0 0.23263083192196299 0.40530596533379709 0 0.2386671862694576 0.40396906576347452 0 0.23835521004243199 0.40923349084829558 0 0.2386671862694576 0.40396906576347452 0 0.24985329529781791 0.39990667252734718 0 0.23835521004243199 0.40923349084829558 0 0.22630598985240971 0.37543582988375418 0 0.2319341774640927 0.38940141535347877 0 0.247713784970646 0.38075050805242922 0 0.2385665307870003 0.42747740564887549 0 0.25702987725108101 0.42925349536772212 0 0.2385665307870003 0.42747740564887549 0 0.2488221034234695 0.4223051763495565 0 0.25702987725108101 0.42925349536772212 0 0.2385665307870003 0.42747740564887549 0 0.2448364132796593 0.44231000148378752 0 0.25702987725108101 0.42925349536772212 0 0.2385665307870003 0.42747740564887549 0 0.2406669044851476 0.42214558790778223 0 0.2368791315523423 0.42061341875551328 0 0.2385665307870003 0.42747740564887549 0 0.2406669044851476 0.42214558790778223 0 0.2488221034234695 0.4223051763495565 0 0.24985329529781791 0.39990667252734718 0 0.2383998521777784 0.41818635087718381 0 0.24985329529781791 0.39990667252734718 0 0.23835521004243199 0.40923349084829558 0 0.2383998521777784 0.41818635087718381 0 0.24985329529781791 0.39990667252734718 0 0.2383998521777784 0.41818635087718381 0 0.25380059083303341 0.40846212201461762 0 0.2406669044851476 0.42214558790778223 0 0.2488221034234695 0.4223051763495565 0 0.2383998521777784 0.41818635087718381 0 0.23835521004243199 0.40923349084829558 0 0.2350244704201927 0.41211241555610317 0 0.2383998521777784 0.41818635087718381 0 0.23263083192196299 0.40530596533379709 0 0.23835521004243199 0.40923349084829558 0 0.2350244704201927 0.41211241555610317 0 0.2406669044851476 0.42214558790778223 0 0.2383998521777784 0.41818635087718381 0 0.2368791315523423 0.42061341875551328 0 0.2350244704201927 0.41211241555610317 0 0.2383998521777784 0.41818635087718381 0 0.23071198753859651 0.41572385516513549 0 0.2383998521777784 0.41818635087718381 0 0.2368791315523423 0.42061341875551328 0 0.2383998521777784 0.41818635087718381 0 0.2368791315523423 0.42061341875551328 0 0.22312475613875049 0.42078211493492951 0 0.23263083192196299 0.40530596533379709 0 0.2145024493426794 0.40932094283274068 0 0.23263083192196299 0.40530596533379709 0 0.22312475613875049 0.42078211493492951 0 0.2145024493426794 0.40932094283274068 0 0.2383998521777784 0.41818635087718381 0 0.22312475613875049 0.42078211493492951 0 0.2383998521777784 0.41818635087718381 0 0.23071198753859651 0.41572385516513549 0 0.22312475613875049 0.42078211493492951 0 0.23263083192196299 0.40530596533379709 0 0.2350244704201927 0.41211241555610317 0 0.23071198753859651 0.41572385516513549 0 0.23263083192196299 0.40530596533379709 0 0.23071198753859651 0.41572385516513549 0 0.22312475613875049 0.42078211493492951 0 0.23263083192196299 0.40530596533379709 0 0.22312475613875049 0.42078211493492951 0 0.2385665307870003 0.42747740564887549 0 0.2201031843229195 0.42570131593002969 0 0.2201031843229195 0.42570131593002969 0 0.21059740683120351 0.44117697990449289 0 0.23005064234993169 0.44460645584696262 0 0.2385665307870003 0.42747740564887549 0 0.22312475613875049 0.42078211493492951 0 0.2201031843229195 0.42570131593002969 0 0.22312475613875049 0.42078211493492951 0 0.2201031843229195 0.42570131593002969 0 0.2385665307870003 0.42747740564887549 0 0.2201031843229195 0.42570131593002969 0 0.23005064234993169 0.44460645584696262 0 0.2385665307870003 0.42747740564887549 0 0.2368791315523423 0.42061341875551328 0 0.22312475613875049 0.42078211493492951 0 0.22312475613875049 0.42078211493492951 0 0.2201031843229195 0.42570131593002969 0 0.20354836167302259 0.42410881749736329 0 0.20096476004407141 0.4356284052502909 0 0.202011140198494 0.4243700442839049 0 0.21059740683120351 0.44117697990449289 0 0.20354836167302259 0.42410881749736329 0 0.202011140198494 0.4243700442839049 0 0.21059740683120351 0.44117697990449289 0 0.2201031843229195 0.42570131593002969 0 0.21059740683120351 0.44117697990449289 0 0.2201031843229195 0.42570131593002969 0 0.20354836167302259 0.42410881749736329 0 0.21059740683120351 0.44117697990449289 0 0.2201031843229195 0.42570131593002969 0 0.20354836167302259 0.42410881749736329 0 0.202011140198494 0.4243700442839049 0 0.21059740683120351 0.44117697990449289 0 0.22312475613875049 0.42078211493492951 0 0.20354836167302259 0.42410881749736329 0 0.2145024493426794 0.40932094283274068 0 0.19637406676339619 0.41333592033168631 0 0.22312475613875049 0.42078211493492951 0 0.20354836167302259 0.42410881749736329 0 0.2145024493426794 0.40932094283274068 0 0.20429538739721931 0.40183734425620671 0 0.2145024493426794 0.40932094283274068 0 0.19637406676339619 0.41333592033168631 0 0.20354836167302259 0.42410881749736329 0 0.2145024493426794 0.40932094283274068 0 0.19637406676339619 0.41333592033168631 0 0.18398920852212189 0.42222731617319992 0 0.19637406676339619 0.41333592033168631 0 0.202011140198494 0.4243700442839049 0 0.20354836167302259 0.42410881749736329 0 0.19637406676339619 0.41333592033168631 0 0.202011140198494 0.4243700442839049 0 0.19637406676339619 0.41333592033168631 0 0.202011140198494 0.4243700442839049 0 0.19011185055861429 0.40107812901234902 0 0.19637406676339619 0.41333592033168631 0 0.18336528660720119 0.40768054205682042 0 0.19011185055861429 0.40107812901234902 0 0.19637406676339619 0.41333592033168631 0 0.18398920852212189 0.42222731617319992 0 0.202011140198494 0.4243700442839049 0 0.19310721835761019 0.42992761007563862 0 0.18398920852212189 0.42222731617319992 0 0.202011140198494 0.4243700442839049 0 0.20096476004407141 0.4356284052502909 0 0.19931207414017729 0.42860996549168562 0 0.19310721835761019 0.42992761007563862 0 0.19931207414017729 0.42860996549168562 0 0.202011140198494 0.4243700442839049 0 0.19310721835761019 0.42992761007563862 0 0.20096476004407141 0.4356284052502909 0 0.19931207414017729 0.42860996549168562 0 0.202011140198494 0.4243700442839049 0 0.20354836167302259 0.42410881749736329 0 0.202011140198494 0.4243700442839049 0 0.20096476004407141 0.4356284052502909 0 0.19310721835761019 0.42992761007563862 0 0.189468296445607 0.44161966517716561 0 0.189468296445607 0.44161966517716561 0 0.19808345402660399 0.44429013419941671 0 0.18816718916202771 0.45764189265325561 0 0.19808345402660399 0.44429013419941671 0 0.18816718916202771 0.45764189265325561 0 0.20509446468425149 0.45013591920339668 0 0.20096476004407141 0.4356284052502909 0 0.189468296445607 0.44161966517716561 0 0.19808345402660399 0.44429013419941671 0 0.18816718916202771 0.45764189265325561 0 0.2005182123172754 0.46504183791057307 0 0.20509446468425149 0.45013591920339668 0 0.18816718916202771 0.45764189265325561 0 0.2005182123172754 0.46504183791057307 0 0.18719455148605621 0.47613314112345201 0 0.2103116034304838 0.4602104470792151 0 0.21059740683120351 0.44117697990449289 0 0.22229140550900001 0.46406705440744211 0 0.2103116034304838 0.4602104470792151 0 0.22229140550900001 0.46406705440744211 0 0.21058997783642669 0.48154513501692131 0 0.2005182123172754 0.46504183791057307 0 0.2103116034304838 0.4602104470792151 0 0.20509446468425149 0.45013591920339668 0 0.21059740683120351 0.44117697990449289 0 0.22229140550900001 0.46406705440744211 0 0.2103116034304838 0.4602104470792151 0 0.21059740683120351 0.44117697990449289 0 0.20509446468425149 0.45013591920339668 0 0.20096476004407141 0.4356284052502909 0 0.19808345402660399 0.44429013419941671 0 0.21059740683120351 0.44117697990449289 0 0.19808345402660399 0.44429013419941671 0 0.21059740683120351 0.44117697990449289 0 0.20509446468425149 0.45013591920339668 0 0.21059740683120351 0.44117697990449289 0 0.20509446468425149 0.45013591920339668 0 0.21059740683120351 0.44117697990449289 0 0.23005064234993169 0.44460645584696262 0 0.22229140550900001 0.46406705440744211 0 0.23005064234993169 0.44460645584696262 0 0.22229140550900001 0.46406705440744211 0 0.24184120684035099 0.4581976946154846 0 0.22229140550900001 0.46406705440744211 0 0.24184120684035099 0.4581976946154846 0 0.24193409961780649 0.47367643658526698 0 0.24184120684035099 0.4581976946154846 0 0.2448364132796593 0.44231000148378752 0 0.25709847220363119 0.45283566357848187 0 0.23005064234993169 0.44460645584696262 0 0.24184120684035099 0.4581976946154846 0 0.2448364132796593 0.44231000148378752 0 0.2385665307870003 0.42747740564887549 0 0.23005064234993169 0.44460645584696262 0 0.2448364132796593 0.44231000148378752 0 0.24064869911215761 0.50000000000000244 0 0.24324303354975521 0.48909866857844392 0 0.2572356621087325 0.50000000000000155 0 0.24324303354975521 0.48909866857844392 0 0.2339854041867972 0.48695712891039089 0 0.24064869911215761 0.50000000000000244 0 0.24324303354975521 0.48909866857844392 0 0.2339854041867972 0.48695712891039089 0 0.24064869911215761 0.50000000000000244 0 0.2339854041867972 0.48695712891039089 0 0.24184120684035099 0.4581976946154846 0 0.24193409961780649 0.47367643658526698 0 0.25716706715618193 0.47641783178924169 0 0.24324303354975521 0.48909866857844392 0 0.24193409961780649 0.47367643658526698 0 0.25716706715618193 0.47641783178924169 0 0.24324303354975521 0.48909866857844392 0 0.24193409961780649 0.47367643658526698 0 0.2339854041867972 0.48695712891039089 0 0.22229140550900001 0.46406705440744211 0 0.24193409961780649 0.47367643658526698 0 0.2339854041867972 0.48695712891039089 0 0.22229140550900001 0.46406705440744211 0 0.2339854041867972 0.48695712891039089 0 0.22229140550900001 0.46406705440744211 0 0.2339854041867972 0.48695712891039089 0 0.21058997783642669 0.48154513501692131 0 0.2339854041867972 0.48695712891039089 0 0.21058997783642669 0.48154513501692131 0 0.2339854041867972 0.48695712891039089 0 0.21314400247467591 0.5 0 0.21058997783642669 0.48154513501692131 0 0.24064869911215761 0.50000000000000244 0 0.2339854041867972 0.48695712891039089 0 0.21314400247467591 0.5 0 0.21314400247467591 0.5 0 0.21058997783642669 0.48154513501692131 0 0.19841687033665559 0.48922266484742172 0 0.2005182123172754 0.46504183791057307 0 0.2103116034304838 0.4602104470792151 0 0.21058997783642669 0.48154513501692131 0 0.21058997783642669 0.48154513501692131 0 0.18719455148605621 0.47613314112345201 0 0.21058997783642669 0.48154513501692131 0 0.19841687033665559 0.48922266484742172 0 0.18719455148605621 0.47613314112345201 0 0.2005182123172754 0.46504183791057307 0 0.21058997783642669 0.48154513501692131 0 0.18719455148605621 0.47613314112345201 0 0.21314400247467591 0.5 0 0.19841687033665559 0.48922266484742172 0 0.18563930583719421 0.5 0 0.19841687033665559 0.48922266484742172 0 0.18563930583719421 0.5 0 0.18719455148605621 0.47613314112345201 0 0.18563930583719421 0.5 0 0.17133697046385701 0.48683307990629038 0 0.18719455148605621 0.47613314112345201 0 0.17133697046385701 0.48683307990629038 0 0.15813460919971251 0.5 0 0.1479106042039405 0.48283460682922269 0 0.18563930583719421 0.5 0 0.17133697046385701 0.48683307990629038 0 0.15813460919971251 0.5 0 0.17133697046385701 0.48683307990629038 0 0.16379912513568581 0.47072114722998237 0 0.1479106042039405 0.48283460682922269 0 0.17133697046385701 0.48683307990629038 0 0.16379912513568581 0.47072114722998237 0 0.18719455148605621 0.47613314112345201 0 0.16379912513568581 0.47072114722998237 0 0.18719455148605621 0.47613314112345201 0 0.18816718916202771 0.45764189265325561 0 0.16379912513568581 0.47072114722998237 0 0.18719455148605621 0.47613314112345201 0 0.18816718916202771 0.45764189265325561 0 0.16379912513568581 0.47072114722998237 0 0.1764896290127039 0.45007039086196288 0 0.1766721112776041 0.43405941705504181 0 0.1764896290127039 0.45007039086196288 0 0.16434142304259489 0.44630983219436898 0 0.189468296445607 0.44161966517716561 0 0.18816718916202771 0.45764189265325561 0 0.1764896290127039 0.45007039086196288 0 0.1766721112776041 0.43405941705504181 0 0.189468296445607 0.44161966517716561 0 0.1764896290127039 0.45007039086196288 0 0.15915405200730839 0.43380743940711708 0 0.1766721112776041 0.43405941705504181 0 0.16434142304259489 0.44630983219436898 0 0.15915405200730839 0.43380743940711708 0 0.16434142304259489 0.44630983219436898 0 0.1468621194973313 0.4432032004000479 0 0.16379912513568581 0.47072114722998237 0 0.1764896290127039 0.45007039086196288 0 0.16434142304259489 0.44630983219436898 0 0.16379912513568581 0.47072114722998237 0 0.16434142304259489 0.44630983219436898 0 0.15386760244336481 0.45613183796281243 0 0.16379912513568581 0.47072114722998237 0 0.15386760244336481 0.45613183796281243 0 0.14046774209784721 0.46429317202685039 0 0.15386760244336481 0.45613183796281243 0 0.1468621194973313 0.4432032004000479 0 0.14046774209784721 0.46429317202685039 0 0.16434142304259489 0.44630983219436898 0 0.15386760244336481 0.45613183796281243 0 0.1468621194973313 0.4432032004000479 0 0.1468621194973313 0.4432032004000479 0 0.128144127290927 0.44346528644618949 0 0.14046774209784721 0.46429317202685039 0 0.11648320602364499 0.46106604807885698 0 0.128144127290927 0.44346528644618949 0 0.14046774209784721 0.46429317202685039 0 0.11648320602364499 0.46106604807885698 0 0.14046774209784721 0.46429317202685039 0 0.12567845600013469 0.47929569400969452 0 0.14046774209784721 0.46429317202685039 0 0.12567845600013469 0.47929569400969452 0 0.1479106042039405 0.48283460682922269 0 0.12567845600013469 0.47929569400969452 0 0.1306299125622308 0.5 0 0.1479106042039405 0.48283460682922269 0 0.15813460919971251 0.5 0 0.1306299125622308 0.5 0 0.1479106042039405 0.48283460682922269 0 0.16379912513568581 0.47072114722998237 0 0.14046774209784721 0.46429317202685039 0 0.1479106042039405 0.48283460682922269 0 0.34528538451660062 0.47773379418631268 0 0.36004097027348331 0.48461391470660581 0 0.33995603526071178 0.48633656933393699 0 0.3490806650621458 0.46922782941321262 0 0.36004097027348331 0.48461391470660581 0 0.36717500093372668 0.46757054210475929 0 0.3490806650621458 0.46922782941321262 0 0.36004097027348331 0.48461391470660581 0 0.3490806650621458 0.46922782941321262 0 0.34528538451660062 0.47773379418631268 0 0.36004097027348331 0.48461391470660581 0 0.34701069105550569 0.5 0 0.36004097027348331 0.48461391470660581 0 0.33995603526071178 0.48633656933393699 0 0.34701069105550569 0.5 0 0.36004097027348331 0.48461391470660581 0 0.37100127548482031 0.49999999999999922 0 0.36004097027348331 0.48461391470660581 0 0.37100127548482031 0.49999999999999922 0 0.37501723488010369 0.48021086780116401 0 0.36004097027348331 0.48461391470660581 0 0.37100127548482031 0.49999999999999922 0 0.36004097027348331 0.48461391470660581 0 0.36717500093372668 0.46757054210475929 0 0.37501723488010369 0.48021086780116401 0 0.37143629651032872 0.45720686114999193 0 0.36367632925015653 0.45252291112370391 0 0.35567836915472589 0.45678778088016703 0 0.36415499449082389 0.46121224231392488 0 0.37143629651032872 0.45720686114999193 0 0.38198070339643708 0.45705904394289942 0 0.36415499449082389 0.46121224231392488 0 0.37143629651032872 0.45720686114999193 0 0.35567836915472589 0.45678778088016703 0 0.36415499449082389 0.46121224231392488 0 0.36717500093372668 0.46757054210475929 0 0.38198070339643708 0.45705904394289942 0 0.36415499449082389 0.46121224231392488 0 0.38198070339643708 0.45705904394289942 0 0.3490806650621458 0.46922782941321262 0 0.36415499449082389 0.46121224231392488 0 0.36717500093372668 0.46757054210475929 0 0.37143629651032872 0.45720686114999193 0 0.35567836915472589 0.45678778088016703 0 0.37143629651032872 0.45720686114999193 0 0.36657482697318761 0.446748226791508 0 0.38198070339643708 0.45705904394289942 0 0.36657482697318761 0.446748226791508 0 0.37193014631584848 0.42999924720615068 0 0.38198070339643708 0.45705904394289942 0 0.37143629651032872 0.45720686114999193 0 0.36367632925015653 0.45252291112370391 0 0.36657482697318761 0.446748226791508 0 0.36367632925015653 0.45252291112370391 0 0.36657482697318761 0.446748226791508 0 0.3562845012834378 0.4482926986491193 0 0.34808057550305938 0.44600590612250468 0 0.35567836915472589 0.45678778088016703 0 0.33992044179912329 0.45636870061034079 0 0.36657482697318761 0.446748226791508 0 0.3562845012834378 0.4482926986491193 0 0.35414098508291708 0.43540859867718368 0 0.3562845012834378 0.4482926986491193 0 0.34808057550305938 0.44600590612250468 0 0.35414098508291708 0.43540859867718368 0 0.36367632925015653 0.45252291112370391 0 0.3562845012834378 0.4482926986491193 0 0.35567836915472589 0.45678778088016703 0 0.3562845012834378 0.4482926986491193 0 0.34808057550305938 0.44600590612250468 0 0.35567836915472589 0.45678778088016703 0 0.34808057550305938 0.44600590612250468 0 0.33961570140635172 0.4362099185178574 0 0.35414098508291708 0.43540859867718368 0 0.35567836915472589 0.45678778088016703 0 0.34632928558521042 0.46536544068494828 0 0.33992044179912329 0.45636870061034079 0 0.35567836915472589 0.45678778088016703 0 0.33992044179912329 0.45636870061034079 0 0.3490806650621458 0.46922782941321262 0 0.36415499449082389 0.46121224231392488 0 0.34632928558521042 0.46536544068494828 0 0.3490806650621458 0.46922782941321262 0 0.36717500093372668 0.46757054210475929 0 0.36415499449082389 0.46121224231392488 0 0.35567836915472589 0.45678778088016703 0 0.34632928558521042 0.46536544068494828 0 0.36415499449082389 0.46121224231392488 0 0.34632928558521042 0.46536544068494828 0 0.3490806650621458 0.46922782941321262 0 0.34632928558521042 0.46536544068494828 0 0.3490806650621458 0.46922782941321262 0 0.34632928558521042 0.46536544068494828 0 0.32696081697792789 0.47125381941113659 0 0.34632928558521042 0.46536544068494828 0 0.32521862645877231 0.47028399711148339 0 0.34632928558521042 0.46536544068494828 0 0.33992044179912329 0.45636870061034079 0 0.32521862645877231 0.47028399711148339 0 0.34632928558521042 0.46536544068494828 0 0.33992044179912329 0.45636870061034079 0 0.34808057550305938 0.44600590612250468 0 0.3323541236552271 0.44574709709892307 0 0.33961570140635172 0.4362099185178574 0 0.33992044179912329 0.45636870061034079 0 0.3323541236552271 0.44574709709892307 0 0.32253421818534123 0.44684829148095362 0 0.34808057550305938 0.44600590612250468 0 0.33992044179912329 0.45636870061034079 0 0.3323541236552271 0.44574709709892307 0 0.33992044179912329 0.45636870061034079 0 0.3323541236552271 0.44574709709892307 0 0.3323541236552271 0.44574709709892307 0 0.32610359684421192 0.43678193879044119 0 0.33961570140635172 0.4362099185178574 0 0.33992044179912329 0.45636870061034079 0 0.32253421818534123 0.44684829148095362 0 0.3152464127007425 0.45571249763777588 0 0.32253421818534123 0.44684829148095362 0 0.3152464127007425 0.45571249763777588 0 0.31209623941360759 0.43776564917250638 0 0.3152464127007425 0.45571249763777588 0 0.31209623941360759 0.43776564917250638 0 0.3323541236552271 0.44574709709892307 0 0.32253421818534123 0.44684829148095362 0 0.32610359684421192 0.43678193879044119 0 0.32253421818534123 0.44684829148095362 0 0.31209623941360759 0.43776564917250638 0 0.32610359684421192 0.43678193879044119 0 0.33992044179912329 0.45636870061034079 0 0.3152464127007425 0.45571249763777588 0 0.32521862645877231 0.47028399711148339 0 0.3152464127007425 0.45571249763777588 0 0.31913325966346701 0.47785624881888772 0 0.32521862645877231 0.47028399711148339 0 0.33992044179912329 0.45636870061034079 0 0.3152464127007425 0.45571249763777588 0 0.3152464127007425 0.45571249763777588 0 0.31913325966346701 0.47785624881888772 0 0.30420975952634299 0.46947331586472302 0 0.3152464127007425 0.45571249763777588 0 0.31913325966346701 0.47785624881888772 0 0.31913325966346701 0.47785624881888772 0 0.32591742888426312 0.47548348654552591 0 0.329001796240801 0.48161473987402198 0 0.32591742888426312 0.47548348654552591 0 0.32927264508034731 0.47640862751209928 0 0.329001796240801 0.48161473987402198 0 0.31913325966346701 0.47785624881888772 0 0.32591742888426312 0.47548348654552591 0 0.32521862645877231 0.47028399711148339 0 0.32591742888426312 0.47548348654552591 0 0.32696081697792789 0.47125381941113659 0 0.32927264508034731 0.47640862751209928 0 0.32591742888426312 0.47548348654552591 0 0.32521862645877231 0.47028399711148339 0 0.32696081697792789 0.47125381941113659 0 0.3490806650621458 0.46922782941321262 0 0.32696081697792789 0.47125381941113659 0 0.33647616413196407 0.47630837646213342 0 0.34632928558521042 0.46536544068494828 0 0.32521862645877231 0.47028399711148339 0 0.32696081697792789 0.47125381941113659 0 0.32696081697792789 0.47125381941113659 0 0.32927264508034731 0.47640862751209928 0 0.33647616413196407 0.47630837646213342 0 0.3490806650621458 0.46922782941321262 0 0.32696081697792789 0.47125381941113659 0 0.32927264508034731 0.47640862751209928 0 0.329001796240801 0.48161473987402198 0 0.33647616413196407 0.47630837646213342 0 0.329001796240801 0.48161473987402198 0 0.33647616413196407 0.47630837646213342 0 0.33995603526071178 0.48633656933393699 0 0.34528538451660062 0.47773379418631268 0 0.33647616413196407 0.47630837646213342 0 0.33995603526071178 0.48633656933393699 0 0.3490806650621458 0.46922782941321262 0 0.34528538451660062 0.47773379418631268 0 0.33647616413196407 0.47630837646213342 0 0.329001796240801 0.48161473987402198 0 0.33995603526071178 0.48633656933393699 0 0.32302010662619118 0.49999999999999961 0 0.34701069105550569 0.5 0 0.33995603526071178 0.48633656933393699 0 0.32302010662619118 0.49999999999999961 0 0.31913325966346701 0.47785624881888772 0 0.32302010662619118 0.49999999999999961 0 0.30499869470741492 0.48476163660817662 0 0.31913325966346701 0.47785624881888772 0 0.329001796240801 0.48161473987402198 0 0.32302010662619118 0.49999999999999961 0 0.31913325966346701 0.47785624881888772 0 0.32302010662619118 0.49999999999999961 0 0.30109195845370501 0.5 0 0.30499869470741492 0.48476163660817662 0 0.28958375731165181 0.48005255167767952 0 0.32302010662619118 0.49999999999999961 0 0.30109195845370501 0.5 0 0.30499869470741492 0.48476163660817662 0 0.31913325966346701 0.47785624881888772 0 0.30499869470741492 0.48476163660817662 0 0.30420975952634299 0.46947331586472302 0 0.30499869470741492 0.48476163660817662 0 0.30420975952634299 0.46947331586472302 0 0.28958375731165181 0.48005255167767952 0 0.30109195845370501 0.5 0 0.28958375731165181 0.48005255167767952 0 0.27916381028121873 0.5 0 0.27916381028121873 0.5 0 0.27240166341444522 0.48425749185169831 0 0.2572356621087325 0.50000000000000155 0 0.28958375731165181 0.48005255167767952 0 0.27916381028121873 0.5 0 0.27240166341444522 0.48425749185169831 0 0.27240166341444522 0.48425749185169831 0 0.25716706715618193 0.47641783178924169 0 0.27345808637904001 0.4661952126215072 0 0.28958375731165181 0.48005255167767952 0 0.27240166341444522 0.48425749185169831 0 0.27345808637904001 0.4661952126215072 0 0.25716706715618193 0.47641783178924169 0 0.2572356621087325 0.50000000000000155 0 0.24324303354975521 0.48909866857844392 0 0.25716706715618193 0.47641783178924169 0 0.2572356621087325 0.50000000000000155 0 0.27240166341444522 0.48425749185169831 0 0.25716706715618193 0.47641783178924169 0 0.2572356621087325 0.50000000000000155 0 0.25709847220363119 0.45283566357848187 0 0.25702987725108101 0.42925349536772212 0 0.25709847220363119 0.45283566357848187 0 0.25702987725108101 0.42925349536772212 0 0.25836746492245471 0.43174768403659147 0 0.25709847220363119 0.45283566357848187 0 0.2660695066302855 0.43871015010979147 0 0.25836746492245471 0.43174768403659147 0 0.2448364132796593 0.44231000148378752 0 0.25709847220363119 0.45283566357848187 0 0.25702987725108101 0.42925349536772212 0 0.25716706715618193 0.47641783178924169 0 0.25709847220363119 0.45283566357848187 0 0.25716706715618193 0.47641783178924169 0 0.25709847220363119 0.45283566357848187 0 0.27345808637904001 0.4661952126215072 0 0.24184120684035099 0.4581976946154846 0 0.25716706715618193 0.47641783178924169 0 0.25709847220363119 0.45283566357848187 0 0.27345808637904001 0.4661952126215072 0 0.27379346358837398 0.44854793932786308 0 0.29070409459995628 0.45505979750407899 0 0.25709847220363119 0.45283566357848187 0 0.27345808637904001 0.4661952126215072 0 0.27379346358837398 0.44854793932786308 0 0.25709847220363119 0.45283566357848187 0 0.27379346358837398 0.44854793932786308 0 0.2660695066302855 0.43871015010979147 0 0.27379346358837398 0.44854793932786308 0 0.2660695066302855 0.43871015010979147 0 0.27312045032292342 0.43870088492299869 0 0.27379346358837398 0.44854793932786308 0 0.27312045032292342 0.43870088492299869 0 0.28291697042830632 0.43588410089467061 0 0.27379346358837398 0.44854793932786308 0 0.29070409459995628 0.45505979750407899 0 0.28291697042830632 0.43588410089467061 0 0.29070409459995628 0.45505979750407899 0 0.29777872383227422 0.43475991775429229 0 0.28291697042830632 0.43588410089467061 0 0.28958375731165181 0.48005255167767952 0 0.27345808637904001 0.4661952126215072 0 0.29070409459995628 0.45505979750407899 0 0.30420975952634299 0.46947331586472302 0 0.28958375731165181 0.48005255167767952 0 0.29070409459995628 0.45505979750407899 0 0.3152464127007425 0.45571249763777588 0 0.30420975952634299 0.46947331586472302 0 0.29070409459995628 0.45505979750407899 0 0.3152464127007425 0.45571249763777588 0 0.29070409459995628 0.45505979750407899 0 0.3152464127007425 0.45571249763777588 0 0.29070409459995628 0.45505979750407899 0 0.31209623941360759 0.43776564917250638 0 0.29070409459995628 0.45505979750407899 0 0.31209623941360759 0.43776564917250638 0 0.29777872383227422 0.43475991775429229 0 0.29777872383227422 0.43475991775429229 0 0.28982240375417168 0.42299913491174501 0 0.31495791781995791 0.41600820478279921 0 0.31209623941360759 0.43776564917250638 0 0.29777872383227422 0.43475991775429229 0 0.31495791781995791 0.41600820478279921 0 0.28982240375417168 0.42299913491174501 0 0.31495791781995791 0.41600820478279921 0 0.28950248352475311 0.4095022566254774 0 0.28982240375417168 0.42299913491174501 0 0.31495791781995791 0.41600820478279921 0 0.28950248352475311 0.4095022566254774 0 0.29925209770985872 0.40107025153885512 0 0.31495791781995791 0.41600820478279921 0 0.28950248352475311 0.4095022566254774 0 0.28982240375417168 0.42299913491174501 0 0.27496603255160451 0.42014298348928741 0 0.29777872383227422 0.43475991775429229 0 0.28982240375417168 0.42299913491174501 0 0.28291697042830632 0.43588410089467061 0 0.28982240375417168 0.42299913491174501 0 0.26935029905594432 0.43043866375212297 0 0.26468688968838561 0.42999006504069143 0 0.27312045032292342 0.43870088492299869 0 0.28291697042830632 0.43588410089467061 0 0.26935029905594432 0.43043866375212297 0 0.28982240375417168 0.42299913491174501 0 0.26468688968838561 0.42999006504069143 0 0.28982240375417168 0.42299913491174501 0 0.28291697042830632 0.43588410089467061 0 0.26935029905594432 0.43043866375212297 0 0.28982240375417168 0.42299913491174501 0 0.27496603255160451 0.42014298348928741 0 0.26468688968838561 0.42999006504069143 0 0.2660695066302855 0.43871015010979147 0 0.26935029905594432 0.43043866375212297 0 0.26468688968838561 0.42999006504069143 0 0.2660695066302855 0.43871015010979147 0 0.27312045032292342 0.43870088492299869 0 0.26935029905594432 0.43043866375212297 0 0.26935029905594432 0.43043866375212297 0 0.26468688968838561 0.42999006504069143 0 0.27496603255160451 0.42014298348928741 0 0.26468688968838561 0.42999006504069143 0 0.2651281327625446 0.42188031555685962 0 0.28950248352475311 0.4095022566254774 0 0.26395116785126571 0.41384430375133069 0 0.28950248352475311 0.4095022566254774 0 0.27496603255160451 0.42014298348928741 0 0.26395116785126571 0.41384430375133069 0 0.28950248352475311 0.4095022566254774 0 0.26395116785126571 0.41384430375133069 0 0.27343145984221179 0.40601604463393609 0 0.26395116785126571 0.41384430375133069 0 0.26299804800527138 0.40191116090260848 0 0.27343145984221179 0.40601604463393609 0 0.27496603255160451 0.42014298348928741 0 0.26395116785126571 0.41384430375133069 0 0.2651281327625446 0.42188031555685962 0 0.26395116785126571 0.41384430375133069 0 0.25700903327720531 0.4220875730974884 0 0.2651281327625446 0.42188031555685962 0 0.2383998521777784 0.41818635087718381 0 0.26395116785126571 0.41384430375133069 0 0.25380059083303341 0.40846212201461762 0 0.2488221034234695 0.4223051763495565 0 0.2383998521777784 0.41818635087718381 0 0.26395116785126571 0.41384430375133069 0 0.2383998521777784 0.41818635087718381 0 0.26395116785126571 0.41384430375133069 0 0.26395116785126571 0.41384430375133069 0 0.25380059083303341 0.40846212201461762 0 0.26299804800527138 0.40191116090260848 0 0.2488221034234695 0.4223051763495565 0 0.26395116785126571 0.41384430375133069 0 0.25700903327720531 0.4220875730974884 0 0.2488221034234695 0.4223051763495565 0 0.25700903327720531 0.4220875730974884 0 0.25702987725108101 0.42925349536772212 0 0.25700903327720531 0.4220875730974884 0 0.25702987725108101 0.42925349536772212 0 0.25836746492245471 0.43174768403659147 0 0.26468688968838561 0.42999006504069143 0 0.25702987725108101 0.42925349536772212 0 0.25836746492245471 0.43174768403659147 0 0.26468688968838561 0.42999006504069143 0 0.2660695066302855 0.43871015010979147 0 0.25836746492245471 0.43174768403659147 0 0.26468688968838561 0.42999006504069143 0 0.25702987725108101 0.42925349536772212 0 0.26468688968838561 0.42999006504069143 0 0.2651281327625446 0.42188031555685962 0 0.25700903327720531 0.4220875730974884 0 0.25702987725108101 0.42925349536772212 0 0.2651281327625446 0.42188031555685962 0 0.25702987725108101 0.42925349536772212 0 0.26468688968838561 0.42999006504069143 0 0.24985329529781791 0.39990667252734718 0 0.247713784970646 0.38075050805242922 0 0.26130673841785779 0.38162699417751078 0 0.26130673841785779 0.38162699417751078 0 0.25751014003425049 0.39127202551525408 0 0.26130673841785779 0.38162699417751078 0 0.25751014003425049 0.39127202551525408 0 0.26555566989124457 0.39385691981445009 0 0.247713784970646 0.38075050805242922 0 0.26130673841785779 0.38162699417751078 0 0.25490457918629872 0.37507349251653871 0 0.24985329529781791 0.39990667252734718 0 0.26130673841785779 0.38162699417751078 0 0.24985329529781791 0.39990667252734718 0 0.26130673841785779 0.38162699417751078 0 0.25751014003425049 0.39127202551525408 0 0.24985329529781791 0.39990667252734718 0 0.25751014003425049 0.39127202551525408 0 0.26299804800527138 0.40191116090260848 0 0.24985329529781791 0.39990667252734718 0 0.25380059083303341 0.40846212201461762 0 0.26299804800527138 0.40191116090260848 0 0.25751014003425049 0.39127202551525408 0 0.26299804800527138 0.40191116090260848 0 0.26555566989124457 0.39385691981445009 0 0.26555566989124457 0.39385691981445009 0 0.27430006382294309 0.39784586166294189 0 0.27120134665021761 0.38756895009831732 0 0.26299804800527138 0.40191116090260848 0 0.26555566989124457 0.39385691981445009 0 0.27430006382294309 0.39784586166294189 0 0.26299804800527138 0.40191116090260848 0 0.27343145984221179 0.40601604463393609 0 0.27430006382294309 0.39784586166294189 0 0.27343145984221179 0.40601604463393609 0 0.28106797903805247 0.40257602375425933 0 0.27430006382294309 0.39784586166294189 0 0.28106797903805247 0.40257602375425933 0 0.27430006382294309 0.39784586166294189 0 0.28703790896230208 0.39693993209468148 0 0.27430006382294309 0.39784586166294189 0 0.27993136792368678 0.39059144184020128 0 0.27120134665021761 0.38756895009831732 0 0.27430006382294309 0.39784586166294189 0 0.27993136792368678 0.39059144184020128 0 0.28703790896230208 0.39693993209468148 0 0.27993136792368678 0.39059144184020128 0 0.27120134665021761 0.38756895009831732 0 0.27779903165459169 0.3822920493098666 0 0.26130673841785779 0.38162699417751078 0 0.26555566989124457 0.39385691981445009 0 0.27120134665021761 0.38756895009831732 0 0.27120134665021761 0.38756895009831732 0 0.27107463499663109 0.37851234507980008 0 0.27779903165459169 0.3822920493098666 0 0.26130673841785779 0.38162699417751078 0 0.27120134665021761 0.38756895009831732 0 0.27107463499663109 0.37851234507980008 0 0.27107463499663109 0.37851234507980008 0 0.27779903165459169 0.3822920493098666 0 0.2766490591355068 0.37433388147839908 0 0.27779903165459169 0.3822920493098666 0 0.28390095120816711 0.37562544504190132 0 0.2766490591355068 0.37433388147839908 0 0.28390095120816711 0.37562544504190132 0 0.28652318226166418 0.38492160690775928 0 0.29373006398809498 0.37700175091789651 0 0.27779903165459169 0.3822920493098666 0 0.28390095120816711 0.37562544504190132 0 0.28652318226166418 0.38492160690775928 0 0.27993136792368678 0.39059144184020128 0 0.27779903165459169 0.3822920493098666 0 0.28652318226166418 0.38492160690775928 0 0.28652318226166418 0.38492160690775928 0 0.29667622102462171 0.38885955313607279 0 0.28703790896230208 0.39693993209468148 0 0.28652318226166418 0.38492160690775928 0 0.29667622102462171 0.38885955313607279 0 0.29373006398809498 0.37700175091789651 0 0.28950248352475311 0.4095022566254774 0 0.27343145984221179 0.40601604463393609 0 0.28106797903805247 0.40257602375425933 0 0.28950248352475311 0.4095022566254774 0 0.28106797903805247 0.40257602375425933 0 0.28703790896230208 0.39693993209468148 0 0.27993136792368678 0.39059144184020128 0 0.28652318226166418 0.38492160690775928 0 0.28703790896230208 0.39693993209468148 0 0.29667622102462171 0.38885955313607279 0 0.28703790896230208 0.39693993209468148 0 0.29925209770985872 0.40107025153885512 0 0.28950248352475311 0.4095022566254774 0 0.28703790896230208 0.39693993209468148 0 0.29925209770985872 0.40107025153885512 0 0.29925209770985872 0.40107025153885512 0 0.30808595721765852 0.39404131105524431 0 0.31495791781995791 0.41600820478279921 0 0.29667622102462171 0.38885955313607279 0 0.29925209770985872 0.40107025153885512 0 0.30808595721765852 0.39404131105524431 0 0.29667622102462171 0.38885955313607279 0 0.29373006398809498 0.37700175091789651 0 0.30704607127102962 0.37874789135054893 0 0.29667622102462171 0.38885955313607279 0 0.30808595721765852 0.39404131105524431 0 0.30704607127102962 0.37874789135054893 0 0.30808595721765852 0.39404131105524431 0 0.30704607127102962 0.37874789135054893 0 0.32845424032326143 0.38484820442882378 0 0.32845424032326143 0.38484820442882378 0 0.35182903215467742 0.3758796537326512 0 0.34790646022865218 0.39538457505576469 0 0.32845424032326143 0.38484820442882378 0 0.35182903215467742 0.3758796537326512 0 0.33494999436834533 0.36683291921078343 0 0.32845424032326143 0.38484820442882378 0 0.34009343188574281 0.40901727465384918 0 0.34790646022865218 0.39538457505576469 0 0.32845424032326143 0.38484820442882378 0 0.34009343188574281 0.40901727465384918 0 0.32845424032326143 0.38484820442882378 0 0.31495791781995791 0.41600820478279921 0 0.34009343188574281 0.40901727465384918 0 0.30808595721765852 0.39404131105524431 0 0.32845424032326143 0.38484820442882378 0 0.31495791781995791 0.41600820478279921 0 0.31495791781995791 0.41600820478279921 0 0.32365546110746413 0.42694996431045568 0 0.33527312640506091 0.41934143736272778 0 0.31495791781995791 0.41600820478279921 0 0.34009343188574281 0.40901727465384918 0 0.31209623941360759 0.43776564917250638 0 0.31495791781995791 0.41600820478279921 0 0.32365546110746413 0.42694996431045568 0 0.32365546110746413 0.42694996431045568 0 0.32610359684421192 0.43678193879044119 0 0.33309445048640007 0.42842800460629599 0 0.31209623941360759 0.43776564917250638 0 0.32365546110746413 0.42694996431045568 0 0.32610359684421192 0.43678193879044119 0 0.32610359684421192 0.43678193879044119 0 0.33309445048640007 0.42842800460629599 0 0.33961570140635172 0.4362099185178574 0 0.32365546110746413 0.42694996431045568 0 0.33309445048640007 0.42842800460629599 0 0.33527312640506091 0.41934143736272778 0 0.33309445048640007 0.42842800460629599 0 0.33527312640506091 0.41934143736272778 0 0.34392047686629479 0.42488796581179539 0 0.33309445048640007 0.42842800460629599 0 0.33961570140635172 0.4362099185178574 0 0.34392047686629479 0.42488796581179539 0 0.31495791781995791 0.41600820478279921 0 0.33527312640506091 0.41934143736272778 0 0.34009343188574281 0.40901727465384918 0 0.33527312640506091 0.41934143736272778 0 0.34212939465805281 0.41814630590263291 0 0.34392047686629479 0.42488796581179539 0 0.33527312640506091 0.41934143736272778 0 0.34212939465805281 0.41814630590263291 0 0.34186442441667098 0.41269478460960501 0 0.34212939465805281 0.41814630590263291 0 0.34186442441667098 0.41269478460960501 0 0.34552380666320143 0.41323543455967687 0 0.34186442441667098 0.41269478460960501 0 0.34009343188574281 0.40901727465384918 0 0.34552380666320143 0.41323543455967687 0 0.33527312640506091 0.41934143736272778 0 0.34186442441667098 0.41269478460960501 0 0.34009343188574281 0.40901727465384918 0 0.34186442441667098 0.41269478460960501 0 0.34009343188574281 0.40901727465384918 0 0.34009343188574281 0.40901727465384918 0 0.35091829865975332 0.41092335925812529 0 0.35727600754431599 0.40423829199409889 0 0.34009343188574281 0.40901727465384918 0 0.35727600754431599 0.40423829199409889 0 0.34009343188574281 0.40901727465384918 0 0.35091829865975332 0.41092335925812529 0 0.34552380666320143 0.41323543455967687 0 0.35091829865975332 0.41092335925812529 0 0.34552380666320143 0.41323543455967687 0 0.34772672207850669 0.4169791994607831 0 0.34212939465805281 0.41814630590263291 0 0.34772672207850669 0.4169791994607831 0 0.34392047686629479 0.42488796581179539 0 0.34212939465805281 0.41814630590263291 0 0.34552380666320143 0.41323543455967687 0 0.34772672207850669 0.4169791994607831 0 0.34772672207850669 0.4169791994607831 0 0.35532758082363769 0.41783269502340331 0 0.34392047686629479 0.42488796581179539 0 0.35091829865975332 0.41092335925812529 0 0.34772672207850669 0.4169791994607831 0 0.35532758082363769 0.41783269502340331 0 0.35091829865975332 0.41092335925812529 0 0.35532758082363769 0.41783269502340331 0 0.35727600754431599 0.40423829199409889 0 0.35532758082363769 0.41783269502340331 0 0.36187958923526292 0.40293945046940088 0 0.35727600754431599 0.40423829199409889 0 0.35532758082363769 0.41783269502340331 0 0.34392047686629479 0.42488796581179539 0 0.35414098508291708 0.43540859867718368 0 0.33961570140635172 0.4362099185178574 0 0.34392047686629479 0.42488796581179539 0 0.35414098508291708 0.43540859867718368 0 0.35532758082363769 0.41783269502340331 0 0.35414098508291708 0.43540859867718368 0 0.37193014631584848 0.42999924720615068 0 0.36657482697318761 0.446748226791508 0 0.35414098508291708 0.43540859867718368 0 0.37193014631584848 0.42999924720615068 0 0.35532758082363769 0.41783269502340331 0 0.37193014631584848 0.42999924720615068 0 0.36187958923526292 0.40293945046940088 0 0.37193014631584848 0.42999924720615068 0 0.36187958923526292 0.40293945046940088 0 0.37193014631584848 0.42999924720615068 0 0.36187958923526292 0.40293945046940088 0 0.39091832328282361 0.41087193027100549 0 0.36187958923526292 0.40293945046940088 0 0.35182903215467742 0.3758796537326512 0 0.37807898130569972 0.38198010331448301 0 0.36187958923526292 0.40293945046940088 0 0.35182903215467742 0.3758796537326512 0 0.36187958923526292 0.40293945046940088 0 0.35182903215467742 0.3758796537326512 0 0.34790646022865218 0.39538457505576469 0 0.34009343188574281 0.40901727465384918 0 0.34790646022865218 0.39538457505576469 0 0.35727600754431599 0.40423829199409889 0 0.36187958923526292 0.40293945046940088 0 0.34790646022865218 0.39538457505576469 0 0.35727600754431599 0.40423829199409889 0 0.35182903215467742 0.3758796537326512 0 0.3722477765496085 0.35016695762591221 0 0.37807898130569972 0.38198010331448301 0 0.35182903215467742 0.3758796537326512 0 0.3722477765496085 0.35016695762591221 0 0.34177847507409181 0.34881985699590151 0 0.35182903215467742 0.3758796537326512 0 0.34177847507409181 0.34881985699590151 0 0.3722477765496085 0.35016695762591221 0 0.37069175466933912 0.32875176142968793 0 0.35660426620688718 0.33158813156598749 0 0.3722477765496085 0.35016695762591221 0 0.37069175466933912 0.32875176142968793 0 0.38018026091455548 0.33583017463534492 0 0.36908544359869788 0.31711993858565868 0 0.37552929986171052 0.31147094895867028 0 0.37512131353827649 0.31993777409944391 0 0.37069175466933912 0.32875176142968793 0 0.36908544359869788 0.31711993858565868 0 0.37512131353827649 0.31993777409944391 0 0.37069175466933912 0.32875176142968793 0 0.36908544359869788 0.31711993858565868 0 0.36227265828944472 0.32102596309161863 0 0.37069175466933912 0.32875176142968793 0 0.36227265828944472 0.32102596309161863 0 0.35660426620688718 0.33158813156598749 0 0.36908544359869788 0.31711993858565868 0 0.36216199407232552 0.31421251507807352 0 0.36873564116109159 0.30732066885645792 0 0.36908544359869788 0.31711993858565868 0 0.36227265828944472 0.32102596309161863 0 0.36216199407232552 0.31421251507807352 0 0.36227265828944472 0.32102596309161863 0 0.36216199407232552 0.31421251507807352 0 0.35548040964913802 0.3182867922552447 0 0.33172791799350532 0.32176006025915199 0 0.34669185149407039 0.31235854363774268 0 0.35483192959872478 0.30892549123100937 0 0.34679263072992478 0.32222161781041447 0 0.33172791799350532 0.32176006025915199 0 0.35483192959872478 0.30892549123100937 0 0.35548040964913802 0.3182867922552447 0 0.34679263072992478 0.32222161781041447 0 0.35483192959872478 0.30892549123100937 0 0.36216199407232552 0.31421251507807352 0 0.35548040964913802 0.3182867922552447 0 0.35483192959872478 0.30892549123100937 0 0.35548040964913802 0.3182867922552447 0 0.34679263072992478 0.32222161781041447 0 0.35660426620688718 0.33158813156598749 0 0.36227265828944472 0.32102596309161863 0 0.35548040964913802 0.3182867922552447 0 0.35660426620688718 0.33158813156598749 0 0.34679263072992478 0.32222161781041447 0 0.35660426620688718 0.33158813156598749 0 0.34177847507409181 0.34881985699590151 0 0.3722477765496085 0.35016695762591221 0 0.35660426620688718 0.33158813156598749 0 0.34177847507409181 0.34881985699590151 0 0.33172791799350532 0.32176006025915199 0 0.32481653016515311 0.34395618279456119 0 0.34177847507409181 0.34881985699590151 0 0.34679263072992478 0.32222161781041447 0 0.33172791799350532 0.32176006025915199 0 0.34177847507409181 0.34881985699590151 0 0.33172791799350532 0.32176006025915199 0 0.34177847507409181 0.34881985699590151 0 0.33172791799350532 0.32176006025915199 0 0.35483192959872478 0.30892549123100937 0 0.33172791799350532 0.32176006025915199 0 0.33433715661558527 0.30915126849091529 0 0.34669185149407039 0.31235854363774268 0 0.33172791799350532 0.32176006025915199 0 0.32649517228490349 0.30767158395733452 0 0.33433715661558527 0.30915126849091529 0 0.33172791799350532 0.32176006025915199 0 0.32649517228490349 0.30767158395733452 0 0.33172791799350532 0.32176006025915199 0 0.31845188759589887 0.32913506211895882 0 0.3124215414252603 0.31463851826348332 0 0.33172791799350532 0.32176006025915199 0 0.3124215414252603 0.31463851826348332 0 0.32649517228490349 0.30767158395733452 0 0.33172791799350532 0.32176006025915199 0 0.31845188759589887 0.32913506211895882 0 0.33172791799350532 0.32176006025915199 0 0.31845188759589887 0.32913506211895882 0 0.32481653016515311 0.34395618279456119 0 0.31845188759589887 0.32913506211895882 0 0.32481653016515311 0.34395618279456119 0 0.3051758571982971 0.3365100639787737 0 0.32481653016515311 0.34395618279456119 0 0.31681504876077932 0.36067913420379871 0 0.3051758571982971 0.3365100639787737 0 0.32481653016515311 0.34395618279456119 0 0.33494999436834533 0.36683291921078343 0 0.31681504876077932 0.36067913420379871 0 0.32481653016515311 0.34395618279456119 0 0.34177847507409181 0.34881985699590151 0 0.33494999436834533 0.36683291921078343 0 0.35182903215467742 0.3758796537326512 0 0.34177847507409181 0.34881985699590151 0 0.33494999436834533 0.36683291921078343 0 0.30704607127102962 0.37874789135054893 0 0.32845424032326143 0.38484820442882378 0 0.31681504876077932 0.36067913420379871 0 0.32845424032326143 0.38484820442882378 0 0.31681504876077932 0.36067913420379871 0 0.32845424032326143 0.38484820442882378 0 0.33494999436834533 0.36683291921078343 0 0.31681504876077932 0.36067913420379871 0 0.30704607127102962 0.37874789135054893 0 0.31681504876077932 0.36067913420379871 0 0.30062517624183088 0.36676896646786628 0 0.31681504876077932 0.36067913420379871 0 0.30062517624183088 0.36676896646786628 0 0.29985560249366611 0.35416009340586768 0 0.29373006398809498 0.37700175091789651 0 0.30704607127102962 0.37874789135054893 0 0.30062517624183088 0.36676896646786628 0 0.31681504876077932 0.36067913420379871 0 0.3051758571982971 0.3365100639787737 0 0.31681504876077932 0.36067913420379871 0 0.29985560249366611 0.35416009340586768 0 0.3051758571982971 0.3365100639787737 0 0.29985560249366611 0.35416009340586768 0 0.29642893485056382 0.34373170356788069 0 0.3051758571982971 0.3365100639787737 0 0.29156997961887149 0.34921014654590388 0 0.28547266882539629 0.3430582048410174 0 0.29642893485056382 0.34373170356788069 0 0.29985560249366611 0.35416009340586768 0 0.29156997961887149 0.34921014654590388 0 0.29642893485056382 0.34373170356788069 0 0.29985560249366611 0.35416009340586768 0 0.2845227123058599 0.35589058436884952 0 0.28847801066549428 0.36644572303251932 0 0.29985560249366611 0.35416009340586768 0 0.29156997961887149 0.34921014654590388 0 0.2845227123058599 0.35589058436884952 0 0.29156997961887149 0.34921014654590388 0 0.2845227123058599 0.35589058436884952 0 0.28547266882539629 0.3430582048410174 0 0.29373006398809498 0.37700175091789651 0 0.30062517624183088 0.36676896646786628 0 0.28847801066549428 0.36644572303251932 0 0.30062517624183088 0.36676896646786628 0 0.29985560249366611 0.35416009340586768 0 0.28847801066549428 0.36644572303251932 0 0.2845227123058599 0.35589058436884952 0 0.28170395393251652 0.36324765217496502 0 0.28847801066549428 0.36644572303251932 0 0.28170395393251652 0.36324765217496502 0 0.28847801066549428 0.36644572303251932 0 0.28042538913708492 0.36831170178922717 0 0.28390095120816711 0.37562544504190132 0 0.29373006398809498 0.37700175091789651 0 0.28847801066549428 0.36644572303251932 0 0.28390095120816711 0.37562544504190132 0 0.28847801066549428 0.36644572303251932 0 0.28042538913708492 0.36831170178922717 0 0.28042538913708492 0.36831170178922717 0 0.2766490591355068 0.37433388147839908 0 0.27338970362162712 0.36234259950926417 0 0.26130673841785779 0.38162699417751078 0 0.27338970362162712 0.36234259950926417 0 0.26130673841785779 0.38162699417751078 0 0.27338970362162712 0.36234259950926417 0 0.27075156819252399 0.35763296848608189 0 0.26130673841785779 0.38162699417751078 0 0.27107463499663109 0.37851234507980008 0 0.27338970362162712 0.36234259950926417 0 0.26130673841785779 0.38162699417751078 0 0.27075156819252399 0.35763296848608189 0 0.27107463499663109 0.37851234507980008 0 0.2766490591355068 0.37433388147839908 0 0.27338970362162712 0.36234259950926417 0 0.28390095120816711 0.37562544504190132 0 0.28042538913708492 0.36831170178922717 0 0.2766490591355068 0.37433388147839908 0 0.28170395393251652 0.36324765217496502 0 0.28042538913708492 0.36831170178922717 0 0.27338970362162712 0.36234259950926417 0 0.2845227123058599 0.35589058436884952 0 0.28170395393251652 0.36324765217496502 0 0.27338970362162712 0.36234259950926417 0 0.27075156819252399 0.35763296848608189 0 0.26558463596339632 0.34150625501184179 0 0.28019639796719031 0.33363894279465311 0 0.27075156819252399 0.35763296848608189 0 0.28019639796719031 0.33363894279465311 0 0.28547266882539629 0.3430582048410174 0 0.2845227123058599 0.35589058436884952 0 0.27338970362162712 0.36234259950926417 0 0.28547266882539629 0.3430582048410174 0 0.27075156819252399 0.35763296848608189 0 0.28019639796719031 0.33363894279465311 0 0.27338970362162712 0.36234259950926417 0 0.28547266882539629 0.3430582048410174 0 0.27338970362162712 0.36234259950926417 0 0.27075156819252399 0.35763296848608189 0 0.28547266882539629 0.3430582048410174 0 0.27075156819252399 0.35763296848608189 0 0.25711451900508148 0.35258648987221092 0 0.26558463596339632 0.34150625501184179 0 0.2438273554430464 0.34812574592335249 0 0.25711451900508148 0.35258648987221092 0 0.25235619873932041 0.33556187677713623 0 0.27075156819252399 0.35763296848608189 0 0.25711451900508148 0.35258648987221092 0 0.25830082874688443 0.36636652218621663 0 0.26130673841785779 0.38162699417751078 0 0.27075156819252399 0.35763296848608189 0 0.25830082874688443 0.36636652218621663 0 0.2444030594993066 0.36261468031945582 0 0.25711451900508148 0.35258648987221092 0 0.25830082874688443 0.36636652218621663 0 0.2444030594993066 0.36261468031945582 0 0.25490457918629872 0.37507349251653871 0 0.25830082874688443 0.36636652218621663 0 0.26130673841785779 0.38162699417751078 0 0.25490457918629872 0.37507349251653871 0 0.25830082874688443 0.36636652218621663 0 0.2412863906095909 0.31706614216088019 0 0.25496362040665271 0.32267745764425643 0 0.26071219069447599 0.31197788889560879 0 0.25496362040665271 0.32267745764425643 0 0.26589958482641279 0.32752631364072038 0 0.26071219069447599 0.31197788889560879 0 0.25496362040665271 0.32267745764425643 0 0.25235619873932041 0.33556187677713623 0 0.26589958482641279 0.32752631364072038 0 0.25711451900508148 0.35258648987221092 0 0.25235619873932041 0.33556187677713623 0 0.26558463596339632 0.34150625501184179 0 0.25235619873932041 0.33556187677713623 0 0.26558463596339632 0.34150625501184179 0 0.26589958482641279 0.32752631364072038 0 0.26558463596339632 0.34150625501184179 0 0.28019639796719031 0.33363894279465311 0 0.26589958482641279 0.32752631364072038 0 0.28019639796719031 0.33363894279465311 0 0.26589958482641279 0.32752631364072038 0 0.27489680020354851 0.31780650302536112 0 0.26589958482641279 0.32752631364072038 0 0.27489680020354851 0.31780650302536112 0 0.26071219069447599 0.31197788889560879 0 0.28019639796719031 0.33363894279465311 0 0.28964122774185652 0.30964491710322428 0 0.28019639796719031 0.33363894279465311 0 0.27489680020354851 0.31780650302536112 0 0.28964122774185652 0.30964491710322428 0 0.28019639796719031 0.33363894279465311 0 0.29537221966939131 0.31615256727250862 0 0.28964122774185652 0.30964491710322428 0 0.28019639796719031 0.33363894279465311 0 0.29537221966939131 0.31615256727250862 0 0.29755563402916552 0.32377381017277068 0 0.28019639796719031 0.33363894279465311 0 0.28547266882539629 0.3430582048410174 0 0.29755563402916552 0.32377381017277068 0 0.28547266882539629 0.3430582048410174 0 0.29755563402916552 0.32377381017277068 0 0.28547266882539629 0.3430582048410174 0 0.29642893485056382 0.34373170356788069 0 0.29755563402916552 0.32377381017277068 0 0.29642893485056382 0.34373170356788069 0 0.3051758571982971 0.3365100639787737 0 0.29755563402916552 0.32377381017277068 0 0.31845188759589887 0.32913506211895882 0 0.3051758571982971 0.3365100639787737 0 0.29537221966939131 0.31615256727250862 0 0.3051758571982971 0.3365100639787737 0 0.29755563402916552 0.32377381017277068 0 0.31845188759589887 0.32913506211895882 0 0.3051758571982971 0.3365100639787737 0 0.3124215414252603 0.31463851826348332 0 0.29537221966939131 0.31615256727250862 0 0.3051758571982971 0.3365100639787737 0 0.29537221966939131 0.31615256727250862 0 0.3051758571982971 0.3365100639787737 0 0.3124215414252603 0.31463851826348332 0 0.29537221966939131 0.31615256727250862 0 0.3064038210334884 0.30067388223127611 0 0.29780590900410991 0.29124285186599119 0 0.29537221966939131 0.31615256727250862 0 0.3124215414252603 0.31463851826348332 0 0.3064038210334884 0.30067388223127611 0 0.3124215414252603 0.31463851826348332 0 0.3064038210334884 0.30067388223127611 0 0.31797064105596812 0.29669460242380358 0 0.3064038210334884 0.30067388223127611 0 0.30706453001149392 0.28545611992336922 0 0.31797064105596812 0.29669460242380358 0 0.3064038210334884 0.30067388223127611 0 0.30706453001149392 0.28545611992336922 0 0.29780590900410991 0.29124285186599119 0 0.30706453001149392 0.28545611992336922 0 0.29780590900410991 0.29124285186599119 0 0.29516751126046797 0.28001135836836077 0 0.28556858214048553 0.29579507056624349 0 0.28351082165216779 0.2739244349354083 0 0.29516751126046797 0.28001135836836077 0 0.29780590900410991 0.29124285186599119 0 0.28556858214048553 0.29579507056624349 0 0.29516751126046797 0.28001135836836077 0 0.28556858214048553 0.29579507056624349 0 0.27576494461157991 0.27543757385997852 0 0.28351082165216779 0.2739244349354083 0 0.29537221966939131 0.31615256727250862 0 0.29780590900410991 0.29124285186599119 0 0.28556858214048553 0.29579507056624349 0 0.29537221966939131 0.31615256727250862 0 0.28556858214048553 0.29579507056624349 0 0.28964122774185652 0.30964491710322428 0 0.29537221966939131 0.31615256727250862 0 0.28556858214048553 0.29579507056624349 0 0.28556858214048553 0.29579507056624349 0 0.28964122774185652 0.30964491710322428 0 0.27438759942090191 0.30337842557507938 0 0.27489680020354851 0.31780650302536112 0 0.28964122774185652 0.30964491710322428 0 0.27438759942090191 0.30337842557507938 0 0.27489680020354851 0.31780650302536112 0 0.27438759942090191 0.30337842557507938 0 0.26071219069447599 0.31197788889560879 0 0.27248032494705132 0.28939396479480628 0 0.25491758893057909 0.27951005592881761 0 0.27576494461157991 0.27543757385997852 0 0.28556858214048553 0.29579507056624349 0 0.27576494461157991 0.27543757385997852 0 0.28556858214048553 0.29579507056624349 0 0.27248032494705132 0.28939396479480628 0 0.27576494461157991 0.27543757385997852 0 0.28556858214048553 0.29579507056624349 0 0.27438759942090191 0.30337842557507938 0 0.27248032494705132 0.28939396479480628 0 0.27438759942090191 0.30337842557507938 0 0.27248032494705132 0.28939396479480628 0 0.26162700977852021 0.29629342014523508 0 0.27248032494705132 0.28939396479480628 0 0.26162700977852021 0.29629342014523508 0 0.25491758893057909 0.27951005592881761 0 0.24543399627141721 0.29887735901603257 0 0.26162700977852021 0.29629342014523508 0 0.25491758893057909 0.27951005592881761 0 0.27438759942090191 0.30337842557507938 0 0.26162700977852021 0.29629342014523508 0 0.26071219069447599 0.31197788889560879 0 0.24543399627141721 0.29887735901603257 0 0.26162700977852021 0.29629342014523508 0 0.26071219069447599 0.31197788889560879 0 0.25153222320099622 0.25722575917013901 0 0.27218921726664158 0.26801248725998528 0 0.26048617882559622 0.24371083740660091 0 0.25153222320099622 0.25722575917013901 0 0.25536006440587672 0.26878811273571068 0 0.27218921726664158 0.26801248725998528 0 0.25153222320099622 0.25722575917013901 0 0.27218921726664158 0.26801248725998528 0 0.25153222320099622 0.25722575917013901 0 0.26048617882559622 0.24371083740660091 0 0.25491758893057909 0.27951005592881761 0 0.27576494461157991 0.27543757385997852 0 0.25536006440587672 0.26878811273571068 0 0.25491758893057909 0.27951005592881761 0 0.27218921726664158 0.26801248725998528 0 0.2428012282252888 0.27040414858390061 0 0.25536006440587672 0.26878811273571068 0 0.25491758893057909 0.27951005592881761 0 0.25491758893057909 0.27951005592881761 0 0.27218921726664158 0.26801248725998528 0 0.27576494461157991 0.27543757385997852 0 0.27576494461157991 0.27543757385997852 0 0.28351082165216779 0.2739244349354083 0 0.27218921726664158 0.26801248725998528 0 0.28351082165216779 0.2739244349354083 0 0.28241209558822961 0.26632916093747078 0 0.27218921726664158 0.26801248725998528 0 0.27576494461157991 0.27543757385997852 0 0.28351082165216779 0.2739244349354083 0 0.27218921726664158 0.26801248725998528 0 0.28351082165216779 0.2739244349354083 0 0.27218921726664158 0.26801248725998528 0 0.27576494461157991 0.27543757385997852 0 0.27218921726664158 0.26801248725998528 0 0.27691591880596222 0.25729022711116639 0 0.28241209558822961 0.26632916093747078 0 0.27218921726664158 0.26801248725998528 0 0.26048617882559622 0.24371083740660091 0 0.27218921726664158 0.26801248725998528 0 0.27691591880596222 0.25729022711116639 0 0.26048617882559622 0.24371083740660091 0 0.27691591880596222 0.25729022711116639 0 0.28359094229813148 0.25448793817281579 0 0.27685630599777589 0.2478154210616699 0 0.27691591880596222 0.25729022711116639 0 0.28359094229813148 0.25448793817281579 0 0.2851673007449898 0.26023557940088332 0 0.3039173510814423 0.25972757105281219 0 0.28965918427723281 0.24218391352450211 0 0.28359094229813148 0.25448793817281579 0 0.27685630599777589 0.2478154210616699 0 0.28494106210013392 0.2498489505319901 0 0.29345893722613059 0.25129825022350127 0 0.3039173510814423 0.25972757105281219 0 0.28965918427723281 0.24218391352450211 0 0.28868459035541499 0.25311981898255947 0 0.28494106210013392 0.2498489505319901 0 0.28892582916583598 0.2492018439528669 0 0.28868459035541499 0.25311981898255947 0 0.28359094229813148 0.25448793817281579 0 0.28494106210013392 0.2498489505319901 0 0.28868459035541499 0.25311981898255947 0 0.28687158554486092 0.25569243113247692 0 0.28359094229813148 0.25448793817281579 0 0.28687158554486092 0.25569243113247692 0 0.28359094229813148 0.25448793817281579 0 0.2851673007449898 0.26023557940088332 0 0.28687158554486092 0.25569243113247692 0 0.28807077596690611 0.2581880435182905 0 0.28931157611965458 0.25623197766376038 0 0.28868459035541499 0.25311981898255947 0 0.28687158554486092 0.25569243113247692 0 0.28931157611965458 0.25623197766376038 0 0.27691591880596222 0.25729022711116639 0 0.2851673007449898 0.26023557940088332 0 0.28241209558822961 0.26632916093747078 0 0.28612348479105743 0.26557280400170857 0 0.2851673007449898 0.26023557940088332 0 0.28241209558822961 0.26632916093747078 0 0.28612348479105743 0.26557280400170857 0 0.28820153575970392 0.26340271637493412 0 0.2851673007449898 0.26023557940088332 0 0.28612348479105743 0.26557280400170857 0 0.28820153575970392 0.26340271637493412 0 0.28928435291432292 0.26627202701476832 0 0.28820153575970392 0.26340271637493412 0 0.2851673007449898 0.26023557940088332 0 0.28910030818167282 0.2606462295185657 0 0.28687158554486092 0.25569243113247692 0 0.2851673007449898 0.26023557940088332 0 0.28807077596690611 0.2581880435182905 0 0.2851673007449898 0.26023557940088332 0 0.28807077596690611 0.2581880435182905 0 0.28910030818167282 0.2606462295185657 0 0.28807077596690611 0.2581880435182905 0 0.29012458656076978 0.25822105451885852 0 0.28910030818167282 0.2606462295185657 0 0.29012458656076978 0.25822105451885852 0 0.28910030818167282 0.2606462295185657 0 0.29181146649833112 0.25980397671080041 0 0.28910030818167282 0.2606462295185657 0 0.29181146649833112 0.25980397671080041 0 0.29208830856188789 0.26336840763512592 0 0.29012458656076978 0.25822105451885852 0 0.29181146649833112 0.25980397671080041 0 0.29232880603728451 0.25623504518287532 0 0.28820153575970392 0.26340271637493412 0 0.29208830856188789 0.26336840763512592 0 0.28928435291432292 0.26627202701476832 0 0.28820153575970392 0.26340271637493412 0 0.28910030818167282 0.2606462295185657 0 0.29208830856188789 0.26336840763512592 0 0.29208830856188789 0.26336840763512592 0 0.295861748010873 0.25998823260247511 0 0.29765944308527592 0.26593032899830249 0 0.29208830856188789 0.26336840763512592 0 0.29297695870925222 0.26738919668419731 0 0.29765944308527592 0.26593032899830249 0 0.29181146649833112 0.25980397671080041 0 0.29208830856188789 0.26336840763512592 0 0.295861748010873 0.25998823260247511 0 0.29181146649833112 0.25980397671080041 0 0.295861748010873 0.25998823260247511 0 0.29232880603728451 0.25623504518287532 0 0.295861748010873 0.25998823260247511 0 0.29345893722613059 0.25129825022350127 0 0.29232880603728451 0.25623504518287532 0 0.28868459035541499 0.25311981898255947 0 0.29345893722613059 0.25129825022350127 0 0.29232880603728451 0.25623504518287532 0 0.28868459035541499 0.25311981898255947 0 0.29345893722613059 0.25129825022350127 0 0.28892582916583598 0.2492018439528669 0 0.28868459035541499 0.25311981898255947 0 0.28931157611965458 0.25623197766376038 0 0.29232880603728451 0.25623504518287532 0 0.29012458656076978 0.25822105451885852 0 0.28931157611965458 0.25623197766376038 0 0.29232880603728451 0.25623504518287532 0 0.28807077596690611 0.2581880435182905 0 0.29012458656076978 0.25822105451885852 0 0.28931157611965458 0.25623197766376038 0 0.28351082165216779 0.2739244349354083 0 0.28733438825076368 0.27108796110478978 0 0.2907816862342732 0.27306575569366948 0 0.28733438825076368 0.27108796110478978 0 0.28661589797855402 0.26840505384568097 0 0.29024227766669058 0.26954619460490381 0 0.28733438825076368 0.27108796110478978 0 0.2848684593192698 0.27078404615639318 0 0.28661589797855402 0.26840505384568097 0 0.28351082165216779 0.2739244349354083 0 0.28733438825076368 0.27108796110478978 0 0.2848684593192698 0.27078404615639318 0 0.28351082165216779 0.2739244349354083 0 0.2848684593192698 0.27078404615639318 0 0.28241209558822961 0.26632916093747078 0 0.28612348479105743 0.26557280400170857 0 0.28241209558822961 0.26632916093747078 0 0.28661589797855402 0.26840505384568097 0 0.2848684593192698 0.27078404615639318 0 0.28241209558822961 0.26632916093747078 0 0.28661589797855402 0.26840505384568097 0 0.28661589797855402 0.26840505384568097 0 0.28928435291432292 0.26627202701476832 0 0.29024227766669058 0.26954619460490381 0 0.28612348479105743 0.26557280400170857 0 0.28661589797855402 0.26840505384568097 0 0.28928435291432292 0.26627202701476832 0 0.29208830856188789 0.26336840763512592 0 0.28928435291432292 0.26627202701476832 0 0.29297695870925222 0.26738919668419731 0 0.28928435291432292 0.26627202701476832 0 0.29297695870925222 0.26738919668419731 0 0.29024227766669058 0.26954619460490381 0 0.29297695870925222 0.26738919668419731 0 0.29576201226787813 0.27118247982537402 0 0.29024227766669058 0.26954619460490381 0 0.29297695870925222 0.26738919668419731 0 0.29576201226787813 0.27118247982537402 0 0.29765944308527592 0.26593032899830249 0 0.29576201226787813 0.27118247982537402 0 0.29024227766669058 0.26954619460490381 0 0.2907816862342732 0.27306575569366948 0 0.28733438825076368 0.27108796110478978 0 0.29024227766669058 0.26954619460490381 0 0.2907816862342732 0.27306575569366948 0 0.28351082165216779 0.2739244349354083 0 0.2907816862342732 0.27306575569366948 0 0.29516751126046797 0.28001135836836077 0 0.29576201226787813 0.27118247982537402 0 0.2907816862342732 0.27306575569366948 0 0.29516751126046797 0.28001135836836077 0 0.28351082165216779 0.2739244349354083 0 0.29516751126046797 0.28001135836836077 0 0.30323688172566321 0.27316773846810899 0 0.3039173510814423 0.25972757105281219 0 0.31817551788565168 0.27727122858112241 0 0.3039173510814423 0.25972757105281219 0 0.31817551788565168 0.27727122858112241 0 0.29576201226787813 0.27118247982537402 0 0.29516751126046797 0.28001135836836077 0 0.30323688172566321 0.27316773846810899 0 0.30706453001149392 0.28545611992336922 0 0.29516751126046797 0.28001135836836077 0 0.30323688172566321 0.27316773846810899 0 0.30323688172566321 0.27316773846810899 0 0.29765944308527592 0.26593032899830249 0 0.3039173510814423 0.25972757105281219 0 0.29576201226787813 0.27118247982537402 0 0.30323688172566321 0.27316773846810899 0 0.29765944308527592 0.26593032899830249 0 0.30706453001149392 0.28545611992336922 0 0.30323688172566321 0.27316773846810899 0 0.31817551788565168 0.27727122858112241 0 0.3039173510814423 0.25972757105281219 0 0.31246354634074469 0.25301562706991498 0 0.31817551788565168 0.27727122858112241 0 0.3039173510814423 0.25972757105281219 0 0.31246354634074469 0.25301562706991498 0 0.28965918427723281 0.24218391352450211 0 0.295861748010873 0.25998823260247511 0 0.29345893722613059 0.25129825022350127 0 0.3039173510814423 0.25972757105281219 0 0.295861748010873 0.25998823260247511 0 0.29765944308527592 0.26593032899830249 0 0.3039173510814423 0.25972757105281219 0 0.31246354634074469 0.25301562706991498 0 0.33526790840425669 0.26384734061532772 0 0.31246354634074469 0.25301562706991498 0 0.33526790840425669 0.26384734061532772 0 0.32643540241908581 0.2493154440826276 0 0.31246354634074469 0.25301562706991498 0 0.33526790840425669 0.26384734061532772 0 0.31817551788565168 0.27727122858112241 0 0.33526790840425669 0.26384734061532772 0 0.3379127634661398 0.24049180221066491 0 0.32643540241908581 0.2493154440826276 0 0.33526790840425669 0.26384734061532772 0 0.35634129443021012 0.25447852924978431 0 0.3379127634661398 0.24049180221066491 0 0.33526790840425669 0.26384734061532772 0 0.31817551788565168 0.27727122858112241 0 0.34172042880505471 0.28277804546335827 0 0.31817551788565168 0.27727122858112241 0 0.31797064105596812 0.29669460242380358 0 0.33243368468986112 0.29481488610943257 0 0.31817551788565168 0.27727122858112241 0 0.33243368468986112 0.29481488610943257 0 0.30706453001149392 0.28545611992336922 0 0.31817551788565168 0.27727122858112241 0 0.31797064105596812 0.29669460242380358 0 0.3124215414252603 0.31463851826348332 0 0.31797064105596812 0.29669460242380358 0 0.32649517228490349 0.30767158395733452 0 0.31797064105596812 0.29669460242380358 0 0.32649517228490349 0.30767158395733452 0 0.33243368468986112 0.29481488610943257 0 0.33433715661558527 0.30915126849091529 0 0.33243368468986112 0.29481488610943257 0 0.34669185149407039 0.31235854363774268 0 0.33243368468986112 0.29481488610943257 0 0.34669185149407039 0.31235854363774268 0 0.34568712778571031 0.29860929543060832 0 0.33243368468986112 0.29481488610943257 0 0.34669185149407039 0.31235854363774268 0 0.32649517228490349 0.30767158395733452 0 0.33433715661558527 0.30915126849091529 0 0.33243368468986112 0.29481488610943257 0 0.31817551788565168 0.27727122858112241 0 0.34172042880505471 0.28277804546335827 0 0.33243368468986112 0.29481488610943257 0 0.34172042880505471 0.28277804546335827 0 0.33243368468986112 0.29481488610943257 0 0.34568712778571031 0.29860929543060832 0 0.35199353865369548 0.28986078273705529 0 0.36153231744840347 0.2937746187606235 0 0.35807227046776868 0.27467905416074029 0 0.34172042880505471 0.28277804546335827 0 0.35199353865369548 0.28986078273705529 0 0.35807227046776868 0.27467905416074029 0 0.34172042880505471 0.28277804546335827 0 0.35199353865369548 0.28986078273705529 0 0.34568712778571031 0.29860929543060832 0 0.35199353865369548 0.28986078273705529 0 0.34568712778571031 0.29860929543060832 0 0.35295554876154028 0.29946289986994618 0 0.35199353865369548 0.28986078273705529 0 0.35295554876154028 0.29946289986994618 0 0.36153231744840347 0.2937746187606235 0 0.34669185149407039 0.31235854363774268 0 0.350707664864299 0.30502754758011252 0 0.35483192959872478 0.30892549123100937 0 0.34669185149407039 0.31235854363774268 0 0.350707664864299 0.30502754758011252 0 0.34568712778571031 0.29860929543060832 0 0.350707664864299 0.30502754758011252 0 0.34568712778571031 0.29860929543060832 0 0.35295554876154028 0.29946289986994618 0 0.35295554876154028 0.29946289986994618 0 0.35483192959872478 0.30892549123100937 0 0.36153231744840347 0.2937746187606235 0 0.350707664864299 0.30502754758011252 0 0.35295554876154028 0.29946289986994618 0 0.35483192959872478 0.30892549123100937 0 0.35483192959872478 0.30892549123100937 0 0.36873564116109159 0.30732066885645792 0 0.37793594120394791 0.29609092220287331 0 0.35483192959872478 0.30892549123100937 0 0.36153231744840347 0.2937746187606235 0 0.37793594120394791 0.29609092220287331 0 0.35483192959872478 0.30892549123100937 0 0.37793594120394791 0.29609092220287331 0 0.36216199407232552 0.31421251507807352 0 0.35483192959872478 0.30892549123100937 0 0.36873564116109159 0.30732066885645792 0 0.36873564116109159 0.30732066885645792 0 0.37793594120394791 0.29609092220287331 0 0.37618493526913999 0.30531787431980001 0 0.36908544359869788 0.31711993858565868 0 0.36873564116109159 0.30732066885645792 0 0.37552929986171052 0.31147094895867028 0 0.36873564116109159 0.30732066885645792 0 0.37552929986171052 0.31147094895867028 0 0.37618493526913999 0.30531787431980001 0 0.36153231744840347 0.2937746187606235 0 0.3696042904128502 0.28751384070759761 0 0.37793594120394791 0.29609092220287331 0 0.3696042904128502 0.28751384070759761 0 0.35807227046776868 0.27467905416074029 0 0.38087663253128068 0.28551076770615302 0 0.36153231744840347 0.2937746187606235 0 0.3696042904128502 0.28751384070759761 0 0.35807227046776868 0.27467905416074029 0 0.35807227046776868 0.27467905416074029 0 0.38087663253128068 0.28551076770615302 0 0.35807227046776868 0.27467905416074029 0 0.37543677279847171 0.26770278157766031 0 0.38087663253128068 0.28551076770615302 0 0.35634129443021012 0.25447852924978431 0 0.35807227046776868 0.27467905416074029 0 0.37543677279847171 0.26770278157766031 0 0.35634129443021012 0.25447852924978431 0 0.37543677279847171 0.26770278157766031 0 0.37588607332036628 0.2490878796733729 0 0.33526790840425669 0.26384734061532772 0 0.35634129443021012 0.25447852924978431 0 0.35807227046776868 0.27467905416074029 0 0.33526790840425669 0.26384734061532772 0 0.34172042880505471 0.28277804546335827 0 0.35807227046776868 0.27467905416074029 0 0.33526790840425669 0.26384734061532772 0 0.35807227046776868 0.27467905416074029 0 0.39392409312874033 0.26548119861246328 0 0.41196211293711438 0.28187451755155379 0 0.39392409312874033 0.26548119861246328 0 0.38745056937483863 0.27594374287878148 0 0.39653744276239639 0.28470199660397738 0 0.39392409312874033 0.26548119861246328 0 0.39653744276239639 0.28470199660397738 0 0.41196211293711438 0.28187451755155379 0 0.39392409312874033 0.26548119861246328 0 0.41530077718395331 0.26533492563787903 0 0.40933178642478668 0.24530746794650141 0 0.39392409312874033 0.26548119861246328 0 0.37543677279847171 0.26770278157766031 0 0.37588607332036628 0.2490878796733729 0 0.39392409312874033 0.26548119861246328 0 0.37588607332036628 0.2490878796733729 0 0.39392409312874033 0.26548119861246328 0 0.39103074677198191 0.2378645478919707 0 0.37588607332036628 0.2490878796733729 0 0.39392409312874033 0.26548119861246328 0 0.38745056937483863 0.27594374287878148 0 0.37543677279847171 0.26770278157766031 0 0.38745056937483863 0.27594374287878148 0 0.37543677279847171 0.26770278157766031 0 0.38087663253128068 0.28551076770615302 0 0.38087663253128068 0.28551076770615302 0 0.39129466819619951 0.29801807429951538 0 0.39653744276239639 0.28470199660397738 0 0.38745056937483863 0.27594374287878148 0 0.38087663253128068 0.28551076770615302 0 0.39653744276239639 0.28470199660397738 0 0.3696042904128502 0.28751384070759761 0 0.38087663253128068 0.28551076770615302 0 0.37793594120394791 0.29609092220287331 0 0.38087663253128068 0.28551076770615302 0 0.37793594120394791 0.29609092220287331 0 0.39129466819619951 0.29801807429951538 0 0.37552929986171052 0.31147094895867028 0 0.38253885884981009 0.30638895726119819 0 0.38253365066345929 0.31657150904984471 0 0.37552929986171052 0.31147094895867028 0 0.37618493526913999 0.30531787431980001 0 0.38253885884981009 0.30638895726119819 0 0.37793594120394791 0.29609092220287331 0 0.37618493526913999 0.30531787431980001 0 0.38253885884981009 0.30638895726119819 0 0.37793594120394791 0.29609092220287331 0 0.38253885884981009 0.30638895726119819 0 0.39129466819619951 0.29801807429951538 0 0.38253885884981009 0.30638895726119819 0 0.39212940840629362 0.31318847352025442 0 0.38253365066345929 0.31657150904984471 0 0.38253885884981009 0.30638895726119819 0 0.39129466819619951 0.29801807429951538 0 0.39212940840629362 0.31318847352025442 0 0.39129466819619951 0.29801807429951538 0 0.40057903262284272 0.30682002081122939 0 0.39212940840629362 0.31318847352025442 0 0.39129466819619951 0.29801807429951538 0 0.40479167519220871 0.29803551582379922 0 0.40057903262284272 0.30682002081122939 0 0.40057903262284272 0.30682002081122939 0 0.40276015360382211 0.3144041531339446 0 0.39212940840629362 0.31318847352025442 0 0.40479167519220871 0.29803551582379922 0 0.40057903262284272 0.30682002081122939 0 0.40860853726765339 0.309318938863758 0 0.40057903262284272 0.30682002081122939 0 0.40860853726765339 0.309318938863758 0 0.40276015360382211 0.3144041531339446 0 0.40479167519220871 0.29803551582379922 0 0.39653744276239639 0.28470199660397738 0 0.41196211293711438 0.28187451755155379 0 0.39129466819619951 0.29801807429951538 0 0.40479167519220871 0.29803551582379922 0 0.39653744276239639 0.28470199660397738 0 0.40479167519220871 0.29803551582379922 0 0.41196211293711438 0.28187451755155379 0 0.42604734048813458 0.28838989128274578 0 0.40479167519220871 0.29803551582379922 0 0.42604734048813458 0.28838989128274578 0 0.41196211293711438 0.28187451755155379 0 0.42604734048813458 0.28838989128274578 0 0.42096165520647338 0.27640965763746961 0 0.41751736358108449 0.30523346237375532 0 0.43213625579819431 0.30543734923285137 0 0.41316086399048302 0.31918962555795088 0 0.40479167519220871 0.29803551582379922 0 0.41751736358108449 0.30523346237375532 0 0.42604734048813458 0.28838989128274578 0 0.40860853726765339 0.309318938863758 0 0.41751736358108449 0.30523346237375532 0 0.41316086399048302 0.31918962555795088 0 0.40479167519220871 0.29803551582379922 0 0.40860853726765339 0.309318938863758 0 0.41751736358108449 0.30523346237375532 0 0.41751736358108449 0.30523346237375532 0 0.43213625579819431 0.30543734923285137 0 0.42604734048813458 0.28838989128274578 0 0.43213625579819431 0.30543734923285137 0 0.41316086399048302 0.31918962555795088 0 0.43213625579819431 0.30543734923285137 0 0.44422558879226298 0.30694386780845051 0 0.43154308657343537 0.31483265104709918 0 0.42604734048813458 0.28838989128274578 0 0.44730300578406051 0.27874426674169239 0 0.43914956241907371 0.29106414504126032 0 0.43213625579819431 0.30543734923285137 0 0.42604734048813458 0.28838989128274578 0 0.43914956241907371 0.29106414504126032 0 0.42604734048813458 0.28838989128274578 0 0.44730300578406051 0.27874426674169239 0 0.42604734048813458 0.28838989128274578 0 0.43053639021669149 0.27003929607769961 0 0.44730300578406051 0.27874426674169239 0 0.42604734048813458 0.28838989128274578 0 0.43053639021669149 0.27003929607769961 0 0.42096165520647338 0.27640965763746961 0 0.43053639021669149 0.27003929607769961 0 0.42096165520647338 0.27640965763746961 0 0.41530077718395331 0.26533492563787903 0 0.39392409312874033 0.26548119861246328 0 0.41196211293711438 0.28187451755155379 0 0.41530077718395331 0.26533492563787903 0 0.41196211293711438 0.28187451755155379 0 0.42096165520647338 0.27640965763746961 0 0.41530077718395331 0.26533492563787903 0 0.41530077718395331 0.26533492563787903 0 0.42507863072368701 0.2531856777568211 0 0.40933178642478668 0.24530746794650141 0 0.43053639021669149 0.27003929607769961 0 0.42507863072368701 0.2531856777568211 0 0.43671171400039921 0.25931077911745237 0 0.43053639021669149 0.27003929607769961 0 0.41530077718395331 0.26533492563787903 0 0.42507863072368701 0.2531856777568211 0 0.43053639021669149 0.27003929607769961 0 0.43671171400039921 0.25931077911745237 0 0.4433298154441227 0.26629613073356512 0 0.42507863072368701 0.2531856777568211 0 0.43671171400039921 0.25931077911745237 0 0.43876594592942619 0.2491002947533556 0 0.48930401013157893 0.26400543771054868 0 0.5 0.30014541135995981 0 0.50000000000000078 0.23475110787519651 0 0.43671171400039921 0.25931077911745237 0 0.44893917376128722 0.25670587451621701 0 0.43876594592942619 0.2491002947533556 0 0.43671171400039921 0.25931077911745237 0 0.44893917376128722 0.25670587451621701 0 0.4433298154441227 0.26629613073356512 0 0.44893917376128722 0.25670587451621701 0 0.4433298154441227 0.26629613073356512 0 0.45470448649478412 0.26606712633996182 0 0.43053639021669149 0.27003929607769961 0 0.4433298154441227 0.26629613073356512 0 0.44730300578406051 0.27874426674169239 0 0.4433298154441227 0.26629613073356512 0 0.44730300578406051 0.27874426674169239 0 0.45470448649478412 0.26606712633996182 0 0.44730300578406051 0.27874426674169239 0 0.45470448649478412 0.26606712633996182 0 0.46855867107998628 0.26909864220063873 0 0.44730300578406051 0.27874426674169239 0 0.46855867107998628 0.26909864220063873 0 0.47008703941361663 0.27793279658265219 0 0.44730300578406051 0.27874426674169239 0 0.46855867107998628 0.26909864220063873 0 0.44893917376128722 0.25670587451621701 0 0.4657425708042397 0.25282124097232528 0 0.45444189403291402 0.2411770147019261 0 0.46855867107998628 0.26909864220063873 0 0.4657425708042397 0.25282124097232528 0 0.45470448649478412 0.26606712633996182 0 0.46855867107998628 0.26909864220063873 0 0.4657425708042397 0.25282124097232528 0 0.44893917376128722 0.25670587451621701 0 0.45470448649478412 0.26606712633996182 0 0.4657425708042397 0.25282124097232528 0 0.4657425708042397 0.25282124097232528 0 0.48060284673389919 0.263633106558882 0 0.48319944748130261 0.24680576274814439 0 0.48060284673389919 0.263633106558882 0 0.48930401013157893 0.26400543771054868 0 0.48319944748130261 0.24680576274814439 0 0.46855867107998628 0.26909864220063873 0 0.4657425708042397 0.25282124097232528 0 0.48060284673389919 0.263633106558882 0 0.47008703941361663 0.27793279658265219 0 0.48930401013157893 0.26400543771054868 0 0.46855867107998628 0.26909864220063873 0 0.48060284673389919 0.263633106558882 0 0.48060284673389919 0.263633106558882 0 0.47008703941361663 0.27793279658265219 0 0.48930401013157893 0.26400543771054868 0 0.47008703941361663 0.27793279658265219 0 0.48006412771999057 0.27905949761247589 0 0.48930401013157893 0.26400543771054868 0 0.46855867107998628 0.26909864220063873 0 0.48060284673389919 0.263633106558882 0 0.47008703941361663 0.27793279658265219 0 0.46855867107998628 0.26909864220063873 0 0.47008703941361663 0.27793279658265219 0 0.48006412771999057 0.27905949761247589 0 0.48930401013157893 0.26400543771054868 0 0.48625483393177482 0.28246926535835643 0 0.48930401013157893 0.26400543771054868 0 0.5 0.30014541135995981 0 0.48625483393177482 0.28246926535835643 0 0.5 0.30014541135995981 0 0.48970041229178968 0.29406901354624332 0 0.4885492687023667 0.31475660787172299 0 0.5 0.30014541135995981 0 0.48625483393177482 0.28246926535835643 0 0.48970041229178968 0.29406901354624332 0 0.48625483393177482 0.28246926535835643 0 0.48970041229178968 0.29406901354624332 0 0.47848665946962488 0.28859017348115529 0 0.48970041229178968 0.29406901354624332 0 0.47848665946962488 0.28859017348115529 0 0.47416262890117539 0.30149019824985379 0 0.47008703941361663 0.27793279658265219 0 0.47416262890117539 0.30149019824985379 0 0.47008703941361663 0.27793279658265219 0 0.47848665946962488 0.28859017348115529 0 0.47416262890117539 0.30149019824985379 0 0.47008703941361663 0.27793279658265219 0 0.47416262890117539 0.30149019824985379 0 0.46463260069651119 0.29140132306620031 0 0.48006412771999057 0.27905949761247589 0 0.48625483393177482 0.28246926535835643 0 0.47848665946962488 0.28859017348115529 0 0.47008703941361663 0.27793279658265219 0 0.48006412771999057 0.27905949761247589 0 0.47848665946962488 0.28859017348115529 0 0.48970041229178968 0.29406901354624332 0 0.47416262890117539 0.30149019824985379 0 0.4885492687023667 0.31475660787172299 0 0.48970041229178968 0.29406901354624332 0 0.47416262890117539 0.30149019824985379 0 0.47416262890117539 0.30149019824985379 0 0.45853060084376801 0.29977374142415342 0 0.45560674310843452 0.3103528945782269 0 0.47416262890117539 0.30149019824985379 0 0.45560674310843452 0.3103528945782269 0 0.47416262890117539 0.30149019824985379 0 0.45853060084376801 0.29977374142415342 0 0.46463260069651119 0.29140132306620031 0 0.47008703941361663 0.27793279658265219 0 0.46463260069651119 0.29140132306620031 0 0.45111164760590539 0.29168507290775181 0 0.47008703941361663 0.27793279658265219 0 0.45111164760590539 0.29168507290775181 0 0.44730300578406051 0.27874426674169239 0 0.47008703941361663 0.27793279658265219 0 0.45111164760590539 0.29168507290775181 0 0.45853060084376801 0.29977374142415342 0 0.46463260069651119 0.29140132306620031 0 0.45111164760590539 0.29168507290775181 0 0.43213625579819431 0.30543734923285137 0 0.45111164760590539 0.29168507290775181 0 0.43914956241907371 0.29106414504126032 0 0.44730300578406051 0.27874426674169239 0 0.45111164760590539 0.29168507290775181 0 0.43914956241907371 0.29106414504126032 0 0.43213625579819431 0.30543734923285137 0 0.45111164760590539 0.29168507290775181 0 0.43213625579819431 0.30543734923285137 0 0.45111164760590539 0.29168507290775181 0 0.44422558879226298 0.30694386780845051 0 0.45560674310843452 0.3103528945782269 0 0.44422558879226298 0.30694386780845051 0 0.43842966418539248 0.31774810934188358 0 0.45853060084376801 0.29977374142415342 0 0.45560674310843452 0.3103528945782269 0 0.44422558879226298 0.30694386780845051 0 0.45853060084376801 0.29977374142415342 0 0.45111164760590539 0.29168507290775181 0 0.44422558879226298 0.30694386780845051 0 0.45560674310843452 0.3103528945782269 0 0.43705085731569332 0.31921559090659912 0 0.45560674310843452 0.3103528945782269 0 0.445574462909617 0.32293984437028 0 0.43705085731569332 0.31921559090659912 0 0.45560674310843452 0.3103528945782269 0 0.445574462909617 0.32293984437028 0 0.45356547482711718 0.33018117931006491 0 0.45560674310843452 0.3103528945782269 0 0.43842966418539248 0.31774810934188358 0 0.43705085731569332 0.31921559090659912 0 0.44422558879226298 0.30694386780845051 0 0.43842966418539248 0.31774810934188358 0 0.43154308657343537 0.31483265104709918 0 0.43842966418539248 0.31774810934188358 0 0.43705085731569332 0.31921559090659912 0 0.43892997145578388 0.32563168502311662 0 0.445574462909617 0.32293984437028 0 0.44083529419097978 0.33094373067874189 0 0.43892997145578388 0.32563168502311662 0 0.445574462909617 0.32293984437028 0 0.43705085731569332 0.31921559090659912 0 0.445574462909617 0.32293984437028 0 0.44083529419097978 0.33094373067874189 0 0.45356547482711718 0.33018117931006491 0 0.44165801472227312 0.34323984209273423 0 0.45356547482711718 0.33018117931006491 0 0.45850926574073331 0.34651392194864622 0 0.44165801472227312 0.34323984209273423 0 0.44083529419097978 0.33094373067874189 0 0.43166902790598161 0.33929201054700048 0 0.43892997145578388 0.32563168502311662 0 0.44083529419097978 0.33094373067874189 0 0.43317574323615998 0.33104402243960368 0 0.44165801472227312 0.34323984209273423 0 0.44083529419097978 0.33094373067874189 0 0.45356547482711718 0.33018117931006491 0 0.45356547482711718 0.33018117931006491 0 0.47888330231886822 0.32877626329145132 0 0.45850926574073331 0.34651392194864622 0 0.45560674310843452 0.3103528945782269 0 0.45356547482711718 0.33018117931006491 0 0.47888330231886822 0.32877626329145132 0 0.5 0.30014541135995981 0 0.4885492687023667 0.31475660787172299 0 0.5 0.34930215291110689 0 0.47888330231886822 0.32877626329145132 0 0.4885492687023667 0.31475660787172299 0 0.5 0.34930215291110689 0 0.47416262890117539 0.30149019824985379 0 0.45560674310843452 0.3103528945782269 0 0.47888330231886822 0.32877626329145132 0 0.47416262890117539 0.30149019824985379 0 0.47888330231886822 0.32877626329145132 0 0.4885492687023667 0.31475660787172299 0 0.47416262890117539 0.30149019824985379 0 0.47888330231886822 0.32877626329145132 0 0.47888330231886822 0.32877626329145132 0 0.47565767627723321 0.35367653303588131 0 0.45850926574073331 0.34651392194864622 0 0.5 0.34930215291110689 0 0.47565767627723321 0.35367653303588131 0 0.47781149018510388 0.37869427749857482 0 0.47888330231886822 0.32877626329145132 0 0.5 0.34930215291110689 0 0.47565767627723321 0.35367653303588131 0 0.47565767627723321 0.35367653303588131 0 0.45733288770108432 0.36201985544527537 0 0.47781149018510388 0.37869427749857482 0 0.47565767627723321 0.35367653303588131 0 0.45733288770108432 0.36201985544527537 0 0.45850926574073331 0.34651392194864622 0 0.44165801472227312 0.34323984209273423 0 0.45850926574073331 0.34651392194864622 0 0.4413887647347946 0.35929889092681982 0 0.45733288770108432 0.36201985544527537 0 0.45850926574073331 0.34651392194864622 0 0.4413887647347946 0.35929889092681982 0 0.45733288770108432 0.36201985544527537 0 0.4413887647347946 0.35929889092681982 0 0.44153901264778062 0.37343480580038879 0 0.45733288770108432 0.36201985544527537 0 0.44153901264778062 0.37343480580038879 0 0.45482676763662039 0.38809293299633429 0 0.42640845802995259 0.36892404556868708 0 0.41557269665981 0.35954071959013117 0 0.42852438312620561 0.35190461944610102 0 0.4413887647347946 0.35929889092681982 0 0.42640845802995259 0.36892404556868708 0 0.42852438312620561 0.35190461944610102 0 0.4413887647347946 0.35929889092681982 0 0.44153901264778062 0.37343480580038879 0 0.42640845802995259 0.36892404556868708 0 0.41557269665981 0.35954071959013117 0 0.39773627330903077 0.36105859917852151 0 0.40780080352149928 0.37567923871478631 0 0.42640845802995259 0.36892404556868708 0 0.41557269665981 0.35954071959013117 0 0.40780080352149928 0.37567923871478631 0 0.41557269665981 0.35954071959013117 0 0.42852438312620561 0.35190461944610102 0 0.41739356531236188 0.34013709504256018 0 0.41557269665981 0.35954071959013117 0 0.41739356531236188 0.34013709504256018 0 0.39773627330903077 0.36105859917852151 0 0.41739356531236188 0.34013709504256018 0 0.39773627330903077 0.36105859917852151 0 0.42852438312620561 0.35190461944610102 0 0.43166902790598161 0.33929201054700048 0 0.41739356531236188 0.34013709504256018 0 0.44165801472227312 0.34323984209273423 0 0.4413887647347946 0.35929889092681982 0 0.42852438312620561 0.35190461944610102 0 0.44165801472227312 0.34323984209273423 0 0.42852438312620561 0.35190461944610102 0 0.43166902790598161 0.33929201054700048 0 0.43705085731569332 0.31921559090659912 0 0.41739356531236188 0.34013709504256018 0 0.41544983039366512 0.32953271314637039 0 0.43705085731569332 0.31921559090659912 0 0.41739356531236188 0.34013709504256018 0 0.43317574323615998 0.33104402243960368 0 0.43705085731569332 0.31921559090659912 0 0.41739356531236188 0.34013709504256018 0 0.43166902790598161 0.33929201054700048 0 0.43317574323615998 0.33104402243960368 0 0.41739356531236188 0.34013709504256018 0 0.44083529419097978 0.33094373067874189 0 0.43166902790598161 0.33929201054700048 0 0.43317574323615998 0.33104402243960368 0 0.43213625579819431 0.30543734923285137 0 0.43154308657343537 0.31483265104709918 0 0.41316086399048302 0.31918962555795088 0 0.43705085731569332 0.31921559090659912 0 0.41544983039366512 0.32953271314637039 0 0.43705085731569332 0.31921559090659912 0 0.42444684759267981 0.32028615430654062 0 0.41544983039366512 0.32953271314637039 0 0.43154308657343537 0.31483265104709918 0 0.42444684759267981 0.32028615430654062 0 0.41316086399048302 0.31918962555795088 0 0.43154308657343537 0.31483265104709918 0 0.43705085731569332 0.31921559090659912 0 0.42444684759267981 0.32028615430654062 0 0.43842966418539248 0.31774810934188358 0 0.43154308657343537 0.31483265104709918 0 0.43705085731569332 0.31921559090659912 0 0.43892997145578388 0.32563168502311662 0 0.43317574323615998 0.33104402243960368 0 0.43705085731569332 0.31921559090659912 0 0.41316086399048302 0.31918962555795088 0 0.41544983039366512 0.32953271314637039 0 0.39418547218277172 0.33294190188305062 0 0.42444684759267981 0.32028615430654062 0 0.41316086399048302 0.31918962555795088 0 0.41544983039366512 0.32953271314637039 0 0.40860853726765339 0.309318938863758 0 0.41316086399048302 0.31918962555795088 0 0.40276015360382211 0.3144041531339446 0 0.41739356531236188 0.34013709504256018 0 0.41544983039366512 0.32953271314637039 0 0.39384880347163692 0.33984983538614127 0 0.41544983039366512 0.32953271314637039 0 0.39418547218277172 0.33294190188305062 0 0.39384880347163692 0.33984983538614127 0 0.41544983039366512 0.32953271314637039 0 0.39384880347163692 0.33984983538614127 0 0.39418547218277172 0.33294190188305062 0 0.39384880347163692 0.33984983538614127 0 0.38763626903965592 0.33142256612758492 0 0.39418547218277172 0.33294190188305062 0 0.39181849880786379 0.32717555703993689 0 0.38763626903965592 0.33142256612758492 0 0.41316086399048302 0.31918962555795088 0 0.39418547218277172 0.33294190188305062 0 0.39708961803314868 0.32200780813679419 0 0.41316086399048302 0.31918962555795088 0 0.40276015360382211 0.3144041531339446 0 0.39708961803314868 0.32200780813679419 0 0.41316086399048302 0.31918962555795088 0 0.39418547218277172 0.33294190188305062 0 0.39418547218277172 0.33294190188305062 0 0.39708961803314868 0.32200780813679419 0 0.39181849880786379 0.32717555703993689 0 0.39708961803314868 0.32200780813679419 0 0.39181849880786379 0.32717555703993689 0 0.38758066886242332 0.32336225559927501 0 0.39708961803314868 0.32200780813679419 0 0.39212940840629362 0.31318847352025442 0 0.38758066886242332 0.32336225559927501 0 0.40276015360382211 0.3144041531339446 0 0.39708961803314868 0.32200780813679419 0 0.39212940840629362 0.31318847352025442 0 0.39212940840629362 0.31318847352025442 0 0.38758066886242332 0.32336225559927501 0 0.38253365066345929 0.31657150904984471 0 0.38758066886242332 0.32336225559927501 0 0.37951212113643251 0.32682582922079478 0 0.38253365066345929 0.31657150904984471 0 0.39181849880786379 0.32717555703993689 0 0.38758066886242332 0.32336225559927501 0 0.38763626903965592 0.33142256612758492 0 0.38758066886242332 0.32336225559927501 0 0.37951212113643251 0.32682582922079478 0 0.38763626903965592 0.33142256612758492 0 0.37069175466933912 0.32875176142968793 0 0.37951212113643251 0.32682582922079478 0 0.37512131353827649 0.31993777409944391 0 0.37951212113643251 0.32682582922079478 0 0.38253365066345929 0.31657150904984471 0 0.37512131353827649 0.31993777409944391 0 0.37552929986171052 0.31147094895867028 0 0.38253365066345929 0.31657150904984471 0 0.37512131353827649 0.31993777409944391 0 0.3722477765496085 0.35016695762591221 0 0.39384880347163692 0.33984983538614127 0 0.38018026091455548 0.33583017463534492 0 0.39384880347163692 0.33984983538614127 0 0.38763626903965592 0.33142256612758492 0 0.38018026091455548 0.33583017463534492 0 0.37069175466933912 0.32875176142968793 0 0.37951212113643251 0.32682582922079478 0 0.38018026091455548 0.33583017463534492 0 0.37951212113643251 0.32682582922079478 0 0.38763626903965592 0.33142256612758492 0 0.38018026091455548 0.33583017463534492 0 0.3722477765496085 0.35016695762591221 0 0.39384880347163692 0.33984983538614127 0 0.3722477765496085 0.35016695762591221 0 0.39384880347163692 0.33984983538614127 0 0.38596182216836522 0.35527606173029752 0 0.3722477765496085 0.35016695762591221 0 0.38596182216836522 0.35527606173029752 0 0.37807898130569972 0.38198010331448301 0 0.38596182216836522 0.35527606173029752 0 0.39773627330903077 0.36105859917852151 0 0.37807898130569972 0.38198010331448301 0 0.39773627330903077 0.36105859917852151 0 0.37807898130569972 0.38198010331448301 0 0.39773627330903077 0.36105859917852151 0 0.37807898130569972 0.38198010331448301 0 0.40780080352149928 0.37567923871478631 0 0.41739356531236188 0.34013709504256018 0 0.39384880347163692 0.33984983538614127 0 0.39773627330903077 0.36105859917852151 0 0.39384880347163692 0.33984983538614127 0 0.38596182216836522 0.35527606173029752 0 0.39773627330903077 0.36105859917852151 0 0.40390821143883249 0.39309141821086863 0 0.37807898130569972 0.38198010331448301 0 0.39091832328282361 0.41087193027100549 0 0.40390821143883249 0.39309141821086863 0 0.39091832328282361 0.41087193027100549 0 0.41386422373874859 0.406371997932643 0 0.40390821143883249 0.39309141821086863 0 0.37807898130569972 0.38198010331448301 0 0.40780080352149928 0.37567923871478631 0 0.36187958923526292 0.40293945046940088 0 0.37807898130569972 0.38198010331448301 0 0.39091832328282361 0.41087193027100549 0 0.37193014631584848 0.42999924720615068 0 0.39355396721594382 0.43664913910555569 0 0.39091832328282361 0.41087193027100549 0 0.39355396721594382 0.43664913910555569 0 0.4086430402520686 0.43726383809014391 0 0.41286414250946218 0.42378426033622751 0 0.39355396721594382 0.43664913910555569 0 0.39091832328282361 0.41087193027100549 0 0.41286414250946218 0.42378426033622751 0 0.39091832328282361 0.41087193027100549 0 0.41386422373874859 0.406371997932643 0 0.41286414250946218 0.42378426033622751 0 0.41386422373874859 0.406371997932643 0 0.41286414250946218 0.42378426033622751 0 0.43221705047033082 0.4090921792360791 0 0.41286414250946218 0.42378426033622751 0 0.43133933500857929 0.43201167421733949 0 0.41892553910608071 0.43791135523627978 0 0.4086430402520686 0.43726383809014391 0 0.41286414250946218 0.42378426033622751 0 0.41892553910608071 0.43791135523627978 0 0.41286414250946218 0.42378426033622751 0 0.43133933500857929 0.43201167421733949 0 0.41286414250946218 0.42378426033622751 0 0.43133933500857929 0.43201167421733949 0 0.43221705047033082 0.4090921792360791 0 0.41386422373874859 0.406371997932643 0 0.43221705047033082 0.4090921792360791 0 0.42773818513645112 0.38883830406482728 0 0.40390821143883249 0.39309141821086863 0 0.41386422373874859 0.406371997932643 0 0.42773818513645112 0.38883830406482728 0 0.40390821143883249 0.39309141821086863 0 0.40780080352149928 0.37567923871478631 0 0.42773818513645112 0.38883830406482728 0 0.42640845802995259 0.36892404556868708 0 0.40780080352149928 0.37567923871478631 0 0.42773818513645112 0.38883830406482728 0 0.44153901264778062 0.37343480580038879 0 0.42640845802995259 0.36892404556868708 0 0.42773818513645112 0.38883830406482728 0 0.44153901264778062 0.37343480580038879 0 0.42773818513645112 0.38883830406482728 0 0.45482676763662039 0.38809293299633429 0 0.5 0.34930215291110689 0 0.47781149018510388 0.37869427749857482 0 0.5 0.41423412078117261 0 0.43221705047033082 0.4090921792360791 0 0.42773818513645112 0.38883830406482728 0 0.45482676763662039 0.38809293299633429 0 0.43221705047033082 0.4090921792360791 0 0.45482676763662039 0.38809293299633429 0 0.45232064757215651 0.41416601054739322 0 0.45482676763662039 0.38809293299633429 0 0.47121798163558132 0.40484318606820219 0 0.45232064757215651 0.41416601054739322 0 0.45482676763662039 0.38809293299633429 0 0.45232064757215651 0.41416601054739322 0 0.45733288770108432 0.36201985544527537 0 0.45482676763662039 0.38809293299633429 0 0.47781149018510388 0.37869427749857482 0 0.45482676763662039 0.38809293299633429 0 0.47781149018510388 0.37869427749857482 0 0.47121798163558132 0.40484318606820219 0 0.45733288770108432 0.36201985544527537 0 0.45482676763662039 0.38809293299633429 0 0.47781149018510388 0.37869427749857482 0 0.47121798163558132 0.40484318606820219 0 0.5 0.41423412078117261 0 0.5 0.41423412078117261 0 0.47113100278402542 0.42902858851753611 0 0.48237845739663598 0.45474052989964669 0 0.47121798163558132 0.40484318606820219 0 0.5 0.41423412078117261 0 0.47113100278402542 0.42902858851753611 0 0.47113100278402542 0.42902858851753611 0 0.45232064757215651 0.41416601054739322 0 0.44981452750769602 0.44023908809845258 0 0.47121798163558132 0.40484318606820219 0 0.47113100278402542 0.42902858851753611 0 0.45232064757215651 0.41416601054739322 0 0.43133933500857929 0.43201167421733949 0 0.43221705047033082 0.4090921792360791 0 0.45232064757215651 0.41416601054739322 0 0.43133933500857929 0.43201167421733949 0 0.44981452750769602 0.44023908809845258 0 0.45232064757215651 0.41416601054739322 0 0.44981452750769602 0.44023908809845258 0 0.43133933500857929 0.43201167421733949 0 0.45232064757215651 0.41416601054739322 0 0.44981452750769602 0.44023908809845258 0 0.43133933500857929 0.43201167421733949 0 0.44981452750769602 0.44023908809845258 0 0.43647632095713862 0.44436215142212632 0 0.44981452750769602 0.44023908809845258 0 0.44828887142136431 0.4561116514361514 0 0.43647632095713862 0.44436215142212632 0 0.5 0.41423412078117261 0 0.48237845739663598 0.45474052989964669 0 0.5 0.5 0 0.44981452750769602 0.44023908809845258 0 0.44828887142136431 0.4561116514361514 0 0.44828887142136431 0.4561116514361514 0 0.46262912319994498 0.4617517767316669 0 0.44676321533503599 0.47198421477385039 0 0.44828887142136431 0.4561116514361514 0 0.44676321533503599 0.47198421477385039 0 0.44828887142136431 0.4561116514361514 0 0.44676321533503599 0.47198421477385039 0 0.43105685511778941 0.46008286853249242 0 0.44828887142136431 0.4561116514361514 0 0.43105685511778941 0.46008286853249242 0 0.43647632095713862 0.44436215142212632 0 0.44828887142136431 0.4561116514361514 0 0.46262912319994498 0.4617517767316669 0 0.46609649245216622 0.44748980899904922 0 0.44981452750769602 0.44023908809845258 0 0.46609649245216622 0.44748980899904922 0 0.47113100278402542 0.42902858851753611 0 0.44981452750769602 0.44023908809845258 0 0.46609649245216622 0.44748980899904922 0 0.44981452750769602 0.44023908809845258 0 0.44828887142136431 0.4561116514361514 0 0.46609649245216622 0.44748980899904922 0 0.46609649245216622 0.44748980899904922 0 0.48237845739663598 0.45474052989964669 0 0.47113100278402542 0.42902858851753611 0 0.46609649245216622 0.44748980899904922 0 0.48237845739663598 0.45474052989964669 0 0.46262912319994498 0.4617517767316669 0 0.46609649245216622 0.44748980899904922 0 0.48237845739663598 0.45474052989964669 0 0.46262912319994498 0.4617517767316669 0 0.48237845739663598 0.45474052989964669 0 0.46961857939452217 0.47843267854963678 0 0.5 0.5 0 0.46961857939452217 0.47843267854963678 0 0.45695651283274419 0.5 0 0.48237845739663598 0.45474052989964669 0 0.5 0.5 0 0.46961857939452217 0.47843267854963678 0 0.46262912319994498 0.4617517767316669 0 0.46961857939452217 0.47843267854963678 0 0.44676321533503599 0.47198421477385039 0 0.46961857939452217 0.47843267854963678 0 0.45695651283274419 0.5 0 0.44676321533503599 0.47198421477385039 0 0.45695651283274419 0.5 0 0.44676321533503599 0.47198421477385039 0 0.42715067833807191 0.48563837301334373 0 0.45695651283274419 0.5 0 0.42715067833807191 0.48563837301334373 0 0.39792984500105372 0.49999999999999267 0 0.42715067833807191 0.48563837301334373 0 0.40953154044098622 0.4794767255128099 0 0.39792984500105372 0.49999999999999267 0 0.40953154044098622 0.4794767255128099 0 0.41525465208730261 0.46316685488367448 0 0.40032430733366781 0.47438196319643627 0 0.42715067833807191 0.48563837301334373 0 0.40953154044098622 0.4794767255128099 0 0.42565961132635199 0.47168315798381388 0 0.40953154044098622 0.4794767255128099 0 0.42565961132635199 0.47168315798381388 0 0.41525465208730261 0.46316685488367448 0 0.44676321533503599 0.47198421477385039 0 0.42715067833807191 0.48563837301334373 0 0.42565961132635199 0.47168315798381388 0 0.42565961132635199 0.47168315798381388 0 0.43105685511778941 0.46008286853249242 0 0.41525465208730261 0.46316685488367448 0 0.44676321533503599 0.47198421477385039 0 0.42565961132635199 0.47168315798381388 0 0.43105685511778941 0.46008286853249242 0 0.43647632095713862 0.44436215142212632 0 0.4092285121767878 0.4507105976825127 0 0.43133933500857929 0.43201167421733949 0 0.43647632095713862 0.44436215142212632 0 0.41892553910608071 0.43791135523627978 0 0.43105685511778941 0.46008286853249242 0 0.43647632095713862 0.44436215142212632 0 0.4092285121767878 0.4507105976825127 0 0.43647632095713862 0.44436215142212632 0 0.41892553910608071 0.43791135523627978 0 0.4092285121767878 0.4507105976825127 0 0.4086430402520686 0.43726383809014391 0 0.41892553910608071 0.43791135523627978 0 0.4092285121767878 0.4507105976825127 0 0.43105685511778941 0.46008286853249242 0 0.4092285121767878 0.4507105976825127 0 0.41525465208730261 0.46316685488367448 0 0.41525465208730261 0.46316685488367448 0 0.38526933680530762 0.46591325479630669 0 0.40032430733366781 0.47438196319643627 0 0.4092285121767878 0.4507105976825127 0 0.41525465208730261 0.46316685488367448 0 0.38526933680530762 0.46591325479630669 0 0.4092285121767878 0.4507105976825127 0 0.38526933680530762 0.46591325479630669 0 0.38198070339643708 0.45705904394289942 0 0.4092285121767878 0.4507105976825127 0 0.38198070339643708 0.45705904394289942 0 0.41525465208730261 0.46316685488367448 0 0.38526933680530762 0.46591325479630669 0 0.39355396721594382 0.43664913910555569 0 0.4086430402520686 0.43726383809014391 0 0.4092285121767878 0.4507105976825127 0 0.39355396721594382 0.43664913910555569 0 0.4092285121767878 0.4507105976825127 0 0.38198070339643708 0.45705904394289942 0 0.37193014631584848 0.42999924720615068 0 0.39355396721594382 0.43664913910555569 0 0.38198070339643708 0.45705904394289942 0 0.37193014631584848 0.42999924720615068 0 0.38198070339643708 0.45705904394289942 0 0.36717500093372668 0.46757054210475929 0 0.38526933680530762 0.46591325479630669 0 0.36717500093372668 0.46757054210475929 0 0.38526933680530762 0.46591325479630669 0 0.38198070339643708 0.45705904394289942 0 0.38526933680530762 0.46591325479630669 0 0.38198070339643708 0.45705904394289942 0 0.36717500093372668 0.46757054210475929 0 0.38526933680530762 0.46591325479630669 0 0.37501723488010369 0.48021086780116401 0 0.38526933680530762 0.46591325479630669 0 0.39159959090318019 0.48295662739814987 0 0.38526933680530762 0.46591325479630669 0 0.37501723488010369 0.48021086780116401 0 0.39159959090318019 0.48295662739814987 0 0.37100127548482031 0.49999999999999922 0 0.39792984500105372 0.49999999999999267 0 0.39159959090318019 0.48295662739814987 0 0.37100127548482031 0.49999999999999922 0 0.37501723488010369 0.48021086780116401 0 0.39159959090318019 0.48295662739814987 0 0.40953154044098622 0.4794767255128099 0 0.39792984500105372 0.49999999999999267 0 0.39159959090318019 0.48295662739814987 0 0.39792984500105372 0.49999999999999267 0 0.39159959090318019 0.48295662739814987 0 0.38526933680530762 0.46591325479630669 0 0.39159959090318019 0.48295662739814987 0 0.40032430733366781 0.47438196319643627 0 0.40953154044098622 0.4794767255128099 0 0.39159959090318019 0.48295662739814987 0 0.40032430733366781 0.47438196319643627 0 0.33044620589452839 0.087817198709655944 0 0.34171554996877818 0.096966806733087524 0 0.34881532063442522 0.082201530692034883 0 0.33044620589452839 0.087817198709655944 0 0.32566991147381341 0.070879840112157963 0 0.34881532063442522 0.082201530692034883 0 0.32566991147381341 0.070879840112157963 0 0.34881532063442522 0.082201530692034883 0 0.34230685448842202 0.061943355546023537 0 0.32566991147381341 0.070879840112157963 0 0.31072716300308328 0.059331554637136651 0 0.31153776068034922 0.089135316111794982 0 0.33044620589452839 0.087817198709655944 0 0.32806927392538099 0.098855845298032555 0 0.31153776068034922 0.089135316111794982 0 0.33044620589452839 0.087817198709655944 0 0.32566991147381341 0.070879840112157963 0 0.31153776068034922 0.089135316111794982 0 0.32260309590447922 0.1123122165003074 0 0.31153776068034922 0.089135316111794982 0 0.31234835835761571 0.11893907758645331 0 0.32806927392538099 0.098855845298032555 0 0.32260309590447922 0.1123122165003074 0 0.31153776068034922 0.089135316111794982 0 0.32260309590447922 0.1123122165003074 0 0.33019904407723683 0.1184739086744384 0 0.31234835835761571 0.11893907758645331 0 0.33019904407723683 0.1184739086744384 0 0.31234835835761571 0.11893907758645331 0 0.33442235067943221 0.13211305649348251 0 0.32260309590447922 0.1123122165003074 0 0.33019904407723683 0.1184739086744384 0 0.33404375717876961 0.1080476884353169 0 0.33404375717876961 0.1080476884353169 0 0.343988490580944 0.1176741160108202 0 0.33019904407723683 0.1184739086744384 0 0.33404375717876961 0.1080476884353169 0 0.343988490580944 0.1176741160108202 0 0.343988490580944 0.1176741160108202 0 0.33442235067943221 0.13211305649348251 0 0.33019904407723683 0.1184739086744384 0 0.343988490580944 0.1176741160108202 0 0.33442235067943221 0.13211305649348251 0 0.33404375717876961 0.1080476884353169 0 0.34171554996877818 0.096966806733087524 0 0.35392152912869879 0.10268138604034791 0 0.33044620589452839 0.087817198709655944 0 0.32806927392538099 0.098855845298032555 0 0.34171554996877818 0.096966806733087524 0 0.32806927392538099 0.098855845298032555 0 0.33404375717876961 0.1080476884353169 0 0.34171554996877818 0.096966806733087524 0 0.32806927392538099 0.098855845298032555 0 0.32260309590447922 0.1123122165003074 0 0.33404375717876961 0.1080476884353169 0 0.35392152912869879 0.10268138604034791 0 0.35491381869304151 0.1011836439930483 0 0.34881532063442522 0.082201530692034883 0 0.34171554996877818 0.096966806733087524 0 0.35392152912869879 0.10268138604034791 0 0.34881532063442522 0.082201530692034883 0 0.35392152912869879 0.10268138604034791 0 0.35546062987876292 0.1088543734464716 0 0.35491381869304151 0.1011836439930483 0 0.35392152912869879 0.10268138604034791 0 0.35491381869304151 0.1011836439930483 0 0.35392152912869879 0.10268138604034791 0 0.35546062987876292 0.1088543734464716 0 0.33404375717876961 0.1080476884353169 0 0.35392152912869879 0.10268138604034791 0 0.343988490580944 0.1176741160108202 0 0.35546062987876292 0.1088543734464716 0 0.35491381869304151 0.1011836439930483 0 0.36234477620530581 0.12431315491142481 0 0.35491381869304151 0.1011836439930483 0 0.36234477620530581 0.12431315491142481 0 0.343988490580944 0.1176741160108202 0 0.3557614600719885 0.1290702624504714 0 0.35392152912869879 0.10268138604034791 0 0.343988490580944 0.1176741160108202 0 0.35392152912869879 0.10268138604034791 0 0.35546062987876292 0.1088543734464716 0 0.343988490580944 0.1176741160108202 0 0.35546062987876292 0.1088543734464716 0 0.343988490580944 0.1176741160108202 0 0.35889290538618501 0.1204186727105461 0 0.343988490580944 0.1176741160108202 0 0.35889290538618501 0.1204186727105461 0 0.3557614600719885 0.1290702624504714 0 0.35546062987876292 0.1088543734464716 0 0.35889290538618501 0.1204186727105461 0 0.36234477620530581 0.12431315491142481 0 0.35889290538618501 0.1204186727105461 0 0.36234477620530581 0.12431315491142481 0 0.3557614600719885 0.1290702624504714 0 0.35491381869304151 0.1011836439930483 0 0.36234477620530581 0.12431315491142481 0 0.37533236417423199 0.11575217945856781 0 0.35889290538618501 0.1204186727105461 0 0.36234477620530581 0.12431315491142481 0 0.35491381869304151 0.1011836439930483 0 0.36864505415383159 0.080457991471440893 0 0.37989514383216261 0.1008811074142211 0 0.35491381869304151 0.1011836439930483 0 0.37989514383216261 0.1008811074142211 0 0.37533236417423199 0.11575217945856781 0 0.35491381869304151 0.1011836439930483 0 0.36864505415383159 0.080457991471440893 0 0.36864505415383159 0.080457991471440893 0 0.37194242117794668 0.076772614526931793 0 0.37989514383216261 0.1008811074142211 0 0.35491381869304151 0.1011836439930483 0 0.36864505415383159 0.080457991471440893 0 0.34881532063442522 0.082201530692034883 0 0.35491381869304151 0.1011836439930483 0 0.34881532063442522 0.082201530692034883 0 0.35392152912869879 0.10268138604034791 0 0.34881532063442522 0.082201530692034883 0 0.34881532063442522 0.082201530692034883 0 0.34230685448842202 0.061943355546023537 0 0.34881532063442522 0.082201530692034883 0 0.34385440331789768 0.06230440562327498 0 0.34881532063442522 0.082201530692034883 0 0.36113142589940772 0.067155945135465897 0 0.34385440331789768 0.06230440562327498 0 0.34881532063442522 0.082201530692034883 0 0.34385440331789768 0.06230440562327498 0 0.34230685448842202 0.061943355546023537 0 0.36864505415383159 0.080457991471440893 0 0.36113142589940772 0.067155945135465897 0 0.38237628961462611 0.059732338949836518 0 0.36864505415383159 0.080457991471440893 0 0.34881532063442522 0.082201530692034883 0 0.36113142589940772 0.067155945135465897 0 0.36864505415383159 0.080457991471440893 0 0.37194242117794668 0.076772614526931793 0 0.38237628961462611 0.059732338949836518 0 0.36113142589940772 0.067155945135465897 0 0.36196606177625779 0.051083458940742198 0 0.38237628961462611 0.059732338949836518 0 0.36196606177625779 0.051083458940742198 0 0.37923500638336632 0.043068186250585699 0 0.38237628961462611 0.059732338949836518 0 0.36196606177625779 0.051083458940742198 0 0.36321924137845568 0.02934286747329215 0 0.37923500638336632 0.043068186250585699 0 0.36196606177625779 0.051083458940742198 0 0.36321924137845568 0.02934286747329215 0 0.33889348600137009 0.042407280554515127 0 0.36321924137845568 0.02934286747329215 0 0.33393256868484111 0.02251015548575569 0 0.33889348600137009 0.042407280554515127 0 0.36113142589940772 0.067155945135465897 0 0.36196606177625779 0.051083458940742198 0 0.34385440331789768 0.06230440562327498 0 0.36196606177625779 0.051083458940742198 0 0.34385440331789768 0.06230440562327498 0 0.33889348600137009 0.042407280554515127 0 0.37357914744350779 0.002440479778912224 0 0.37424442014871812 0.021820824704299101 0 0.35598292622536432 0.0074660699477739154 0 0.37424442014871812 0.021820824704299101 0 0.35598292622536432 0.0074660699477739154 0 0.36321924137845568 0.02934286747329215 0 0.37424442014871812 0.021820824704299101 0 0.35598292622536432 0.0074660699477739154 0 0.36321924137845568 0.02934286747329215 0 0.34509322139385162 0.01518667904233665 0 0.33393256868484111 0.02251015548575569 0 0.36321924137845568 0.02934286747329215 0 0.33393256868484111 0.02251015548575569 0 0.36321924137845568 0.02934286747329215 0 0.35598292622536432 0.0074660699477739154 0 0.34509322139385162 0.01518667904233665 0 0.35598292622536432 0.0074660699477739154 0 0.33772143230201052 -0.0068886848087512803 0 0.35598292622536432 0.0074660699477739154 0 0.33877017139388149 0.0064718171092321003 0 0.33772143230201052 -0.0068886848087512803 0 0.35598292622536432 0.0074660699477739154 0 0.34509322139385162 0.01518667904233665 0 0.33877017139388149 0.0064718171092321003 0 0.33877017139388149 0.0064718171092321003 0 0.32325249182581611 0.0026349705202008129 0 0.33772143230201052 -0.0068886848087512803 0 0.33877017139388149 0.0064718171092321003 0 0.33180078522236511 0.01396005084460041 0 0.32325249182581611 0.0026349705202008129 0 0.34509322139385162 0.01518667904233665 0 0.33877017139388149 0.0064718171092321003 0 0.33180078522236511 0.01396005084460041 0 0.3292899221964134 0.021427005254001569 0 0.33393256868484111 0.02251015548575569 0 0.33579838834241882 0.04168518040001222 0 0.33180078522236511 0.01396005084460041 0 0.3292899221964134 0.021427005254001569 0 0.33393256868484111 0.02251015548575569 0 0.33180078522236511 0.01396005084460041 0 0.33393256868484111 0.02251015548575569 0 0.3292899221964134 0.021427005254001569 0 0.33393256868484111 0.02251015548575569 0 0.34509322139385162 0.01518667904233665 0 0.33180078522236511 0.01396005084460041 0 0.33393256868484111 0.02251015548575569 0 0.3292899221964134 0.021427005254001569 0 0.31293781791285569 0.017611986042758699 0 0.31923969929816981 0.035830495662194838 0 0.3292899221964134 0.021427005254001569 0 0.31293781791285569 0.017611986042758699 0 0.33180078522236511 0.01396005084460041 0 0.3292899221964134 0.021427005254001569 0 0.32325249182581611 0.0026349705202008129 0 0.3292899221964134 0.021427005254001569 0 0.31293781791285569 0.017611986042758699 0 0.32325249182581611 0.0026349705202008129 0 0.3292899221964134 0.021427005254001569 0 0.32325249182581611 0.0026349705202008129 0 0.31293781791285569 0.017611986042758699 0 0.32325249182581611 0.0026349705202008129 0 0.30690038754225768 -0.0011800486910433781 0 0.34230685448842202 0.061943355546023537 0 0.33579838834241882 0.04168518040001222 0 0.33889348600137009 0.042407280554515127 0 0.34385440331789768 0.06230440562327498 0 0.34230685448842202 0.061943355546023537 0 0.33889348600137009 0.042407280554515127 0 0.32566991147381341 0.070879840112157963 0 0.34230685448842202 0.061943355546023537 0 0.33579838834241882 0.04168518040001222 0 0.34230685448842202 0.061943355546023537 0 0.33579838834241882 0.04168518040001222 0 0.34385440331789768 0.06230440562327498 0 0.33889348600137009 0.042407280554515127 0 0.3292899221964134 0.021427005254001569 0 0.33579838834241882 0.04168518040001222 0 0.33393256868484111 0.02251015548575569 0 0.33889348600137009 0.042407280554515127 0 0.33393256868484111 0.02251015548575569 0 0.33579838834241882 0.04168518040001222 0 0.33889348600137009 0.042407280554515127 0 0.33579838834241882 0.04168518040001222 0 0.31923969929816981 0.035830495662194838 0 0.31072716300308328 0.059331554637136651 0 0.3292899221964134 0.021427005254001569 0 0.33579838834241882 0.04168518040001222 0 0.31923969929816981 0.035830495662194838 0 0.32566991147381341 0.070879840112157963 0 0.33579838834241882 0.04168518040001222 0 0.31072716300308328 0.059331554637136651 0 0.31072716300308328 0.059331554637136651 0 0.30691000426459791 0.042169890293137127 0 0.29424159478151202 0.042911142587019738 0 0.31923969929816981 0.035830495662194838 0 0.30691000426459791 0.042169890293137127 0 0.30060566889494089 0.02714657897289334 0 0.30691000426459791 0.042169890293137127 0 0.29424159478151202 0.042911142587019738 0 0.30060566889494089 0.02714657897289334 0 0.31923969929816981 0.035830495662194838 0 0.31072716300308328 0.059331554637136651 0 0.30691000426459791 0.042169890293137127 0 0.29424159478151202 0.042911142587019738 0 0.30060566889494089 0.02714657897289334 0 0.28762295502011598 0.027200489278051441 0 0.29424159478151202 0.042911142587019738 0 0.28762295502011598 0.027200489278051441 0 0.27805620151387522 0.042617420402232667 0 0.31072716300308328 0.059331554637136651 0 0.29424159478151202 0.042911142587019738 0 0.28127895804124392 0.05869653450612005 0 0.29424159478151202 0.042911142587019738 0 0.28127895804124392 0.05869653450612005 0 0.27805620151387522 0.042617420402232667 0 0.31293781791285569 0.017611986042758699 0 0.29658571362929892 0.01379696683151194 0 0.30690038754225768 -0.0011800486910433781 0 0.29658571362929892 0.01379696683151194 0 0.30050921735997521 -0.004605356182754896 0 0.30690038754225768 -0.0011800486910433781 0 0.29658571362929892 0.01379696683151194 0 0.30690038754225768 -0.0011800486910433781 0 0.31293781791285569 0.017611986042758699 0 0.30060566889494089 0.02714657897289334 0 0.29658571362929892 0.01379696683151194 0 0.31293781791285569 0.017611986042758699 0 0.31923969929816981 0.035830495662194838 0 0.30060566889494089 0.02714657897289334 0 0.31293781791285569 0.017611986042758699 0 0.29658571362929892 0.01379696683151194 0 0.30060566889494089 0.02714657897289334 0 0.29500274332330728 0.016095456443948788 0 0.29658571362929892 0.01379696683151194 0 0.30060566889494089 0.02714657897289334 0 0.28762295502011598 0.027200489278051441 0 0.29289454178864649 0.022456661223579269 0 0.28762295502011598 0.027200489278051441 0 0.28116395689077539 0.015207467567734259 0 0.27775173961206168 0.02941095978416057 0 0.28762295502011598 0.027200489278051441 0 0.28836526088227099 0.018465508051837269 0 0.28116395689077539 0.015207467567734259 0 0.28762295502011598 0.027200489278051441 0 0.28116395689077539 0.015207467567734259 0 0.30060566889494089 0.02714657897289334 0 0.29289454178864649 0.022456661223579269 0 0.29500274332330728 0.016095456443948788 0 0.28836526088227099 0.018465508051837269 0 0.29289454178864649 0.022456661223579269 0 0.29500274332330728 0.016095456443948788 0 0.28762295502011598 0.027200489278051441 0 0.28836526088227099 0.018465508051837269 0 0.29289454178864649 0.022456661223579269 0 0.28514691493175248 0.01112824383243886 0 0.30050921735997521 -0.004605356182754896 0 0.29658571362929892 0.01379696683151194 0 0.28514691493175248 0.01112824383243886 0 0.30050921735997521 -0.004605356182754896 0 0.28514691493175248 0.01112824383243886 0 0.27791710391185381 -0.0010379811687957271 0 0.28512431700806451 -0.0086992195202469716 0 0.29658571362929892 0.01379696683151194 0 0.28514691493175248 0.01112824383243886 0 0.28836526088227099 0.018465508051837269 0 0.29500274332330728 0.016095456443948788 0 0.28514691493175248 0.01112824383243886 0 0.29500274332330728 0.016095456443948788 0 0.29658571362929892 0.01379696683151194 0 0.28514691493175248 0.01112824383243886 0 0.29500274332330728 0.016095456443948788 0 0.29658571362929892 0.01379696683151194 0 0.28836526088227099 0.018465508051837269 0 0.28514691493175248 0.01112824383243886 0 0.28116395689077539 0.015207467567734259 0 0.28514691493175248 0.01112824383243886 0 0.27807895442698177 0.0094792569716416024 0 0.28116395689077539 0.015207467567734259 0 0.28514691493175248 0.01112824383243886 0 0.28116395689077539 0.015207467567734259 0 0.28514691493175248 0.01112824383243886 0 0.27807895442698177 0.0094792569716416024 0 0.27127393371108272 0.0054169343353159512 0 0.27807895442698177 0.0094792569716416024 0 0.2692248172919926 -0.0069610417805164738 0 0.27807895442698177 0.0094792569716416024 0 0.2692248172919926 -0.0069610417805164738 0 0.27807895442698177 0.0094792569716416024 0 0.2692248172919926 -0.0069610417805164738 0 0.27791710391185381 -0.0010379811687957271 0 0.26701986470523431 0.0028523954276382379 0 0.27127393371108272 0.0054169343353159512 0 0.2692248172919926 -0.0069610417805164738 0 0.26701986470523431 0.0028523954276382379 0 0.27127393371108272 0.0054169343353159512 0 0.26928034954363472 0.01099432455637152 0 0.28514691493175248 0.01112824383243886 0 0.27807895442698177 0.0094792569716416024 0 0.27791710391185381 -0.0010379811687957271 0 0.27807895442698177 0.0094792569716416024 0 0.27458783582826463 0.012565755321843329 0 0.27310560452179761 0.0095674853239665035 0 0.27127393371108272 0.0054169343353159512 0 0.27807895442698177 0.0094792569716416024 0 0.27310560452179761 0.0095674853239665035 0 0.27807895442698177 0.0094792569716416024 0 0.28116395689077539 0.015207467567734259 0 0.27807895442698177 0.0094792569716416024 0 0.28116395689077539 0.015207467567734259 0 0.27458783582826463 0.012565755321843329 0 0.27458783582826463 0.012565755321843329 0 0.26928034954363472 0.01099432455637152 0 0.26815911709364498 0.019514489362225031 0 0.27458783582826463 0.012565755321843329 0 0.27310560452179761 0.0095674853239665035 0 0.26928034954363472 0.01099432455637152 0 0.27127393371108272 0.0054169343353159512 0 0.27310560452179761 0.0095674853239665035 0 0.26928034954363472 0.01099432455637152 0 0.28116395689077539 0.015207467567734259 0 0.26416384502347939 0.032618461888623121 0 0.28116395689077539 0.015207467567734259 0 0.26815911709364498 0.019514489362225031 0 0.26416384502347939 0.032618461888623121 0 0.28116395689077539 0.015207467567734259 0 0.27775173961206168 0.02941095978416057 0 0.26416384502347939 0.032618461888623121 0 0.28116395689077539 0.015207467567734259 0 0.27458783582826463 0.012565755321843329 0 0.26815911709364498 0.019514489362225031 0 0.2489069739425 0.021637400389674748 0 0.25228035847618863 0.02688679106582054 0 0.25585841565974538 0.042233258010133973 0 0.26815911709364498 0.019514489362225031 0 0.25311855338379191 0.024668664965947041 0 0.26416384502347939 0.032618461888623121 0 0.25311855338379191 0.024668664965947041 0 0.26416384502347939 0.032618461888623121 0 0.25228035847618863 0.02688679106582054 0 0.25311855338379191 0.024668664965947041 0 0.26416384502347939 0.032618461888623121 0 0.2489069739425 0.021637400389674748 0 0.25228035847618863 0.02688679106582054 0 0.25311855338379191 0.024668664965947041 0 0.25228035847618863 0.02688679106582054 0 0.25311855338379191 0.024668664965947041 0 0.2489069739425 0.021637400389674748 0 0.25311855338379191 0.024668664965947041 0 0.25900523844679291 0.0090906536209348996 0 0.25311855338379191 0.024668664965947041 0 0.25900523844679291 0.0090906536209348996 0 0.2489069739425 0.021637400389674748 0 0.25311855338379191 0.024668664965947041 0 0.26815911709364498 0.019514489362225031 0 0.25311855338379191 0.024668664965947041 0 0.25900523844679291 0.0090906536209348996 0 0.26928034954363472 0.01099432455637152 0 0.26815911709364498 0.019514489362225031 0 0.25900523844679291 0.0090906536209348996 0 0.26701986470523431 0.0028523954276382379 0 0.26928034954363472 0.01099432455637152 0 0.25900523844679291 0.0090906536209348996 0 0.25900523844679291 0.0090906536209348996 0 0.26489192350979318 -0.0064873577240775106 0 0.26701986470523431 0.0028523954276382379 0 0.25900523844679291 0.0090906536209348996 0 0.26489192350979318 -0.0064873577240775106 0 0.28127895804124392 0.05869653450612005 0 0.26794279917258279 0.048584654113773551 0 0.27805620151387522 0.042617420402232667 0 0.28127895804124392 0.05869653450612005 0 0.26794279917258279 0.048584654113773551 0 0.26429652163301431 0.061701359010517647 0 0.26794279917258279 0.048584654113773551 0 0.27805620151387522 0.042617420402232667 0 0.26416384502347939 0.032618461888623121 0 0.28762295502011598 0.027200489278051441 0 0.27775173961206168 0.02941095978416057 0 0.27805620151387522 0.042617420402232667 0 0.27805620151387522 0.042617420402232667 0 0.26416384502347939 0.032618461888623121 0 0.27775173961206168 0.02941095978416057 0 0.27805620151387522 0.042617420402232667 0 0.26416384502347939 0.032618461888623121 0 0.26794279917258279 0.048584654113773551 0 0.2611959089814877 0.042898221548277563 0 0.26416384502347939 0.032618461888623121 0 0.2611959089814877 0.042898221548277563 0 0.25585841565974538 0.042233258010133973 0 0.25799090162224952 0.051667623778106117 0 0.2489069739425 0.021637400389674748 0 0.25585841565974538 0.042233258010133973 0 0.2611959089814877 0.042898221548277563 0 0.25868336492166327 0.038231401890038208 0 0.25585841565974538 0.042233258010133973 0 0.25228035847618863 0.02688679106582054 0 0.26416384502347939 0.032618461888623121 0 0.25868336492166327 0.038231401890038208 0 0.2611959089814877 0.042898221548277563 0 0.26416384502347939 0.032618461888623121 0 0.25868336492166327 0.038231401890038208 0 0.26416384502347939 0.032618461888623121 0 0.25868336492166327 0.038231401890038208 0 0.25228035847618863 0.02688679106582054 0 0.25868336492166327 0.038231401890038208 0 0.25585841565974538 0.042233258010133973 0 0.24915942417082321 0.043562136642382059 0 0.25585841565974538 0.042233258010133973 0 0.25194780840825542 0.047502886957762752 0 0.25585841565974538 0.042233258010133973 0 0.25194780840825542 0.047502886957762752 0 0.25799090162224952 0.051667623778106117 0 0.24612717135886061 0.053158967820149818 0 0.25194780840825542 0.047502886957762752 0 0.25799090162224952 0.051667623778106117 0 0.24612717135886061 0.053158967820149818 0 0.25799090162224952 0.051667623778106117 0 0.26429652163301431 0.061701359010517647 0 0.26794279917258279 0.048584654113773551 0 0.2611959089814877 0.042898221548277563 0 0.25799090162224952 0.051667623778106117 0 0.26794279917258279 0.048584654113773551 0 0.25799090162224952 0.051667623778106117 0 0.26429652163301431 0.061701359010517647 0 0.24612717135886061 0.053158967820149818 0 0.25923100858263742 0.079351551944828513 0 0.24612717135886061 0.053158967820149818 0 0.26429652163301431 0.061701359010517647 0 0.25923100858263742 0.079351551944828513 0 0.24537668551697431 0.097277083683747018 0 0.25923100858263742 0.079351551944828513 0 0.25922747002471352 0.097974378356717087 0 0.27555977218924488 0.077439952611008278 0 0.28759873658278978 0.090030408643589632 0 0.27101928807639453 0.09427347599549088 0 0.25923100858263742 0.079351551944828513 0 0.27555977218924488 0.077439952611008278 0 0.27101928807639453 0.09427347599549088 0 0.25923100858263742 0.079351551944828513 0 0.27101928807639453 0.09427347599549088 0 0.27233484580641432 0.1055441360695072 0 0.25923100858263742 0.079351551944828513 0 0.27233484580641432 0.1055441360695072 0 0.28127895804124392 0.05869653450612005 0 0.26429652163301431 0.061701359010517647 0 0.27555977218924488 0.077439952611008278 0 0.26429652163301431 0.061701359010517647 0 0.25923100858263742 0.079351551944828513 0 0.27555977218924488 0.077439952611008278 0 0.31072716300308328 0.059331554637136651 0 0.28127895804124392 0.05869653450612005 0 0.29303234378028109 0.075428628958087107 0 0.28127895804124392 0.05869653450612005 0 0.27555977218924488 0.077439952611008278 0 0.29303234378028109 0.075428628958087107 0 0.27555977218924488 0.077439952611008278 0 0.29303234378028109 0.075428628958087107 0 0.28759873658278978 0.090030408643589632 0 0.29303234378028109 0.075428628958087107 0 0.28759873658278978 0.090030408643589632 0 0.31153776068034922 0.089135316111794982 0 0.31072716300308328 0.059331554637136651 0 0.29303234378028109 0.075428628958087107 0 0.31153776068034922 0.089135316111794982 0 0.31072716300308328 0.059331554637136651 0 0.31153776068034922 0.089135316111794982 0 0.31234835835761571 0.11893907758645331 0 0.29168382321700531 0.1066062767909717 0 0.29960507646434792 0.12683409122409009 0 0.31234835835761571 0.11893907758645331 0 0.29168382321700531 0.1066062767909717 0 0.31153776068034922 0.089135316111794982 0 0.31234835835761571 0.11893907758645331 0 0.28759873658278978 0.090030408643589632 0 0.31153776068034922 0.089135316111794982 0 0.29168382321700531 0.1066062767909717 0 0.31153776068034922 0.089135316111794982 0 0.31234835835761571 0.11893907758645331 0 0.29168382321700531 0.1066062767909717 0 0.29168382321700531 0.1066062767909717 0 0.27101928807639453 0.09427347599549088 0 0.28759873658278978 0.090030408643589632 0 0.29168382321700531 0.1066062767909717 0 0.27101928807639453 0.09427347599549088 0 0.28726560712948962 0.11768030606968879 0 0.27233484580641432 0.1055441360695072 0 0.28543868303019121 0.131736720194186 0 0.29168382321700531 0.1066062767909717 0 0.28726560712948962 0.11768030606968879 0 0.29960507646434792 0.12683409122409009 0 0.29168382321700531 0.1066062767909717 0 0.28726560712948962 0.11768030606968879 0 0.27233484580641432 0.1055441360695072 0 0.2688255279836298 0.12262400996184721 0 0.27233484580641432 0.1055441360695072 0 0.28543868303019121 0.131736720194186 0 0.2688255279836298 0.12262400996184721 0 0.27233484580641432 0.1055441360695072 0 0.25996734019282808 0.1097247417287856 0 0.27233484580641432 0.1055441360695072 0 0.28543868303019121 0.131736720194186 0 0.29168382321700531 0.1066062767909717 0 0.27101928807639453 0.09427347599549088 0 0.27233484580641432 0.1055441360695072 0 0.25923100858263742 0.079351551944828513 0 0.27233484580641432 0.1055441360695072 0 0.25922747002471352 0.097974378356717087 0 0.27233484580641432 0.1055441360695072 0 0.25922747002471352 0.097974378356717087 0 0.25996734019282808 0.1097247417287856 0 0.24537668551697431 0.097277083683747018 0 0.25922747002471352 0.097974378356717087 0 0.25996734019282808 0.1097247417287856 0 0.24537668551697431 0.097277083683747018 0 0.25996734019282808 0.1097247417287856 0 0.25370366287882878 0.1241816415692342 0 0.2688255279836298 0.12262400996184721 0 0.25996734019282808 0.1097247417287856 0 0.25370366287882878 0.1241816415692342 0 0.25370366287882878 0.1241816415692342 0 0.26203064024068312 0.15108619945472171 0 0.2688255279836298 0.12262400996184721 0 0.25370366287882878 0.1241816415692342 0 0.27163016425534958 0.13738497633274069 0 0.25370366287882878 0.1241816415692342 0 0.27163016425534958 0.13738497633274069 0 0.26203064024068312 0.15108619945472171 0 0.2688255279836298 0.12262400996184721 0 0.27163016425534958 0.13738497633274069 0 0.28543868303019121 0.131736720194186 0 0.27163016425534958 0.13738497633274069 0 0.28543868303019121 0.131736720194186 0 0.2826446853024604 0.14124270427211749 0 0.27163016425534958 0.13738497633274069 0 0.27808704382392468 0.15255782491348299 0 0.26203064024068312 0.15108619945472171 0 0.27808704382392468 0.15255782491348299 0 0.26203064024068312 0.15108619945472171 0 0.26470071343822532 0.15971323610680241 0 0.27808704382392468 0.15255782491348299 0 0.26203064024068312 0.15108619945472171 0 0.27163016425534958 0.13738497633274069 0 0.27808704382392468 0.15255782491348299 0 0.2826446853024604 0.14124270427211749 0 0.27808704382392468 0.15255782491348299 0 0.26470071343822532 0.15971323610680241 0 0.24802047718606329 0.14980211908606039 0 0.25370366287882878 0.1241816415692342 0 0.26203064024068312 0.15108619945472171 0 0.26203064024068312 0.15108619945472171 0 0.26470071343822532 0.15971323610680241 0 0.26203064024068312 0.15108619945472171 0 0.25841385897244001 0.15585338151222791 0 0.26470071343822532 0.15971323610680241 0 0.24802047718606329 0.14980211908606039 0 0.25841385897244001 0.15585338151222791 0 0.25890360502478721 0.16281197140132819 0 0.24802047718606329 0.14980211908606039 0 0.26203064024068312 0.15108619945472171 0 0.24802047718606329 0.14980211908606039 0 0.26203064024068312 0.15108619945472171 0 0.25841385897244001 0.15585338151222791 0 0.26470071343822532 0.15971323610680241 0 0.25890360502478721 0.16281197140132819 0 0.26962736994955661 0.17563131892736969 0 0.24394273923527451 0.1708090208874482 0 0.25890360502478721 0.16281197140132819 0 0.25069145747160237 0.17986975870422739 0 0.24394273923527451 0.1708090208874482 0 0.24802047718606329 0.14980211908606039 0 0.25890360502478721 0.16281197140132819 0 0.24802047718606329 0.14980211908606039 0 0.25890360502478721 0.16281197140132819 0 0.24394273923527451 0.1708090208874482 0 0.25890360502478721 0.16281197140132819 0 0.25890360502478721 0.16281197140132819 0 0.26962736994955661 0.17563131892736969 0 0.26470071343822532 0.15971323610680241 0 0.25890360502478721 0.16281197140132819 0 0.25841385897244001 0.15585338151222791 0 0.26470071343822532 0.15971323610680241 0 0.25890360502478721 0.16281197140132819 0 0.25890360502478721 0.16281197140132819 0 0.25069145747160237 0.17986975870422739 0 0.2622875918713119 0.17871532590777511 0 0.25890360502478721 0.16281197140132819 0 0.2622875918713119 0.17871532590777511 0 0.26962736994955661 0.17563131892736969 0 0.24443808169503289 0.19165573435540739 0 0.25069145747160237 0.17986975870422739 0 0.25672659357731442 0.18931439154619459 0 0.25069145747160237 0.17986975870422739 0 0.2622875918713119 0.17871532590777511 0 0.25672659357731442 0.18931439154619459 0 0.2622875918713119 0.17871532590777511 0 0.2666871346110174 0.18721551203983949 0 0.25672659357731442 0.18931439154619459 0 0.2666871346110174 0.18721551203983949 0 0.2707313294469027 0.17919822452935469 0 0.28262567674856709 0.19158292471432059 0 0.2707313294469027 0.17919822452935469 0 0.26962736994955661 0.17563131892736969 0 0.28262567674856709 0.19158292471432059 0 0.26962736994955661 0.17563131892736969 0 0.28262567674856709 0.19158292471432059 0 0.26962736994955661 0.17563131892736969 0 0.28063414626850292 0.17836588696170111 0 0.28262567674856709 0.19158292471432059 0 0.2622875918713119 0.17871532590777511 0 0.2666871346110174 0.18721551203983949 0 0.2707313294469027 0.17919822452935469 0 0.2622875918713119 0.17871532590777511 0 0.2707313294469027 0.17919822452935469 0 0.26962736994955661 0.17563131892736969 0 0.2707313294469027 0.17919822452935469 0 0.26962736994955661 0.17563131892736969 0 0.26962736994955661 0.17563131892736969 0 0.28063414626850292 0.17836588696170111 0 0.27791551735799302 0.17228039079135241 0 0.26470071343822532 0.15971323610680241 0 0.26962736994955661 0.17563131892736969 0 0.26470071343822532 0.15971323610680241 0 0.26962736994955661 0.17563131892736969 0 0.27525802885731437 0.16516718346708009 0 0.27808704382392468 0.15255782491348299 0 0.26470071343822532 0.15971323610680241 0 0.27525802885731437 0.16516718346708009 0 0.26962736994955661 0.17563131892736969 0 0.27791551735799302 0.17228039079135241 0 0.27525802885731437 0.16516718346708009 0 0.27791551735799302 0.17228039079135241 0 0.27525802885731437 0.16516718346708009 0 0.28614252435659893 0.16995717380925851 0 0.27808704382392468 0.15255782491348299 0 0.27525802885731437 0.16516718346708009 0 0.28831271101088052 0.16150411312056051 0 0.27525802885731437 0.16516718346708009 0 0.28831271101088052 0.16150411312056051 0 0.28614252435659893 0.16995717380925851 0 0.28831271101088052 0.16150411312056051 0 0.28614252435659893 0.16995717380925851 0 0.2949765541501792 0.16654736560739511 0 0.28614252435659893 0.16995717380925851 0 0.2949765541501792 0.16654736560739511 0 0.2966990425067918 0.17398076245598329 0 0.28831271101088052 0.16150411312056051 0 0.2949765541501792 0.16654736560739511 0 0.29843684607612081 0.16152557188150271 0 0.28831271101088052 0.16150411312056051 0 0.29843684607612081 0.16152557188150271 0 0.2957188317017474 0.15417383984422159 0 0.28063414626850292 0.17836588696170111 0 0.28878787233227138 0.1800597202735717 0 0.28262567674856709 0.19158292471432059 0 0.28063414626850292 0.17836588696170111 0 0.28614252435659893 0.16995717380925851 0 0.28878787233227138 0.1800597202735717 0 0.28063414626850292 0.17836588696170111 0 0.27791551735799302 0.17228039079135241 0 0.28614252435659893 0.16995717380925851 0 0.28614252435659893 0.16995717380925851 0 0.28878787233227138 0.1800597202735717 0 0.2966990425067918 0.17398076245598329 0 0.28878787233227138 0.1800597202735717 0 0.2966990425067918 0.17398076245598329 0 0.29802567422580972 0.18704947290502161 0 0.28878787233227138 0.1800597202735717 0 0.29802567422580972 0.18704947290502161 0 0.28262567674856709 0.19158292471432059 0 0.29802567422580972 0.18704947290502161 0 0.32181551132831843 0.18004621980614391 0 0.2966990425067918 0.17398076245598329 0 0.29802567422580972 0.18704947290502161 0 0.31104746434799968 0.1673946430062502 0 0.29802567422580972 0.18704947290502161 0 0.31104746434799968 0.1673946430062502 0 0.29802567422580972 0.18704947290502161 0 0.31104746434799968 0.1673946430062502 0 0.32181551132831843 0.18004621980614391 0 0.30601579003330748 0.16116038764967211 0 0.2957188317017474 0.15417383984422159 0 0.31335061957957011 0.15578985477495891 0 0.29843684607612081 0.16152557188150271 0 0.30601579003330748 0.16116038764967211 0 0.2957188317017474 0.15417383984422159 0 0.29843684607612081 0.16152557188150271 0 0.3040416986791476 0.16682267597464789 0 0.30601579003330748 0.16116038764967211 0 0.2949765541501792 0.16654736560739511 0 0.2966990425067918 0.17398076245598329 0 0.3040416986791476 0.16682267597464789 0 0.2966990425067918 0.17398076245598329 0 0.3040416986791476 0.16682267597464789 0 0.31104746434799968 0.1673946430062502 0 0.2949765541501792 0.16654736560739511 0 0.29843684607612081 0.16152557188150271 0 0.3040416986791476 0.16682267597464789 0 0.3040416986791476 0.16682267597464789 0 0.31104746434799968 0.1673946430062502 0 0.30601579003330748 0.16116038764967211 0 0.3040416986791476 0.16682267597464789 0 0.31104746434799968 0.1673946430062502 0 0.31104746434799968 0.1673946430062502 0 0.30601579003330748 0.16116038764967211 0 0.31349927981525749 0.1612557404164488 0 0.30601579003330748 0.16116038764967211 0 0.31335061957957011 0.15578985477495891 0 0.31349927981525749 0.1612557404164488 0 0.30483300733717872 0.1478702823059759 0 0.29542285010037611 0.14329129564805981 0 0.31275865637682793 0.1340247663826373 0 0.30483300733717872 0.1478702823059759 0 0.31275865637682793 0.1340247663826373 0 0.31335061957957011 0.15578985477495891 0 0.30483300733717872 0.1478702823059759 0 0.2957188317017474 0.15417383984422159 0 0.31335061957957011 0.15578985477495891 0 0.2957188317017474 0.15417383984422159 0 0.31335061957957011 0.15578985477495891 0 0.30483300733717872 0.1478702823059759 0 0.2957188317017474 0.15417383984422159 0 0.29542285010037611 0.14329129564805981 0 0.29960507646434792 0.12683409122409009 0 0.29542285010037611 0.14329129564805981 0 0.31275865637682793 0.1340247663826373 0 0.29542285010037611 0.14329129564805981 0 0.31275865637682793 0.1340247663826373 0 0.31234835835761571 0.11893907758645331 0 0.29960507646434792 0.12683409122409009 0 0.31275865637682793 0.1340247663826373 0 0.29960507646434792 0.12683409122409009 0 0.28543868303019121 0.131736720194186 0 0.29542285010037611 0.14329129564805981 0 0.28726560712948962 0.11768030606968879 0 0.29960507646434792 0.12683409122409009 0 0.28543868303019121 0.131736720194186 0 0.28543868303019121 0.131736720194186 0 0.2826446853024604 0.14124270427211749 0 0.29542285010037611 0.14329129564805981 0 0.27808704382392468 0.15255782491348299 0 0.2826446853024604 0.14124270427211749 0 0.29542285010037611 0.14329129564805981 0 0.27808704382392468 0.15255782491348299 0 0.2957188317017474 0.15417383984422159 0 0.29542285010037611 0.14329129564805981 0 0.27808704382392468 0.15255782491348299 0 0.2957188317017474 0.15417383984422159 0 0.27808704382392468 0.15255782491348299 0 0.29542285010037611 0.14329129564805981 0 0.27808704382392468 0.15255782491348299 0 0.28831271101088052 0.16150411312056051 0 0.2957188317017474 0.15417383984422159 0 0.27685630599777589 0.2478154210616699 0 0.27299157826480569 0.23766007785357521 0 0.26048617882559622 0.24371083740660091 0 0.26048617882559622 0.24371083740660091 0 0.27110411734464762 0.2276843331004246 0 0.27299157826480569 0.23766007785357521 0 0.26048617882559622 0.24371083740660091 0 0.27110411734464762 0.2276843331004246 0 0.27691591880596222 0.25729022711116639 0 0.27685630599777589 0.2478154210616699 0 0.26048617882559622 0.24371083740660091 0 0.27685630599777589 0.2478154210616699 0 0.27901295757983852 0.24225897862297641 0 0.27299157826480569 0.23766007785357521 0 0.27685630599777589 0.2478154210616699 0 0.27901295757983852 0.24225897862297641 0 0.28234947844706793 0.24570967974740021 0 0.27901295757983852 0.24225897862297641 0 0.27719652076970691 0.235876877536806 0 0.2822644445936543 0.2387958425564555 0 0.27719652076970691 0.235876877536806 0 0.28215825558210461 0.2340236887935741 0 0.2822644445936543 0.2387958425564555 0 0.27901295757983852 0.24225897862297641 0 0.27719652076970691 0.235876877536806 0 0.27299157826480569 0.23766007785357521 0 0.24791323415382371 0.2458877298954085 0 0.25153222320099622 0.25722575917013901 0 0.26048617882559622 0.24371083740660091 0 0.2477315277427897 0.2356386040277525 0 0.24791323415382371 0.2458877298954085 0 0.26048617882559622 0.24371083740660091 0 0.24965972363503919 0.22122943443424911 0 0.26048617882559622 0.24371083740660091 0 0.27110411734464762 0.2276843331004246 0 0.2447696612887639 0.21650126134236319 0 0.24965972363503919 0.22122943443424911 0 0.27110411734464762 0.2276843331004246 0 0.24965972363503919 0.22122943443424911 0 0.26048617882559622 0.24371083740660091 0 0.2447696612887639 0.21650126134236319 0 0.27110411734464762 0.2276843331004246 0 0.2447696612887639 0.21650126134236319 0 0.27110411734464762 0.2276843331004246 0 0.2677963164460333 0.2150467959949465 0 0.24965972363503919 0.22122943443424911 0 0.2477315277427897 0.2356386040277525 0 0.26048617882559622 0.24371083740660091 0 0.27110411734464762 0.2276843331004246 0 0.28456489578522731 0.2073669030027222 0 0.2860351544522664 0.22291189892421159 0 0.27299157826480569 0.23766007785357521 0 0.27110411734464762 0.2276843331004246 0 0.27329338907126849 0.2286140193929726 0 0.27110411734464762 0.2276843331004246 0 0.27329338907126849 0.2286140193929726 0 0.27329338907126849 0.2286140193929726 0 0.27769713930278977 0.2310580429220736 0 0.28096010293809309 0.2280773344569369 0 0.27719652076970691 0.235876877536806 0 0.27299157826480569 0.23766007785357521 0 0.27329338907126849 0.2286140193929726 0 0.27110411734464762 0.2276843331004246 0 0.27329338907126849 0.2286140193929726 0 0.28096010293809309 0.2280773344569369 0 0.27719652076970691 0.235876877536806 0 0.27329338907126849 0.2286140193929726 0 0.27769713930278977 0.2310580429220736 0 0.27719652076970691 0.235876877536806 0 0.27769713930278977 0.2310580429220736 0 0.28215825558210461 0.2340236887935741 0 0.27769713930278977 0.2310580429220736 0 0.28096010293809309 0.2280773344569369 0 0.28215825558210461 0.2340236887935741 0 0.27110411734464762 0.2276843331004246 0 0.28096010293809309 0.2280773344569369 0 0.2860351544522664 0.22291189892421159 0 0.27110411734464762 0.2276843331004246 0 0.2677963164460333 0.2150467959949465 0 0.28456489578522731 0.2073669030027222 0 0.27110411734464762 0.2276843331004246 0 0.28456489578522731 0.2073669030027222 0 0.272670307474219 0.206747045740371 0 0.2677963164460333 0.2150467959949465 0 0.28456489578522731 0.2073669030027222 0 0.272670307474219 0.206747045740371 0 0.2677963164460333 0.2150467959949465 0 0.26045320274891359 0.2075872277184421 0 0.2447696612887639 0.21650126134236319 0 0.2677963164460333 0.2150467959949465 0 0.26045320274891359 0.2075872277184421 0 0.2445919001722652 0.2027793092260104 0 0.26045320274891359 0.2075872277184421 0 0.27130878719903789 0.19491439106551739 0 0.2445919001722652 0.2027793092260104 0 0.27130878719903789 0.19491439106551739 0 0.2445919001722652 0.2027793092260104 0 0.25672659357731442 0.18931439154619459 0 0.27130878719903789 0.19491439106551739 0 0.2666871346110174 0.18721551203983949 0 0.25672659357731442 0.18931439154619459 0 0.27130878719903789 0.19491439106551739 0 0.2666871346110174 0.18721551203983949 0 0.27130878719903789 0.19491439106551739 0 0.28262567674856709 0.19158292471432059 0 0.27130878719903789 0.19491439106551739 0 0.28262567674856709 0.19158292471432059 0 0.28456489578522731 0.2073669030027222 0 0.272670307474219 0.206747045740371 0 0.26045320274891359 0.2075872277184421 0 0.27130878719903789 0.19491439106551739 0 0.272670307474219 0.206747045740371 0 0.27130878719903789 0.19491439106551739 0 0.28456489578522731 0.2073669030027222 0 0.27130878719903789 0.19491439106551739 0 0.28262567674856709 0.19158292471432059 0 0.29802567422580972 0.18704947290502161 0 0.30459187314032082 0.20471057237354329 0 0.28456489578522731 0.2073669030027222 0 0.29802567422580972 0.18704947290502161 0 0.28456489578522731 0.2073669030027222 0 0.29802567422580972 0.18704947290502161 0 0.28262567674856709 0.19158292471432059 0 0.28456489578522731 0.2073669030027222 0 0.29802567422580972 0.18704947290502161 0 0.28262567674856709 0.19158292471432059 0 0.29802567422580972 0.18704947290502161 0 0.30459187314032082 0.20471057237354329 0 0.31598770299826118 0.19548598602398221 0 0.29802567422580972 0.18704947290502161 0 0.31598770299826118 0.19548598602398221 0 0.32181551132831843 0.18004621980614391 0 0.30459187314032082 0.20471057237354329 0 0.3112657248503683 0.22109255247881221 0 0.32160390274705047 0.2085142031879387 0 0.30459187314032082 0.20471057237354329 0 0.29694173849475131 0.21805006650638351 0 0.3112657248503683 0.22109255247881221 0 0.30459187314032082 0.20471057237354329 0 0.29694173849475131 0.21805006650638351 0 0.28456489578522731 0.2073669030027222 0 0.29694173849475131 0.21805006650638351 0 0.28456489578522731 0.2073669030027222 0 0.2860351544522664 0.22291189892421159 0 0.28096010293809309 0.2280773344569369 0 0.2860351544522664 0.22291189892421159 0 0.28751134043047888 0.23164143954930111 0 0.2860351544522664 0.22291189892421159 0 0.28751134043047888 0.23164143954930111 0 0.29310118177853489 0.2272447710257052 0 0.28096010293809309 0.2280773344569369 0 0.28215825558210461 0.2340236887935741 0 0.28751134043047888 0.23164143954930111 0 0.28215825558210461 0.2340236887935741 0 0.28751134043047888 0.23164143954930111 0 0.28579805486088677 0.2374330691078928 0 0.29310118177853489 0.2272447710257052 0 0.30108985200492661 0.22865112575325311 0 0.2939278235102516 0.23496932439537649 0 0.28751134043047888 0.23164143954930111 0 0.29310118177853489 0.2272447710257052 0 0.2939278235102516 0.23496932439537649 0 0.29694173849475131 0.21805006650638351 0 0.2860351544522664 0.22291189892421159 0 0.29310118177853489 0.2272447710257052 0 0.29694173849475131 0.21805006650638351 0 0.3112657248503683 0.22109255247881221 0 0.30108985200492661 0.22865112575325311 0 0.29694173849475131 0.21805006650638351 0 0.29310118177853489 0.2272447710257052 0 0.30108985200492661 0.22865112575325311 0 0.3112657248503683 0.22109255247881221 0 0.30108985200492661 0.22865112575325311 0 0.30814982578715833 0.23504095730125821 0 0.30108985200492661 0.22865112575325311 0 0.30079101833485439 0.23667575875814051 0 0.30814982578715833 0.23504095730125821 0 0.30108985200492661 0.22865112575325311 0 0.30079101833485439 0.23667575875814051 0 0.2939278235102516 0.23496932439537649 0 0.31246354634074469 0.25301562706991498 0 0.28965918427723281 0.24218391352450211 0 0.30079101833485439 0.23667575875814051 0 0.29637482176907359 0.2407438087058773 0 0.2939278235102516 0.23496932439537649 0 0.31246354634074469 0.25301562706991498 0 0.30301881801219099 0.2434786808704178 0 0.28965918427723281 0.24218391352450211 0 0.30079101833485439 0.23667575875814051 0 0.30814982578715833 0.23504095730125821 0 0.30301881801219099 0.2434786808704178 0 0.30079101833485439 0.23667575875814051 0 0.30301881801219099 0.2434786808704178 0 0.29637482176907359 0.2407438087058773 0 0.30814982578715833 0.23504095730125821 0 0.30301881801219099 0.2434786808704178 0 0.31261059057147461 0.2434248305083811 0 0.31246354634074469 0.25301562706991498 0 0.30301881801219099 0.2434786808704178 0 0.31261059057147461 0.2434248305083811 0 0.29345893722613059 0.25129825022350127 0 0.29035996411889098 0.24599513786664159 0 0.28965918427723281 0.24218391352450211 0 0.29345893722613059 0.25129825022350127 0 0.29035996411889098 0.24599513786664159 0 0.28892582916583598 0.2492018439528669 0 0.29035996411889098 0.24599513786664159 0 0.28965918427723281 0.24218391352450211 0 0.28783672664197268 0.24359463822150959 0 0.30301881801219099 0.2434786808704178 0 0.29637482176907359 0.2407438087058773 0 0.28965918427723281 0.24218391352450211 0 0.29637482176907359 0.2407438087058773 0 0.2939278235102516 0.23496932439537649 0 0.29248016532158921 0.23880015382188749 0 0.2939278235102516 0.23496932439537649 0 0.28995883172979869 0.23730356866179431 0 0.29248016532158921 0.23880015382188749 0 0.28751134043047888 0.23164143954930111 0 0.2939278235102516 0.23496932439537649 0 0.28995883172979869 0.23730356866179431 0 0.29637482176907359 0.2407438087058773 0 0.29248016532158921 0.23880015382188749 0 0.28965918427723281 0.24218391352450211 0 0.28995883172979869 0.23730356866179431 0 0.29248016532158921 0.23880015382188749 0 0.28965918427723281 0.24218391352450211 0 0.28995883172979869 0.23730356866179431 0 0.28965918427723281 0.24218391352450211 0 0.28579805486088677 0.2374330691078928 0 0.28965918427723281 0.24218391352450211 0 0.28777867495787518 0.24129070115530599 0 0.28579805486088677 0.2374330691078928 0 0.28965918427723281 0.24218391352450211 0 0.28777867495787518 0.24129070115530599 0 0.28965918427723281 0.24218391352450211 0 0.28579805486088677 0.2374330691078928 0 0.28777867495787518 0.24129070115530599 0 0.28579805486088677 0.2374330691078928 0 0.28505636658832489 0.24015885991938871 0 0.28777867495787518 0.24129070115530599 0 0.28505636658832489 0.24015885991938871 0 0.28397084752209928 0.24268433257024799 0 0.28751134043047888 0.23164143954930111 0 0.28995883172979869 0.23730356866179431 0 0.28579805486088677 0.2374330691078928 0 0.28215825558210461 0.2340236887935741 0 0.28579805486088677 0.2374330691078928 0 0.2822644445936543 0.2387958425564555 0 0.27901295757983852 0.24225897862297641 0 0.2822644445936543 0.2387958425564555 0 0.28397084752209928 0.24268433257024799 0 0.28505636658832489 0.24015885991938871 0 0.2822644445936543 0.2387958425564555 0 0.28397084752209928 0.24268433257024799 0 0.28579805486088677 0.2374330691078928 0 0.28505636658832489 0.24015885991938871 0 0.2822644445936543 0.2387958425564555 0 0.27901295757983852 0.24225897862297641 0 0.28234947844706793 0.24570967974740021 0 0.28397084752209928 0.24268433257024799 0 0.27685630599777589 0.2478154210616699 0 0.28234947844706793 0.24570967974740021 0 0.28494106210013392 0.2498489505319901 0 0.28234947844706793 0.24570967974740021 0 0.28397084752209928 0.24268433257024799 0 0.2869662190354918 0.2459407159501166 0 0.28234947844706793 0.24570967974740021 0 0.28494106210013392 0.2498489505319901 0 0.2869662190354918 0.2459407159501166 0 0.28494106210013392 0.2498489505319901 0 0.28892582916583598 0.2492018439528669 0 0.2869662190354918 0.2459407159501166 0 0.29035996411889098 0.24599513786664159 0 0.28892582916583598 0.2492018439528669 0 0.2869662190354918 0.2459407159501166 0 0.29035996411889098 0.24599513786664159 0 0.28783672664197268 0.24359463822150959 0 0.2869662190354918 0.2459407159501166 0 0.28965918427723281 0.24218391352450211 0 0.28777867495787518 0.24129070115530599 0 0.28783672664197268 0.24359463822150959 0 0.28397084752209928 0.24268433257024799 0 0.28783672664197268 0.24359463822150959 0 0.2869662190354918 0.2459407159501166 0 0.28777867495787518 0.24129070115530599 0 0.28397084752209928 0.24268433257024799 0 0.28783672664197268 0.24359463822150959 0 0.3379127634661398 0.24049180221066491 0 0.32643540241908581 0.2493154440826276 0 0.31942597565379999 0.2366753470562844 0 0.31246354634074469 0.25301562706991498 0 0.32643540241908581 0.2493154440826276 0 0.31261059057147461 0.2434248305083811 0 0.32643540241908581 0.2493154440826276 0 0.31261059057147461 0.2434248305083811 0 0.31942597565379999 0.2366753470562844 0 0.30814982578715833 0.23504095730125821 0 0.31261059057147461 0.2434248305083811 0 0.31942597565379999 0.2366753470562844 0 0.3379127634661398 0.24049180221066491 0 0.31942597565379999 0.2366753470562844 0 0.32600368008419539 0.22461502934577851 0 0.3112657248503683 0.22109255247881221 0 0.30814982578715833 0.23504095730125821 0 0.31942597565379999 0.2366753470562844 0 0.3112657248503683 0.22109255247881221 0 0.31942597565379999 0.2366753470562844 0 0.32600368008419539 0.22461502934577851 0 0.3379127634661398 0.24049180221066491 0 0.32600368008419539 0.22461502934577851 0 0.3398100337036184 0.2163012417951922 0 0.3398100337036184 0.2163012417951922 0 0.32160390274705047 0.2085142031879387 0 0.33063695298837592 0.19682719513420929 0 0.32600368008419539 0.22461502934577851 0 0.3398100337036184 0.2163012417951922 0 0.32160390274705047 0.2085142031879387 0 0.3112657248503683 0.22109255247881221 0 0.32600368008419539 0.22461502934577851 0 0.32160390274705047 0.2085142031879387 0 0.30459187314032082 0.20471057237354329 0 0.32160390274705047 0.2085142031879387 0 0.31598770299826118 0.19548598602398221 0 0.32160390274705047 0.2085142031879387 0 0.31598770299826118 0.19548598602398221 0 0.33063695298837592 0.19682719513420929 0 0.31598770299826118 0.19548598602398221 0 0.33063695298837592 0.19682719513420929 0 0.32181551132831843 0.18004621980614391 0 0.3398100337036184 0.2163012417951922 0 0.33063695298837592 0.19682719513420929 0 0.34652165966209031 0.1951830619424908 0 0.33063695298837592 0.19682719513420929 0 0.34652165966209031 0.1951830619424908 0 0.33808290749091702 0.1854324580495085 0 0.34652165966209031 0.1951830619424908 0 0.33808290749091702 0.1854324580495085 0 0.34805963641287802 0.18313381139210541 0 0.34652165966209031 0.1951830619424908 0 0.35834447101042982 0.1885307986193322 0 0.34805963641287802 0.18313381139210541 0 0.34652165966209031 0.1951830619424908 0 0.35697604229412883 0.20282503597125329 0 0.35834447101042982 0.1885307986193322 0 0.35834447101042982 0.1885307986193322 0 0.36867711819290189 0.19558193609178909 0 0.37211726383392318 0.18243968588977941 0 0.36867711819290189 0.19558193609178909 0 0.37211726383392318 0.18243968588977941 0 0.37959621891343998 0.18888004806970329 0 0.35697604229412883 0.20282503597125329 0 0.35834447101042982 0.1885307986193322 0 0.36867711819290189 0.19558193609178909 0 0.35697604229412883 0.20282503597125329 0 0.36867711819290189 0.19558193609178909 0 0.36464593244806109 0.2145418940701225 0 0.36867711819290189 0.19558193609178909 0 0.36464593244806109 0.2145418940701225 0 0.38262777372413942 0.20056577775977211 0 0.3398100337036184 0.2163012417951922 0 0.35697604229412883 0.20282503597125329 0 0.36464593244806109 0.2145418940701225 0 0.3398100337036184 0.2163012417951922 0 0.34652165966209031 0.1951830619424908 0 0.35697604229412883 0.20282503597125329 0 0.3379127634661398 0.24049180221066491 0 0.3398100337036184 0.2163012417951922 0 0.35784805351199239 0.2326945607342826 0 0.3398100337036184 0.2163012417951922 0 0.36464593244806109 0.2145418940701225 0 0.35784805351199239 0.2326945607342826 0 0.3398100337036184 0.2163012417951922 0 0.35784805351199239 0.2326945607342826 0 0.36464593244806109 0.2145418940701225 0 0.35784805351199239 0.2326945607342826 0 0.37504625414522869 0.2303727958758012 0 0.35784805351199239 0.2326945607342826 0 0.37588607332036628 0.2490878796733729 0 0.35784805351199239 0.2326945607342826 0 0.37588607332036628 0.2490878796733729 0 0.37504625414522869 0.2303727958758012 0 0.35634129443021012 0.25447852924978431 0 0.35784805351199239 0.2326945607342826 0 0.37588607332036628 0.2490878796733729 0 0.35634129443021012 0.25447852924978431 0 0.3379127634661398 0.24049180221066491 0 0.35784805351199239 0.2326945607342826 0 0.33844782525489081 0.14552375979656301 0 0.33442235067943221 0.13211305649348251 0 0.31842762243075678 0.15625517981560311 0 0.33844782525489081 0.14552375979656301 0 0.31842762243075678 0.15625517981560311 0 0.3463391887874393 0.1588133723418115 0 0.343988490580944 0.1176741160108202 0 0.33926610740018709 0.13500385884312699 0 0.33442235067943221 0.13211305649348251 0 0.33844782525489081 0.14552375979656301 0 0.33926610740018709 0.13500385884312699 0 0.33442235067943221 0.13211305649348251 0 0.33926610740018709 0.13500385884312699 0 0.33442235067943221 0.13211305649348251 0 0.31234835835761571 0.11893907758645331 0 0.33442235067943221 0.13211305649348251 0 0.31795714297393313 0.13124601312364301 0 0.33442235067943221 0.13211305649348251 0 0.31795714297393313 0.13124601312364301 0 0.31842762243075678 0.15625517981560311 0 0.31795714297393313 0.13124601312364301 0 0.31275865637682793 0.1340247663826373 0 0.31842762243075678 0.15625517981560311 0 0.31234835835761571 0.11893907758645331 0 0.33442235067943221 0.13211305649348251 0 0.31234835835761571 0.11893907758645331 0 0.31795714297393313 0.13124601312364301 0 0.31275865637682793 0.1340247663826373 0 0.31234835835761571 0.11893907758645331 0 0.31275865637682793 0.1340247663826373 0 0.31795714297393313 0.13124601312364301 0 0.31275865637682793 0.1340247663826373 0 0.31275865637682793 0.1340247663826373 0 0.31335061957957011 0.15578985477495891 0 0.31275865637682793 0.1340247663826373 0 0.31335061957957011 0.15578985477495891 0 0.31842762243075678 0.15625517981560311 0 0.33442235067943221 0.13211305649348251 0 0.31842762243075678 0.15625517981560311 0 0.31335061957957011 0.15578985477495891 0 0.31842762243075678 0.15625517981560311 0 0.31104746434799968 0.1673946430062502 0 0.31842762243075678 0.15625517981560311 0 0.33486110727476232 0.16933884429702981 0 0.31104746434799968 0.1673946430062502 0 0.31842762243075678 0.15625517981560311 0 0.31349927981525749 0.1612557404164488 0 0.31335061957957011 0.15578985477495891 0 0.31349927981525749 0.1612557404164488 0 0.31104746434799968 0.1673946430062502 0 0.33486110727476232 0.16933884429702981 0 0.31104746434799968 0.1673946430062502 0 0.31842762243075678 0.15625517981560311 0 0.31335061957957011 0.15578985477495891 0 0.31842762243075678 0.15625517981560311 0 0.31349927981525749 0.1612557404164488 0 0.31104746434799968 0.1673946430062502 0 0.32181551132831843 0.18004621980614391 0 0.33486110727476232 0.16933884429702981 0 0.32181551132831843 0.18004621980614391 0 0.33808290749091702 0.1854324580495085 0 0.34560534843082608 0.17304296670726349 0 0.33063695298837592 0.19682719513420929 0 0.32181551132831843 0.18004621980614391 0 0.33808290749091702 0.1854324580495085 0 0.32181551132831843 0.18004621980614391 0 0.33486110727476232 0.16933884429702981 0 0.34560534843082608 0.17304296670726349 0 0.32181551132831843 0.18004621980614391 0 0.34560534843082608 0.17304296670726349 0 0.31842762243075678 0.15625517981560311 0 0.33486110727476232 0.16933884429702981 0 0.3463391887874393 0.1588133723418115 0 0.31842762243075678 0.15625517981560311 0 0.3463391887874393 0.1588133723418115 0 0.33486110727476232 0.16933884429702981 0 0.35867475020152417 0.1712830455878149 0 0.33486110727476232 0.16933884429702981 0 0.3463391887874393 0.1588133723418115 0 0.35867475020152417 0.1712830455878149 0 0.33486110727476232 0.16933884429702981 0 0.35867475020152417 0.1712830455878149 0 0.34560534843082608 0.17304296670726349 0 0.35834447101042982 0.1885307986193322 0 0.35867475020152417 0.1712830455878149 0 0.34805963641287802 0.18313381139210541 0 0.33808290749091702 0.1854324580495085 0 0.34805963641287802 0.18313381139210541 0 0.34560534843082608 0.17304296670726349 0 0.35867475020152417 0.1712830455878149 0 0.34805963641287802 0.18313381139210541 0 0.34560534843082608 0.17304296670726349 0 0.35834447101042982 0.1885307986193322 0 0.35867475020152417 0.1712830455878149 0 0.37211726383392318 0.18243968588977941 0 0.35867475020152417 0.1712830455878149 0 0.37211726383392318 0.18243968588977941 0 0.38248839312828642 0.17322724687860011 0 0.35867475020152417 0.1712830455878149 0 0.38248839312828642 0.17322724687860011 0 0.3463391887874393 0.1588133723418115 0 0.35867475020152417 0.1712830455878149 0 0.37425075514412182 0.1613715648680196 0 0.35867475020152417 0.1712830455878149 0 0.37425075514412182 0.1613715648680196 0 0.38248839312828642 0.17322724687860011 0 0.3463391887874393 0.1588133723418115 0 0.37425075514412182 0.1613715648680196 0 0.37425075514412182 0.1613715648680196 0 0.36753442956304122 0.14046640889011411 0 0.37911076050976511 0.15167221068913639 0 0.37425075514412182 0.1613715648680196 0 0.35378385697663972 0.14543333148879159 0 0.36753442956304122 0.14046640889011411 0 0.37425075514412182 0.1613715648680196 0 0.36753442956304122 0.14046640889011411 0 0.36753442956304122 0.14046640889011411 0 0.37911076050976511 0.15167221068913639 0 0.3463391887874393 0.1588133723418115 0 0.37425075514412182 0.1613715648680196 0 0.35378385697663972 0.14543333148879159 0 0.33844782525489081 0.14552375979656301 0 0.33926610740018709 0.13500385884312699 0 0.35378385697663972 0.14543333148879159 0 0.33844782525489081 0.14552375979656301 0 0.3463391887874393 0.1588133723418115 0 0.35378385697663972 0.14543333148879159 0 0.343988490580944 0.1176741160108202 0 0.33926610740018709 0.13500385884312699 0 0.3557614600719885 0.1290702624504714 0 0.35378385697663972 0.14543333148879159 0 0.3557614600719885 0.1290702624504714 0 0.36753442956304122 0.14046640889011411 0 0.33926610740018709 0.13500385884312699 0 0.35378385697663972 0.14543333148879159 0 0.3557614600719885 0.1290702624504714 0 0.36234477620530581 0.12431315491142481 0 0.38206466283770479 0.146561596848436 0 0.36234477620530581 0.12431315491142481 0 0.36753442956304122 0.14046640889011411 0 0.38206466283770479 0.146561596848436 0 0.36234477620530581 0.12431315491142481 0 0.3557614600719885 0.1290702624504714 0 0.36753442956304122 0.14046640889011411 0 0.36234477620530581 0.12431315491142481 0 0.36753442956304122 0.14046640889011411 0 0.3557614600719885 0.1290702624504714 0 0.36753442956304122 0.14046640889011411 0 0.36234477620530581 0.12431315491142481 0 0.38206466283770479 0.146561596848436 0 0.38784786648637848 0.12498960030151041 0 0.39580058914059452 0.1490980931887998 0 0.38206466283770479 0.146561596848436 0 0.38784786648637848 0.12498960030151041 0 0.39580058914059452 0.1490980931887998 0 0.38784786648637848 0.12498960030151041 0 0.39497711538788383 0.13620291539220281 0 0.38784786648637848 0.12498960030151041 0 0.40536034682354632 0.12481683740862159 0 0.39497711538788383 0.13620291539220281 0 0.40981053908925419 0.14123984962813549 0 0.40536034682354632 0.12481683740862159 0 0.39497711538788383 0.13620291539220281 0 0.39580058914059452 0.1490980931887998 0 0.38784786648637848 0.12498960030151041 0 0.39497711538788383 0.13620291539220281 0 0.40981053908925419 0.14123984962813549 0 0.39580058914059452 0.1490980931887998 0 0.38206466283770479 0.146561596848436 0 0.39687031602956763 0.16326568453002829 0 0.39580058914059452 0.1490980931887998 0 0.40981053908925419 0.14123984962813549 0 0.41018078742555969 0.15504633733473569 0 0.39497711538788383 0.13620291539220281 0 0.39580058914059452 0.1490980931887998 0 0.40981053908925419 0.14123984962813549 0 0.38206466283770479 0.146561596848436 0 0.37911076050976511 0.15167221068913639 0 0.39068709145648911 0.16287801248815861 0 0.38206466283770479 0.146561596848436 0 0.39687031602956763 0.16326568453002829 0 0.36753442956304122 0.14046640889011411 0 0.38206466283770479 0.146561596848436 0 0.37911076050976511 0.15167221068913639 0 0.37425075514412182 0.1613715648680196 0 0.37911076050976511 0.15167221068913639 0 0.39068709145648911 0.16287801248815861 0 0.38206466283770479 0.146561596848436 0 0.39687031602956763 0.16326568453002829 0 0.39068709145648911 0.16287801248815861 0 0.37425075514412182 0.1613715648680196 0 0.39068709145648911 0.16287801248815861 0 0.37425075514412182 0.1613715648680196 0 0.38248839312828642 0.17322724687860011 0 0.39068709145648911 0.16287801248815861 0 0.38248839312828642 0.17322724687860011 0 0.39068709145648911 0.16287801248815861 0 0.39173266295372422 0.1703821586821625 0 0.37911076050976511 0.15167221068913639 0 0.39068709145648911 0.16287801248815861 0 0.37211726383392318 0.18243968588977941 0 0.38456142671463689 0.18119341109058101 0 0.37959621891343998 0.18888004806970329 0 0.37211726383392318 0.18243968588977941 0 0.38248839312828642 0.17322724687860011 0 0.38456142671463689 0.18119341109058101 0 0.38248839312828642 0.17322724687860011 0 0.39015071041641458 0.1752968202883449 0 0.38456142671463689 0.18119341109058101 0 0.39015071041641458 0.1752968202883449 0 0.38456142671463689 0.18119341109058101 0 0.3936647719149563 0.17997510126181099 0 0.38248839312828642 0.17322724687860011 0 0.39015071041641458 0.1752968202883449 0 0.39173266295372422 0.1703821586821625 0 0.38935120208080087 0.18734156415524739 0 0.38456142671463689 0.18119341109058101 0 0.37959621891343998 0.18888004806970329 0 0.38935120208080087 0.18734156415524739 0 0.38456142671463689 0.18119341109058101 0 0.3936647719149563 0.17997510126181099 0 0.40402992335265742 0.18295193175906091 0 0.40178454947010472 0.1688100387854462 0 0.4113280318459675 0.18796372784287679 0 0.38935120208080087 0.18734156415524739 0 0.39769522389517081 0.18613352877741379 0 0.3936647719149563 0.17997510126181099 0 0.39769522389517081 0.18613352877741379 0 0.3936647719149563 0.17997510126181099 0 0.39874070762402308 0.17719757549675871 0 0.3936647719149563 0.17997510126181099 0 0.39444527572727123 0.17454960687581639 0 0.39874070762402308 0.17719757549675871 0 0.39015071041641458 0.1752968202883449 0 0.3936647719149563 0.17997510126181099 0 0.39444527572727123 0.17454960687581639 0 0.39015071041641458 0.1752968202883449 0 0.39444527572727123 0.17454960687581639 0 0.39173266295372422 0.1703821586821625 0 0.39444527572727123 0.17454960687581639 0 0.39874070762402308 0.17719757549675871 0 0.39793752572723801 0.16989637865000479 0 0.39874070762402308 0.17719757549675871 0 0.40402992335265742 0.18295193175906091 0 0.40178454947010472 0.1688100387854462 0 0.39874070762402308 0.17719757549675871 0 0.39793752572723801 0.16989637865000479 0 0.40178454947010472 0.1688100387854462 0 0.39769522389517081 0.18613352877741379 0 0.39874070762402308 0.17719757549675871 0 0.40402992335265742 0.18295193175906091 0 0.39580058914059452 0.1490980931887998 0 0.39687031602956763 0.16326568453002829 0 0.40178454947010472 0.1688100387854462 0 0.39580058914059452 0.1490980931887998 0 0.40178454947010472 0.1688100387854462 0 0.41018078742555969 0.15504633733473569 0 0.39687031602956763 0.16326568453002829 0 0.39068709145648911 0.16287801248815861 0 0.39068709145648911 0.16287801248815861 0 0.39793752572723801 0.16989637865000479 0 0.39068709145648911 0.16287801248815861 0 0.39173266295372422 0.1703821586821625 0 0.39793752572723801 0.16989637865000479 0 0.39444527572727123 0.17454960687581639 0 0.39173266295372422 0.1703821586821625 0 0.39793752572723801 0.16989637865000479 0 0.39687031602956763 0.16326568453002829 0 0.39068709145648911 0.16287801248815861 0 0.39793752572723801 0.16989637865000479 0 0.39687031602956763 0.16326568453002829 0 0.40178454947010472 0.1688100387854462 0 0.39687031602956763 0.16326568453002829 0 0.39793752572723801 0.16989637865000479 0 0.40178454947010472 0.1688100387854462 0 0.42156831075211598 0.1680848541833582 0 0.42464396279062439 0.14627678386406909 0 0.41018078742555969 0.15504633733473569 0 0.40178454947010472 0.1688100387854462 0 0.42156831075211598 0.1680848541833582 0 0.41018078742555969 0.15504633733473569 0 0.40178454947010472 0.1688100387854462 0 0.4113280318459675 0.18796372784287679 0 0.42150443610250471 0.1910584807224564 0 0.40178454947010472 0.1688100387854462 0 0.42150443610250471 0.1910584807224564 0 0.40178454947010472 0.1688100387854462 0 0.42156831075211598 0.1680848541833582 0 0.42150443610250471 0.1910584807224564 0 0.42156831075211598 0.1680848541833582 0 0.43118451961009657 0.17908750652768421 0 0.42150443610250471 0.1910584807224564 0 0.43118451961009657 0.17908750652768421 0 0.42150443610250471 0.1910584807224564 0 0.44066350929549042 0.1899546779532231 0 0.42156831075211598 0.1680848541833582 0 0.43118451961009657 0.17908750652768421 0 0.44223327263954998 0.1675638295240294 0 0.42156831075211598 0.1680848541833582 0 0.42464396279062439 0.14627678386406909 0 0.44223327263954998 0.1675638295240294 0 0.42464396279062439 0.14627678386406909 0 0.44223327263954998 0.1675638295240294 0 0.42464396279062439 0.14627678386406909 0 0.44100510488797162 0.1518324801367677 0 0.42464396279062439 0.14627678386406909 0 0.43171131441089522 0.13754306829591861 0 0.44100510488797162 0.1518324801367677 0 0.43731578770263868 0.15311191614552969 0 0.42464396279062439 0.14627678386406909 0 0.44100510488797162 0.1518324801367677 0 0.43731578770263868 0.15311191614552969 0 0.42464396279062439 0.14627678386406909 0 0.44223327263954998 0.1675638295240294 0 0.43171131441089522 0.13754306829591861 0 0.41885098875887777 0.13391820237067861 0 0.42338535559027479 0.1205090768914225 0 0.43171131441089522 0.13754306829591861 0 0.44201491538503751 0.1221884416046867 0 0.42338535559027479 0.1205090768914225 0 0.42464396279062439 0.14627678386406909 0 0.43171131441089522 0.13754306829591861 0 0.41885098875887777 0.13391820237067861 0 0.41885098875887777 0.13391820237067861 0 0.40981053908925419 0.14123984962813549 0 0.40536034682354632 0.12481683740862159 0 0.41885098875887777 0.13391820237067861 0 0.42338535559027479 0.1205090768914225 0 0.40536034682354632 0.12481683740862159 0 0.42464396279062439 0.14627678386406909 0 0.41885098875887777 0.13391820237067861 0 0.40981053908925419 0.14123984962813549 0 0.42464396279062439 0.14627678386406909 0 0.40981053908925419 0.14123984962813549 0 0.42464396279062439 0.14627678386406909 0 0.40981053908925419 0.14123984962813549 0 0.41018078742555969 0.15504633733473569 0 0.39103074677198191 0.2378645478919707 0 0.40699913865084292 0.2200073724427305 0 0.40933178642478668 0.24530746794650141 0 0.39392409312874033 0.26548119861246328 0 0.39103074677198191 0.2378645478919707 0 0.40933178642478668 0.24530746794650141 0 0.39103074677198191 0.2378645478919707 0 0.37588607332036628 0.2490878796733729 0 0.37504625414522869 0.2303727958758012 0 0.39103074677198191 0.2378645478919707 0 0.37504625414522869 0.2303727958758012 0 0.38582046467374198 0.21767509700925741 0 0.36464593244806109 0.2145418940701225 0 0.37504625414522869 0.2303727958758012 0 0.38582046467374198 0.21767509700925741 0 0.39103074677198191 0.2378645478919707 0 0.38582046467374198 0.21767509700925741 0 0.40699913865084292 0.2200073724427305 0 0.39535308900850558 0.20493870697966851 0 0.38582046467374198 0.21767509700925741 0 0.40699913865084292 0.2200073724427305 0 0.39535308900850558 0.20493870697966851 0 0.40736650267529367 0.20534760411496161 0 0.40699913865084292 0.2200073724427305 0 0.36464593244806109 0.2145418940701225 0 0.38582046467374198 0.21767509700925741 0 0.38262777372413942 0.20056577775977211 0 0.39535308900850558 0.20493870697966851 0 0.38582046467374198 0.21767509700925741 0 0.38262777372413942 0.20056577775977211 0 0.36867711819290189 0.19558193609178909 0 0.38262777372413942 0.20056577775977211 0 0.37959621891343998 0.18888004806970329 0 0.38935120208080087 0.18734156415524739 0 0.38262777372413942 0.20056577775977211 0 0.37959621891343998 0.18888004806970329 0 0.38935120208080087 0.18734156415524739 0 0.38262777372413942 0.20056577775977211 0 0.39495039075152383 0.19500119794261639 0 0.38935120208080087 0.18734156415524739 0 0.39769522389517081 0.18613352877741379 0 0.39495039075152383 0.19500119794261639 0 0.39535308900850558 0.20493870697966851 0 0.38262777372413942 0.20056577775977211 0 0.39495039075152383 0.19500119794261639 0 0.39535308900850558 0.20493870697966851 0 0.40543434764706382 0.19433380204898831 0 0.40736650267529367 0.20534760411496161 0 0.39535308900850558 0.20493870697966851 0 0.39495039075152383 0.19500119794261639 0 0.40543434764706382 0.19433380204898831 0 0.39769522389517081 0.18613352877741379 0 0.39495039075152383 0.19500119794261639 0 0.40543434764706382 0.19433380204898831 0 0.39769522389517081 0.18613352877741379 0 0.40402992335265742 0.18295193175906091 0 0.40543434764706382 0.19433380204898831 0 0.41405593538476537 0.1978098369375659 0 0.42150443610250471 0.1910584807224564 0 0.41932031768340311 0.20743549227764799 0 0.40543434764706382 0.19433380204898831 0 0.4113280318459675 0.18796372784287679 0 0.41405593538476537 0.1978098369375659 0 0.40402992335265742 0.18295193175906091 0 0.40543434764706382 0.19433380204898831 0 0.4113280318459675 0.18796372784287679 0 0.40543434764706382 0.19433380204898831 0 0.41405593538476537 0.1978098369375659 0 0.40736650267529367 0.20534760411496161 0 0.4113280318459675 0.18796372784287679 0 0.41405593538476537 0.1978098369375659 0 0.41800374937960327 0.1912601641577685 0 0.4113280318459675 0.18796372784287679 0 0.41800374937960327 0.1912601641577685 0 0.42150443610250471 0.1910584807224564 0 0.41405593538476537 0.1978098369375659 0 0.41800374937960327 0.1912601641577685 0 0.42150443610250471 0.1910584807224564 0 0.41800374937960327 0.1912601641577685 0 0.42150443610250471 0.1910584807224564 0 0.42150443610250471 0.1910584807224564 0 0.43964605568812892 0.21152628449425559 0 0.44066350929549042 0.1899546779532231 0 0.42150443610250471 0.1910584807224564 0 0.44066350929549042 0.1899546779532231 0 0.42150443610250471 0.1910584807224564 0 0.43964605568812892 0.21152628449425559 0 0.42692227912344938 0.2185749218571387 0 0.41932031768340311 0.20743549227764799 0 0.43964605568812892 0.21152628449425559 0 0.42150443610250471 0.1910584807224564 0 0.41932031768340311 0.20743549227764799 0 0.43964605568812892 0.21152628449425559 0 0.42692227912344938 0.2185749218571387 0 0.41932031768340311 0.20743549227764799 0 0.40699913865084292 0.2200073724427305 0 0.41932031768340311 0.20743549227764799 0 0.40736650267529367 0.20534760411496161 0 0.40699913865084292 0.2200073724427305 0 0.41405593538476537 0.1978098369375659 0 0.41932031768340311 0.20743549227764799 0 0.40736650267529367 0.20534760411496161 0 0.40699913865084292 0.2200073724427305 0 0.42791060214005622 0.23524578657545639 0 0.40933178642478668 0.24530746794650141 0 0.42692227912344938 0.2185749218571387 0 0.40699913865084292 0.2200073724427305 0 0.42791060214005622 0.23524578657545639 0 0.42692227912344938 0.2185749218571387 0 0.42791060214005622 0.23524578657545639 0 0.44687549402799981 0.2240274878755969 0 0.42507863072368701 0.2531856777568211 0 0.42791060214005622 0.23524578657545639 0 0.43876594592942619 0.2491002947533556 0 0.42791060214005622 0.23524578657545639 0 0.43876594592942619 0.2491002947533556 0 0.44210509291822658 0.23713285843962781 0 0.42507863072368701 0.2531856777568211 0 0.42791060214005622 0.23524578657545639 0 0.40933178642478668 0.24530746794650141 0 0.4657425708042397 0.25282124097232528 0 0.45444189403291402 0.2411770147019261 0 0.46902648610557401 0.23978031661179641 0 0.45444189403291402 0.2411770147019261 0 0.46153812927118693 0.22769678494989409 0 0.46902648610557401 0.23978031661179641 0 0.44893917376128722 0.25670587451621701 0 0.45444189403291402 0.2411770147019261 0 0.43876594592942619 0.2491002947533556 0 0.45444189403291402 0.2411770147019261 0 0.43876594592942619 0.2491002947533556 0 0.44210509291822658 0.23713285843962781 0 0.42791060214005622 0.23524578657545639 0 0.44210509291822658 0.23713285843962781 0 0.44687549402799981 0.2240274878755969 0 0.45444189403291402 0.2411770147019261 0 0.44210509291822658 0.23713285843962781 0 0.44687549402799981 0.2240274878755969 0 0.45444189403291402 0.2411770147019261 0 0.44687549402799981 0.2240274878755969 0 0.46153812927118693 0.22769678494989409 0 0.44687549402799981 0.2240274878755969 0 0.46153812927118693 0.22769678494989409 0 0.45434831412809351 0.2169717754240589 0 0.46153812927118693 0.22769678494989409 0 0.46788422009904918 0.21602458295004651 0 0.45434831412809351 0.2169717754240589 0 0.46788422009904918 0.21602458295004651 0 0.45579767155410239 0.20558373685050119 0 0.47298928242684912 0.20478556194466599 0 0.46788422009904918 0.21602458295004651 0 0.45579767155410239 0.20558373685050119 0 0.45434831412809351 0.2169717754240589 0 0.45579767155410239 0.20558373685050119 0 0.45434831412809351 0.2169717754240589 0 0.43964605568812892 0.21152628449425559 0 0.45579767155410239 0.20558373685050119 0 0.43964605568812892 0.21152628449425559 0 0.44944268158891898 0.19797959918788341 0 0.42692227912344938 0.2185749218571387 0 0.44687549402799981 0.2240274878755969 0 0.43964605568812892 0.21152628449425559 0 0.44687549402799981 0.2240274878755969 0 0.45434831412809351 0.2169717754240589 0 0.43964605568812892 0.21152628449425559 0 0.43964605568812892 0.21152628449425559 0 0.44944268158891898 0.19797959918788341 0 0.44066350929549042 0.1899546779532231 0 0.44066350929549042 0.1899546779532231 0 0.45982258248847607 0.18885087518398949 0 0.44944268158891898 0.19797959918788341 0 0.44066350929549042 0.1899546779532231 0 0.45982258248847607 0.18885087518398949 0 0.45579767155410239 0.20558373685050119 0 0.44944268158891898 0.19797959918788341 0 0.45982258248847607 0.18885087518398949 0 0.45982258248847607 0.18885087518398949 0 0.47298928242684912 0.20478556194466599 0 0.45579767155410239 0.20558373685050119 0 0.45982258248847607 0.18885087518398949 0 0.47298928242684912 0.20478556194466599 0 0.45982258248847607 0.18885087518398949 0 0.46246267395613577 0.18869877282268771 0 0.47298928242684912 0.20478556194466599 0 0.45982258248847607 0.18885087518398949 0 0.46246267395613577 0.18869877282268771 0 0.48123133697806858 0.18761746257298201 0 0.49061566848903448 0.19913054633610969 0 0.48123133697806791 0.21172494034894249 0 0.46246267395613577 0.18869877282268771 0 0.48123133697806791 0.21172494034894249 0 0.47298928242684912 0.20478556194466599 0 0.46246267395613577 0.18869877282268771 0 0.48123133697806791 0.21172494034894249 0 0.46246267395613577 0.18869877282268771 0 0.48123133697806858 0.18761746257298201 0 0.48123133697806791 0.21172494034894249 0 0.46246267395613577 0.18869877282268771 0 0.48123133697806858 0.18761746257298201 0 0.49061566848903448 0.19913054633610969 0 0.5 0.21064363009923689 0 0.50000000000000144 0.18653615232327739 0 0.48123133697806858 0.18761746257298201 0 0.49061566848903448 0.19913054633610969 0 0.50000000000000144 0.18653615232327739 0 0.49061566848903448 0.19913054633610969 0 0.5 0.21064363009923689 0 0.48123133697806791 0.21172494034894249 0 0.46788422009904918 0.21602458295004651 0 0.48123133697806791 0.21172494034894249 0 0.47298928242684912 0.20478556194466599 0 0.46153812927118693 0.22769678494989409 0 0.47761079907368659 0.22975513346519441 0 0.46902648610557401 0.23978031661179641 0 0.46153812927118693 0.22769678494989409 0 0.46788422009904918 0.21602458295004651 0 0.47761079907368659 0.22975513346519441 0 0.46788422009904918 0.21602458295004651 0 0.48123133697806791 0.21172494034894249 0 0.47761079907368659 0.22975513346519441 0 0.48123133697806791 0.21172494034894249 0 0.50000000000000078 0.23475110787519651 0 0.48123133697806791 0.21172494034894249 0 0.47761079907368659 0.22975513346519441 0 0.50000000000000078 0.23475110787519651 0 0.5 0.21064363009923689 0 0.48123133697806791 0.21172494034894249 0 0.50000000000000078 0.23475110787519651 0 0.47761079907368659 0.22975513346519441 0 0.50000000000000078 0.23475110787519651 0 0.48319944748130261 0.24680576274814439 0 0.48930401013157893 0.26400543771054868 0 0.50000000000000078 0.23475110787519651 0 0.48319944748130261 0.24680576274814439 0 0.47761079907368659 0.22975513346519441 0 0.48319944748130261 0.24680576274814439 0 0.46902648610557401 0.23978031661179641 0 0.4657425708042397 0.25282124097232528 0 0.48319944748130261 0.24680576274814439 0 0.46902648610557401 0.23978031661179641 0 0.46067006992531578 0.14501277255513739 0 0.44100510488797162 0.1518324801367677 0 0.45842061247378069 0.15774620364127601 0 0.46067006992531578 0.14501277255513739 0 0.45842061247378069 0.15774620364127601 0 0.47181417780450058 0.15130991192119209 0 0.46067006992531578 0.14501277255513739 0 0.44779797982522251 0.13591138282507809 0 0.46358849451689271 0.12298015153287919 0 0.46067006992531578 0.14501277255513739 0 0.48033503496266028 0.13819306497350831 0 0.46358849451689271 0.12298015153287919 0 0.44779797982522251 0.13591138282507809 0 0.46358849451689271 0.12298015153287919 0 0.44201491538503751 0.1221884416046867 0 0.43171131441089522 0.13754306829591861 0 0.44779797982522251 0.13591138282507809 0 0.44201491538503751 0.1221884416046867 0 0.46067006992531578 0.14501277255513739 0 0.44100510488797162 0.1518324801367677 0 0.43171131441089522 0.13754306829591861 0 0.44779797982522251 0.13591138282507809 0 0.44100510488797162 0.1518324801367677 0 0.44100510488797162 0.1518324801367677 0 0.45842061247378069 0.15774620364127601 0 0.46067006992531578 0.14501277255513739 0 0.44779797982522251 0.13591138282507809 0 0.44100510488797162 0.1518324801367677 0 0.43731578770263868 0.15311191614552969 0 0.44100510488797162 0.1518324801367677 0 0.43731578770263868 0.15311191614552969 0 0.44100510488797162 0.1518324801367677 0 0.44223327263954998 0.1675638295240294 0 0.44100510488797162 0.1518324801367677 0 0.44223327263954998 0.1675638295240294 0 0.45064745071206469 0.16407050785850311 0 0.44100510488797162 0.1518324801367677 0 0.45064745071206469 0.16407050785850311 0 0.45842061247378069 0.15774620364127601 0 0.44223327263954998 0.1675638295240294 0 0.45064745071206469 0.16407050785850311 0 0.45252365300287162 0.17650517324400131 0 0.44066350929549042 0.1899546779532231 0 0.45982258248847607 0.18885087518398949 0 0.44223327263954998 0.1675638295240294 0 0.45982258248847607 0.18885087518398949 0 0.44223327263954998 0.1675638295240294 0 0.45982258248847607 0.18885087518398949 0 0.44223327263954998 0.1675638295240294 0 0.45252365300287162 0.17650517324400131 0 0.43118451961009657 0.17908750652768421 0 0.44066350929549042 0.1899546779532231 0 0.44223327263954998 0.1675638295240294 0 0.45252365300287162 0.17650517324400131 0 0.46852950543390098 0.17564223008125701 0 0.45888445054831062 0.16819836462120771 0 0.46246267395613577 0.18869877282268771 0 0.45252365300287162 0.17650517324400131 0 0.46852950543390098 0.17564223008125701 0 0.46246267395613577 0.18869877282268771 0 0.45252365300287162 0.17650517324400131 0 0.45982258248847607 0.18885087518398949 0 0.46246267395613577 0.18869877282268771 0 0.45252365300287162 0.17650517324400131 0 0.45842061247378069 0.15774620364127601 0 0.4758361200595902 0.1636599271457834 0 0.47181417780450058 0.15130991192119209 0 0.45842061247378069 0.15774620364127601 0 0.4758361200595902 0.1636599271457834 0 0.45842061247378069 0.15774620364127601 0 0.45888445054831062 0.16819836462120771 0 0.4758361200595902 0.1636599271457834 0 0.46852950543390098 0.17564223008125701 0 0.45888445054831062 0.16819836462120771 0 0.4758361200595902 0.1636599271457834 0 0.45064745071206469 0.16407050785850311 0 0.45842061247378069 0.15774620364127601 0 0.45888445054831062 0.16819836462120771 0 0.45064745071206469 0.16407050785850311 0 0.45252365300287162 0.17650517324400131 0 0.45888445054831062 0.16819836462120771 0 0.4758361200595902 0.1636599271457834 0 0.48630368258704137 0.17140311931871249 0 0.48517032610197292 0.15232670889348399 0 0.46852950543390098 0.17564223008125701 0 0.4758361200595902 0.1636599271457834 0 0.48630368258704137 0.17140311931871249 0 0.46246267395613577 0.18869877282268771 0 0.48123133697806858 0.18761746257298201 0 0.46852950543390098 0.17564223008125701 0 0.48123133697806858 0.18761746257298201 0 0.46852950543390098 0.17564223008125701 0 0.48630368258704137 0.17140311931871249 0 0.48123133697806858 0.18761746257298201 0 0.50000000000000144 0.18653615232327739 0 0.48123133697806858 0.18761746257298201 0 0.50000000000000144 0.18653615232327739 0 0.48630368258704137 0.17140311931871249 0 0.50000000000000144 0.18653615232327739 0 0.48630368258704137 0.17140311931871249 0 0.5 0.15895475485757751 0 0.48630368258704137 0.17140311931871249 0 0.5 0.15895475485757751 0 0.48517032610197292 0.15232670889348399 0 0.48517032610197292 0.15232670889348399 0 0.48033503496266028 0.13819306497350831 0 0.50000000000000444 0.13137335739187769 0 0.5 0.15895475485757751 0 0.48517032610197292 0.15232670889348399 0 0.50000000000000444 0.13137335739187769 0 0.46067006992531578 0.14501277255513739 0 0.47181417780450058 0.15130991192119209 0 0.48033503496266028 0.13819306497350831 0 0.46067006992531578 0.14501277255513739 0 0.48033503496266028 0.13819306497350831 0 0.4758361200595902 0.1636599271457834 0 0.48517032610197292 0.15232670889348399 0 0.47181417780450058 0.15130991192119209 0 0.48517032610197292 0.15232670889348399 0 0.47181417780450058 0.15130991192119209 0 0.48033503496266028 0.13819306497350831 0 0.48033503496266028 0.13819306497350831 0 0.48287207193790682 0.119833017198512 0 0.46358849451689271 0.12298015153287919 0 0.48033503496266028 0.13819306497350831 0 0.50000000000000444 0.13137335739187769 0 0.48287207193790682 0.119833017198512 0 0.48033503496266028 0.13819306497350831 0 0.50000000000000444 0.13137335739187769 0 0.50000000000000444 0.13137335739187769 0 0.5 0.112750504140729 0 0.48287207193790682 0.119833017198512 0 0.5 0.112750504140729 0 0.47708970494047592 0.096547162644013557 0 0.48287207193790682 0.119833017198512 0 0.5 0.112750504140729 0 0.49999999999999811 0.094127650889580305 0 0.47708970494047592 0.096547162644013557 0 0.49999999999999811 0.094127650889580305 0 0.47708970494047592 0.096547162644013557 0 0.47708970494047592 0.096547162644013557 0 0.48287207193790682 0.119833017198512 0 0.46358849451689271 0.12298015153287919 0 0.49999999999999811 0.094127650889580305 0 0.5 0.065085683867034727 0 0.49030416231355511 0.073256317384286063 0 0.49030416231355511 0.073256317384286063 0 0.47714578073418512 0.066537383845565096 0 0.49228297291204992 0.059454014438704107 0 0.5 0.065085683867034727 0 0.49030416231355511 0.073256317384286063 0 0.49228297291204992 0.059454014438704107 0 0.49999999999999811 0.094127650889580305 0 0.47708970494047592 0.096547162644013557 0 0.48209205792154058 0.081076853880546043 0 0.49999999999999811 0.094127650889580305 0 0.49030416231355511 0.073256317384286063 0 0.48209205792154058 0.081076853880546043 0 0.47708970494047592 0.096547162644013557 0 0.48209205792154058 0.081076853880546043 0 0.46573084566111861 0.080721753047445138 0 0.48209205792154058 0.081076853880546043 0 0.47714578073418512 0.066537383845565096 0 0.46573084566111861 0.080721753047445138 0 0.49030416231355511 0.073256317384286063 0 0.48209205792154058 0.081076853880546043 0 0.47714578073418512 0.066537383845565096 0 0.45650324214529259 0.065280330615496637 0 0.46573084566111861 0.080721753047445138 0 0.4463318017969411 0.077534016390637867 0 0.47714578073418512 0.066537383845565096 0 0.45650324214529259 0.065280330615496637 0 0.46573084566111861 0.080721753047445138 0 0.46573084566111861 0.080721753047445138 0 0.4463318017969411 0.077534016390637867 0 0.45417940988095362 0.098966674398447016 0 0.47708970494047592 0.096547162644013557 0 0.46573084566111861 0.080721753047445138 0 0.45417940988095362 0.098966674398447016 0 0.4463318017969411 0.077534016390637867 0 0.45417940988095362 0.098966674398447016 0 0.43319821241535611 0.085947639564665793 0 0.4463318017969411 0.077534016390637867 0 0.44127530461137909 0.064432497562673663 0 0.4323056194460711 0.072068218276874901 0 0.45650324214529259 0.065280330615496637 0 0.4463318017969411 0.077534016390637867 0 0.44127530461137909 0.064432497562673663 0 0.46358849451689271 0.12298015153287919 0 0.45417940988095362 0.098966674398447016 0 0.44201491538503751 0.1221884416046867 0 0.47708970494047592 0.096547162644013557 0 0.46358849451689271 0.12298015153287919 0 0.45417940988095362 0.098966674398447016 0 0.47708970494047592 0.096547162644013557 0 0.45417940988095362 0.098966674398447016 0 0.45417940988095362 0.098966674398447016 0 0.43126911482143138 0.1013861861528805 0 0.43319821241535611 0.085947639564665793 0 0.45417940988095362 0.098966674398447016 0 0.43126911482143138 0.1013861861528805 0 0.45417940988095362 0.098966674398447016 0 0.44201491538503751 0.1221884416046867 0 0.43126911482143138 0.1013861861528805 0 0.44201491538503751 0.1221884416046867 0 0.42338535559027479 0.1205090768914225 0 0.43126911482143138 0.1013861861528805 0 0.42338535559027479 0.1205090768914225 0 0.40835881976190908 0.10380569790731391 0 0.40536034682354632 0.12481683740862159 0 0.40835881976190908 0.10380569790731391 0 0.43126911482143138 0.1013861861528805 0 0.42338535559027479 0.1205090768914225 0 0.40835881976190908 0.10380569790731391 0 0.43126911482143138 0.1013861861528805 0 0.40835881976190908 0.10380569790731391 0 0.43126911482143138 0.1013861861528805 0 0.41935522763475591 0.089699073352522835 0 0.4463318017969411 0.077534016390637867 0 0.43319821241535611 0.085947639564665793 0 0.4323056194460711 0.072068218276874901 0 0.43319821241535611 0.085947639564665793 0 0.41924297708616731 0.074654461475880396 0 0.41935522763475591 0.089699073352522835 0 0.43126911482143138 0.1013861861528805 0 0.43319821241535611 0.085947639564665793 0 0.41935522763475591 0.089699073352522835 0 0.4323056194460711 0.072068218276874901 0 0.41924297708616731 0.074654461475880396 0 0.42690609811089331 0.059013607202760512 0 0.44127530461137909 0.064432497562673663 0 0.4323056194460711 0.072068218276874901 0 0.42690609811089331 0.059013607202760512 0 0.43319821241535611 0.085947639564665793 0 0.4323056194460711 0.072068218276874901 0 0.41924297708616731 0.074654461475880396 0 0.41924297708616731 0.074654461475880396 0 0.41572401702962131 0.06154942829698281 0 0.42690609811089331 0.059013607202760512 0 0.41924297708616731 0.074654461475880396 0 0.40863285456409321 0.067745049984629005 0 0.41572401702962131 0.06154942829698281 0 0.41924297708616731 0.074654461475880396 0 0.40863285456409321 0.067745049984629005 0 0.40581890464532883 0.082285452545517224 0 0.40835881976190908 0.10380569790731391 0 0.41935522763475591 0.089699073352522835 0 0.40581890464532883 0.082285452545517224 0 0.41924297708616731 0.074654461475880396 0 0.41935522763475591 0.089699073352522835 0 0.40581890464532883 0.082285452545517224 0 0.40581890464532883 0.082285452545517224 0 0.39175039171038772 0.087168104040655559 0 0.39624558431573131 0.06624045880030964 0 0.40835881976190908 0.10380569790731391 0 0.40581890464532883 0.082285452545517224 0 0.39175039171038772 0.087168104040655559 0 0.39175039171038772 0.087168104040655559 0 0.39624558431573131 0.06624045880030964 0 0.38418619936747078 0.072555057714184676 0 0.40863285456409321 0.067745049984629005 0 0.40581890464532883 0.082285452545517224 0 0.39624558431573131 0.06624045880030964 0 0.40863285456409321 0.067745049984629005 0 0.39624558431573131 0.06624045880030964 0 0.40829937009812589 0.05445646228617778 0 0.37194242117794668 0.076772614526931793 0 0.38418619936747078 0.072555057714184676 0 0.38237628961462611 0.059732338949836518 0 0.36864505415383159 0.080457991471440893 0 0.38237628961462611 0.059732338949836518 0 0.39624558431573131 0.06624045880030964 0 0.38418619936747078 0.072555057714184676 0 0.38237628961462611 0.059732338949836518 0 0.37194242117794668 0.076772614526931793 0 0.38418619936747078 0.072555057714184676 0 0.38194353902199202 0.084344220923998292 0 0.39175039171038772 0.087168104040655559 0 0.38194353902199202 0.084344220923998292 0 0.37989514383216261 0.1008811074142211 0 0.37194242117794668 0.076772614526931793 0 0.37989514383216261 0.1008811074142211 0 0.37194242117794668 0.076772614526931793 0 0.38194353902199202 0.084344220923998292 0 0.37989514383216261 0.1008811074142211 0 0.39175039171038772 0.087168104040655559 0 0.38418619936747078 0.072555057714184676 0 0.38194353902199202 0.084344220923998292 0 0.39175039171038772 0.087168104040655559 0 0.37989514383216261 0.1008811074142211 0 0.39428450139263399 0.1099935163928351 0 0.37989514383216261 0.1008811074142211 0 0.38784786648637848 0.12498960030151041 0 0.37989514383216261 0.1008811074142211 0 0.38784786648637848 0.12498960030151041 0 0.39428450139263399 0.1099935163928351 0 0.37989514383216261 0.1008811074142211 0 0.38784786648637848 0.12498960030151041 0 0.37533236417423199 0.11575217945856781 0 0.36234477620530581 0.12431315491142481 0 0.38784786648637848 0.12498960030151041 0 0.37533236417423199 0.11575217945856781 0 0.38784786648637848 0.12498960030151041 0 0.39428450139263399 0.1099935163928351 0 0.40536034682354632 0.12481683740862159 0 0.40835881976190908 0.10380569790731391 0 0.39428450139263399 0.1099935163928351 0 0.40536034682354632 0.12481683740862159 0 0.40835881976190908 0.10380569790731391 0 0.39175039171038772 0.087168104040655559 0 0.39428450139263399 0.1099935163928351 0 0.4022109480673669 0.029794301680725051 0 0.39903054770448521 0.019764345079569041 0 0.38956197386376129 0.02112761593547402 0 0.4022109480673669 0.029794301680725051 0 0.38956197386376129 0.02112761593547402 0 0.39250591407207142 0.036175579460824843 0 0.4022109480673669 0.029794301680725051 0 0.39903054770448521 0.019764345079569041 0 0.40715192280340562 0.01462234732060084 0 0.3939873043738738 0.005606014803845533 0 0.40715192280340562 0.01462234732060084 0 0.41629264407573002 -0.006850845090226044 0 0.39903054770448521 0.019764345079569041 0 0.3939873043738738 0.005606014803845533 0 0.40715192280340562 0.01462234732060084 0 0.39903054770448521 0.019764345079569041 0 0.3939873043738738 0.005606014803845533 0 0.38956197386376129 0.02112761593547402 0 0.3939873043738738 0.005606014803845533 0 0.38284321145746519 0.01274873380563272 0 0.38956197386376129 0.02112761593547402 0 0.37357914744350779 0.002440479778912224 0 0.37424442014871812 0.021820824704299101 0 0.38284321145746519 0.01274873380563272 0 0.37357914744350779 0.002440479778912224 0 0.3939873043738738 0.005606014803845533 0 0.38284321145746519 0.01274873380563272 0 0.37424442014871812 0.021820824704299101 0 0.39250591407207142 0.036175579460824843 0 0.36321924137845568 0.02934286747329215 0 0.37424442014871812 0.021820824704299101 0 0.39250591407207142 0.036175579460824843 0 0.37424442014871812 0.021820824704299101 0 0.38956197386376129 0.02112761593547402 0 0.39250591407207142 0.036175579460824843 0 0.37424442014871812 0.021820824704299101 0 0.38284321145746519 0.01274873380563272 0 0.38956197386376129 0.02112761593547402 0 0.36321924137845568 0.02934286747329215 0 0.37923500638336632 0.043068186250585699 0 0.39250591407207142 0.036175579460824843 0 0.36321924137845568 0.02934286747329215 0 0.39250591407207142 0.036175579460824843 0 0.37923500638336632 0.043068186250585699 0 0.39610752507542107 0.039006686428232497 0 0.39250591407207142 0.036175579460824843 0 0.37923500638336632 0.043068186250585699 0 0.38237628961462611 0.059732338949836518 0 0.39610752507542107 0.039006686428232497 0 0.38237628961462611 0.059732338949836518 0 0.39610752507542107 0.039006686428232497 0 0.38237628961462611 0.059732338949836518 0 0.39498436831919048 0.053995491217328308 0 0.39610752507542107 0.039006686428232497 0 0.39624558431573131 0.06624045880030964 0 0.38237628961462611 0.059732338949836518 0 0.39498436831919048 0.053995491217328308 0 0.39624558431573131 0.06624045880030964 0 0.39498436831919048 0.053995491217328308 0 0.40127216254757908 0.052142880950221668 0 0.39498436831919048 0.053995491217328308 0 0.40127216254757908 0.052142880950221668 0 0.39610752507542107 0.039006686428232497 0 0.40127216254757908 0.052142880950221668 0 0.40829937009812589 0.05445646228617778 0 0.40647643562697111 0.047157343142538291 0 0.39624558431573131 0.06624045880030964 0 0.40127216254757908 0.052142880950221668 0 0.40829937009812589 0.05445646228617778 0 0.39624558431573131 0.06624045880030964 0 0.40829937009812589 0.05445646228617778 0 0.4022109480673669 0.029794301680725051 0 0.39724992059935432 0.037282377443883637 0 0.39250591407207142 0.036175579460824843 0 0.39724992059935432 0.037282377443883637 0 0.39250591407207142 0.036175579460824843 0 0.39610752507542107 0.039006686428232497 0 0.39724992059935432 0.037282377443883637 0 0.39250591407207142 0.036175579460824843 0 0.39610752507542107 0.039006686428232497 0 0.39724992059935432 0.037282377443883637 0 0.39610752507542107 0.039006686428232497 0 0.39250591407207142 0.036175579460824843 0 0.39610752507542107 0.039006686428232497 0 0.40647643562697111 0.047157343142538291 0 0.40127216254757908 0.052142880950221668 0 0.39610752507542107 0.039006686428232497 0 0.40647643562697111 0.047157343142538291 0 0.39610752507542107 0.039006686428232497 0 0.39724992059935432 0.037282377443883637 0 0.40647643562697111 0.047157343142538291 0 0.4022109480673669 0.029794301680725051 0 0.39724992059935432 0.037282377443883637 0 0.41056521822753728 0.033900572446116307 0 0.4022109480673669 0.029794301680725051 0 0.39724992059935432 0.037282377443883637 0 0.39724992059935432 0.037282377443883637 0 0.42035315588052052 0.042672465772045823 0 0.39724992059935432 0.037282377443883637 0 0.41056521822753728 0.033900572446116307 0 0.42035315588052052 0.042672465772045823 0 0.39724992059935432 0.037282377443883637 0 0.42035315588052052 0.042672465772045823 0 0.40647643562697111 0.047157343142538291 0 0.41056521822753728 0.033900572446116307 0 0.42035315588052052 0.042672465772045823 0 0.41918056088687422 0.025106301550984179 0 0.42035315588052052 0.042672465772045823 0 0.41807260402200452 0.053616349792940499 0 0.42690609811089331 0.059013607202760512 0 0.40863285456409321 0.067745049984629005 0 0.40829937009812589 0.05445646228617778 0 0.41572401702962131 0.06154942829698281 0 0.40829937009812589 0.05445646228617778 0 0.41807260402200452 0.053616349792940499 0 0.41572401702962131 0.06154942829698281 0 0.42035315588052052 0.042672465772045823 0 0.40829937009812589 0.05445646228617778 0 0.40647643562697111 0.047157343142538291 0 0.42035315588052052 0.042672465772045823 0 0.40829937009812589 0.05445646228617778 0 0.42035315588052052 0.042672465772045823 0 0.40829937009812589 0.05445646228617778 0 0.41807260402200452 0.053616349792940499 0 0.41807260402200452 0.053616349792940499 0 0.41572401702962131 0.06154942829698281 0 0.42690609811089331 0.059013607202760512 0 0.42035315588052052 0.042672465772045823 0 0.42690609811089331 0.059013607202760512 0 0.44432976155769699 0.048266315327598383 0 0.42035315588052052 0.042672465772045823 0 0.43671568676264189 0.026676163003921921 0 0.42035315588052052 0.042672465772045823 0 0.43671568676264189 0.026676163003921921 0 0.44432976155769699 0.048266315327598383 0 0.42035315588052052 0.042672465772045823 0 0.44432976155769699 0.048266315327598383 0 0.42035315588052052 0.042672465772045823 0 0.43671568676264189 0.026676163003921921 0 0.41918056088687422 0.025106301550984179 0 0.43671568676264189 0.026676163003921921 0 0.41918056088687422 0.025106301550984179 0 0.43085411213296282 0.0071934808399317304 0 0.4022109480673669 0.029794301680725051 0 0.41918056088687422 0.025106301550984179 0 0.40715192280340562 0.01462234732060084 0 0.41918056088687422 0.025106301550984179 0 0.40715192280340562 0.01462234732060084 0 0.43085411213296282 0.0071934808399317304 0 0.4022109480673669 0.029794301680725051 0 0.41056521822753728 0.033900572446116307 0 0.41918056088687422 0.025106301550984179 0 0.40715192280340562 0.01462234732060084 0 0.43085411213296282 0.0071934808399317304 0 0.41629264407573002 -0.006850845090226044 0 0.43085411213296282 0.0071934808399317304 0 0.45307821764476319 0.010679860235798 0 0.45275060893296981 -0.0060266252809792519 0 0.43671568676264189 0.026676163003921921 0 0.43085411213296282 0.0071934808399317304 0 0.45307821764476319 0.010679860235798 0 0.43671568676264189 0.026676163003921921 0 0.45307821764476319 0.010679860235798 0 0.45536773125663488 0.033055304065500078 0 0.43671568676264189 0.026676163003921921 0 0.45307821764476319 0.010679860235798 0 0.45307821764476319 0.010679860235798 0 0.45536773125663488 0.033055304065500078 0 0.4743220131113518 0.027463297392627269 0 0.45307821764476319 0.010679860235798 0 0.47441986059974051 0.002164373494884166 0 0.4743220131113518 0.027463297392627269 0 0.45307821764476319 0.010679860235798 0 0.47441986059974051 0.002164373494884166 0 0.45275060893296981 -0.0060266252809792519 0 0.45650324214529259 0.065280330615496637 0 0.44127530461137909 0.064432497562673663 0 0.44432976155769699 0.048266315327598383 0 0.44127530461137909 0.064432497562673663 0 0.42690609811089331 0.059013607202760512 0 0.44432976155769699 0.048266315327598383 0 0.43671568676264189 0.026676163003921921 0 0.44432976155769699 0.048266315327598383 0 0.45536773125663488 0.033055304065500078 0 0.45536773125663488 0.033055304065500078 0 0.4683063672348734 0.053860164883151249 0 0.4743220131113518 0.027463297392627269 0 0.44432976155769699 0.048266315327598383 0 0.45536773125663488 0.033055304065500078 0 0.4683063672348734 0.053860164883151249 0 0.44432976155769699 0.048266315327598383 0 0.4683063672348734 0.053860164883151249 0 0.45650324214529259 0.065280330615496637 0 0.44432976155769699 0.048266315327598383 0 0.4683063672348734 0.053860164883151249 0 0.47714578073418512 0.066537383845565096 0 0.45650324214529259 0.065280330615496637 0 0.4683063672348734 0.053860164883151249 0 0.47714578073418512 0.066537383845565096 0 0.4683063672348734 0.053860164883151249 0 0.49228297291204992 0.059454014438704107 0 0.4683063672348734 0.053860164883151249 0 0.48335627184046892 0.043534316590418197 0 0.49228297291204992 0.059454014438704107 0 0.4683063672348734 0.053860164883151249 0 0.49228297291204992 0.059454014438704107 0 0.4683063672348734 0.053860164883151249 0 0.48335627184046892 0.043534316590418197 0 0.4743220131113518 0.027463297392627269 0 0.48335627184046892 0.043534316590418197 0 0.5 0.03604371684448926 0 0.4743220131113518 0.027463297392627269 0 0.48335627184046892 0.043534316590418197 0 0.5 0.03604371684448926 0 0.49228297291204992 0.059454014438704107 0 0.5 0.065085683867034727 0 0.5 0.03604371684448926 0 0.49228297291204992 0.059454014438704107 0 0.47441986059974051 0.002164373494884166 0 0.4743220131113518 0.027463297392627269 0 0.5 0.0070017498219436813 0 0.5 0.03604371684448926 0 0.4743220131113518 0.027463297392627269 0 0.5 0.0070017498219436813 0 0.47441986059974051 0.002164373494884166 0 0.5 0.0070017498219436813 0 0.48435038112254591 -0.01295811459108822 0 0.5 0.0070017498219436813 0 0.48435038112254591 -0.01295811459108822 0 0.5 -0.022040217200601949 0 0.47441986059974051 0.002164373494884166 0 0.48435038112254591 -0.01295811459108822 0 0.46567746476080879 -0.018036067265790781 0 0.48165458025218022 -0.033880411805876212 0 0.46055892944421639 -0.034826981934293802 0 0.46567746476080879 -0.018036067265790781 0 0.48435038112254591 -0.01295811459108822 0 0.48165458025218022 -0.033880411805876212 0 0.46567746476080879 -0.018036067265790781 0 0.48435038112254591 -0.01295811459108822 0 0.5 -0.022040217200601949 0 0.48165458025218022 -0.033880411805876212 0 0.5 -0.051082184223147482 0 0.48331950433178789 -0.05028970193443566 0 0.48165458025218022 -0.033880411805876212 0 0.5 -0.022040217200601949 0 0.5 -0.051082184223147482 0 0.48165458025218022 -0.033880411805876212 0 0.5 -0.051082184223147482 0 0.48331950433178789 -0.05028970193443566 0 0.48351099524096458 -0.065188187078006596 0 0.46811244183400691 -0.051008024630712363 0 0.48351099524096458 -0.065188187078006596 0 0.46325174163611299 -0.065085723760132191 0 0.48331950433178789 -0.05028970193443566 0 0.46811244183400691 -0.051008024630712363 0 0.48351099524096458 -0.065188187078006596 0 0.48331950433178789 -0.05028970193443566 0 0.48165458025218022 -0.033880411805876212 0 0.46811244183400691 -0.051008024630712363 0 0.48165458025218022 -0.033880411805876212 0 0.46055892944421639 -0.034826981934293802 0 0.46811244183400691 -0.051008024630712363 0 0.46055892944421639 -0.034826981934293802 0 0.46811244183400691 -0.051008024630712363 0 0.44580381826440463 -0.044156532015693237 0 0.46811244183400691 -0.051008024630712363 0 0.44580381826440463 -0.044156532015693237 0 0.46325174163611299 -0.065085723760132191 0 0.44580381826440463 -0.044156532015693237 0 0.46325174163611299 -0.065085723760132191 0 0.46811244183400691 -0.051008024630712363 0 0.46325174163611299 -0.065085723760132191 0 0.44420654965085082 -0.062216100931960373 0 0.44580381826440463 -0.044156532015693237 0 0.42712667170951002 -0.058909162300086547 0 0.44420654965085082 -0.062216100931960373 0 0.44580381826440463 -0.044156532015693237 0 0.46325174163611299 -0.065085723760132191 0 0.46055892944421639 -0.034826981934293802 0 0.44580381826440463 -0.044156532015693237 0 0.43960160651246799 -0.018737423931294579 0 0.43960160651246799 -0.018737423931294579 0 0.45275060893296981 -0.0060266252809792519 0 0.46567746476080879 -0.018036067265790781 0 0.43085411213296282 0.0071934808399317304 0 0.43960160651246799 -0.018737423931294579 0 0.45275060893296981 -0.0060266252809792519 0 0.47441986059974051 0.002164373494884166 0 0.45275060893296981 -0.0060266252809792519 0 0.46567746476080879 -0.018036067265790781 0 0.46055892944421639 -0.034826981934293802 0 0.43960160651246799 -0.018737423931294579 0 0.46567746476080879 -0.018036067265790781 0 0.47818452339587708 -0.1165119508780514 0 0.50000000000000278 -0.1091661182682386 0 0.5 -0.13347981615570359 0 0.50000000000000278 -0.1091661182682386 0 0.48162587081805858 -0.087125921014184843 0 0.47818452339587708 -0.1165119508780514 0 0.50000000000000278 -0.1091661182682386 0 0.47745756082527618 -0.1021495788090297 0 0.50000000000000278 -0.1091661182682386 0 0.47745756082527618 -0.1021495788090297 0 0.48162587081805858 -0.087125921014184843 0 0.47818452339587708 -0.1165119508780514 0 0.47745756082527618 -0.1021495788090297 0 0.45929027747438272 -0.10448110762161331 0 0.47745756082527618 -0.1021495788090297 0 0.48162587081805858 -0.087125921014184843 0 0.46818713243806243 -0.093462796263060144 0 0.48162587081805858 -0.087125921014184843 0 0.46325174163611299 -0.065085723760132191 0 0.46656747462136422 -0.083363997574371698 0 0.48162587081805858 -0.087125921014184843 0 0.46656747462136422 -0.083363997574371698 0 0.46818713243806243 -0.093462796263060144 0 0.50000000000000278 -0.1091661182682386 0 0.48162587081805858 -0.087125921014184843 0 0.5 -0.080124151245693054 0 0.48162587081805858 -0.087125921014184843 0 0.5 -0.080124151245693054 0 0.48351099524096458 -0.065188187078006596 0 0.5 -0.051082184223147482 0 0.5 -0.080124151245693054 0 0.48351099524096458 -0.065188187078006596 0 0.48162587081805858 -0.087125921014184843 0 0.48351099524096458 -0.065188187078006596 0 0.46325174163611299 -0.065085723760132191 0 0.48162587081805858 -0.087125921014184843 0 0.46325174163611299 -0.065085723760132191 0 0.46325174163611299 -0.065085723760132191 0 0.44779547222269012 -0.07571174360441861 0 0.4542230721705241 -0.091234814858292518 0 0.44420654965085082 -0.062216100931960373 0 0.46325174163611299 -0.065085723760132191 0 0.44779547222269012 -0.07571174360441861 0 0.44420654965085082 -0.062216100931960373 0 0.44779547222269012 -0.07571174360441861 0 0.43605259790445722 -0.074801038719200894 0 0.44779547222269012 -0.07571174360441861 0 0.441034556727114 -0.086800976364950752 0 0.4542230721705241 -0.091234814858292518 0 0.44779547222269012 -0.07571174360441861 0 0.441034556727114 -0.086800976364950752 0 0.43605259790445722 -0.074801038719200894 0 0.441034556727114 -0.086800976364950752 0 0.4542230721705241 -0.091234814858292518 0 0.44037425786955031 -0.1001430447449046 0 0.46325174163611299 -0.065085723760132191 0 0.4542230721705241 -0.091234814858292518 0 0.46325174163611299 -0.065085723760132191 0 0.4542230721705241 -0.091234814858292518 0 0.46656747462136422 -0.083363997574371698 0 0.4542230721705241 -0.091234814858292518 0 0.46656747462136422 -0.083363997574371698 0 0.46818713243806243 -0.093462796263060144 0 0.47745756082527618 -0.1021495788090297 0 0.46818713243806243 -0.093462796263060144 0 0.45929027747438272 -0.10448110762161331 0 0.4542230721705241 -0.091234814858292518 0 0.46818713243806243 -0.093462796263060144 0 0.45929027747438272 -0.10448110762161331 0 0.4542230721705241 -0.091234814858292518 0 0.45929027747438272 -0.10448110762161331 0 0.44519440270493238 -0.1173839059564518 0 0.4542230721705241 -0.091234814858292518 0 0.44519440270493238 -0.1173839059564518 0 0.4542230721705241 -0.091234814858292518 0 0.44037425786955031 -0.1001430447449046 0 0.44519440270493238 -0.1173839059564518 0 0.45929027747438272 -0.10448110762161331 0 0.44519440270493238 -0.1173839059564518 0 0.44037425786955031 -0.1001430447449046 0 0.44519440270493238 -0.1173839059564518 0 0.43733469804818831 -0.11156713863760261 0 0.44519440270493238 -0.1173839059564518 0 0.43583674875745881 -0.11887614197332121 0 0.43733469804818831 -0.11156713863760261 0 0.44519440270493238 -0.1173839059564518 0 0.44103349219651622 -0.1294348541443999 0 0.44519440270493238 -0.1173839059564518 0 0.43473286131254663 -0.1269599813022704 0 0.44519440270493238 -0.1173839059564518 0 0.43652399803370612 -0.1266503843383173 0 0.44103349219651622 -0.1294348541443999 0 0.44519440270493238 -0.1173839059564518 0 0.43473286131254663 -0.1269599813022704 0 0.43652399803370612 -0.1266503843383173 0 0.44519440270493238 -0.1173839059564518 0 0.43583674875745881 -0.11887614197332121 0 0.43473286131254663 -0.1269599813022704 0 0.44519440270493238 -0.1173839059564518 0 0.4507048422038758 -0.1254569291466279 0 0.44103349219651622 -0.1294348541443999 0 0.44519440270493238 -0.1173839059564518 0 0.45845740270007618 -0.1179768520576317 0 0.4507048422038758 -0.1254569291466279 0 0.47818452339587708 -0.1165119508780514 0 0.45929027747438272 -0.10448110762161331 0 0.45845740270007618 -0.1179768520576317 0 0.45845740270007618 -0.1179768520576317 0 0.46233294642030121 -0.13029577410444981 0 0.4507048422038758 -0.1254569291466279 0 0.47818452339587708 -0.1165119508780514 0 0.45845740270007618 -0.1179768520576317 0 0.46233294642030121 -0.13029577410444981 0 0.45929027747438272 -0.10448110762161331 0 0.44519440270493238 -0.1173839059564518 0 0.45845740270007618 -0.1179768520576317 0 0.40724277249555002 -0.1192463337858536 0 0.41884687315735308 -0.1196411488000769 0 0.41208161927757919 -0.13087523561031761 0 0.40724277249555002 -0.1192463337858536 0 0.41698364908723728 -0.1130169343472482 0 0.41068457829189181 -0.1070723437572161 0 0.41698364908723728 -0.1130169343472482 0 0.4250766521847687 -0.1135111272305598 0 0.42274743771597889 -0.1059915359454271 0 0.41698364908723728 -0.1130169343472482 0 0.41884687315735308 -0.1196411488000769 0 0.4250766521847687 -0.1135111272305598 0 0.40724277249555002 -0.1192463337858536 0 0.41698364908723728 -0.1130169343472482 0 0.41884687315735308 -0.1196411488000769 0 0.41884687315735308 -0.1196411488000769 0 0.42661387223904329 -0.12098454377727109 0 0.41208161927757919 -0.13087523561031761 0 0.41884687315735308 -0.1196411488000769 0 0.42661387223904329 -0.12098454377727109 0 0.4250766521847687 -0.1135111272305598 0 0.42661387223904329 -0.12098454377727109 0 0.43583674875745881 -0.11887614197332121 0 0.43473286131254663 -0.1269599813022704 0 0.42661387223904329 -0.12098454377727109 0 0.43583674875745881 -0.11887614197332121 0 0.43287065052056112 -0.1145040342651165 0 0.43733469804818831 -0.11156713863760261 0 0.43287065052056112 -0.1145040342651165 0 0.43239743038843881 -0.106928566248219 0 0.43583674875745881 -0.11887614197332121 0 0.43733469804818831 -0.11156713863760261 0 0.43287065052056112 -0.1145040342651165 0 0.43287065052056112 -0.1145040342651165 0 0.4250766521847687 -0.1135111272305598 0 0.43239743038843881 -0.106928566248219 0 0.42661387223904329 -0.12098454377727109 0 0.43287065052056112 -0.1145040342651165 0 0.4250766521847687 -0.1135111272305598 0 0.4250766521847687 -0.1135111272305598 0 0.42274743771597889 -0.1059915359454271 0 0.43239743038843881 -0.106928566248219 0 0.42274743771597889 -0.1059915359454271 0 0.43239743038843881 -0.106928566248219 0 0.42854124961890733 -0.099856724000988273 0 0.44037425786955031 -0.1001430447449046 0 0.43239743038843881 -0.106928566248219 0 0.42854124961890733 -0.099856724000988273 0 0.44037425786955031 -0.1001430447449046 0 0.43733469804818831 -0.11156713863760261 0 0.43239743038843881 -0.106928566248219 0 0.44037425786955031 -0.1001430447449046 0 0.42854124961890733 -0.099856724000988273 0 0.42870758522811919 -0.089164076341860632 0 0.42274743771597889 -0.1059915359454271 0 0.42854124961890733 -0.099856724000988273 0 0.41847953689244971 -0.097056396724529995 0 0.42854124961890733 -0.099856724000988273 0 0.41847953689244971 -0.097056396724529995 0 0.42870758522811919 -0.089164076341860632 0 0.42274743771597889 -0.1059915359454271 0 0.41847953689244971 -0.097056396724529995 0 0.41068457829189181 -0.1070723437572161 0 0.41698364908723728 -0.1130169343472482 0 0.42274743771597889 -0.1059915359454271 0 0.41068457829189181 -0.1070723437572161 0 0.41847953689244971 -0.097056396724529995 0 0.41068457829189181 -0.1070723437572161 0 0.40440998182912408 -0.094196755676502056 0 0.40751187940595462 -0.08478461483936342 0 0.41476450049512009 -0.087087396641621656 0 0.40440998182912408 -0.094196755676502056 0 0.41847953689244971 -0.097056396724529995 0 0.41476450049512009 -0.087087396641621656 0 0.40440998182912408 -0.094196755676502056 0 0.40751187940595462 -0.08478461483936342 0 0.41476450049512009 -0.087087396641621656 0 0.40927176781453312 -0.077086569868640542 0 0.40751187940595462 -0.08478461483936342 0 0.40927176781453312 -0.077086569868640542 0 0.40237588567979138 -0.081472047511817525 0 0.41476450049512009 -0.087087396641621656 0 0.42870758522811919 -0.089164076341860632 0 0.42122478008006597 -0.0757594802833121 0 0.41476450049512009 -0.087087396641621656 0 0.42122478008006597 -0.0757594802833121 0 0.40927176781453312 -0.077086569868640542 0 0.41847953689244971 -0.097056396724529995 0 0.41476450049512009 -0.087087396641621656 0 0.42870758522811919 -0.089164076341860632 0 0.441034556727114 -0.086800976364950752 0 0.44037425786955031 -0.1001430447449046 0 0.42870758522811919 -0.089164076341860632 0 0.441034556727114 -0.086800976364950752 0 0.42870758522811919 -0.089164076341860632 0 0.43605259790445722 -0.074801038719200894 0 0.42870758522811919 -0.089164076341860632 0 0.43605259790445722 -0.074801038719200894 0 0.42122478008006597 -0.0757594802833121 0 0.43605259790445722 -0.074801038719200894 0 0.42122478008006597 -0.0757594802833121 0 0.42712667170951002 -0.058909162300086547 0 0.44420654965085082 -0.062216100931960373 0 0.43605259790445722 -0.074801038719200894 0 0.42712667170951002 -0.058909162300086547 0 0.42122478008006597 -0.0757594802833121 0 0.4114316245373863 -0.068167670275121897 0 0.42712667170951002 -0.058909162300086547 0 0.40927176781453312 -0.077086569868640542 0 0.4114316245373863 -0.068167670275121897 0 0.39842538017083612 -0.076484449263173909 0 0.42122478008006597 -0.0757594802833121 0 0.40927176781453312 -0.077086569868640542 0 0.4114316245373863 -0.068167670275121897 0 0.4114316245373863 -0.068167670275121897 0 0.39842538017083612 -0.076484449263173909 0 0.40640664480004829 -0.052123305293471443 0 0.39842538017083612 -0.076484449263173909 0 0.38906844471504909 -0.048791226331097663 0 0.4114316245373863 -0.068167670275121897 0 0.39842538017083612 -0.076484449263173909 0 0.39842538017083612 -0.076484449263173909 0 0.38333741963197843 -0.065496938221855289 0 0.38906844471504909 -0.048791226331097663 0 0.39842538017083612 -0.076484449263173909 0 0.38333741963197843 -0.065496938221855289 0 0.37036238702559748 -0.076146834841134659 0 0.39842538017083612 -0.076484449263173909 0 0.373127492796404 -0.092661058915291472 0 0.39842538017083612 -0.076484449263173909 0 0.37036238702559748 -0.076146834841134659 0 0.373127492796404 -0.092661058915291472 0 0.39842538017083612 -0.076484449263173909 0 0.3905434538793735 -0.094168622203984975 0 0.373127492796404 -0.092661058915291472 0 0.39842538017083612 -0.076484449263173909 0 0.40142869859064212 -0.08537321064543299 0 0.3905434538793735 -0.094168622203984975 0 0.39842538017083612 -0.076484449263173909 0 0.40142869859064212 -0.08537321064543299 0 0.40237588567979138 -0.081472047511817525 0 0.40927176781453312 -0.077086569868640542 0 0.39842538017083612 -0.076484449263173909 0 0.40237588567979138 -0.081472047511817525 0 0.39842538017083612 -0.076484449263173909 0 0.40142869859064212 -0.08537321064543299 0 0.40142869859064212 -0.08537321064543299 0 0.40237588567979138 -0.081472047511817525 0 0.40751187940595462 -0.08478461483936342 0 0.40142869859064212 -0.08537321064543299 0 0.40237588567979138 -0.081472047511817525 0 0.40751187940595462 -0.08478461483936342 0 0.40142869859064212 -0.08537321064543299 0 0.40440998182912408 -0.094196755676502056 0 0.40142869859064212 -0.08537321064543299 0 0.40440998182912408 -0.094196755676502056 0 0.40142869859064212 -0.08537321064543299 0 0.39542953791662688 -0.1100818502818986 0 0.40142869859064212 -0.08537321064543299 0 0.3905434538793735 -0.094168622203984975 0 0.39542953791662688 -0.1100818502818986 0 0.40142869859064212 -0.08537321064543299 0 0.40440998182912408 -0.094196755676502056 0 0.39542953791662688 -0.1100818502818986 0 0.41068457829189181 -0.1070723437572161 0 0.40440998182912408 -0.094196755676502056 0 0.39542953791662688 -0.1100818502818986 0 0.3905434538793735 -0.094168622203984975 0 0.38430615992235861 -0.10624254191412789 0 0.373127492796404 -0.092661058915291472 0 0.3905434538793735 -0.094168622203984975 0 0.38430615992235861 -0.10624254191412789 0 0.39542953791662688 -0.1100818502818986 0 0.38430615992235861 -0.10624254191412789 0 0.373127492796404 -0.092661058915291472 0 0.37262698081820339 -0.10985920037046069 0 0.38430615992235861 -0.10624254191412789 0 0.37980885755413418 -0.11928611433555709 0 0.39542953791662688 -0.1100818502818986 0 0.37980885755413418 -0.11928611433555709 0 0.39542953791662688 -0.1100818502818986 0 0.38943037724261159 -0.1347904899183642 0 0.38430615992235861 -0.10624254191412789 0 0.37980885755413418 -0.11928611433555709 0 0.37262698081820339 -0.10985920037046069 0 0.40724277249555002 -0.1192463337858536 0 0.39542953791662688 -0.1100818502818986 0 0.38943037724261159 -0.1347904899183642 0 0.39542953791662688 -0.1100818502818986 0 0.38943037724261159 -0.1347904899183642 0 0.40724277249555002 -0.1192463337858536 0 0.41068457829189181 -0.1070723437572161 0 0.39542953791662688 -0.1100818502818986 0 0.41629264407573002 -0.006850845090226044 0 0.42276864855888052 -0.033584784942844392 0 0.40125875037878711 -0.026146768788422061 0 0.43085411213296282 0.0071934808399317304 0 0.43960160651246799 -0.018737423931294579 0 0.41629264407573002 -0.006850845090226044 0 0.43960160651246799 -0.018737423931294579 0 0.41629264407573002 -0.006850845090226044 0 0.42276864855888052 -0.033584784942844392 0 0.44580381826440463 -0.044156532015693237 0 0.42276864855888052 -0.033584784942844392 0 0.42712667170951002 -0.058909162300086547 0 0.44580381826440463 -0.044156532015693237 0 0.43960160651246799 -0.018737423931294579 0 0.42276864855888052 -0.033584784942844392 0 0.4114316245373863 -0.068167670275121897 0 0.42712667170951002 -0.058909162300086547 0 0.40640664480004829 -0.052123305293471443 0 0.42276864855888052 -0.033584784942844392 0 0.42712667170951002 -0.058909162300086547 0 0.40640664480004829 -0.052123305293471443 0 0.42276864855888052 -0.033584784942844392 0 0.40640664480004829 -0.052123305293471443 0 0.40125875037878711 -0.026146768788422061 0 0.40640664480004829 -0.052123305293471443 0 0.38906844471504909 -0.048791226331097663 0 0.40125875037878711 -0.026146768788422061 0 0.39842538017083612 -0.076484449263173909 0 0.40640664480004829 -0.052123305293471443 0 0.38906844471504909 -0.048791226331097663 0 0.38906844471504909 -0.048791226331097663 0 0.36552082236990341 -0.042261935088275922 0 0.37096486530484057 -0.058236420929508259 0 0.38333741963197843 -0.065496938221855289 0 0.38906844471504909 -0.048791226331097663 0 0.37096486530484057 -0.058236420929508259 0 0.38906844471504909 -0.048791226331097663 0 0.37971150925926189 -0.0210980033990215 0 0.40125875037878711 -0.026146768788422061 0 0.38906844471504909 -0.048791226331097663 0 0.37971150925926189 -0.0210980033990215 0 0.36552082236990341 -0.042261935088275922 0 0.38906844471504909 -0.048791226331097663 0 0.37971150925926189 -0.0210980033990215 0 0.3939873043738738 0.005606014803845533 0 0.37971150925926189 -0.0210980033990215 0 0.40125875037878711 -0.026146768788422061 0 0.3939873043738738 0.005606014803845533 0 0.41629264407573002 -0.006850845090226044 0 0.40125875037878711 -0.026146768788422061 0 0.37357914744350779 0.002440479778912224 0 0.3939873043738738 0.005606014803845533 0 0.37971150925926189 -0.0210980033990215 0 0.37357914744350779 0.002440479778912224 0 0.35598292622536432 0.0074660699477739154 0 0.35747226134953669 -0.011539359516293059 0 0.37357914744350779 0.002440479778912224 0 0.37971150925926189 -0.0210980033990215 0 0.35747226134953669 -0.011539359516293059 0 0.37971150925926189 -0.0210980033990215 0 0.3567572465296398 -0.028300240308235611 0 0.35747226134953669 -0.011539359516293059 0 0.37971150925926189 -0.0210980033990215 0 0.3567572465296398 -0.028300240308235611 0 0.36552082236990341 -0.042261935088275922 0 0.3567572465296398 -0.028300240308235611 0 0.34108130633743572 -0.022855778308436141 0 0.34876980709143918 -0.036804132634757111 0 0.3567572465296398 -0.028300240308235611 0 0.35747226134953669 -0.011539359516293059 0 0.34108130633743572 -0.022855778308436141 0 0.35598292622536432 0.0074660699477739154 0 0.35747226134953669 -0.011539359516293059 0 0.33772143230201052 -0.0068886848087512803 0 0.35747226134953669 -0.011539359516293059 0 0.33772143230201052 -0.0068886848087512803 0 0.34108130633743572 -0.022855778308436141 0 0.33772143230201052 -0.0068886848087512803 0 0.34108130633743572 -0.022855778308436141 0 0.317215061455216 -0.016157064213598971 0 0.34108130633743572 -0.022855778308436141 0 0.317215061455216 -0.016157064213598971 0 0.33020564447161199 -0.035019528032180489 0 0.317215061455216 -0.016157064213598971 0 0.33020564447161199 -0.035019528032180489 0 0.317215061455216 -0.016157064213598971 0 0.31587151978819911 -0.020338956197947448 0 0.33020564447161199 -0.035019528032180489 0 0.31587151978819911 -0.020338956197947448 0 0.33020564447161199 -0.035019528032180489 0 0.317215061455216 -0.016157064213598971 0 0.31587151978819911 -0.020338956197947448 0 0.32325249182581611 0.0026349705202008129 0 0.317215061455216 -0.016157064213598971 0 0.32325249182581611 0.0026349705202008129 0 0.33772143230201052 -0.0068886848087512803 0 0.317215061455216 -0.016157064213598971 0 0.32325249182581611 0.0026349705202008129 0 0.317215061455216 -0.016157064213598971 0 0.30690038754225768 -0.0011800486910433781 0 0.32587161445787949 -0.051186402763021513 0 0.31829608624605688 -0.065472752473192938 0 0.30886460616181383 -0.042148593106558697 0 0.32587161445787949 -0.051186402763021513 0 0.33198766712898281 -0.064044197254424853 0 0.31829608624605688 -0.065472752473192938 0 0.31587151978819911 -0.020338956197947448 0 0.33020564447161199 -0.035019528032180489 0 0.30886460616181383 -0.042148593106558697 0 0.32587161445787949 -0.051186402763021513 0 0.33020564447161199 -0.035019528032180489 0 0.30886460616181383 -0.042148593106558697 0 0.34108130633743572 -0.022855778308436141 0 0.33020564447161199 -0.035019528032180489 0 0.34876980709143918 -0.036804132634757111 0 0.32587161445787949 -0.051186402763021513 0 0.33020564447161199 -0.035019528032180489 0 0.34000406828093183 -0.049246942948750677 0 0.33020564447161199 -0.035019528032180489 0 0.3502840157486049 -0.055583181436657553 0 0.33020564447161199 -0.035019528032180489 0 0.34000406828093183 -0.049246942948750677 0 0.33020564447161199 -0.035019528032180489 0 0.34000406828093183 -0.049246942948750677 0 0.3502840157486049 -0.055583181436657553 0 0.33020564447161199 -0.035019528032180489 0 0.3502840157486049 -0.055583181436657553 0 0.34876980709143918 -0.036804132634757111 0 0.34000406828093183 -0.049246942948750677 0 0.33198766712898281 -0.064044197254424853 0 0.34180884154053498 -0.065879049105621951 0 0.32587161445787949 -0.051186402763021513 0 0.34000406828093183 -0.049246942948750677 0 0.33198766712898281 -0.064044197254424853 0 0.34000406828093183 -0.049246942948750677 0 0.34980249209025183 -0.063474357865320699 0 0.34000406828093183 -0.049246942948750677 0 0.34980249209025183 -0.063474357865320699 0 0.34180884154053498 -0.065879049105621951 0 0.34000406828093183 -0.049246942948750677 0 0.3502840157486049 -0.055583181436657553 0 0.34980249209025183 -0.063474357865320699 0 0.3502840157486049 -0.055583181436657553 0 0.34980249209025183 -0.063474357865320699 0 0.35472253155892502 -0.068395270968063401 0 0.3502840157486049 -0.055583181436657553 0 0.34876980709143918 -0.036804132634757111 0 0.36552082236990341 -0.042261935088275922 0 0.3567572465296398 -0.028300240308235611 0 0.34876980709143918 -0.036804132634757111 0 0.36552082236990341 -0.042261935088275922 0 0.3502840157486049 -0.055583181436657553 0 0.36552082236990341 -0.042261935088275922 0 0.37096486530484057 -0.058236420929508259 0 0.3502840157486049 -0.055583181436657553 0 0.37096486530484057 -0.058236420929508259 0 0.37036238702559748 -0.076146834841134659 0 0.38333741963197843 -0.065496938221855289 0 0.37096486530484057 -0.058236420929508259 0 0.37036238702559748 -0.076146834841134659 0 0.3502840157486049 -0.055583181436657553 0 0.37036238702559748 -0.076146834841134659 0 0.37036238702559748 -0.076146834841134659 0 0.35472253155892502 -0.068395270968063401 0 0.35439705838588692 -0.077054866778644621 0 0.37036238702559748 -0.076146834841134659 0 0.36026598055858428 -0.086219317086442732 0 0.35439705838588692 -0.077054866778644621 0 0.37036238702559748 -0.076146834841134659 0 0.373127492796404 -0.092661058915291472 0 0.36026598055858428 -0.086219317086442732 0 0.373127492796404 -0.092661058915291472 0 0.36026598055858428 -0.086219317086442732 0 0.35442896873054819 -0.093899165736773108 0 0.36026598055858428 -0.086219317086442732 0 0.34819406691839527 -0.085912356067407769 0 0.35439705838588692 -0.077054866778644621 0 0.36026598055858428 -0.086219317086442732 0 0.34819406691839527 -0.085912356067407769 0 0.35442896873054819 -0.093899165736773108 0 0.34819406691839527 -0.085912356067407769 0 0.35442896873054819 -0.093899165736773108 0 0.34250823495700278 -0.096843945418323016 0 0.34819406691839527 -0.085912356067407769 0 0.35439705838588692 -0.077054866778644621 0 0.34213718893203959 -0.07422010281979162 0 0.3502840157486049 -0.055583181436657553 0 0.37036238702559748 -0.076146834841134659 0 0.35472253155892502 -0.068395270968063401 0 0.34876670454428399 -0.06971711391855949 0 0.35439705838588692 -0.077054866778644621 0 0.34213718893203959 -0.07422010281979162 0 0.34980249209025183 -0.063474357865320699 0 0.34876670454428399 -0.06971711391855949 0 0.34180884154053498 -0.065879049105621951 0 0.34876670454428399 -0.06971711391855949 0 0.34180884154053498 -0.065879049105621951 0 0.34213718893203959 -0.07422010281979162 0 0.34980249209025183 -0.063474357865320699 0 0.34876670454428399 -0.06971711391855949 0 0.35472253155892502 -0.068395270968063401 0 0.34876670454428399 -0.06971711391855949 0 0.35472253155892502 -0.068395270968063401 0 0.35439705838588692 -0.077054866778644621 0 0.36703358201424818 -0.1205643964158449 0 0.35968204517414459 -0.1107584800748472 0 0.35606369033391522 -0.1259709067163762 0 0.37980885755413418 -0.11928611433555709 0 0.36703358201424818 -0.1205643964158449 0 0.37262698081820339 -0.10985920037046069 0 0.36703358201424818 -0.1205643964158449 0 0.37262698081820339 -0.10985920037046069 0 0.35968204517414459 -0.1107584800748472 0 0.373127492796404 -0.092661058915291472 0 0.3478296054219725 -0.1088376685674099 0 0.373127492796404 -0.092661058915291472 0 0.37262698081820339 -0.10985920037046069 0 0.35968204517414459 -0.1107584800748472 0 0.373127492796404 -0.092661058915291472 0 0.35968204517414459 -0.1107584800748472 0 0.3478296054219725 -0.1088376685674099 0 0.373127492796404 -0.092661058915291472 0 0.35442896873054819 -0.093899165736773108 0 0.3478296054219725 -0.1088376685674099 0 0.35442896873054819 -0.093899165736773108 0 0.3478296054219725 -0.1088376685674099 0 0.34250823495700278 -0.096843945418323016 0 0.3478296054219725 -0.1088376685674099 0 0.34004518790650529 -0.12527848050574 0 0.35606369033391522 -0.1259709067163762 0 0.35968204517414459 -0.1107584800748472 0 0.3478296054219725 -0.1088376685674099 0 0.35606369033391522 -0.1259709067163762 0 0.35968204517414459 -0.1107584800748472 0 0.35606369033391522 -0.1259709067163762 0 0.3478296054219725 -0.1088376685674099 0 0.3336003219875231 -0.1076211020920432 0 0.32253171804754088 -0.12501427821952829 0 0.3478296054219725 -0.1088376685674099 0 0.32253171804754088 -0.12501427821952829 0 0.34004518790650529 -0.12527848050574 0 0.3478296054219725 -0.1088376685674099 0 0.32253171804754088 -0.12501427821952829 0 0.3336003219875231 -0.1076211020920432 0 0.3322859580981179 -0.098725703467523684 0 0.32284609341298121 -0.10868391478743129 0 0.3478296054219725 -0.1088376685674099 0 0.3336003219875231 -0.1076211020920432 0 0.34250823495700278 -0.096843945418323016 0 0.3336003219875231 -0.1076211020920432 0 0.34250823495700278 -0.096843945418323016 0 0.3322859580981179 -0.098725703467523684 0 0.34250823495700278 -0.096843945418323016 0 0.3322859580981179 -0.098725703467523684 0 0.33540967344911948 -0.088036983583798772 0 0.32220919005921328 -0.094454801116449272 0 0.31258915767766499 -0.1029799685902579 0 0.31246538712165289 -0.087003597160487944 0 0.3322859580981179 -0.098725703467523684 0 0.32220919005921328 -0.094454801116449272 0 0.32284609341298121 -0.10868391478743129 0 0.32220919005921328 -0.094454801116449272 0 0.31258915767766499 -0.1029799685902579 0 0.32284609341298121 -0.10868391478743129 0 0.31258915767766499 -0.1029799685902579 0 0.32284609341298121 -0.10868391478743129 0 0.30701266551867318 -0.11795202584412939 0 0.3336003219875231 -0.1076211020920432 0 0.32284609341298121 -0.10868391478743129 0 0.32253171804754088 -0.12501427821952829 0 0.32284609341298121 -0.10868391478743129 0 0.30701266551867318 -0.11795202584412939 0 0.32253171804754088 -0.12501427821952829 0 0.33198766712898281 -0.064044197254424853 0 0.34213718893203959 -0.07422010281979162 0 0.32642601186692399 -0.078569743361430744 0 0.33198766712898281 -0.064044197254424853 0 0.34180884154053498 -0.065879049105621951 0 0.34213718893203959 -0.07422010281979162 0 0.34213718893203959 -0.07422010281979162 0 0.33540967344911948 -0.088036983583798772 0 0.32642601186692399 -0.078569743361430744 0 0.34819406691839527 -0.085912356067407769 0 0.34213718893203959 -0.07422010281979162 0 0.33540967344911948 -0.088036983583798772 0 0.34819406691839527 -0.085912356067407769 0 0.34250823495700278 -0.096843945418323016 0 0.33540967344911948 -0.088036983583798772 0 0.3322859580981179 -0.098725703467523684 0 0.32220919005921328 -0.094454801116449272 0 0.33540967344911948 -0.088036983583798772 0 0.32220919005921328 -0.094454801116449272 0 0.33540967344911948 -0.088036983583798772 0 0.32642601186692399 -0.078569743361430744 0 0.32220919005921328 -0.094454801116449272 0 0.32642601186692399 -0.078569743361430744 0 0.31246538712165289 -0.087003597160487944 0 0.32642601186692399 -0.078569743361430744 0 0.31246538712165289 -0.087003597160487944 0 0.32642601186692399 -0.078569743361430744 0 0.31829608624605688 -0.065472752473192938 0 0.31246538712165289 -0.087003597160487944 0 0.33198766712898281 -0.064044197254424853 0 0.32642601186692399 -0.078569743361430744 0 0.31829608624605688 -0.065472752473192938 0 0.31829608624605688 -0.065472752473192938 0 0.30185769253542699 -0.063958230015169509 0 0.31246538712165289 -0.087003597160487944 0 0.30185769253542699 -0.063958230015169509 0 0.29485077890903838 -0.08576786692377969 0 0.31246538712165289 -0.087003597160487944 0 0.29485077890903838 -0.08576786692377969 0 0.29850476237638052 -0.095437450959542897 0 0.30185769253542699 -0.063958230015169509 0 0.31246538712165289 -0.087003597160487944 0 0.29485077890903838 -0.08576786692377969 0 0.31246538712165289 -0.087003597160487944 0 0.29850476237638052 -0.095437450959542897 0 0.29485077890903838 -0.08576786692377969 0 0.29011601486440819 -0.10050523777883651 0 0.27233191485367331 -0.086662364145387083 0 0.29485077890903838 -0.08576786692377969 0 0.29850476237638052 -0.095437450959542897 0 0.29485077890903838 -0.08576786692377969 0 0.29011601486440819 -0.10050523777883651 0 0.30185769253542699 -0.063958230015169509 0 0.29485077890903838 -0.08576786692377969 0 0.28549509337792828 -0.061009794462930381 0 0.29485077890903838 -0.08576786692377969 0 0.27233191485367331 -0.086662364145387083 0 0.28549509337792828 -0.061009794462930381 0 0.29485077890903838 -0.08576786692377969 0 0.28549509337792828 -0.061009794462930381 0 0.30701266551867318 -0.11795202584412939 0 0.29478762612759141 -0.11288625738249181 0 0.29867666688697703 -0.1272849549211697 0 0.30701266551867318 -0.11795202584412939 0 0.29850476237638052 -0.095437450959542897 0 0.29478762612759141 -0.11288625738249181 0 0.31258915767766499 -0.1029799685902579 0 0.30701266551867318 -0.11795202584412939 0 0.29850476237638052 -0.095437450959542897 0 0.30701266551867318 -0.11795202584412939 0 0.29850476237638052 -0.095437450959542897 0 0.31258915767766499 -0.1029799685902579 0 0.31246538712165289 -0.087003597160487944 0 0.29850476237638052 -0.095437450959542897 0 0.29850476237638052 -0.095437450959542897 0 0.29011601486440819 -0.10050523777883651 0 0.29478762612759141 -0.11288625738249181 0 0.29850476237638052 -0.095437450959542897 0 0.29011601486440819 -0.10050523777883651 0 0.29485077890903838 -0.08576786692377969 0 0.29850476237638052 -0.095437450959542897 0 0.29011601486440819 -0.10050523777883651 0 0.29011601486440819 -0.10050523777883651 0 0.27631136395687561 -0.10884486509677729 0 0.29011601486440819 -0.10050523777883651 0 0.28377904751550082 -0.12022960778689511 0 0.29011601486440819 -0.10050523777883651 0 0.28377904751550082 -0.12022960778689511 0 0.27631136395687561 -0.10884486509677729 0 0.29011601486440819 -0.10050523777883651 0 0.29478762612759141 -0.11288625738249181 0 0.28377904751550082 -0.12022960778689511 0 0.29478762612759141 -0.11288625738249181 0 0.28377904751550082 -0.12022960778689511 0 0.29867666688697703 -0.1272849549211697 0 0.28377904751550082 -0.12022960778689511 0 0.27500980117207829 -0.12155323577333579 0 0.27631136395687561 -0.10884486509677729 0 0.27631136395687561 -0.10884486509677729 0 0.26250671304934198 -0.1171844924147165 0 0.27500980117207829 -0.12155323577333579 0 0.27631136395687561 -0.10884486509677729 0 0.26250671304934198 -0.1171844924147165 0 0.29011601486440819 -0.10050523777883651 0 0.27631136395687561 -0.10884486509677729 0 0.27233191485367331 -0.086662364145387083 0 0.27631136395687561 -0.10884486509677729 0 0.26480060580106352 -0.1019600400236301 0 0.27233191485367331 -0.086662364145387083 0 0.27631136395687561 -0.10884486509677729 0 0.26480060580106352 -0.1019600400236301 0 0.26250671304934198 -0.1171844924147165 0 0.26480060580106352 -0.1019600400236301 0 0.27233191485367331 -0.086662364145387083 0 0.248052431344363 -0.095148438437639593 0 0.26480060580106352 -0.1019600400236301 0 0.26250671304934198 -0.1171844924147165 0 0.248052431344363 -0.095148438437639593 0 0.26250671304934198 -0.1171844924147165 0 0.248052431344363 -0.095148438437639593 0 0.26250671304934198 -0.1171844924147165 0 0.248052431344363 -0.095148438437639593 0 0.24260121657943401 -0.11258968035378961 0 0.26250671304934198 -0.1171844924147165 0 0.2441250445765018 -0.1282891748563233 0 0.27233191485367331 -0.086662364145387083 0 0.25578894406637898 -0.071814983055159112 0 0.28549509337792828 -0.061009794462930381 0 0.27233191485367331 -0.086662364145387083 0 0.25578894406637898 -0.071814983055159112 0 0.248052431344363 -0.095148438437639593 0 0.25578894406637898 -0.071814983055159112 0 0.26356106344924501 -0.050736506704392427 0 0.24466000719816181 -0.052572806154117767 0 0.27613940784681967 -0.036251722002080641 0 0.28549509337792828 -0.061009794462930381 0 0.26356106344924501 -0.050736506704392427 0 0.27613940784681967 -0.036251722002080641 0 0.28549509337792828 -0.061009794462930381 0 0.25578894406637898 -0.071814983055159112 0 0.26356106344924501 -0.050736506704392427 0 0.28549509337792828 -0.061009794462930381 0 0.26356106344924501 -0.050736506704392427 0 0.25572186475693609 -0.032033227847674262 0 0.24466000719816181 -0.052572806154117767 0 0.26356106344924501 -0.050736506704392427 0 0.27613940784681967 -0.036251722002080641 0 0.25572186475693609 -0.032033227847674262 0 0.25572186475693609 -0.032033227847674262 0 0.24466000719816181 -0.052572806154117767 0 0.25572186475693609 -0.032033227847674262 0 0.25159771702699008 -0.014371615300676641 0 0.26678372231571063 -0.011493649541230871 0 0.25572186475693609 -0.032033227847674262 0 0.26678372231571063 -0.011493649541230871 0 0.26489192350979318 -0.0064873577240775106 0 0.2403210271001277 -0.0038011986657945939 0 0.25900523844679291 0.0090906536209348996 0 0.26489192350979318 -0.0064873577240775106 0 0.2403210271001277 -0.0038011986657945939 0 0.25159771702699008 -0.014371615300676641 0 0.26489192350979318 -0.0064873577240775106 0 0.2403210271001277 -0.0038011986657945939 0 0.25159771702699008 -0.014371615300676641 0 0.26489192350979318 -0.0064873577240775106 0 0.26678372231571063 -0.011493649541230871 0 0.2692248172919926 -0.0069610417805164738 0 0.27741899960964289 -0.015799745368864509 0 0.28512431700806451 -0.0086992195202469716 0 0.2692248172919926 -0.0069610417805164738 0 0.27791710391185381 -0.0010379811687957271 0 0.28512431700806451 -0.0086992195202469716 0 0.2692248172919926 -0.0069610417805164738 0 0.28512431700806451 -0.0086992195202469716 0 0.26701986470523431 0.0028523954276382379 0 0.26489192350979318 -0.0064873577240775106 0 0.2692248172919926 -0.0069610417805164738 0 0.26489192350979318 -0.0064873577240775106 0 0.2692248172919926 -0.0069610417805164738 0 0.2692248172919926 -0.0069610417805164738 0 0.26678372231571063 -0.011493649541230871 0 0.27741899960964289 -0.015799745368864509 0 0.26489192350979318 -0.0064873577240775106 0 0.26678372231571063 -0.011493649541230871 0 0.26489192350979318 -0.0064873577240775106 0 0.2692248172919926 -0.0069610417805164738 0 0.26678372231571063 -0.011493649541230871 0 0.2692248172919926 -0.0069610417805164738 0 0.26678372231571063 -0.011493649541230871 0 0.27613940784681967 -0.036251722002080641 0 0.26678372231571063 -0.011493649541230871 0 0.27613940784681967 -0.036251722002080641 0 0.26678372231571063 -0.011493649541230871 0 0.27741899960964289 -0.015799745368864509 0 0.27613940784681967 -0.036251722002080641 0 0.25572186475693609 -0.032033227847674262 0 0.26678372231571063 -0.011493649541230871 0 0.27613940784681967 -0.036251722002080641 0 0.27741899960964289 -0.015799745368864509 0 0.29413594975842328 -0.02512550933568073 0 0.27741899960964289 -0.015799745368864509 0 0.29413594975842328 -0.02512550933568073 0 0.28512431700806451 -0.0086992195202469716 0 0.28514691493175248 0.01112824383243886 0 0.28512431700806451 -0.0086992195202469716 0 0.30050921735997521 -0.004605356182754896 0 0.29413594975842328 -0.02512550933568073 0 0.28512431700806451 -0.0086992195202469716 0 0.30050921735997521 -0.004605356182754896 0 0.317215061455216 -0.016157064213598971 0 0.31587151978819911 -0.020338956197947448 0 0.30050921735997521 -0.004605356182754896 0 0.31587151978819911 -0.020338956197947448 0 0.30050921735997521 -0.004605356182754896 0 0.317215061455216 -0.016157064213598971 0 0.30050921735997521 -0.004605356182754896 0 0.30690038754225768 -0.0011800486910433781 0 0.317215061455216 -0.016157064213598971 0 0.30690038754225768 -0.0011800486910433781 0 0.31587151978819911 -0.020338956197947448 0 0.29413594975842328 -0.02512550933568073 0 0.30886460616181383 -0.042148593106558697 0 0.31587151978819911 -0.020338956197947448 0 0.29413594975842328 -0.02512550933568073 0 0.30050921735997521 -0.004605356182754896 0 0.31587151978819911 -0.020338956197947448 0 0.30886460616181383 -0.042148593106558697 0 0.29413594975842328 -0.02512550933568073 0 0.30886460616181383 -0.042148593106558697 0 0.29329854993608251 -0.045698769784483992 0 0.31829608624605688 -0.065472752473192938 0 0.30185769253542699 -0.063958230015169509 0 0.30886460616181383 -0.042148593106558697 0 0.30185769253542699 -0.063958230015169509 0 0.30886460616181383 -0.042148593106558697 0 0.30185769253542699 -0.063958230015169509 0 0.30886460616181383 -0.042148593106558697 0 0.29329854993608251 -0.045698769784483992 0 0.27613940784681967 -0.036251722002080641 0 0.28549509337792828 -0.061009794462930381 0 0.29329854993608251 -0.045698769784483992 0 0.30185769253542699 -0.063958230015169509 0 0.28549509337792828 -0.061009794462930381 0 0.29329854993608251 -0.045698769784483992 0 0.27613940784681967 -0.036251722002080641 0 0.29413594975842328 -0.02512550933568073 0 0.29329854993608251 -0.045698769784483992 0 0.28257577117233168 -0.20518994938083851 0 0.30379191605182437 -0.20471284840499179 0 0.29252942038038049 -0.2260032745248223 0 0.28257577117233168 -0.20518994938083851 0 0.29252942038038049 -0.2260032745248223 0 0.27440370665207992 -0.22158759206732809 0 0.28257577117233168 -0.20518994938083851 0 0.29805932829815662 -0.18954203104115269 0 0.30379191605182437 -0.20471284840499179 0 0.28257577117233168 -0.20518994938083851 0 0.29805932829815662 -0.18954203104115269 0 0.28309810934824442 -0.18139531770741171 0 0.29805932829815662 -0.18954203104115269 0 0.30379191605182437 -0.20471284840499179 0 0.31670590871501719 -0.18767809548444081 0 0.30379191605182437 -0.20471284840499179 0 0.31109634377457301 -0.22154997806035029 0 0.29252942038038049 -0.2260032745248223 0 0.31109634377457301 -0.22154997806035029 0 0.30987088180634448 -0.24125362874219619 0 0.29252942038038049 -0.2260032745248223 0 0.30987088180634448 -0.24125362874219619 0 0.29250997527574701 -0.24677647679701359 0 0.29252942038038049 -0.2260032745248223 0 0.29250997527574701 -0.24677647679701359 0 0.29252942038038049 -0.2260032745248223 0 0.27462122614518292 -0.24127539045551061 0 0.29252942038038049 -0.2260032745248223 0 0.27440370665207992 -0.22158759206732809 0 0.27462122614518292 -0.24127539045551061 0 0.27440370665207992 -0.22158759206732809 0 0.27462122614518292 -0.24127539045551061 0 0.25406429941061343 -0.23112732810889039 0 0.29250997527574701 -0.24677647679701359 0 0.27462122614518292 -0.24127539045551061 0 0.27534065318434953 -0.25880162201512719 0 0.25406429941061343 -0.23112732810889039 0 0.25726365536858148 -0.25362034743760148 0 0.24146341680214309 -0.24448521489457861 0 0.27462122614518292 -0.24127539045551061 0 0.25406429941061343 -0.23112732810889039 0 0.25726365536858148 -0.25362034743760148 0 0.27440370665207992 -0.22158759206732809 0 0.25406429941061343 -0.23112732810889039 0 0.25948399805722178 -0.21095426616987389 0 0.25406429941061343 -0.23112732810889039 0 0.25948399805722178 -0.21095426616987389 0 0.23924146656863479 -0.21600942233651971 0 0.25948399805722178 -0.21095426616987389 0 0.25294493867930001 -0.1971512634910503 0 0.23924146656863479 -0.21600942233651971 0 0.28257577117233168 -0.20518994938083851 0 0.27440370665207992 -0.22158759206732809 0 0.25948399805722178 -0.21095426616987389 0 0.28257577117233168 -0.20518994938083851 0 0.26980921912182793 -0.19283345323968809 0 0.28309810934824442 -0.18139531770741171 0 0.28257577117233168 -0.20518994938083851 0 0.25948399805722178 -0.21095426616987389 0 0.26980921912182793 -0.19283345323968809 0 0.26980921912182793 -0.19283345323968809 0 0.25294493867930001 -0.1971512634910503 0 0.26076150014885863 -0.1842019471946538 0 0.25948399805722178 -0.21095426616987389 0 0.26980921912182793 -0.19283345323968809 0 0.25294493867930001 -0.1971512634910503 0 0.25294493867930001 -0.1971512634910503 0 0.25115080808597218 -0.18349252771031549 0 0.26076150014885863 -0.1842019471946538 0 0.25115080808597218 -0.18349252771031549 0 0.26076150014885863 -0.1842019471946538 0 0.25889962869698091 -0.1746028342129915 0 0.26076150014885863 -0.1842019471946538 0 0.25889962869698091 -0.1746028342129915 0 0.27017957837672091 -0.17747692395416009 0 0.25115080808597218 -0.18349252771031549 0 0.25889962869698091 -0.1746028342129915 0 0.24727016264961249 -0.1692414738038848 0 0.25889962869698091 -0.1746028342129915 0 0.26616743516329899 -0.16248611748055669 0 0.24727016264961249 -0.1692414738038848 0 0.26140577643439422 -0.14332992145424359 0 0.24727016264961249 -0.1692414738038848 0 0.26616743516329899 -0.16248611748055669 0 0.26140577643439422 -0.14332992145424359 0 0.24727016264961249 -0.1692414738038848 0 0.25889962869698091 -0.1746028342129915 0 0.26616743516329899 -0.16248611748055669 0 0.27017957837672091 -0.17747692395416009 0 0.26616743516329899 -0.16248611748055669 0 0.27825348655266058 -0.16907893574793359 0 0.27017957837672091 -0.17747692395416009 0 0.26616743516329899 -0.16248611748055669 0 0.27746834422487981 -0.157383776805052 0 0.26883056353995632 -0.15253713768717189 0 0.26616743516329899 -0.16248611748055669 0 0.27746834422487981 -0.157383776805052 0 0.27825348655266058 -0.16907893574793359 0 0.27825348655266058 -0.16907893574793359 0 0.27017957837672091 -0.17747692395416009 0 0.28309810934824442 -0.18139531770741171 0 0.26980921912182793 -0.19283345323968809 0 0.27017957837672091 -0.17747692395416009 0 0.28309810934824442 -0.18139531770741171 0 0.26980921912182793 -0.19283345323968809 0 0.26076150014885863 -0.1842019471946538 0 0.27017957837672091 -0.17747692395416009 0 0.25959792799319448 -0.13115630782849941 0 0.26140577643439422 -0.14332992145424359 0 0.2441250445765018 -0.1282891748563233 0 0.26250671304934198 -0.1171844924147165 0 0.25959792799319448 -0.13115630782849941 0 0.2441250445765018 -0.1282891748563233 0 0.26616743516329899 -0.16248611748055669 0 0.26140577643439422 -0.14332992145424359 0 0.26883056353995632 -0.15253713768717189 0 0.26140577643439422 -0.14332992145424359 0 0.2760714190023883 -0.1442202816071636 0 0.27744208016659549 -0.13995397779495439 0 0.27746834422487981 -0.157383776805052 0 0.26883056353995632 -0.15253713768717189 0 0.27327340453904758 -0.14909472247049649 0 0.27746834422487981 -0.157383776805052 0 0.27327340453904758 -0.14909472247049649 0 0.27944720334199591 -0.1510298305388795 0 0.27746834422487981 -0.157383776805052 0 0.27944720334199591 -0.1510298305388795 0 0.28543485155381138 -0.1532631785773593 0 0.27944720334199591 -0.1510298305388795 0 0.27867318395593788 -0.14678707333018209 0 0.28267306369304718 -0.14834113794059131 0 0.27327340453904758 -0.14909472247049649 0 0.27944720334199591 -0.1510298305388795 0 0.27867318395593788 -0.14678707333018209 0 0.27327340453904758 -0.14909472247049649 0 0.27867318395593788 -0.14678707333018209 0 0.2760714190023883 -0.1442202816071636 0 0.27867318395593788 -0.14678707333018209 0 0.28203705400801471 -0.14409361128278431 0 0.28267306369304718 -0.14834113794059131 0 0.27867318395593788 -0.14678707333018209 0 0.27862243637812423 -0.14384960257769991 0 0.2760714190023883 -0.1442202816071636 0 0.27867318395593788 -0.14678707333018209 0 0.27862243637812423 -0.14384960257769991 0 0.28203705400801471 -0.14409361128278431 0 0.27862243637812423 -0.14384960257769991 0 0.27744208016659549 -0.13995397779495439 0 0.28203705400801471 -0.14409361128278431 0 0.27862243637812423 -0.14384960257769991 0 0.2760714190023883 -0.1442202816071636 0 0.27744208016659549 -0.13995397779495439 0 0.2760714190023883 -0.1442202816071636 0 0.27744208016659549 -0.13995397779495439 0 0.26140577643439422 -0.14332992145424359 0 0.27327340453904758 -0.14909472247049649 0 0.2760714190023883 -0.1442202816071636 0 0.26140577643439422 -0.14332992145424359 0 0.26883056353995632 -0.15253713768717189 0 0.27327340453904758 -0.14909472247049649 0 0.26250671304934198 -0.1171844924147165 0 0.25959792799319448 -0.13115630782849941 0 0.27744208016659549 -0.13995397779495439 0 0.27500980117207829 -0.12155323577333579 0 0.26250671304934198 -0.1171844924147165 0 0.27744208016659549 -0.13995397779495439 0 0.28377904751550082 -0.12022960778689511 0 0.27500980117207829 -0.12155323577333579 0 0.27744208016659549 -0.13995397779495439 0 0.26250671304934198 -0.1171844924147165 0 0.27744208016659549 -0.13995397779495439 0 0.28377904751550082 -0.12022960778689511 0 0.27744208016659549 -0.13995397779495439 0 0.25959792799319448 -0.13115630782849941 0 0.26140577643439422 -0.14332992145424359 0 0.27744208016659549 -0.13995397779495439 0 0.28377904751550082 -0.12022960778689511 0 0.27744208016659549 -0.13995397779495439 0 0.28932323864627207 -0.13288207724771259 0 0.28377904751550082 -0.12022960778689511 0 0.28932323864627207 -0.13288207724771259 0 0.29867666688697703 -0.1272849549211697 0 0.28932323864627207 -0.13288207724771259 0 0.29298701750044082 -0.14249666764126889 0 0.28471550868115297 -0.14112277714418339 0 0.27744208016659549 -0.13995397779495439 0 0.28932323864627207 -0.13288207724771259 0 0.28471550868115297 -0.14112277714418339 0 0.28932323864627207 -0.13288207724771259 0 0.29298701750044082 -0.14249666764126889 0 0.30163685485285813 -0.1392931605370735 0 0.28932323864627207 -0.13288207724771259 0 0.30163685485285813 -0.1392931605370735 0 0.29867666688697703 -0.1272849549211697 0 0.29298701750044082 -0.14249666764126889 0 0.28777302560547591 -0.14653199597375141 0 0.29658698791447552 -0.15065635986343121 0 0.29298701750044082 -0.14249666764126889 0 0.28471550868115297 -0.14112277714418339 0 0.28777302560547591 -0.14653199597375141 0 0.28471550868115297 -0.14112277714418339 0 0.28203705400801471 -0.14409361128278431 0 0.28777302560547591 -0.14653199597375141 0 0.27744208016659549 -0.13995397779495439 0 0.28471550868115297 -0.14112277714418339 0 0.28203705400801471 -0.14409361128278431 0 0.28203705400801471 -0.14409361128278431 0 0.28267306369304718 -0.14834113794059131 0 0.28777302560547591 -0.14653199597375141 0 0.28267306369304718 -0.14834113794059131 0 0.28777302560547591 -0.14653199597375141 0 0.28543485155381138 -0.1532631785773593 0 0.27944720334199591 -0.1510298305388795 0 0.28267306369304718 -0.14834113794059131 0 0.28543485155381138 -0.1532631785773593 0 0.28543485155381138 -0.1532631785773593 0 0.29658698791447552 -0.15065635986343121 0 0.29083384063311041 -0.16291767632429169 0 0.28777302560547591 -0.14653199597375141 0 0.28543485155381138 -0.1532631785773593 0 0.29658698791447552 -0.15065635986343121 0 0.29658698791447552 -0.15065635986343121 0 0.30903803874224028 -0.154944676915485 0 0.29083384063311041 -0.16291767632429169 0 0.30903803874224028 -0.154944676915485 0 0.30163685485285813 -0.1392931605370735 0 0.31552056866096628 -0.14046660072871581 0 0.29658698791447552 -0.15065635986343121 0 0.30903803874224028 -0.154944676915485 0 0.30163685485285813 -0.1392931605370735 0 0.29298701750044082 -0.14249666764126889 0 0.29658698791447552 -0.15065635986343121 0 0.30163685485285813 -0.1392931605370735 0 0.30163685485285813 -0.1392931605370735 0 0.29867666688697703 -0.1272849549211697 0 0.31552056866096628 -0.14046660072871581 0 0.30701266551867318 -0.11795202584412939 0 0.31552056866096628 -0.14046660072871581 0 0.30701266551867318 -0.11795202584412939 0 0.29867666688697703 -0.1272849549211697 0 0.31552056866096628 -0.14046660072871581 0 0.29805932829815662 -0.18954203104115269 0 0.28309810934824442 -0.18139531770741171 0 0.30374566956112747 -0.172867968401477 0 0.28309810934824442 -0.18139531770741171 0 0.29083384063311041 -0.16291767632429169 0 0.30374566956112747 -0.172867968401477 0 0.27825348655266058 -0.16907893574793359 0 0.28309810934824442 -0.18139531770741171 0 0.29083384063311041 -0.16291767632429169 0 0.27746834422487981 -0.157383776805052 0 0.27825348655266058 -0.16907893574793359 0 0.29083384063311041 -0.16291767632429169 0 0.27746834422487981 -0.157383776805052 0 0.28543485155381138 -0.1532631785773593 0 0.29083384063311041 -0.16291767632429169 0 0.30903803874224028 -0.154944676915485 0 0.30374566956112747 -0.172867968401477 0 0.3240284718032595 -0.16298117561330211 0 0.30903803874224028 -0.154944676915485 0 0.29083384063311041 -0.16291767632429169 0 0.30374566956112747 -0.172867968401477 0 0.29805932829815662 -0.18954203104115269 0 0.30374566956112747 -0.172867968401477 0 0.31670590871501719 -0.18767809548444081 0 0.30374566956112747 -0.172867968401477 0 0.3240284718032595 -0.16298117561330211 0 0.31670590871501719 -0.18767809548444081 0 0.3240284718032595 -0.16298117561330211 0 0.33253637494555272 -0.18549575049788841 0 0.31670590871501719 -0.18767809548444081 0 0.3240284718032595 -0.16298117561330211 0 0.33799671017450289 -0.15427059616939481 0 0.34627497421775172 -0.16712500364912669 0 0.3240284718032595 -0.16298117561330211 0 0.33253637494555272 -0.18549575049788841 0 0.34627497421775172 -0.16712500364912669 0 0.34627497421775172 -0.16712500364912669 0 0.34011486294275067 -0.1930235804920396 0 0.33253637494555272 -0.18549575049788841 0 0.34627497421775172 -0.16712500364912669 0 0.34011486294275067 -0.1930235804920396 0 0.3240284718032595 -0.16298117561330211 0 0.33253637494555272 -0.18549575049788841 0 0.31552056866096628 -0.14046660072871581 0 0.32253171804754088 -0.12501427821952829 0 0.33350864076215958 -0.14068733778211151 0 0.30701266551867318 -0.11795202584412939 0 0.31552056866096628 -0.14046660072871581 0 0.32253171804754088 -0.12501427821952829 0 0.3240284718032595 -0.16298117561330211 0 0.31552056866096628 -0.14046660072871581 0 0.33350864076215958 -0.14068733778211151 0 0.3240284718032595 -0.16298117561330211 0 0.31552056866096628 -0.14046660072871581 0 0.30903803874224028 -0.154944676915485 0 0.3240284718032595 -0.16298117561330211 0 0.31552056866096628 -0.14046660072871581 0 0.3240284718032595 -0.16298117561330211 0 0.33799671017450289 -0.15427059616939481 0 0.33350864076215958 -0.14068733778211151 0 0.33799671017450289 -0.15427059616939481 0 0.33350864076215958 -0.14068733778211151 0 0.35233452294063261 -0.141202487244703 0 0.33350864076215958 -0.14068733778211151 0 0.34402529308911528 -0.13391297654823131 0 0.35233452294063261 -0.141202487244703 0 0.32253171804754088 -0.12501427821952829 0 0.33350864076215958 -0.14068733778211151 0 0.34004518790650529 -0.12527848050574 0 0.33350864076215958 -0.14068733778211151 0 0.34004518790650529 -0.12527848050574 0 0.34402529308911528 -0.13391297654823131 0 0.34004518790650529 -0.12527848050574 0 0.35606369033391522 -0.1259709067163762 0 0.34402529308911528 -0.13391297654823131 0 0.35606369033391522 -0.1259709067163762 0 0.34402529308911528 -0.13391297654823131 0 0.35233452294063261 -0.141202487244703 0 0.35606369033391522 -0.1259709067163762 0 0.35233452294063261 -0.141202487244703 0 0.33799671017450289 -0.15427059616939481 0 0.35233452294063261 -0.141202487244703 0 0.34627497421775172 -0.16712500364912669 0 0.35233452294063261 -0.141202487244703 0 0.34627497421775172 -0.16712500364912669 0 0.35233452294063261 -0.141202487244703 0 0.34627497421775172 -0.16712500364912669 0 0.36205375531824391 -0.1583193433668508 0 0.35233452294063261 -0.141202487244703 0 0.37378191529930621 -0.14944718128022591 0 0.37093785636814908 -0.13798691163813531 0 0.35233452294063261 -0.141202487244703 0 0.37378191529930621 -0.14944718128022591 0 0.36205375531824391 -0.1583193433668508 0 0.37378191529930621 -0.14944718128022591 0 0.36205375531824391 -0.1583193433668508 0 0.37308854109455708 -0.16093157526259191 0 0.35606369033391522 -0.1259709067163762 0 0.35233452294063261 -0.141202487244703 0 0.37093785636814908 -0.13798691163813531 0 0.35233452294063261 -0.141202487244703 0 0.37093785636814908 -0.13798691163813531 0 0.37980885755413418 -0.11928611433555709 0 0.36703358201424818 -0.1205643964158449 0 0.37093785636814908 -0.13798691163813531 0 0.36703358201424818 -0.1205643964158449 0 0.35606369033391522 -0.1259709067163762 0 0.37093785636814908 -0.13798691163813531 0 0.35440938842994413 -0.18403818521213361 0 0.34627497421775172 -0.16712500364912669 0 0.34011486294275067 -0.1930235804920396 0 0.35440938842994413 -0.18403818521213361 0 0.34627497421775172 -0.16712500364912669 0 0.36427806099096738 -0.1715772602872144 0 0.34627497421775172 -0.16712500364912669 0 0.36427806099096738 -0.1715772602872144 0 0.36205375531824391 -0.1583193433668508 0 0.36427806099096738 -0.1715772602872144 0 0.37308854109455708 -0.16093157526259191 0 0.38040919016197472 -0.17194589761299089 0 0.36427806099096738 -0.1715772602872144 0 0.36205375531824391 -0.1583193433668508 0 0.37308854109455708 -0.16093157526259191 0 0.36427806099096738 -0.1715772602872144 0 0.37230187155944527 -0.18410680502223259 0 0.38040919016197472 -0.17194589761299089 0 0.35440938842994413 -0.18403818521213361 0 0.36427806099096738 -0.1715772602872144 0 0.37230187155944527 -0.18410680502223259 0 0.37230187155944527 -0.18410680502223259 0 0.36943541324010287 -0.20186706000128449 0 0.35149154164174501 -0.20315574626222041 0 0.37230187155944527 -0.18410680502223259 0 0.36943541324010287 -0.20186706000128449 0 0.38044042972011022 -0.19453179374419641 0 0.37230187155944527 -0.18410680502223259 0 0.35149154164174501 -0.20315574626222041 0 0.35440938842994413 -0.18403818521213361 0 0.37230187155944527 -0.18410680502223259 0 0.35149154164174501 -0.20315574626222041 0 0.36366819524513028 -0.21031437113148671 0 0.35862104841248232 -0.2228308520016947 0 0.37925693361890289 -0.2120285714887051 0 0.36943541324010287 -0.20186706000128449 0 0.36366819524513028 -0.21031437113148671 0 0.35149154164174501 -0.20315574626222041 0 0.36943541324010287 -0.20186706000128449 0 0.36366819524513028 -0.21031437113148671 0 0.37925693361890289 -0.2120285714887051 0 0.35149154164174501 -0.20315574626222041 0 0.33068121172404469 -0.22220468750220829 0 0.35862104841248232 -0.2228308520016947 0 0.36366819524513028 -0.21031437113148671 0 0.35149154164174501 -0.20315574626222041 0 0.35862104841248232 -0.2228308520016947 0 0.35440938842994413 -0.18403818521213361 0 0.35149154164174501 -0.20315574626222041 0 0.34011486294275067 -0.1930235804920396 0 0.35149154164174501 -0.20315574626222041 0 0.34011486294275067 -0.1930235804920396 0 0.3308500388182079 -0.19477209315265531 0 0.35149154164174501 -0.20315574626222041 0 0.3308500388182079 -0.19477209315265531 0 0.32373992820587338 -0.20544181336631709 0 0.33253637494555272 -0.18549575049788841 0 0.34011486294275067 -0.1930235804920396 0 0.3308500388182079 -0.19477209315265531 0 0.35149154164174501 -0.20315574626222041 0 0.32373992820587338 -0.20544181336631709 0 0.33068121172404469 -0.22220468750220829 0 0.35149154164174501 -0.20315574626222041 0 0.33068121172404469 -0.22220468750220829 0 0.30379191605182437 -0.20471284840499179 0 0.31109634377457301 -0.22154997806035029 0 0.32373992820587338 -0.20544181336631709 0 0.31109634377457301 -0.22154997806035029 0 0.32373992820587338 -0.20544181336631709 0 0.33068121172404469 -0.22220468750220829 0 0.3308500388182079 -0.19477209315265531 0 0.32373992820587338 -0.20544181336631709 0 0.31670590871501719 -0.18767809548444081 0 0.33253637494555272 -0.18549575049788841 0 0.3308500388182079 -0.19477209315265531 0 0.31670590871501719 -0.18767809548444081 0 0.30379191605182437 -0.20471284840499179 0 0.32373992820587338 -0.20544181336631709 0 0.31670590871501719 -0.18767809548444081 0 0.30987088180634448 -0.24125362874219619 0 0.33627474799740559 -0.24529035195854479 0 0.32740146312166057 -0.2615598439342075 0 0.30987088180634448 -0.24125362874219619 0 0.33068121172404469 -0.22220468750220829 0 0.33627474799740559 -0.24529035195854479 0 0.31109634377457301 -0.22154997806035029 0 0.30987088180634448 -0.24125362874219619 0 0.33068121172404469 -0.22220468750220829 0 0.30987088180634448 -0.24125362874219619 0 0.33068121172404469 -0.22220468750220829 0 0.33068121172404469 -0.22220468750220829 0 0.33627474799740559 -0.24529035195854479 0 0.34620802689974478 -0.2341148902952345 0 0.33627474799740559 -0.24529035195854479 0 0.3592550994650468 -0.24613366971849041 0 0.34620802689974478 -0.2341148902952345 0 0.33068121172404469 -0.22220468750220829 0 0.34620802689974478 -0.2341148902952345 0 0.35862104841248232 -0.2228308520016947 0 0.3592550994650468 -0.24613366971849041 0 0.34620802689974478 -0.2341148902952345 0 0.35862104841248232 -0.2228308520016947 0 0.35862104841248232 -0.2228308520016947 0 0.37496953662933208 -0.22868277770556319 0 0.37925693361890289 -0.2120285714887051 0 0.3592550994650468 -0.24613366971849041 0 0.35862104841248232 -0.2228308520016947 0 0.37496953662933208 -0.22868277770556319 0 0.3592550994650468 -0.24613366971849041 0 0.37496953662933208 -0.22868277770556319 0 0.37997975350283419 -0.24239130628825581 0 0.3592550994650468 -0.24613366971849041 0 0.37997975350283419 -0.24239130628825581 0 0.37962897743813367 -0.25651992395937562 0 0.37997975350283419 -0.24239130628825581 0 0.39078422201957003 -0.24969070593678949 0 0.39374115574330237 -0.23275594279604889 0 0.37496953662933208 -0.22868277770556319 0 0.37997975350283419 -0.24239130628825581 0 0.39374115574330237 -0.23275594279604889 0 0.37997975350283419 -0.24239130628825581 0 0.39078422201957003 -0.24969070593678949 0 0.37962897743813367 -0.25651992395937562 0 0.39078422201957003 -0.24969070593678949 0 0.40271577749504128 -0.24808950568319249 0 0.39374115574330237 -0.23275594279604889 0 0.40271577749504128 -0.24808950568319249 0 0.39374115574330237 -0.23275594279604889 0 0.41071323046394659 -0.2405815597806012 0 0.39374115574330237 -0.23275594279604889 0 0.40098237452119001 -0.21274615241137729 0 0.41052741769560203 -0.22783696307390669 0 0.39374115574330237 -0.23275594279604889 0 0.41071323046394659 -0.2405815597806012 0 0.41052741769560203 -0.22783696307390669 0 0.39374115574330237 -0.23275594279604889 0 0.37925693361890289 -0.2120285714887051 0 0.40098237452119001 -0.21274615241137729 0 0.37496953662933208 -0.22868277770556319 0 0.39374115574330237 -0.23275594279604889 0 0.37925693361890289 -0.2120285714887051 0 0.36943541324010287 -0.20186706000128449 0 0.37925693361890289 -0.2120285714887051 0 0.38044042972011022 -0.19453179374419641 0 0.37925693361890289 -0.2120285714887051 0 0.38044042972011022 -0.19453179374419641 0 0.39584695818252569 -0.1933624959239181 0 0.38044042972011022 -0.19453179374419641 0 0.39584695818252569 -0.1933624959239181 0 0.3883302688968957 -0.18261969374673129 0 0.39584695818252569 -0.1933624959239181 0 0.40098237452119001 -0.21274615241137729 0 0.4098684358706004 -0.20142281071300391 0 0.39584695818252569 -0.1933624959239181 0 0.4098684358706004 -0.20142281071300391 0 0.41232050953237392 -0.17982343258281169 0 0.37925693361890289 -0.2120285714887051 0 0.39584695818252569 -0.1933624959239181 0 0.40098237452119001 -0.21274615241137729 0 0.41622029565463942 -0.21609362125780859 0 0.4098684358706004 -0.20142281071300391 0 0.4264315356173396 -0.20432849808395781 0 0.40098237452119001 -0.21274615241137729 0 0.41622029565463942 -0.21609362125780859 0 0.4098684358706004 -0.20142281071300391 0 0.4098684358706004 -0.20142281071300391 0 0.4264315356173396 -0.20432849808395781 0 0.41232050953237392 -0.17982343258281169 0 0.4264315356173396 -0.20432849808395781 0 0.41232050953237392 -0.17982343258281169 0 0.4264315356173396 -0.20432849808395781 0 0.43189275347364769 -0.18601108132065861 0 0.4422427041991972 -0.19293897445371649 0 0.4264315356173396 -0.20432849808395781 0 0.41232050953237392 -0.17982343258281169 0 0.43189275347364769 -0.18601108132065861 0 0.4264315356173396 -0.20432849808395781 0 0.44054256170230521 -0.22883356358510401 0 0.4264315356173396 -0.20432849808395781 0 0.42740075470870198 -0.2217522577010006 0 0.44054256170230521 -0.22883356358510401 0 0.41622029565463942 -0.21609362125780859 0 0.4264315356173396 -0.20432849808395781 0 0.42740075470870198 -0.2217522577010006 0 0.41622029565463942 -0.21609362125780859 0 0.42740075470870198 -0.2217522577010006 0 0.42211125551440248 -0.22847504556360529 0 0.42740075470870198 -0.2217522577010006 0 0.42211125551440248 -0.22847504556360529 0 0.43135414754850671 -0.23039238084196881 0 0.42211125551440248 -0.22847504556360529 0 0.42953670257014748 -0.23642300718324211 0 0.42008770906388448 -0.23759219001855961 0 0.42211125551440248 -0.22847504556360529 0 0.43135414754850671 -0.23039238084196881 0 0.42953670257014748 -0.23642300718324211 0 0.43135414754850671 -0.23039238084196881 0 0.43570292594701721 -0.2354153486954452 0 0.44054256170230521 -0.22883356358510401 0 0.42740075470870198 -0.2217522577010006 0 0.43135414754850671 -0.23039238084196881 0 0.44054256170230521 -0.22883356358510401 0 0.43135414754850671 -0.23039238084196881 0 0.43570292594701721 -0.2354153486954452 0 0.42953670257014748 -0.23642300718324211 0 0.43570292594701721 -0.2354153486954452 0 0.43468079386219632 -0.24191883787933049 0 0.44107348969050558 -0.240693309601615 0 0.43468079386219632 -0.24191883787933049 0 0.4271596561998503 -0.244205651647634 0 0.42953670257014748 -0.23642300718324211 0 0.43570292594701721 -0.2354153486954452 0 0.43468079386219632 -0.24191883787933049 0 0.42953670257014748 -0.23642300718324211 0 0.43292967301130941 -0.2488540036824014 0 0.43917511256413022 -0.2466480151322302 0 0.43871762778532231 -0.25212208882244802 0 0.43468079386219632 -0.24191883787933049 0 0.43292967301130941 -0.2488540036824014 0 0.43917511256413022 -0.2466480151322302 0 0.43468079386219632 -0.24191883787933049 0 0.43292967301130941 -0.2488540036824014 0 0.4271596561998503 -0.244205651647634 0 0.4271596561998503 -0.244205651647634 0 0.4190014546393992 -0.24696823138092139 0 0.42541254610488072 -0.25270056741268049 0 0.43292967301130941 -0.2488540036824014 0 0.4271596561998503 -0.244205651647634 0 0.42541254610488072 -0.25270056741268049 0 0.4271596561998503 -0.244205651647634 0 0.42008770906388448 -0.23759219001855961 0 0.4190014546393992 -0.24696823138092139 0 0.4271596561998503 -0.244205651647634 0 0.42953670257014748 -0.23642300718324211 0 0.42008770906388448 -0.23759219001855961 0 0.42008770906388448 -0.23759219001855961 0 0.4190014546393992 -0.24696823138092139 0 0.41071323046394659 -0.2405815597806012 0 0.4190014546393992 -0.24696823138092139 0 0.41071323046394659 -0.2405815597806012 0 0.41170531542548788 -0.25126417515390992 0 0.40271577749504128 -0.24808950568319249 0 0.41071323046394659 -0.2405815597806012 0 0.41170531542548788 -0.25126417515390992 0 0.42008770906388448 -0.23759219001855961 0 0.41071323046394659 -0.2405815597806012 0 0.41052741769560203 -0.22783696307390669 0 0.40098237452119001 -0.21274615241137729 0 0.41622029565463942 -0.21609362125780859 0 0.41052741769560203 -0.22783696307390669 0 0.41622029565463942 -0.21609362125780859 0 0.42211125551440248 -0.22847504556360529 0 0.41052741769560203 -0.22783696307390669 0 0.42211125551440248 -0.22847504556360529 0 0.42008770906388448 -0.23759219001855961 0 0.41052741769560203 -0.22783696307390669 0 0.38943037724261159 -0.1347904899183642 0 0.39869330261889507 -0.14602014112377221 0 0.41208161927757919 -0.13087523561031761 0 0.40724277249555002 -0.1192463337858536 0 0.38943037724261159 -0.1347904899183642 0 0.41208161927757919 -0.13087523561031761 0 0.38943037724261159 -0.1347904899183642 0 0.41208161927757919 -0.13087523561031761 0 0.37980885755413418 -0.11928611433555709 0 0.37093785636814908 -0.13798691163813531 0 0.38943037724261159 -0.1347904899183642 0 0.37093785636814908 -0.13798691163813531 0 0.38943037724261159 -0.1347904899183642 0 0.37378191529930621 -0.14944718128022591 0 0.38943037724261159 -0.1347904899183642 0 0.38491978370229318 -0.15336819376567751 0 0.38943037724261159 -0.1347904899183642 0 0.38491978370229318 -0.15336819376567751 0 0.37378191529930621 -0.14944718128022591 0 0.37093785636814908 -0.13798691163813531 0 0.38943037724261159 -0.1347904899183642 0 0.37378191529930621 -0.14944718128022591 0 0.37308854109455708 -0.16093157526259191 0 0.38491978370229318 -0.15336819376567751 0 0.39869330261889507 -0.14602014112377221 0 0.39311220147714548 -0.16505786378224471 0 0.41392253139484558 -0.14600892254225711 0 0.38491978370229318 -0.15336819376567751 0 0.39869330261889507 -0.14602014112377221 0 0.39311220147714548 -0.16505786378224471 0 0.38943037724261159 -0.1347904899183642 0 0.38491978370229318 -0.15336819376567751 0 0.39869330261889507 -0.14602014112377221 0 0.39311220147714548 -0.16505786378224471 0 0.41392253139484558 -0.14600892254225711 0 0.39311220147714548 -0.16505786378224471 0 0.41068030945659773 -0.16570921719709561 0 0.41392253139484558 -0.14600892254225711 0 0.39311220147714548 -0.16505786378224471 0 0.39994988354525202 -0.1760395102610646 0 0.41068030945659773 -0.16570921719709561 0 0.38491978370229318 -0.15336819376567751 0 0.39311220147714548 -0.16505786378224471 0 0.38040919016197472 -0.17194589761299089 0 0.37308854109455708 -0.16093157526259191 0 0.38491978370229318 -0.15336819376567751 0 0.38040919016197472 -0.17194589761299089 0 0.38491978370229318 -0.15336819376567751 0 0.38040919016197472 -0.17194589761299089 0 0.37230187155944527 -0.18410680502223259 0 0.39311220147714548 -0.16505786378224471 0 0.3883302688968957 -0.18261969374673129 0 0.37230187155944527 -0.18410680502223259 0 0.39311220147714548 -0.16505786378224471 0 0.38040919016197472 -0.17194589761299089 0 0.37230187155944527 -0.18410680502223259 0 0.38044042972011022 -0.19453179374419641 0 0.3883302688968957 -0.18261969374673129 0 0.37230187155944527 -0.18410680502223259 0 0.39311220147714548 -0.16505786378224471 0 0.39584695818252569 -0.1933624959239181 0 0.39994988354525202 -0.1760395102610646 0 0.41232050953237392 -0.17982343258281169 0 0.39584695818252569 -0.1933624959239181 0 0.3883302688968957 -0.18261969374673129 0 0.39994988354525202 -0.1760395102610646 0 0.39311220147714548 -0.16505786378224471 0 0.3883302688968957 -0.18261969374673129 0 0.39994988354525202 -0.1760395102610646 0 0.39994988354525202 -0.1760395102610646 0 0.41232050953237392 -0.17982343258281169 0 0.41068030945659773 -0.16570921719709561 0 0.41232050953237392 -0.17982343258281169 0 0.42257653670861861 -0.1716129151356913 0 0.41068030945659773 -0.16570921719709561 0 0.43189275347364769 -0.18601108132065861 0 0.42257653670861861 -0.1716129151356913 0 0.43412364138782639 -0.16920851808495629 0 0.43189275347364769 -0.18601108132065861 0 0.43412364138782639 -0.16920851808495629 0 0.44001273516831668 -0.1783764172762527 0 0.41232050953237392 -0.17982343258281169 0 0.43189275347364769 -0.18601108132065861 0 0.42257653670861861 -0.1716129151356913 0 0.43412364138782639 -0.16920851808495629 0 0.42386546969264721 -0.157312326492934 0 0.43988674428557012 -0.15629540566381109 0 0.42257653670861861 -0.1716129151356913 0 0.43412364138782639 -0.16920851808495629 0 0.42386546969264721 -0.157312326492934 0 0.42386546969264721 -0.157312326492934 0 0.41068030945659773 -0.16570921719709561 0 0.41392253139484558 -0.14600892254225711 0 0.42257653670861861 -0.1716129151356913 0 0.42386546969264721 -0.157312326492934 0 0.41068030945659773 -0.16570921719709561 0 0.39869330261889507 -0.14602014112377221 0 0.41392253139484558 -0.14600892254225711 0 0.41208161927757919 -0.13087523561031761 0 0.42386546969264721 -0.157312326492934 0 0.41392253139484558 -0.14600892254225711 0 0.43230421280140441 -0.1433416226119455 0 0.42386546969264721 -0.157312326492934 0 0.43230421280140441 -0.1433416226119455 0 0.43988674428557012 -0.15629540566381109 0 0.42661387223904329 -0.12098454377727109 0 0.43473286131254663 -0.1269599813022704 0 0.41208161927757919 -0.13087523561031761 0 0.41392253139484558 -0.14600892254225711 0 0.43230421280140441 -0.1433416226119455 0 0.43473286131254663 -0.1269599813022704 0 0.43230421280140441 -0.1433416226119455 0 0.43473286131254663 -0.1269599813022704 0 0.43648454183824659 -0.13175811878196239 0 0.41392253139484558 -0.14600892254225711 0 0.43473286131254663 -0.1269599813022704 0 0.43473286131254663 -0.1269599813022704 0 0.41208161927757919 -0.13087523561031761 0 0.43473286131254663 -0.1269599813022704 0 0.43652399803370612 -0.1266503843383173 0 0.43473286131254663 -0.1269599813022704 0 0.43652399803370612 -0.1266503843383173 0 0.43686479974981568 -0.1288436488615915 0 0.43473286131254663 -0.1269599813022704 0 0.43686479974981568 -0.1288436488615915 0 0.43648454183824659 -0.13175811878196239 0 0.41392253139484558 -0.14600892254225711 0 0.43473286131254663 -0.1269599813022704 0 0.41208161927757919 -0.13087523561031761 0 0.46233294642030121 -0.13029577410444981 0 0.4507048422038758 -0.1254569291466279 0 0.44969735458306581 -0.1318629992909984 0 0.46233294642030121 -0.13029577410444981 0 0.44969735458306581 -0.1318629992909984 0 0.44471813751157008 -0.14226443976851619 0 0.4507048422038758 -0.1254569291466279 0 0.44969735458306581 -0.1318629992909984 0 0.44103349219651622 -0.1294348541443999 0 0.43686479974981568 -0.1288436488615915 0 0.43648454183824659 -0.13175811878196239 0 0.44103349219651622 -0.1294348541443999 0 0.43652399803370612 -0.1266503843383173 0 0.43686479974981568 -0.1288436488615915 0 0.44103349219651622 -0.1294348541443999 0 0.44969735458306581 -0.1318629992909984 0 0.44103349219651622 -0.1294348541443999 0 0.44471813751157008 -0.14226443976851619 0 0.43648454183824659 -0.13175811878196239 0 0.44103349219651622 -0.1294348541443999 0 0.44471813751157008 -0.14226443976851619 0 0.43230421280140441 -0.1433416226119455 0 0.43648454183824659 -0.13175811878196239 0 0.44471813751157008 -0.14226443976851619 0 0.44471813751157008 -0.14226443976851619 0 0.45766723532789633 -0.15879666333412101 0 0.43988674428557012 -0.15629540566381109 0 0.43230421280140441 -0.1433416226119455 0 0.44471813751157008 -0.14226443976851619 0 0.43988674428557012 -0.15629540566381109 0 0.46233294642030121 -0.13029577410444981 0 0.45766723532789633 -0.15879666333412101 0 0.46233294642030121 -0.13029577410444981 0 0.45766723532789633 -0.15879666333412101 0 0.47903454186700689 -0.14491860817462909 0 0.46233294642030121 -0.13029577410444981 0 0.44471813751157008 -0.14226443976851619 0 0.45766723532789633 -0.15879666333412101 0 0.45766723532789633 -0.15879666333412101 0 0.43988674428557012 -0.15629540566381109 0 0.4458378175146181 -0.17411517349359901 0 0.43412364138782639 -0.16920851808495629 0 0.43988674428557012 -0.15629540566381109 0 0.4458378175146181 -0.17411517349359901 0 0.45766723532789633 -0.15879666333412101 0 0.4458378175146181 -0.17411517349359901 0 0.45300152423549178 -0.1872975525637923 0 0.43412364138782639 -0.16920851808495629 0 0.4458378175146181 -0.17411517349359901 0 0.44001273516831668 -0.1783764172762527 0 0.4458378175146181 -0.17411517349359901 0 0.44001273516831668 -0.1783764172762527 0 0.44489139372352893 -0.18154716366216431 0 0.43189275347364769 -0.18601108132065861 0 0.44001273516831668 -0.1783764172762527 0 0.4419738252115778 -0.1858134044909181 0 0.44001273516831668 -0.1783764172762527 0 0.44489139372352893 -0.18154716366216431 0 0.4419738252115778 -0.1858134044909181 0 0.4458378175146181 -0.17411517349359901 0 0.45051520093052061 -0.18628588467377419 0 0.45300152423549178 -0.1872975525637923 0 0.4458378175146181 -0.17411517349359901 0 0.44489139372352893 -0.18154716366216431 0 0.45051520093052061 -0.18628588467377419 0 0.44489139372352893 -0.18154716366216431 0 0.4419738252115778 -0.1858134044909181 0 0.45051520093052061 -0.18628588467377419 0 0.45051520093052061 -0.18628588467377419 0 0.45300152423549178 -0.1872975525637923 0 0.45766723532789633 -0.15879666333412101 0 0.45300152423549178 -0.1872975525637923 0 0.47602254605796679 -0.17263393053228049 0 0.45300152423549178 -0.1872975525637923 0 0.47602254605796679 -0.17263393053228049 0 0.47650076211774711 -0.19685923119094451 0 0.45766723532789633 -0.15879666333412101 0 0.45300152423549178 -0.1872975525637923 0 0.47602254605796679 -0.17263393053228049 0 0.5 -0.18210721193063359 0 0.47650076211774711 -0.19685923119094451 0 0.47602254605796679 -0.17263393053228049 0 0.5 -0.18210721193063359 0 0.5 -0.15779351404316869 0 0.47602254605796679 -0.17263393053228049 0 0.5 -0.15779351404316869 0 0.47903454186700689 -0.14491860817462909 0 0.45766723532789633 -0.15879666333412101 0 0.47602254605796679 -0.17263393053228049 0 0.47903454186700689 -0.14491860817462909 0 0.5 -0.15779351404316869 0 0.47903454186700689 -0.14491860817462909 0 0.5 -0.13347981615570359 0 0.47818452339587708 -0.1165119508780514 0 0.47903454186700689 -0.14491860817462909 0 0.5 -0.13347981615570359 0 0.47818452339587708 -0.1165119508780514 0 0.46233294642030121 -0.13029577410444981 0 0.47903454186700689 -0.14491860817462909 0 0.46031275976808328 -0.23316788994673901 0 0.45494703228505612 -0.22365309056703511 0 0.45215825402727128 -0.23076677405108431 0 0.46031275976808328 -0.23316788994673901 0 0.45530172715096351 -0.23784707953664069 0 0.45215825402727128 -0.23076677405108431 0 0.46031275976808328 -0.23316788994673901 0 0.45494703228505612 -0.22365309056703511 0 0.46412837801973811 -0.21929252942849389 0 0.46031275976808328 -0.23316788994673901 0 0.46412837801973811 -0.21929252942849389 0 0.47030631581894022 -0.23354799250188951 0 0.46031275976808328 -0.23316788994673901 0 0.46848515047489081 -0.24338241864882551 0 0.46066141885548939 -0.24148158248895141 0 0.46031275976808328 -0.23316788994673901 0 0.46848515047489081 -0.24338241864882551 0 0.47030631581894022 -0.23354799250188951 0 0.46848515047489081 -0.24338241864882551 0 0.47379426967759908 -0.2551161382871 0 0.45921282319897938 -0.25088534477896152 0 0.46848515047489081 -0.24338241864882551 0 0.46066141885548939 -0.24148158248895141 0 0.45921282319897938 -0.25088534477896152 0 0.46066141885548939 -0.24148158248895141 0 0.45530172715096351 -0.23784707953664069 0 0.45921282319897938 -0.25088534477896152 0 0.46031275976808328 -0.23316788994673901 0 0.46066141885548939 -0.24148158248895141 0 0.45530172715096351 -0.23784707953664069 0 0.44552755473851618 -0.24512414212957201 0 0.44054256170230521 -0.22883356358510401 0 0.45465358778727077 -0.25333862908624999 0 0.44416337990499422 -0.23293380641746719 0 0.45921282319897938 -0.25088534477896152 0 0.45465358778727077 -0.25333862908624999 0 0.45530172715096351 -0.23784707953664069 0 0.44416337990499422 -0.23293380641746719 0 0.45921282319897938 -0.25088534477896152 0 0.44054256170230521 -0.22883356358510401 0 0.44416337990499422 -0.23293380641746719 0 0.45465358778727077 -0.25333862908624999 0 0.44054256170230521 -0.22883356358510401 0 0.45465358778727077 -0.25333862908624999 0 0.44416337990499422 -0.23293380641746719 0 0.45921282319897938 -0.25088534477896152 0 0.44552755473851618 -0.24512414212957201 0 0.44107348969050558 -0.240693309601615 0 0.44054256170230521 -0.22883356358510401 0 0.44552755473851618 -0.24512414212957201 0 0.44412948591815982 -0.25166394159908168 0 0.44816248816364901 -0.25238097519102243 0 0.44247641072782801 -0.24603235211562469 0 0.43917511256413022 -0.2466480151322302 0 0.44412948591815982 -0.25166394159908168 0 0.44552755473851618 -0.24512414212957201 0 0.44247641072782801 -0.24603235211562469 0 0.44412948591815982 -0.25166394159908168 0 0.44552755473851618 -0.24512414212957201 0 0.44247641072782801 -0.24603235211562469 0 0.44107348969050558 -0.240693309601615 0 0.43468079386219632 -0.24191883787933049 0 0.43917511256413022 -0.2466480151322302 0 0.44107348969050558 -0.240693309601615 0 0.44247641072782801 -0.24603235211562469 0 0.43917511256413022 -0.2466480151322302 0 0.44107348969050558 -0.240693309601615 0 0.43570292594701721 -0.2354153486954452 0 0.44107348969050558 -0.240693309601615 0 0.44054256170230521 -0.22883356358510401 0 0.4264315356173396 -0.20432849808395781 0 0.44054256170230521 -0.22883356358510401 0 0.44673315619821857 -0.2255884067429007 0 0.44054256170230521 -0.22883356358510401 0 0.44416337990499422 -0.23293380641746719 0 0.44673315619821857 -0.2255884067429007 0 0.44416337990499422 -0.23293380641746719 0 0.45215825402727128 -0.23076677405108431 0 0.44673315619821857 -0.2255884067429007 0 0.45530172715096351 -0.23784707953664069 0 0.44416337990499422 -0.23293380641746719 0 0.45215825402727128 -0.23076677405108431 0 0.45494703228505612 -0.22365309056703511 0 0.45215825402727128 -0.23076677405108431 0 0.44673315619821857 -0.2255884067429007 0 0.4264315356173396 -0.20432849808395781 0 0.44673315619821857 -0.2255884067429007 0 0.44986734021685498 -0.20644297965334649 0 0.44673315619821857 -0.2255884067429007 0 0.44986734021685498 -0.20644297965334649 0 0.45494703228505612 -0.22365309056703511 0 0.44673315619821857 -0.2255884067429007 0 0.44986734021685498 -0.20644297965334649 0 0.45300152423549178 -0.1872975525637923 0 0.44986734021685498 -0.20644297965334649 0 0.4422427041991972 -0.19293897445371649 0 0.45300152423549178 -0.1872975525637923 0 0.44986734021685498 -0.20644297965334649 0 0.4264315356173396 -0.20432849808395781 0 0.44986734021685498 -0.20644297965334649 0 0.4422427041991972 -0.19293897445371649 0 0.43189275347364769 -0.18601108132065861 0 0.4419738252115778 -0.1858134044909181 0 0.4422427041991972 -0.19293897445371649 0 0.4419738252115778 -0.1858134044909181 0 0.45051520093052061 -0.18628588467377419 0 0.4422427041991972 -0.19293897445371649 0 0.45051520093052061 -0.18628588467377419 0 0.45300152423549178 -0.1872975525637923 0 0.4422427041991972 -0.19293897445371649 0 0.45300152423549178 -0.1872975525637923 0 0.47650076211774711 -0.19685923119094451 0 0.45300152423549178 -0.1872975525637923 0 0.44986734021685498 -0.20644297965334649 0 0.46374770476768601 -0.204378797979305 0 0.45300152423549178 -0.1872975525637923 0 0.46374770476768601 -0.204378797979305 0 0.47650076211774711 -0.19685923119094451 0 0.45494703228505612 -0.22365309056703511 0 0.46412837801973811 -0.21929252942849389 0 0.44986734021685498 -0.20644297965334649 0 0.46412837801973811 -0.21929252942849389 0 0.44986734021685498 -0.20644297965334649 0 0.46374770476768601 -0.204378797979305 0 0.46412837801973811 -0.21929252942849389 0 0.46374770476768601 -0.204378797979305 0 0.47707366821483449 -0.2120031562722216 0 0.46374770476768601 -0.204378797979305 0 0.47707366821483449 -0.2120031562722216 0 0.47650076211774711 -0.19685923119094451 0 0.47650076211774711 -0.19685923119094451 0 0.50000000000000155 -0.2064209098180986 0 0.5 -0.18210721193063359 0 0.47650076211774711 -0.19685923119094451 0 0.50000000000000155 -0.2064209098180986 0 0.50000000000000155 -0.2064209098180986 0 0.48970053883092229 -0.21844058073303951 0 0.5 -0.23051517486053599 0 0.47707366821483449 -0.2120031562722216 0 0.47650076211774711 -0.19685923119094451 0 0.50000000000000155 -0.2064209098180986 0 0.47707366821483449 -0.2120031562722216 0 0.50000000000000155 -0.2064209098180986 0 0.48970053883092229 -0.21844058073303951 0 0.48970053883092229 -0.21844058073303951 0 0.5 -0.23051517486053599 0 0.47892356359843868 -0.22663529354614381 0 0.5 -0.23051517486053599 0 0.47892356359843868 -0.22663529354614381 0 0.48037632353124621 -0.24431513348718631 0 0.47707366821483449 -0.2120031562722216 0 0.48970053883092229 -0.21844058073303951 0 0.47892356359843868 -0.22663529354614381 0 0.46412837801973811 -0.21929252942849389 0 0.47707366821483449 -0.2120031562722216 0 0.47892356359843868 -0.22663529354614381 0 0.46412837801973811 -0.21929252942849389 0 0.47892356359843868 -0.22663529354614381 0 0.47030631581894022 -0.23354799250188951 0 0.47892356359843868 -0.22663529354614381 0 0.47030631581894022 -0.23354799250188951 0 0.48037632353124621 -0.24431513348718631 0 0.46848515047489081 -0.24338241864882551 0 0.48037632353124621 -0.24431513348718631 0 0.47379426967759908 -0.2551161382871 0 0.46848515047489081 -0.24338241864882551 0 0.47030631581894022 -0.23354799250188951 0 0.48037632353124621 -0.24431513348718631 0 0.5 -0.23051517486053599 0 0.48037632353124621 -0.24431513348718631 0 0.5 -0.25460943990297341 0 0.48037632353124621 -0.24431513348718631 0 0.5 -0.25460943990297341 0 0.48801367558502928 -0.26571606475136661 0 0.50000000000000022 -0.27870370494541058 0 0.48801367558502928 -0.26571606475136661 0 0.48931170978694949 -0.28678842150195 0 0.5 -0.25460943990297341 0 0.50000000000000022 -0.27870370494541058 0 0.48801367558502928 -0.26571606475136661 0 0.47426226649296438 -0.26883688314045567 0 0.47311276962135179 -0.28508457281551508 0 0.48931170978694949 -0.28678842150195 0 0.48801367558502928 -0.26571606475136661 0 0.47426226649296438 -0.26883688314045567 0 0.48931170978694949 -0.28678842150195 0 0.47426226649296438 -0.26883688314045567 0 0.48931170978694949 -0.28678842150195 0 0.47426226649296438 -0.26883688314045567 0 0.47379426967759908 -0.2551161382871 0 0.45921282319897938 -0.25088534477896152 0 0.48037632353124621 -0.24431513348718631 0 0.48801367558502928 -0.26571606475136661 0 0.47379426967759908 -0.2551161382871 0 0.48801367558502928 -0.26571606475136661 0 0.47426226649296438 -0.26883688314045567 0 0.47379426967759908 -0.2551161382871 0 0.47426226649296438 -0.26883688314045567 0 0.45921282319897938 -0.25088534477896152 0 0.45867357026917482 -0.26750260605831883 0 0.45921282319897938 -0.25088534477896152 0 0.45465358778727077 -0.25333862908624999 0 0.45867357026917482 -0.26750260605831883 0 0.47426226649296438 -0.26883688314045567 0 0.45921282319897938 -0.25088534477896152 0 0.45465358778727077 -0.25333862908624999 0 0.45867357026917482 -0.26750260605831883 0 0.44833932421064931 -0.25939718794918609 0 0.47426226649296438 -0.26883688314045567 0 0.45867357026917482 -0.26750260605831883 0 0.47311276962135179 -0.28508457281551508 0 0.45867357026917482 -0.26750260605831883 0 0.45341190072698129 -0.28456089864454431 0 0.47311276962135179 -0.28508457281551508 0 0.45867357026917482 -0.26750260605831883 0 0.44699314029513348 -0.27052543302498011 0 0.44833932421064931 -0.25939718794918609 0 0.45867357026917482 -0.26750260605831883 0 0.44699314029513348 -0.27052543302498011 0 0.45341190072698129 -0.28456089864454431 0 0.44699314029513348 -0.27052543302498011 0 0.43919222284155002 -0.27830080619971909 0 0.45341190072698129 -0.28456089864454431 0 0.44699314029513348 -0.27052543302498011 0 0.4385944452063526 -0.26988256164274432 0 0.44171549930134968 -0.26335377754900008 0 0.44699314029513348 -0.27052543302498011 0 0.43919222284155002 -0.27830080619971909 0 0.4385944452063526 -0.26988256164274432 0 0.4385944452063526 -0.26988256164274432 0 0.44171549930134968 -0.26335377754900008 0 0.43505770238402619 -0.26461992241763038 0 0.44171549930134968 -0.26335377754900008 0 0.43505770238402619 -0.26461992241763038 0 0.43648606404966428 -0.25753784968455939 0 0.44171549930134968 -0.26335377754900008 0 0.4419947323052219 -0.25760620957214742 0 0.44833932421064931 -0.25939718794918609 0 0.44171549930134968 -0.26335377754900008 0 0.4419947323052219 -0.25760620957214742 0 0.43648606404966428 -0.25753784968455939 0 0.43871762778532231 -0.25212208882244802 0 0.4419947323052219 -0.25760620957214742 0 0.43648606404966428 -0.25753784968455939 0 0.43917511256413022 -0.2466480151322302 0 0.43871762778532231 -0.25212208882244802 0 0.44412948591815982 -0.25166394159908168 0 0.43871762778532231 -0.25212208882244802 0 0.44412948591815982 -0.25166394159908168 0 0.4419947323052219 -0.25760620957214742 0 0.44412948591815982 -0.25166394159908168 0 0.4419947323052219 -0.25760620957214742 0 0.44833932421064931 -0.25939718794918609 0 0.44552755473851618 -0.24512414212957201 0 0.45465358778727077 -0.25333862908624999 0 0.44816248816364901 -0.25238097519102243 0 0.44412948591815982 -0.25166394159908168 0 0.44816248816364901 -0.25238097519102243 0 0.44833932421064931 -0.25939718794918609 0 0.45465358778727077 -0.25333862908624999 0 0.44816248816364901 -0.25238097519102243 0 0.44833932421064931 -0.25939718794918609 0 0.44699314029513348 -0.27052543302498011 0 0.44171549930134968 -0.26335377754900008 0 0.44833932421064931 -0.25939718794918609 0 0.44647667656812801 -0.29965112561783208 0 0.45137615954030103 -0.31548320476916308 0 0.43444005925229529 -0.31032905382020182 0 0.44647667656812801 -0.29965112561783208 0 0.43234265414258233 -0.29853995875229639 0 0.43444005925229529 -0.31032905382020182 0 0.44647667656812801 -0.29965112561783208 0 0.43824437449043008 -0.28966145028223478 0 0.43234265414258233 -0.29853995875229639 0 0.43919222284155002 -0.27830080619971909 0 0.43824437449043008 -0.28966145028223478 0 0.45341190072698129 -0.28456089864454431 0 0.44647667656812801 -0.29965112561783208 0 0.43824437449043008 -0.28966145028223478 0 0.45341190072698129 -0.28456089864454431 0 0.45341190072698129 -0.28456089864454431 0 0.47034393466362562 -0.30113581313555698 0 0.47311276962135179 -0.28508457281551508 0 0.44647667656812801 -0.29965112561783208 0 0.45341190072698129 -0.28456089864454431 0 0.47034393466362562 -0.30113581313555698 0 0.44647667656812801 -0.29965112561783208 0 0.47034393466362562 -0.30113581313555698 0 0.45137615954030103 -0.31548320476916308 0 0.47034393466362562 -0.30113581313555698 0 0.45137615954030103 -0.31548320476916308 0 0.47034393466362562 -0.30113581313555698 0 0.48609801829406513 -0.30033747069297151 0 0.48569838996659448 -0.31355153071673758 0 0.47034393466362562 -0.30113581313555698 0 0.48931170978694949 -0.28678842150195 0 0.47034393466362562 -0.30113581313555698 0 0.48931170978694949 -0.28678842150195 0 0.48609801829406513 -0.30033747069297151 0 0.47034393466362562 -0.30113581313555698 0 0.47311276962135179 -0.28508457281551508 0 0.48931170978694949 -0.28678842150195 0 0.50000000000000022 -0.27870370494541058 0 0.48931170978694949 -0.28678842150195 0 0.50000000000000078 -0.29953781349142472 0 0.48931170978694949 -0.28678842150195 0 0.48609801829406513 -0.30033747069297151 0 0.50000000000000078 -0.29953781349142472 0 0.48931170978694949 -0.28678842150195 0 0.50000000000000078 -0.29953781349142472 0 0.50000000000000022 -0.27870370494541058 0 0.48931170978694949 -0.28678842150195 0 0.48609801829406513 -0.30033747069297151 0 0.50000000000000078 -0.29953781349142472 0 0.48569838996659448 -0.31355153071673758 0 0.50000000000000078 -0.29953781349142472 0 0.48569838996659448 -0.31355153071673758 0 0.5 -0.32898483254094879 0 0.48569838996659448 -0.31355153071673758 0 0.5 -0.32898483254094879 0 0.4688689480981888 -0.32767699473222389 0 0.5 -0.32898483254094879 0 0.4688689480981888 -0.32767699473222389 0 0.47786930722932619 -0.34789692042963721 0 0.47034393466362562 -0.30113581313555698 0 0.48569838996659448 -0.31355153071673758 0 0.4688689480981888 -0.32767699473222389 0 0.5 -0.35843185159047292 0 0.47350757658922271 -0.36952329647287657 0 0.48620898030354948 -0.37918006028240092 0 0.5 -0.32898483254094879 0 0.5 -0.35843185159047292 0 0.47786930722932619 -0.34789692042963721 0 0.47786930722932619 -0.34789692042963721 0 0.47350757658922271 -0.36952329647287657 0 0.4655023448943818 -0.35719392053603988 0 0.5 -0.35843185159047292 0 0.47786930722932619 -0.34789692042963721 0 0.47350757658922271 -0.36952329647287657 0 0.45861777817450511 -0.36868509019449441 0 0.46271268513135372 -0.37747780338012438 0 0.45189505467726382 -0.37680202485208381 0 0.45861777817450511 -0.36868509019449441 0 0.44976491938063418 -0.36654981963533051 0 0.45189505467726382 -0.37680202485208381 0 0.47350757658922271 -0.36952329647287657 0 0.45861777817450511 -0.36868509019449441 0 0.46271268513135372 -0.37747780338012438 0 0.47350757658922271 -0.36952329647287657 0 0.45861777817450511 -0.36868509019449441 0 0.4655023448943818 -0.35719392053603988 0 0.45861777817450511 -0.36868509019449441 0 0.45601593140111862 -0.35990106862703092 0 0.44976491938063418 -0.36654981963533051 0 0.45861777817450511 -0.36868509019449441 0 0.45601593140111862 -0.35990106862703092 0 0.4655023448943818 -0.35719392053603988 0 0.47786930722932619 -0.34789692042963721 0 0.4655023448943818 -0.35719392053603988 0 0.45483150576365328 -0.34688844598146529 0 0.45601593140111862 -0.35990106862703092 0 0.4655023448943818 -0.35719392053603988 0 0.45483150576365328 -0.34688844598146529 0 0.45483150576365328 -0.34688844598146529 0 0.44020278747438729 -0.34510251360014332 0 0.44674619010751909 -0.35809924702175239 0 0.44020278747438729 -0.34510251360014332 0 0.43833245073232718 -0.35667994920926999 0 0.44674619010751909 -0.35809924702175239 0 0.45601593140111862 -0.35990106862703092 0 0.45483150576365328 -0.34688844598146529 0 0.44674619010751909 -0.35809924702175239 0 0.44674619010751909 -0.35809924702175239 0 0.44976491938063418 -0.36654981963533051 0 0.4432564460600979 -0.36443112509465042 0 0.45601593140111862 -0.35990106862703092 0 0.44674619010751909 -0.35809924702175239 0 0.44976491938063418 -0.36654981963533051 0 0.43833245073232718 -0.35667994920926999 0 0.44674619010751909 -0.35809924702175239 0 0.4432564460600979 -0.36443112509465042 0 0.43833245073232718 -0.35667994920926999 0 0.4432564460600979 -0.36443112509465042 0 0.43792231759094602 -0.36891862507496959 0 0.44976491938063418 -0.36654981963533051 0 0.4432564460600979 -0.36443112509465042 0 0.44173316381622191 -0.37123334486501253 0 0.4432564460600979 -0.36443112509465042 0 0.43792231759094602 -0.36891862507496959 0 0.44173316381622191 -0.37123334486501253 0 0.44976491938063418 -0.36654981963533051 0 0.44173316381622191 -0.37123334486501253 0 0.45189505467726382 -0.37680202485208381 0 0.4688689480981888 -0.32767699473222389 0 0.44744827938524201 -0.33285238680196422 0 0.45137615954030103 -0.31548320476916308 0 0.47034393466362562 -0.30113581313555698 0 0.4688689480981888 -0.32767699473222389 0 0.45137615954030103 -0.31548320476916308 0 0.4688689480981888 -0.32767699473222389 0 0.45483150576365328 -0.34688844598146529 0 0.44744827938524201 -0.33285238680196422 0 0.4688689480981888 -0.32767699473222389 0 0.47786930722932619 -0.34789692042963721 0 0.45483150576365328 -0.34688844598146529 0 0.45483150576365328 -0.34688844598146529 0 0.44020278747438729 -0.34510251360014332 0 0.44744827938524201 -0.33285238680196422 0 0.44020278747438729 -0.34510251360014332 0 0.44744827938524201 -0.33285238680196422 0 0.43240838441697632 -0.3298305964027694 0 0.45137615954030103 -0.31548320476916308 0 0.43240838441697632 -0.3298305964027694 0 0.43444005925229529 -0.31032905382020182 0 0.44744827938524201 -0.33285238680196422 0 0.45137615954030103 -0.31548320476916308 0 0.43240838441697632 -0.3298305964027694 0 0.45137615954030103 -0.31548320476916308 0 0.43240838441697632 -0.3298305964027694 0 0.42213808355103849 -0.31598854483820238 0 0.43240838441697632 -0.3298305964027694 0 0.43444005925229529 -0.31032905382020182 0 0.42213808355103849 -0.31598854483820238 0 0.43240838441697632 -0.3298305964027694 0 0.42063894984562838 -0.32794228428963068 0 0.43240838441697632 -0.3298305964027694 0 0.42063894984562838 -0.32794228428963068 0 0.42353451242868528 -0.3468482352548341 0 0.44020278747438729 -0.34510251360014332 0 0.43240838441697632 -0.3298305964027694 0 0.42353451242868528 -0.3468482352548341 0 0.4091467072664246 -0.32477784543469868 0 0.42353451242868528 -0.3468482352548341 0 0.4091467072664246 -0.32477784543469868 0 0.42063894984562838 -0.32794228428963068 0 0.42353451242868528 -0.3468482352548341 0 0.41089111725139721 -0.34269856142925859 0 0.4091467072664246 -0.32477784543469868 0 0.42353451242868528 -0.3468482352548341 0 0.41089111725139721 -0.34269856142925859 0 0.4091467072664246 -0.32477784543469868 0 0.40425152475925441 -0.33267251048098129 0 0.4091467072664246 -0.32477784543469868 0 0.41500843607520332 -0.31765864762852652 0 0.40782856937156858 -0.30992265774813338 0 0.42213808355103849 -0.31598854483820238 0 0.41500843607520332 -0.31765864762852652 0 0.41528987034135628 -0.30966190583196729 0 0.4091467072664246 -0.32477784543469868 0 0.41500843607520332 -0.31765864762852652 0 0.42063894984562838 -0.32794228428963068 0 0.42213808355103849 -0.31598854483820238 0 0.41500843607520332 -0.31765864762852652 0 0.42063894984562838 -0.32794228428963068 0 0.43792231759094602 -0.36891862507496959 0 0.42718561209050382 -0.36319872422350041 0 0.42353451242868528 -0.3468482352548341 0 0.43792231759094602 -0.36891862507496959 0 0.44173316381622191 -0.37123334486501253 0 0.43018656974337233 -0.3834847830435818 0 0.43792231759094602 -0.36891862507496959 0 0.42661372489006832 -0.37330916830292271 0 0.42718561209050382 -0.36319872422350041 0 0.42661372489006832 -0.37330916830292271 0 0.42718561209050382 -0.36319872422350041 0 0.42067189345231581 -0.36371886826127509 0 0.43792231759094602 -0.36891862507496959 0 0.42353451242868528 -0.3468482352548341 0 0.42718561209050382 -0.36319872422350041 0 0.42353451242868528 -0.3468482352548341 0 0.42067189345231581 -0.36371886826127509 0 0.43833245073232718 -0.35667994920926999 0 0.43792231759094602 -0.36891862507496959 0 0.42353451242868528 -0.3468482352548341 0 0.44020278747438729 -0.34510251360014332 0 0.43833245073232718 -0.35667994920926999 0 0.42353451242868528 -0.3468482352548341 0 0.42353451242868528 -0.3468482352548341 0 0.41118608239640281 -0.35773278074769221 0 0.42067189345231581 -0.36371886826127509 0 0.41089111725139721 -0.34269856142925859 0 0.42353451242868528 -0.3468482352548341 0 0.41118608239640281 -0.35773278074769221 0 0.41089111725139721 -0.34269856142925859 0 0.41118608239640281 -0.35773278074769221 0 0.40345194384414051 -0.35159281539693271 0 0.42661372489006832 -0.37330916830292271 0 0.42067189345231581 -0.36371886826127509 0 0.40978735765452701 -0.3715350174533486 0 0.41118608239640281 -0.35773278074769221 0 0.42067189345231581 -0.36371886826127509 0 0.40978735765452701 -0.3715350174533486 0 0.39634156242657448 -0.36307978873527152 0 0.40109715774397792 -0.38275058451944882 0 0.38240798480570892 -0.37852010314408679 0 0.40978735765452701 -0.3715350174533486 0 0.39634156242657448 -0.36307978873527152 0 0.40109715774397792 -0.38275058451944882 0 0.41118608239640281 -0.35773278074769221 0 0.40978735765452701 -0.3715350174533486 0 0.39634156242657448 -0.36307978873527152 0 0.39634156242657448 -0.36307978873527152 0 0.40345194384414051 -0.35159281539693271 0 0.39209624447111568 -0.34275609473116092 0 0.41118608239640281 -0.35773278074769221 0 0.39634156242657448 -0.36307978873527152 0 0.40345194384414051 -0.35159281539693271 0 0.40345194384414051 -0.35159281539693271 0 0.40267270758147689 -0.34242999550958342 0 0.39209624447111568 -0.34275609473116092 0 0.41089111725139721 -0.34269856142925859 0 0.40345194384414051 -0.35159281539693271 0 0.40267270758147689 -0.34242999550958342 0 0.39634156242657448 -0.36307978873527152 0 0.37618485313497191 -0.35303141813195599 0 0.39209624447111568 -0.34275609473116092 0 0.39634156242657448 -0.36307978873527152 0 0.37618485313497191 -0.35303141813195599 0 0.38240798480570892 -0.37852010314408679 0 0.37618485313497191 -0.35303141813195599 0 0.38240798480570892 -0.37852010314408679 0 0.40425152475925441 -0.33267251048098129 0 0.39300241843570249 -0.3110378002903586 0 0.4091467072664246 -0.32477784543469868 0 0.39300241843570249 -0.3110378002903586 0 0.39475890210416392 -0.30270745561456308 0 0.4091467072664246 -0.32477784543469868 0 0.39475890210416392 -0.30270745561456308 0 0.4091467072664246 -0.32477784543469868 0 0.40425152475925441 -0.33267251048098129 0 0.39300241843570249 -0.3110378002903586 0 0.40425152475925441 -0.33267251048098129 0 0.38822804294015112 -0.3261114208869455 0 0.39300241843570249 -0.3110378002903586 0 0.40425152475925441 -0.33267251048098129 0 0.39209624447111568 -0.34275609473116092 0 0.38822804294015112 -0.3261114208869455 0 0.40425152475925441 -0.33267251048098129 0 0.40267270758147689 -0.34242999550958342 0 0.39209624447111568 -0.34275609473116092 0 0.41089111725139721 -0.34269856142925859 0 0.40425152475925441 -0.33267251048098129 0 0.40267270758147689 -0.34242999550958342 0 0.37618485313497191 -0.35303141813195599 0 0.39209624447111568 -0.34275609473116092 0 0.36996172146423478 -0.32754273311982529 0 0.39209624447111568 -0.34275609473116092 0 0.38822804294015112 -0.3261114208869455 0 0.36996172146423478 -0.32754273311982529 0 0.38822804294015112 -0.3261114208869455 0 0.38164260336710232 -0.31615744579396521 0 0.36996172146423478 -0.32754273311982529 0 0.38822804294015112 -0.3261114208869455 0 0.38164260336710232 -0.31615744579396521 0 0.39300241843570249 -0.3110378002903586 0 0.38177106400017391 -0.30862132669022929 0 0.38029466251644028 -0.29986647237510811 0 0.37214457168145071 -0.30742358830148531 0 0.39300241843570249 -0.3110378002903586 0 0.38175331211215058 -0.28940309009973592 0 0.38164260336710232 -0.31615744579396521 0 0.38177106400017391 -0.30862132669022929 0 0.37214457168145071 -0.30742358830148531 0 0.39300241843570249 -0.3110378002903586 0 0.39475890210416392 -0.30270745561456308 0 0.38175331211215058 -0.28940309009973592 0 0.38029466251644028 -0.29986647237510811 0 0.39300241843570249 -0.3110378002903586 0 0.38175331211215058 -0.28940309009973592 0 0.38164260336710232 -0.31615744579396521 0 0.38177106400017391 -0.30862132669022929 0 0.39300241843570249 -0.3110378002903586 0 0.38177106400017391 -0.30862132669022929 0 0.38029466251644028 -0.29986647237510811 0 0.39300241843570249 -0.3110378002903586 0 0.4091467072664246 -0.32477784543469868 0 0.39475890210416392 -0.30270745561456308 0 0.40782856937156858 -0.30992265774813338 0 0.39475890210416392 -0.30270745561456308 0 0.40429755200803852 -0.3015310211561289 0 0.40149673409666831 -0.29605944040816118 0 0.40429755200803852 -0.3015310211561289 0 0.40149673409666831 -0.29605944040816118 0 0.40808526015628949 -0.29523915444325732 0 0.39475890210416392 -0.30270745561456308 0 0.40429755200803852 -0.3015310211561289 0 0.40782856937156858 -0.30992265774813338 0 0.39475890210416392 -0.30270745561456308 0 0.39730188346755718 -0.29161135963752222 0 0.39142402894447709 -0.286435042888317 0 0.40304007274729231 -0.28920821118933449 0 0.39763996789025002 -0.28367275964584732 0 0.40506285170047662 -0.28083922749534462 0 0.40304007274729231 -0.28920821118933449 0 0.39730188346755718 -0.29161135963752222 0 0.39763996789025002 -0.28367275964584732 0 0.40304007274729231 -0.28920821118933449 0 0.40149673409666831 -0.29605944040816118 0 0.40808526015628949 -0.29523915444325732 0 0.40304007274729231 -0.28920821118933449 0 0.40149673409666831 -0.29605944040816118 0 0.39730188346755718 -0.29161135963752222 0 0.39475890210416392 -0.30270745561456308 0 0.40149673409666831 -0.29605944040816118 0 0.39730188346755718 -0.29161135963752222 0 0.39763996789025002 -0.28367275964584732 0 0.39142402894447709 -0.286435042888317 0 0.39195529533629442 -0.27806131115557092 0 0.39730188346755718 -0.29161135963752222 0 0.39763996789025002 -0.28367275964584732 0 0.39142402894447709 -0.286435042888317 0 0.39475890210416392 -0.30270745561456308 0 0.38037109694190308 -0.28063706579442749 0 0.39475890210416392 -0.30270745561456308 0 0.38175331211215058 -0.28940309009973592 0 0.38037109694190308 -0.28063706579442749 0 0.39142402894447709 -0.286435042888317 0 0.38037109694190308 -0.28063706579442749 0 0.38713910380081668 -0.27916368249890622 0 0.39475890210416392 -0.30270745561456308 0 0.39142402894447709 -0.286435042888317 0 0.38037109694190308 -0.28063706579442749 0 0.38029466251644028 -0.29986647237510811 0 0.38175331211215058 -0.28940309009973592 0 0.37093408616543422 -0.29499190654120538 0 0.38175331211215058 -0.28940309009973592 0 0.37050420578859872 -0.26776837990911312 0 0.38175331211215058 -0.28940309009973592 0 0.38037109694190308 -0.28063706579442749 0 0.37050420578859872 -0.26776837990911312 0 0.38037109694190308 -0.28063706579442749 0 0.38480599398059251 -0.27152131015730951 0 0.37050420578859872 -0.26776837990911312 0 0.38480599398059251 -0.27152131015730951 0 0.39244458987216091 -0.26161417174629581 0 0.39261010037049587 -0.27136451795379868 0 0.38037109694190308 -0.28063706579442749 0 0.38480599398059251 -0.27152131015730951 0 0.38713910380081668 -0.27916368249890622 0 0.38480599398059251 -0.27152131015730951 0 0.38713910380081668 -0.27916368249890622 0 0.39195529533629442 -0.27806131115557092 0 0.39142402894447709 -0.286435042888317 0 0.38713910380081668 -0.27916368249890622 0 0.39195529533629442 -0.27806131115557092 0 0.38480599398059251 -0.27152131015730951 0 0.39195529533629442 -0.27806131115557092 0 0.39261010037049587 -0.27136451795379868 0 0.38480599398059251 -0.27152131015730951 0 0.37962897743813367 -0.25651992395937562 0 0.37050420578859872 -0.26776837990911312 0 0.38480599398059251 -0.27152131015730951 0 0.37962897743813367 -0.25651992395937562 0 0.39244458987216091 -0.26161417174629581 0 0.39078422201957003 -0.24969070593678949 0 0.37962897743813367 -0.25651992395937562 0 0.39244458987216091 -0.26161417174629581 0 0.39078422201957003 -0.24969070593678949 0 0.39244458987216091 -0.26161417174629581 0 0.40410575785193181 -0.25828851936103481 0 0.39244458987216091 -0.26161417174629581 0 0.40410575785193181 -0.25828851936103481 0 0.39822211595326279 -0.26692182407365989 0 0.40410575785193181 -0.25828851936103481 0 0.39822211595326279 -0.26692182407365989 0 0.40492140044583741 -0.26790783212078467 0 0.40410575785193181 -0.25828851936103481 0 0.40492140044583741 -0.26790783212078467 0 0.40945290732670331 -0.26396052327947239 0 0.39078422201957003 -0.24969070593678949 0 0.40271577749504128 -0.24808950568319249 0 0.40410575785193181 -0.25828851936103481 0 0.40271577749504128 -0.24808950568319249 0 0.40410575785193181 -0.25828851936103481 0 0.41170531542548788 -0.25126417515390992 0 0.39763996789025002 -0.28367275964584732 0 0.39195529533629442 -0.27806131115557092 0 0.39894115351181969 -0.27424944313259708 0 0.39195529533629442 -0.27806131115557092 0 0.39261010037049587 -0.27136451795379868 0 0.39894115351181969 -0.27424944313259708 0 0.39244458987216091 -0.26161417174629581 0 0.39261010037049587 -0.27136451795379868 0 0.39822211595326279 -0.26692182407365989 0 0.39261010037049587 -0.27136451795379868 0 0.39822211595326279 -0.26692182407365989 0 0.39894115351181969 -0.27424944313259708 0 0.39822211595326279 -0.26692182407365989 0 0.40492140044583741 -0.26790783212078467 0 0.39894115351181969 -0.27424944313259708 0 0.40492140044583741 -0.26790783212078467 0 0.39894115351181969 -0.27424944313259708 0 0.40712920685057652 -0.27420612675110112 0 0.39763996789025002 -0.28367275964584732 0 0.39894115351181969 -0.27424944313259708 0 0.40506285170047662 -0.28083922749534462 0 0.39894115351181969 -0.27424944313259708 0 0.40506285170047662 -0.28083922749534462 0 0.40712920685057652 -0.27420612675110112 0 0.40506285170047662 -0.28083922749534462 0 0.41284697370079432 -0.2782971556212297 0 0.40712920685057652 -0.27420612675110112 0 0.41284697370079432 -0.2782971556212297 0 0.40712920685057652 -0.27420612675110112 0 0.41387365489395472 -0.26973697538554919 0 0.40492140044583741 -0.26790783212078467 0 0.41387365489395472 -0.26973697538554919 0 0.40945290732670331 -0.26396052327947239 0 0.40492140044583741 -0.26790783212078467 0 0.40712920685057652 -0.27420612675110112 0 0.41387365489395472 -0.26973697538554919 0 0.41387365489395472 -0.26973697538554919 0 0.42135307316749521 -0.27487684751024949 0 0.42100146315739412 -0.26552033609670711 0 0.41284697370079432 -0.2782971556212297 0 0.41387365489395472 -0.26973697538554919 0 0.42135307316749521 -0.27487684751024949 0 0.41284697370079432 -0.2782971556212297 0 0.42135307316749521 -0.27487684751024949 0 0.41975251852593748 -0.28445801958006911 0 0.40410575785193181 -0.25828851936103481 0 0.41170531542548788 -0.25126417515390992 0 0.41491081611508918 -0.25990876625052101 0 0.40410575785193181 -0.25828851936103481 0 0.40945290732670331 -0.26396052327947239 0 0.41491081611508918 -0.25990876625052101 0 0.41387365489395472 -0.26973697538554919 0 0.40945290732670331 -0.26396052327947239 0 0.41491081611508918 -0.25990876625052101 0 0.41387365489395472 -0.26973697538554919 0 0.42100146315739412 -0.26552033609670711 0 0.41491081611508918 -0.25990876625052101 0 0.42100146315739412 -0.26552033609670711 0 0.42163465399116667 -0.25872199059074641 0 0.41491081611508918 -0.25990876625052101 0 0.41170531542548788 -0.25126417515390992 0 0.41491081611508918 -0.25990876625052101 0 0.41853295725520467 -0.25391274615775578 0 0.42163465399116667 -0.25872199059074641 0 0.41491081611508918 -0.25990876625052101 0 0.41853295725520467 -0.25391274615775578 0 0.42163465399116667 -0.25872199059074641 0 0.41853295725520467 -0.25391274615775578 0 0.42541254610488072 -0.25270056741268049 0 0.4190014546393992 -0.24696823138092139 0 0.41853295725520467 -0.25391274615775578 0 0.42541254610488072 -0.25270056741268049 0 0.4190014546393992 -0.24696823138092139 0 0.41170531542548788 -0.25126417515390992 0 0.41853295725520467 -0.25391274615775578 0 0.42163465399116667 -0.25872199059074641 0 0.42541254610488072 -0.25270056741268049 0 0.42845093672784768 -0.26136295507116752 0 0.42541254610488072 -0.25270056741268049 0 0.42845093672784768 -0.26136295507116752 0 0.43126889086453951 -0.25455984543500237 0 0.42100146315739412 -0.26552033609670711 0 0.42163465399116667 -0.25872199059074641 0 0.42845093672784768 -0.26136295507116752 0 0.42845093672784768 -0.26136295507116752 0 0.43505770238402619 -0.26461992241763038 0 0.43648606404966428 -0.25753784968455939 0 0.42845093672784768 -0.26136295507116752 0 0.43505770238402619 -0.26461992241763038 0 0.43027170394141367 -0.27054512142908671 0 0.42845093672784768 -0.26136295507116752 0 0.43126889086453951 -0.25455984543500237 0 0.43648606404966428 -0.25753784968455939 0 0.43871762778532231 -0.25212208882244802 0 0.43126889086453951 -0.25455984543500237 0 0.43648606404966428 -0.25753784968455939 0 0.43292967301130941 -0.2488540036824014 0 0.43871762778532231 -0.25212208882244802 0 0.43126889086453951 -0.25455984543500237 0 0.43292967301130941 -0.2488540036824014 0 0.42541254610488072 -0.25270056741268049 0 0.43126889086453951 -0.25455984543500237 0 0.42135307316749521 -0.27487684751024949 0 0.42956799811030638 -0.28148515248710693 0 0.41975251852593748 -0.28445801958006911 0 0.42135307316749521 -0.27487684751024949 0 0.43027170394141367 -0.27054512142908671 0 0.42956799811030638 -0.28148515248710693 0 0.42135307316749521 -0.27487684751024949 0 0.42100146315739412 -0.26552033609670711 0 0.43027170394141367 -0.27054512142908671 0 0.42100146315739412 -0.26552033609670711 0 0.42845093672784768 -0.26136295507116752 0 0.43027170394141367 -0.27054512142908671 0 0.43919222284155002 -0.27830080619971909 0 0.4385944452063526 -0.26988256164274432 0 0.43027170394141367 -0.27054512142908671 0 0.4385944452063526 -0.26988256164274432 0 0.43505770238402619 -0.26461992241763038 0 0.43027170394141367 -0.27054512142908671 0 0.43919222284155002 -0.27830080619971909 0 0.43027170394141367 -0.27054512142908671 0 0.42956799811030638 -0.28148515248710693 0 0.43824437449043008 -0.28966145028223478 0 0.42956799811030638 -0.28148515248710693 0 0.42651213435721103 -0.29151489344350012 0 0.43919222284155002 -0.27830080619971909 0 0.43824437449043008 -0.28966145028223478 0 0.42956799811030638 -0.28148515248710693 0 0.42956799811030638 -0.28148515248710693 0 0.42651213435721103 -0.29151489344350012 0 0.41975251852593748 -0.28445801958006911 0 0.42651213435721103 -0.29151489344350012 0 0.42265725367426682 -0.30260234616053761 0 0.41710028749217543 -0.29373719746223742 0 0.43824437449043008 -0.28966145028223478 0 0.42651213435721103 -0.29151489344350012 0 0.43234265414258233 -0.29853995875229639 0 0.43234265414258233 -0.29853995875229639 0 0.43444005925229529 -0.31032905382020182 0 0.42265725367426682 -0.30260234616053761 0 0.42213808355103849 -0.31598854483820238 0 0.43444005925229529 -0.31032905382020182 0 0.42265725367426682 -0.30260234616053761 0 0.42651213435721103 -0.29151489344350012 0 0.43234265414258233 -0.29853995875229639 0 0.42265725367426682 -0.30260234616053761 0 0.42265725367426682 -0.30260234616053761 0 0.41237795257390419 -0.3022181237121867 0 0.41710028749217543 -0.29373719746223742 0 0.42213808355103849 -0.31598854483820238 0 0.42265725367426682 -0.30260234616053761 0 0.41528987034135628 -0.30966190583196729 0 0.42265725367426682 -0.30260234616053761 0 0.41528987034135628 -0.30966190583196729 0 0.41237795257390419 -0.3022181237121867 0 0.41500843607520332 -0.31765864762852652 0 0.41528987034135628 -0.30966190583196729 0 0.40782856937156858 -0.30992265774813338 0 0.41528987034135628 -0.30966190583196729 0 0.40782856937156858 -0.30992265774813338 0 0.41237795257390419 -0.3022181237121867 0 0.40429755200803852 -0.3015310211561289 0 0.41237795257390419 -0.3022181237121867 0 0.40808526015628949 -0.29523915444325732 0 0.41237795257390419 -0.3022181237121867 0 0.40808526015628949 -0.29523915444325732 0 0.41710028749217543 -0.29373719746223742 0 0.40429755200803852 -0.3015310211561289 0 0.40782856937156858 -0.30992265774813338 0 0.41237795257390419 -0.3022181237121867 0 0.40808526015628949 -0.29523915444325732 0 0.41113464432764291 -0.28683687095609128 0 0.41710028749217543 -0.29373719746223742 0 0.40304007274729231 -0.28920821118933449 0 0.40808526015628949 -0.29523915444325732 0 0.41113464432764291 -0.28683687095609128 0 0.40304007274729231 -0.28920821118933449 0 0.40506285170047662 -0.28083922749534462 0 0.41113464432764291 -0.28683687095609128 0 0.40506285170047662 -0.28083922749534462 0 0.41284697370079432 -0.2782971556212297 0 0.41113464432764291 -0.28683687095609128 0 0.41284697370079432 -0.2782971556212297 0 0.41113464432764291 -0.28683687095609128 0 0.41975251852593748 -0.28445801958006911 0 0.41113464432764291 -0.28683687095609128 0 0.41975251852593748 -0.28445801958006911 0 0.41710028749217543 -0.29373719746223742 0 0.42651213435721103 -0.29151489344350012 0 0.41975251852593748 -0.28445801958006911 0 0.41710028749217543 -0.29373719746223742 0 0.44904225237101492 -0.50000000000000033 0 0.45004401508161579 -0.4787570704506926 0 0.43421240961939139 -0.49999999999999972 0 0.44904225237101492 -0.50000000000000033 0 0.45004401508161579 -0.4787570704506926 0 0.45004401508161579 -0.4787570704506926 0 0.43065669488015018 -0.48070599894378141 0 0.43421240961939139 -0.49999999999999972 0 0.45004401508161579 -0.4787570704506926 0 0.43566071353235342 -0.46355264343579089 0 0.43065669488015018 -0.48070599894378141 0 0.45004401508161579 -0.4787570704506926 0 0.47115653038696198 -0.47458122981084161 0 0.46628057992027361 -0.46016057875321997 0 0.44904225237101492 -0.50000000000000033 0 0.45004401508161579 -0.4787570704506926 0 0.47115653038696198 -0.47458122981084161 0 0.5 -0.5 0 0.47115653038696198 -0.47458122981084161 0 0.5 -0.45186915055015731 0 0.44904225237101492 -0.50000000000000033 0 0.5 -0.5 0 0.47115653038696198 -0.47458122981084161 0 0.47115653038696198 -0.47458122981084161 0 0.48077102025797452 -0.45549611643706822 0 0.46628057992027361 -0.46016057875321997 0 0.47115653038696198 -0.47458122981084161 0 0.48077102025797452 -0.45549611643706822 0 0.47115653038696198 -0.47458122981084161 0 0.48077102025797452 -0.45549611643706822 0 0.5 -0.45186915055015731 0 0.48077102025797452 -0.45549611643706822 0 0.47047881694724669 -0.44903457528364688 0 0.46628057992027361 -0.46016057875321997 0 0.48077102025797452 -0.45549611643706822 0 0.49038551012898701 -0.43641100306329461 0 0.48077102025797452 -0.45549611643706822 0 0.5 -0.45186915055015731 0 0.49038551012898701 -0.43641100306329461 0 0.48077102025797452 -0.45549611643706822 0 0.47754833864438551 -0.44218946840133899 0 0.49038551012898701 -0.43641100306329461 0 0.48077102025797452 -0.45549611643706822 0 0.47754833864438551 -0.44218946840133899 0 0.47047881694724669 -0.44903457528364688 0 0.47754833864438551 -0.44218946840133899 0 0.47047881694724669 -0.44903457528364688 0 0.46852552080992549 -0.44048839695443598 0 0.45926862510367472 -0.44683831587217138 0 0.45104577779221661 -0.45751414090138481 0 0.45204754050281742 -0.43627121135207708 0 0.46852552080992549 -0.44048839695443598 0 0.45926862510367472 -0.44683831587217138 0 0.46246741514551631 -0.43660855176593799 0 0.45926862510367472 -0.44683831587217138 0 0.45204754050281742 -0.43627121135207708 0 0.46246741514551631 -0.43660855176593799 0 0.47047881694724669 -0.44903457528364688 0 0.46852552080992549 -0.44048839695443598 0 0.45926862510367472 -0.44683831587217138 0 0.47047881694724669 -0.44903457528364688 0 0.45926862510367472 -0.44683831587217138 0 0.46628057992027361 -0.46016057875321997 0 0.45004401508161579 -0.4787570704506926 0 0.46628057992027361 -0.46016057875321997 0 0.45104577779221661 -0.45751414090138481 0 0.45926862510367472 -0.44683831587217138 0 0.46628057992027361 -0.46016057875321997 0 0.45104577779221661 -0.45751414090138481 0 0.45004401508161579 -0.4787570704506926 0 0.45104577779221661 -0.45751414090138481 0 0.43566071353235342 -0.46355264343579089 0 0.45004401508161579 -0.4787570704506926 0 0.45104577779221661 -0.45751414090138481 0 0.45104577779221661 -0.45751414090138481 0 0.43823690162582152 -0.442656551615 0 0.43566071353235342 -0.46355264343579089 0 0.45104577779221661 -0.45751414090138481 0 0.45204754050281742 -0.43627121135207708 0 0.45104577779221661 -0.45751414090138481 0 0.43823690162582152 -0.442656551615 0 0.45204754050281742 -0.43627121135207708 0 0.45430136434918972 -0.42968477721519488 0 0.43040870373640522 -0.42960949699457918 0 0.4445886017928069 -0.41946726592624312 0 0.45430136434918972 -0.42968477721519488 0 0.43040870373640522 -0.42960949699457918 0 0.43823690162582152 -0.442656551615 0 0.45204754050281742 -0.43627121135207708 0 0.43040870373640522 -0.42960949699457918 0 0.45204754050281742 -0.43627121135207708 0 0.45430136434918972 -0.42968477721519488 0 0.43040870373640522 -0.42960949699457918 0 0.4445886017928069 -0.41946726592624312 0 0.45626400488001012 -0.41852232274223139 0 0.45430136434918972 -0.42968477721519488 0 0.4445886017928069 -0.41946726592624312 0 0.45030067759957459 -0.40920304056939583 0 0.43607093377631329 -0.40042142092979582 0 0.4445886017928069 -0.41946726592624312 0 0.45030067759957459 -0.40920304056939583 0 0.45626400488001012 -0.41852232274223139 0 0.45030067759957459 -0.40920304056939583 0 0.45626400488001012 -0.41852232274223139 0 0.46461227738567717 -0.40399461877989912 0 0.45626400488001012 -0.41852232274223139 0 0.46727733630446061 -0.4192115361233813 0 0.46461227738567717 -0.40399461877989912 0 0.45430136434918972 -0.42968477721519488 0 0.47819402496197411 -0.42976005743581058 0 0.46727733630446061 -0.4192115361233813 0 0.45430136434918972 -0.42968477721519488 0 0.47819402496197411 -0.42976005743581058 0 0.45430136434918972 -0.42968477721519488 0 0.46246741514551631 -0.43660855176593799 0 0.47819402496197411 -0.42976005743581058 0 0.45626400488001012 -0.41852232274223139 0 0.46727733630446061 -0.4192115361233813 0 0.45430136434918972 -0.42968477721519488 0 0.45204754050281742 -0.43627121135207708 0 0.45430136434918972 -0.42968477721519488 0 0.46246741514551631 -0.43660855176593799 0 0.5 -0.45186915055015731 0 0.49038551012898701 -0.43641100306329461 0 0.49999999999999978 -0.41732588968952122 0 0.47754833864438551 -0.44218946840133899 0 0.46852552080992549 -0.44048839695443598 0 0.47819402496197411 -0.42976005743581058 0 0.46852552080992549 -0.44048839695443598 0 0.46246741514551631 -0.43660855176593799 0 0.47819402496197411 -0.42976005743581058 0 0.47754833864438551 -0.44218946840133899 0 0.47819402496197411 -0.42976005743581058 0 0.49038551012898701 -0.43641100306329461 0 0.47819402496197411 -0.42976005743581058 0 0.49038551012898701 -0.43641100306329461 0 0.49999999999999978 -0.41732588968952122 0 0.49038551012898701 -0.43641100306329461 0 0.49999999999999978 -0.41732588968952122 0 0.49999999999999978 -0.41732588968952122 0 0.47803026485536992 -0.41388491951904732 0 0.48349128744616809 -0.3981477611786608 0 0.47819402496197411 -0.42976005743581058 0 0.49999999999999978 -0.41732588968952122 0 0.47803026485536992 -0.41388491951904732 0 0.46727733630446061 -0.4192115361233813 0 0.47819402496197411 -0.42976005743581058 0 0.47803026485536992 -0.41388491951904732 0 0.46727733630446061 -0.4192115361233813 0 0.47803026485536992 -0.41388491951904732 0 0.46461227738567717 -0.40399461877989912 0 0.47803026485536992 -0.41388491951904732 0 0.48349128744616809 -0.3981477611786608 0 0.46461227738567717 -0.40399461877989912 0 0.48349128744616809 -0.3981477611786608 0 0.47209620213241288 -0.38662220816109938 0 0.46461227738567717 -0.40399461877989912 0 0.49999999999999978 -0.41732588968952122 0 0.48349128744616809 -0.3981477611786608 0 0.5 -0.38787887063999699 0 0.48349128744616809 -0.3981477611786608 0 0.48620898030354948 -0.37918006028240092 0 0.5 -0.38787887063999699 0 0.5 -0.35843185159047292 0 0.48620898030354948 -0.37918006028240092 0 0.5 -0.38787887063999699 0 0.47350757658922271 -0.36952329647287657 0 0.47209620213241288 -0.38662220816109938 0 0.46271268513135372 -0.37747780338012438 0 0.48349128744616809 -0.3981477611786608 0 0.48620898030354948 -0.37918006028240092 0 0.47209620213241288 -0.38662220816109938 0 0.47350757658922271 -0.36952329647287657 0 0.48620898030354948 -0.37918006028240092 0 0.47209620213241288 -0.38662220816109938 0 0.46271268513135372 -0.37747780338012438 0 0.45744681408336407 -0.38575639722006821 0 0.45189505467726382 -0.37680202485208381 0 0.47209620213241288 -0.38662220816109938 0 0.46271268513135372 -0.37747780338012438 0 0.45744681408336407 -0.38575639722006821 0 0.47209620213241288 -0.38662220816109938 0 0.45744681408336407 -0.38575639722006821 0 0.46461227738567717 -0.40399461877989912 0 0.45744681408336407 -0.38575639722006821 0 0.46461227738567717 -0.40399461877989912 0 0.45184219469928433 -0.39789486874989249 0 0.45030067759957459 -0.40920304056939583 0 0.46461227738567717 -0.40399461877989912 0 0.45184219469928433 -0.39789486874989249 0 0.45030067759957459 -0.40920304056939583 0 0.45184219469928433 -0.39789486874989249 0 0.43607093377631329 -0.40042142092979582 0 0.45184219469928433 -0.39789486874989249 0 0.44708058619903079 -0.38729405048447457 0 0.43607093377631329 -0.40042142092979582 0 0.44173316381622191 -0.37123334486501253 0 0.45189505467726382 -0.37680202485208381 0 0.44708058619903079 -0.38729405048447457 0 0.44173316381622191 -0.37123334486501253 0 0.44708058619903079 -0.38729405048447457 0 0.43607093377631329 -0.40042142092979582 0 0.44173316381622191 -0.37123334486501253 0 0.43607093377631329 -0.40042142092979582 0 0.45744681408336407 -0.38575639722006821 0 0.45189505467726382 -0.37680202485208381 0 0.44708058619903079 -0.38729405048447457 0 0.45744681408336407 -0.38575639722006821 0 0.45184219469928433 -0.39789486874989249 0 0.44708058619903079 -0.38729405048447457 0 0.44173316381622191 -0.37123334486501253 0 0.43018656974337233 -0.3834847830435818 0 0.43607093377631329 -0.40042142092979582 0 0.42661372489006832 -0.37330916830292271 0 0.43018656974337233 -0.3834847830435818 0 0.41571052833623512 -0.38186572013688852 0 0.43792231759094602 -0.36891862507496959 0 0.42661372489006832 -0.37330916830292271 0 0.43018656974337233 -0.3834847830435818 0 0.43607093377631329 -0.40042142092979582 0 0.41370439676437609 -0.3974940894908795 0 0.41981869584763148 -0.41440516100429259 0 0.43018656974337233 -0.3834847830435818 0 0.43607093377631329 -0.40042142092979582 0 0.41370439676437609 -0.3974940894908795 0 0.43018656974337233 -0.3834847830435818 0 0.41370439676437609 -0.3974940894908795 0 0.41571052833623512 -0.38186572013688852 0 0.41370439676437609 -0.3974940894908795 0 0.41571052833623512 -0.38186572013688852 0 0.40109715774397792 -0.38275058451944882 0 0.42661372489006832 -0.37330916830292271 0 0.40978735765452701 -0.3715350174533486 0 0.41571052833623512 -0.38186572013688852 0 0.40978735765452701 -0.3715350174533486 0 0.41571052833623512 -0.38186572013688852 0 0.40109715774397792 -0.38275058451944882 0 0.40109715774397792 -0.38275058451944882 0 0.38240798480570892 -0.37852010314408679 0 0.38863111647644599 -0.40400878815621749 0 0.38240798480570892 -0.37852010314408679 0 0.38863111647644599 -0.40400878815621749 0 0.38863111647644599 -0.40400878815621749 0 0.37176003243497441 -0.40998872043702711 0 0.36795612070160122 -0.3943037227883871 0 0.38240798480570892 -0.37852010314408679 0 0.38863111647644599 -0.40400878815621749 0 0.36795612070160122 -0.3943037227883871 0 0.41370439676437609 -0.3974940894908795 0 0.38863111647644599 -0.40400878815621749 0 0.4062779690192711 -0.41494731252474337 0 0.41370439676437609 -0.3974940894908795 0 0.40109715774397792 -0.38275058451944882 0 0.38863111647644599 -0.40400878815621749 0 0.38863111647644599 -0.40400878815621749 0 0.39485424814717818 -0.42949747316834941 0 0.4062779690192711 -0.41494731252474337 0 0.38863111647644599 -0.40400878815621749 0 0.39485424814717818 -0.42949747316834941 0 0.38863111647644599 -0.40400878815621749 0 0.38208767645140901 -0.41911042656524472 0 0.37176003243497441 -0.40998872043702711 0 0.38863111647644599 -0.40400878815621749 0 0.38208767645140901 -0.41911042656524472 0 0.39485424814717818 -0.42949747316834941 0 0.39485424814717818 -0.42949747316834941 0 0.36925590453949608 -0.42941681873704168 0 0.37665443888321409 -0.43729346785436302 0 0.3856757983069049 -0.43577025519560952 0 0.36925590453949608 -0.42941681873704168 0 0.3856757983069049 -0.43577025519560952 0 0.39485424814717818 -0.42949747316834941 0 0.36925590453949608 -0.42941681873704168 0 0.38208767645140901 -0.41911042656524472 0 0.39485424814717818 -0.42949747316834941 0 0.36925590453949608 -0.42941681873704168 0 0.39485424814717818 -0.42949747316834941 0 0.41263147594179173 -0.42955348508146501 0 0.3970599418841867 -0.43853154730823468 0 0.39485424814717818 -0.42949747316834941 0 0.41263147594179173 -0.42955348508146501 0 0.39485424814717818 -0.42949747316834941 0 0.3970599418841867 -0.43853154730823468 0 0.3856757983069049 -0.43577025519560952 0 0.39485424814717818 -0.42949747316834941 0 0.3970599418841867 -0.43853154730823468 0 0.39485424814717818 -0.42949747316834941 0 0.41263147594179173 -0.42955348508146501 0 0.4062779690192711 -0.41494731252474337 0 0.41263147594179173 -0.42955348508146501 0 0.43040870373640522 -0.42960949699457918 0 0.41263147594179173 -0.42955348508146501 0 0.43040870373640522 -0.42960949699457918 0 0.4105733347589578 -0.4439764995731092 0 0.41263147594179173 -0.42955348508146501 0 0.4105733347589578 -0.4439764995731092 0 0.3970599418841867 -0.43853154730823468 0 0.41263147594179173 -0.42955348508146501 0 0.41981869584763148 -0.41440516100429259 0 0.43040870373640522 -0.42960949699457918 0 0.41370439676437609 -0.3974940894908795 0 0.4062779690192711 -0.41494731252474337 0 0.41981869584763148 -0.41440516100429259 0 0.41263147594179173 -0.42955348508146501 0 0.4062779690192711 -0.41494731252474337 0 0.41981869584763148 -0.41440516100429259 0 0.43607093377631329 -0.40042142092979582 0 0.41981869584763148 -0.41440516100429259 0 0.43040870373640522 -0.42960949699457918 0 0.4445886017928069 -0.41946726592624312 0 0.43607093377631329 -0.40042142092979582 0 0.43040870373640522 -0.42960949699457918 0 0.43607093377631329 -0.40042142092979582 0 0.43040870373640522 -0.42960949699457918 0 0.43040870373640522 -0.42960949699457918 0 0.42609808641601882 -0.45183018130920338 0 0.43823690162582152 -0.442656551615 0 0.43040870373640522 -0.42960949699457918 0 0.42609808641601882 -0.45183018130920338 0 0.43040870373640522 -0.42960949699457918 0 0.42609808641601882 -0.45183018130920338 0 0.4105733347589578 -0.4439764995731092 0 0.43823690162582152 -0.442656551615 0 0.42609808641601882 -0.45183018130920338 0 0.43566071353235342 -0.46355264343579089 0 0.42609808641601882 -0.45183018130920338 0 0.43566071353235342 -0.46355264343579089 0 0.41788280539829797 -0.46985191739468413 0 0.42609808641601882 -0.45183018130920338 0 0.40695414576950523 -0.45771744581404522 0 0.41788280539829797 -0.46985191739468413 0 0.42609808641601882 -0.45183018130920338 0 0.40695414576950523 -0.45771744581404522 0 0.4105733347589578 -0.4439764995731092 0 0.4105733347589578 -0.4439764995731092 0 0.39721761528731692 -0.45119552741579683 0 0.3970599418841867 -0.43853154730823468 0 0.40695414576950523 -0.45771744581404522 0 0.4105733347589578 -0.4439764995731092 0 0.39721761528731692 -0.45119552741579683 0 0.39721761528731692 -0.45119552741579683 0 0.3970599418841867 -0.43853154730823468 0 0.3848034700195111 -0.44451211479328562 0 0.3856757983069049 -0.43577025519560952 0 0.3970599418841867 -0.43853154730823468 0 0.3848034700195111 -0.44451211479328562 0 0.37665443888321409 -0.43729346785436302 0 0.3856757983069049 -0.43577025519560952 0 0.3848034700195111 -0.44451211479328562 0 0.3848034700195111 -0.44451211479328562 0 0.39015981315766812 -0.47191920641734841 0 0.36813351492680652 -0.4578788096260229 0 0.39015981315766812 -0.47191920641734841 0 0.36813351492680652 -0.4578788096260229 0 0.39721761528731692 -0.45119552741579683 0 0.3848034700195111 -0.44451211479328562 0 0.39015981315766812 -0.47191920641734841 0 0.40695414576950523 -0.45771744581404522 0 0.39721761528731692 -0.45119552741579683 0 0.39015981315766812 -0.47191920641734841 0 0.40695414576950523 -0.45771744581404522 0 0.39015981315766812 -0.47191920641734841 0 0.41788280539829797 -0.46985191739468413 0 0.39015981315766812 -0.47191920641734841 0 0.39617150827203812 -0.48844435240108153 0 0.41218611138852979 -0.48595960320867387 0 0.39015981315766812 -0.47191920641734841 0 0.41218611138852979 -0.48595960320867387 0 0.39015981315766812 -0.47191920641734841 0 0.37999710445162738 -0.5 0 0.36111942344273912 -0.48004186837267743 0 0.39015981315766812 -0.47191920641734841 0 0.37999710445162738 -0.5 0 0.39617150827203812 -0.48844435240108153 0 0.37999710445162738 -0.5 0 0.39617150827203812 -0.48844435240108153 0 0.40710475703550941 -0.5 0 0.39617150827203812 -0.48844435240108153 0 0.40710475703550941 -0.5 0 0.41218611138852979 -0.48595960320867387 0 0.40710475703550941 -0.5 0 0.41218611138852979 -0.48595960320867387 0 0.43421240961939139 -0.49999999999999972 0 0.41218611138852979 -0.48595960320867387 0 0.41788280539829797 -0.46985191739468413 0 0.43065669488015018 -0.48070599894378141 0 0.39015981315766812 -0.47191920641734841 0 0.41218611138852979 -0.48595960320867387 0 0.41788280539829797 -0.46985191739468413 0 0.43566071353235342 -0.46355264343579089 0 0.41788280539829797 -0.46985191739468413 0 0.43065669488015018 -0.48070599894378141 0 0.41218611138852979 -0.48595960320867387 0 0.43421240961939139 -0.49999999999999972 0 0.41218611138852979 -0.48595960320867387 0 0.43065669488015018 -0.48070599894378141 0 0.43421240961939139 -0.49999999999999972 0 0.32562102085959999 -0.49962517918909338 0 0.3188650930646052 -0.49384015059516778 0 0.30906313459206908 -0.49999999999999822 0 0.3188650930646052 -0.49384015059516778 0 0.31537357137569311 -0.47573542319158041 0 0.30906313459206908 -0.49999999999999822 0 0.32562102085959999 -0.49962517918909338 0 0.3188650930646052 -0.49384015059516778 0 0.31537357137569311 -0.47573542319158041 0 0.32562102085959999 -0.49962517918909338 0 0.31537357137569311 -0.47573542319158041 0 0.32562102085959999 -0.49962517918909338 0 0.32705189356582531 -0.47758756671950892 0 0.31537357137569311 -0.47573542319158041 0 0.32705189356582531 -0.47758756671950892 0 0.31537357137569311 -0.47573542319158041 0 0.32731070687432662 -0.45987691031431599 0 0.32705189356582531 -0.47758756671950892 0 0.33990227515368221 -0.47511275418304622 0 0.32731070687432662 -0.45987691031431599 0 0.32562102085959999 -0.49962517918909338 0 0.32705189356582531 -0.47758756671950892 0 0.33990227515368221 -0.47511275418304622 0 0.32562102085959999 -0.49962517918909338 0 0.33990227515368221 -0.47511275418304622 0 0.32562102085959999 -0.49962517918909338 0 0.33990227515368221 -0.47511275418304622 0 0.33937333261091801 -0.49122101923177458 0 0.32562102085959999 -0.49962517918909338 0 0.33937333261091801 -0.49122101923177458 0 0.35288945186774517 -0.5 0 0.33937333261091801 -0.49122101923177458 0 0.35288945186774517 -0.5 0 0.36111942344273912 -0.48004186837267743 0 0.37999710445162738 -0.5 0 0.35288945186774517 -0.5 0 0.36111942344273912 -0.48004186837267743 0 0.39015981315766812 -0.47191920641734841 0 0.36111942344273912 -0.48004186837267743 0 0.36813351492680652 -0.4578788096260229 0 0.33990227515368221 -0.47511275418304622 0 0.33937333261091801 -0.49122101923177458 0 0.36111942344273912 -0.48004186837267743 0 0.33990227515368221 -0.47511275418304622 0 0.36111942344273912 -0.48004186837267743 0 0.35583468574274812 -0.46590844033968648 0 0.33990227515368221 -0.47511275418304622 0 0.35418352944776488 -0.45060032917699938 0 0.33990227515368221 -0.47511275418304622 0 0.35418352944776488 -0.45060032917699938 0 0.340093026771697 -0.45737760876331679 0 0.33990227515368221 -0.47511275418304622 0 0.35583468574274812 -0.46590844033968648 0 0.35418352944776488 -0.45060032917699938 0 0.36111942344273912 -0.48004186837267743 0 0.35583468574274812 -0.46590844033968648 0 0.36813351492680652 -0.4578788096260229 0 0.35583468574274812 -0.46590844033968648 0 0.36813351492680652 -0.4578788096260229 0 0.35418352944776488 -0.45060032917699938 0 0.3848034700195111 -0.44451211479328562 0 0.36813351492680652 -0.4578788096260229 0 0.36188953281526259 -0.44421627808609571 0 0.3848034700195111 -0.44451211479328562 0 0.36188953281526259 -0.44421627808609571 0 0.37665443888321409 -0.43729346785436302 0 0.3848034700195111 -0.44451211479328562 0 0.36188953281526259 -0.44421627808609571 0 0.36813351492680652 -0.4578788096260229 0 0.36188953281526259 -0.44421627808609571 0 0.35418352944776488 -0.45060032917699938 0 0.36188953281526259 -0.44421627808609571 0 0.33897559561101431 -0.44392044137890579 0 0.34365756093181399 -0.42933616430573279 0 0.36188953281526259 -0.44421627808609571 0 0.33897559561101431 -0.44392044137890579 0 0.36188953281526259 -0.44421627808609571 0 0.35418352944776488 -0.45060032917699938 0 0.33897559561101431 -0.44392044137890579 0 0.35418352944776488 -0.45060032917699938 0 0.33897559561101431 -0.44392044137890579 0 0.340093026771697 -0.45737760876331679 0 0.33990227515368221 -0.47511275418304622 0 0.340093026771697 -0.45737760876331679 0 0.32731070687432662 -0.45987691031431599 0 0.33897559561101431 -0.44392044137890579 0 0.340093026771697 -0.45737760876331679 0 0.32731070687432662 -0.45987691031431599 0 0.31537357137569311 -0.47573542319158041 0 0.32731070687432662 -0.45987691031431599 0 0.31637589709399738 -0.45542627657340667 0 0.33897559561101431 -0.44392044137890579 0 0.31606165840676581 -0.44362460467171588 0 0.31637589709399738 -0.45542627657340667 0 0.31606165840676581 -0.44362460467171588 0 0.30512612189178517 -0.45184566719406782 0 0.33897559561101431 -0.44392044137890579 0 0.32731070687432662 -0.45987691031431599 0 0.31606165840676581 -0.44362460467171588 0 0.33897559561101431 -0.44392044137890579 0 0.31606165840676581 -0.44362460467171588 0 0.32817533568345891 -0.437405088827024 0 0.32731070687432662 -0.45987691031431599 0 0.31637589709399738 -0.45542627657340667 0 0.31606165840676581 -0.44362460467171588 0 0.31606165840676581 -0.44362460467171588 0 0.31805921732413212 -0.42925550987442379 0 0.32817533568345891 -0.437405088827024 0 0.31606165840676581 -0.44362460467171588 0 0.31805921732413212 -0.42925550987442379 0 0.30493236766246812 -0.436345934488445 0 0.31985940292529941 -0.41295447671329732 0 0.31075796009052831 -0.39572085063997808 0 0.30888278388740348 -0.41521004381282178 0 0.31805921732413212 -0.42925550987442379 0 0.31985940292529941 -0.41295447671329732 0 0.33113555781690102 -0.41904522338276579 0 0.31805921732413212 -0.42925550987442379 0 0.31985940292529941 -0.41295447671329732 0 0.30888278388740348 -0.41521004381282178 0 0.31985940292529941 -0.41295447671329732 0 0.33113555781690102 -0.41904522338276579 0 0.33046149550753229 -0.40554075585649679 0 0.33113555781690102 -0.41904522338276579 0 0.34241547994114269 -0.41362446478144221 0 0.34365756093181399 -0.42933616430573279 0 0.33113555781690102 -0.41904522338276579 0 0.34241547994114269 -0.41362446478144221 0 0.33046149550753229 -0.40554075585649679 0 0.31805921732413212 -0.42925550987442379 0 0.34365756093181399 -0.42933616430573279 0 0.32817533568345891 -0.437405088827024 0 0.31805921732413212 -0.42925550987442379 0 0.33113555781690102 -0.41904522338276579 0 0.34365756093181399 -0.42933616430573279 0 0.31805921732413212 -0.42925550987442379 0 0.34365756093181399 -0.42933616430573279 0 0.33897559561101431 -0.44392044137890579 0 0.34365756093181399 -0.42933616430573279 0 0.32817533568345891 -0.437405088827024 0 0.34365756093181399 -0.42933616430573279 0 0.36925590453949608 -0.42941681873704168 0 0.35674230937501078 -0.41217086121041902 0 0.34365756093181399 -0.42933616430573279 0 0.36925590453949608 -0.42941681873704168 0 0.36188953281526259 -0.44421627808609571 0 0.34365756093181399 -0.42933616430573279 0 0.36925590453949608 -0.42941681873704168 0 0.37665443888321409 -0.43729346785436302 0 0.36188953281526259 -0.44421627808609571 0 0.36925590453949608 -0.42941681873704168 0 0.38208767645140901 -0.41911042656524472 0 0.36925590453949608 -0.42941681873704168 0 0.37176003243497441 -0.40998872043702711 0 0.36925590453949608 -0.42941681873704168 0 0.37176003243497441 -0.40998872043702711 0 0.35674230937501078 -0.41217086121041902 0 0.34241547994114269 -0.41362446478144221 0 0.35674230937501078 -0.41217086121041902 0 0.34647936393220441 -0.39402114553103817 0 0.34241547994114269 -0.41362446478144221 0 0.34365756093181399 -0.42933616430573279 0 0.35674230937501078 -0.41217086121041902 0 0.35674230937501078 -0.41217086121041902 0 0.34647936393220441 -0.39402114553103817 0 0.36795612070160122 -0.3943037227883871 0 0.37176003243497441 -0.40998872043702711 0 0.35674230937501078 -0.41217086121041902 0 0.36795612070160122 -0.3943037227883871 0 0.38240798480570892 -0.37852010314408679 0 0.36795612070160122 -0.3943037227883871 0 0.3567457423339877 -0.37092962175819427 0 0.34647936393220441 -0.39402114553103817 0 0.33846966771265258 -0.37695460337982112 0 0.3567457423339877 -0.37092962175819427 0 0.34647936393220441 -0.39402114553103817 0 0.36795612070160122 -0.3943037227883871 0 0.3567457423339877 -0.37092962175819427 0 0.34647936393220441 -0.39402114553103817 0 0.33846966771265258 -0.37695460337982112 0 0.3263508617172054 -0.38750488125084709 0 0.34241547994114269 -0.41362446478144221 0 0.34647936393220441 -0.39402114553103817 0 0.33046149550753229 -0.40554075585649679 0 0.34647936393220441 -0.39402114553103817 0 0.33046149550753229 -0.40554075585649679 0 0.3263508617172054 -0.38750488125084709 0 0.33046149550753229 -0.40554075585649679 0 0.3263508617172054 -0.38750488125084709 0 0.31075796009052831 -0.39572085063997808 0 0.31985940292529941 -0.41295447671329732 0 0.33046149550753229 -0.40554075585649679 0 0.31075796009052831 -0.39572085063997808 0 0.3263508617172054 -0.38750488125084709 0 0.3096773386499212 -0.3813243078888065 0 0.31075796009052831 -0.39572085063997808 0 0.33846966771265258 -0.37695460337982112 0 0.3263508617172054 -0.38750488125084709 0 0.31915821050206972 -0.37043664262910392 0 0.3263508617172054 -0.38750488125084709 0 0.3096773386499212 -0.3813243078888065 0 0.31915821050206972 -0.37043664262910392 0 0.3096773386499212 -0.3813243078888065 0 0.29526372343335222 -0.38214642848390951 0 0.29938815419514908 -0.36235191135060729 0 0.3096773386499212 -0.3813243078888065 0 0.31075796009052831 -0.39572085063997808 0 0.29526372343335222 -0.38214642848390951 0 0.31075796009052831 -0.39572085063997808 0 0.29178274806564442 -0.41520067436951369 0 0.31075796009052831 -0.39572085063997808 0 0.29113929267155558 -0.40194094561721161 0 0.29526372343335222 -0.38214642848390951 0 0.31075796009052831 -0.39572085063997808 0 0.29113929267155558 -0.40194094561721161 0 0.29178274806564442 -0.41520067436951369 0 0.29113929267155558 -0.40194094561721161 0 0.29526372343335222 -0.38214642848390951 0 0.29096903481361719 -0.39843243044280019 0 0.28318981538834798 -0.39262896962206201 0 0.29526372343335222 -0.38214642848390951 0 0.29096903481361719 -0.39843243044280019 0 0.29113929267155558 -0.40194094561721161 0 0.29526372343335222 -0.38214642848390951 0 0.29096903481361719 -0.39843243044280019 0 0.29113929267155558 -0.40194094561721161 0 0.28502919674291388 -0.40062006331372729 0 0.27798512017272892 -0.40082089003652099 0 0.28264635626051132 -0.40952105626625152 0 0.29113929267155558 -0.40194094561721161 0 0.28502919674291388 -0.40062006331372729 0 0.28264635626051132 -0.40952105626625152 0 0.29096903481361719 -0.39843243044280019 0 0.29113929267155558 -0.40194094561721161 0 0.28502919674291388 -0.40062006331372729 0 0.28502919674291388 -0.40062006331372729 0 0.28318981538834798 -0.39262896962206201 0 0.27798512017272892 -0.40082089003652099 0 0.29096903481361719 -0.39843243044280019 0 0.28502919674291388 -0.40062006331372729 0 0.28318981538834798 -0.39262896962206201 0 0.28318981538834798 -0.39262896962206201 0 0.29526372343335222 -0.38214642848390951 0 0.27569670368188232 -0.38326726020642471 0 0.29526372343335222 -0.38214642848390951 0 0.27569670368188232 -0.38326726020642471 0 0.2822483272805178 -0.36575990941074382 0 0.28318981538834798 -0.39262896962206201 0 0.27569670368188232 -0.38326726020642471 0 0.27140133813572248 -0.39438652514112071 0 0.27569670368188232 -0.38326726020642471 0 0.26161541147981399 -0.38825456187999341 0 0.27140133813572248 -0.39438652514112071 0 0.27569670368188232 -0.38326726020642471 0 0.26161541147981399 -0.38825456187999341 0 0.26273855981799532 -0.37402085189451678 0 0.26161541147981399 -0.38825456187999341 0 0.26273855981799532 -0.37402085189451678 0 0.2462658744323834 -0.38197959250061342 0 0.26161541147981399 -0.38825456187999341 0 0.25113336278303172 -0.39639034007073559 0 0.2462658744323834 -0.38197959250061342 0 0.25113336278303172 -0.39639034007073559 0 0.25834465052961392 -0.41196496969487773 0 0.2415255849161019 -0.40609463635975013 0 0.25113336278303172 -0.39639034007073559 0 0.26281084462470111 -0.3998352336856334 0 0.25834465052961392 -0.41196496969487773 0 0.26161541147981399 -0.38825456187999341 0 0.25113336278303172 -0.39639034007073559 0 0.26281084462470111 -0.3998352336856334 0 0.26161541147981399 -0.38825456187999341 0 0.26281084462470111 -0.3998352336856334 0 0.27140133813572248 -0.39438652514112071 0 0.26281084462470111 -0.3998352336856334 0 0.27081663500811198 -0.40520008615658132 0 0.25834465052961392 -0.41196496969487773 0 0.27081663500811198 -0.40520008615658132 0 0.27140133813572248 -0.39438652514112071 0 0.27798512017272892 -0.40082089003652099 0 0.26281084462470111 -0.3998352336856334 0 0.27081663500811198 -0.40520008615658132 0 0.27140133813572248 -0.39438652514112071 0 0.28318981538834798 -0.39262896962206201 0 0.27140133813572248 -0.39438652514112071 0 0.27798512017272892 -0.40082089003652099 0 0.27081663500811198 -0.40520008615658132 0 0.27798512017272892 -0.40082089003652099 0 0.28264635626051132 -0.40952105626625152 0 0.27081663500811198 -0.40520008615658132 0 0.27206571492222681 -0.41502427433416672 0 0.28264635626051132 -0.40952105626625152 0 0.27844475086434628 -0.42008249968918893 0 0.27206571492222681 -0.41502427433416672 0 0.28264635626051132 -0.40952105626625152 0 0.26660164492473198 -0.42150218520744809 0 0.27206571492222681 -0.41502427433416672 0 0.25834465052961392 -0.41196496969487773 0 0.27844475086434628 -0.42008249968918893 0 0.26660164492473198 -0.42150218520744809 0 0.27206571492222681 -0.41502427433416672 0 0.27081663500811198 -0.40520008615658132 0 0.27206571492222681 -0.41502427433416672 0 0.25834465052961392 -0.41196496969487773 0 0.25834465052961392 -0.41196496969487773 0 0.25675938249820729 -0.42906236834179229 0 0.24471655788437549 -0.41836465708289111 0 0.26660164492473198 -0.42150218520744809 0 0.25834465052961392 -0.41196496969487773 0 0.25675938249820729 -0.42906236834179229 0 0.25675938249820729 -0.42906236834179229 0 0.26225826081895931 -0.43553163761717179 0 0.24937758952868769 -0.43582476186075059 0 0.25675938249820729 -0.42906236834179229 0 0.26225826081895931 -0.43553163761717179 0 0.26930167735914629 -0.4333880303452663 0 0.25675938249820729 -0.42906236834179229 0 0.27821428364315981 -0.42912996774889278 0 0.26930167735914629 -0.4333880303452663 0 0.27111210296809168 -0.43642101817110968 0 0.27821428364315981 -0.42912996774889278 0 0.25675938249820729 -0.42906236834179229 0 0.26930167735914629 -0.4333880303452663 0 0.27821428364315981 -0.42912996774889278 0 0.26660164492473198 -0.42150218520744809 0 0.25675938249820729 -0.42906236834179229 0 0.27821428364315981 -0.42912996774889278 0 0.26225826081895931 -0.43553163761717179 0 0.26930167735914629 -0.4333880303452663 0 0.27111210296809168 -0.43642101817110968 0 0.26930167735914629 -0.4333880303452663 0 0.27111210296809168 -0.43642101817110968 0 0.27844475086434628 -0.42008249968918893 0 0.26660164492473198 -0.42150218520744809 0 0.27821428364315981 -0.42912996774889278 0 0.27111210296809168 -0.43642101817110968 0 0.27821428364315981 -0.42912996774889278 0 0.27851784514164207 -0.43605140350369348 0 0.27111210296809168 -0.43642101817110968 0 0.27821428364315981 -0.42912996774889278 0 0.27821428364315981 -0.42912996774889278 0 0.27851784514164207 -0.43605140350369348 0 0.28546936300596981 -0.42915282681778749 0 0.28546936300596981 -0.42915282681778749 0 0.28269717206150108 -0.44245749461713091 0 0.27851784514164207 -0.43605140350369348 0 0.28546936300596981 -0.42915282681778749 0 0.28269717206150108 -0.44245749461713091 0 0.28844378249660962 -0.43602848621063972 0 0.28546936300596981 -0.42915282681778749 0 0.28269717206150108 -0.44245749461713091 0 0.28844378249660962 -0.43602848621063972 0 0.29246087371645019 -0.42917485544311462 0 0.28546936300596981 -0.42915282681778749 0 0.28844378249660962 -0.43602848621063972 0 0.29246087371645019 -0.42917485544311462 0 0.29314772120251731 -0.44332876796452603 0 0.29246087371645019 -0.42917485544311462 0 0.29314772120251731 -0.44332876796452603 0 0.29246087371645019 -0.42917485544311462 0 0.30493236766246812 -0.436345934488445 0 0.29314772120251731 -0.44332876796452603 0 0.29246087371645019 -0.42917485544311462 0 0.29178274806564442 -0.41520067436951369 0 0.29246087371645019 -0.42917485544311462 0 0.29178274806564442 -0.41520067436951369 0 0.30279640574840933 -0.42221027087496837 0 0.27821428364315981 -0.42912996774889278 0 0.28546936300596981 -0.42915282681778749 0 0.28744958810085658 -0.4196490669458563 0 0.28546936300596981 -0.42915282681778749 0 0.28744958810085658 -0.4196490669458563 0 0.29246087371645019 -0.42917485544311462 0 0.28546936300596981 -0.42915282681778749 0 0.28744958810085658 -0.4196490669458563 0 0.27821428364315981 -0.42912996774889278 0 0.28744958810085658 -0.4196490669458563 0 0.27844475086434628 -0.42008249968918893 0 0.27821428364315981 -0.42912996774889278 0 0.28744958810085658 -0.4196490669458563 0 0.29246087371645019 -0.42917485544311462 0 0.28546936300596981 -0.42915282681778749 0 0.27821428364315981 -0.42912996774889278 0 0.28546936300596981 -0.42915282681778749 0 0.29113929267155558 -0.40194094561721161 0 0.28744958810085658 -0.4196490669458563 0 0.28264635626051132 -0.40952105626625152 0 0.27844475086434628 -0.42008249968918893 0 0.28744958810085658 -0.4196490669458563 0 0.28264635626051132 -0.40952105626625152 0 0.29113929267155558 -0.40194094561721161 0 0.28744958810085658 -0.4196490669458563 0 0.29113929267155558 -0.40194094561721161 0 0.28744958810085658 -0.4196490669458563 0 0.29178274806564442 -0.41520067436951369 0 0.29113929267155558 -0.40194094561721161 0 0.29178274806564442 -0.41520067436951369 0 0.29246087371645019 -0.42917485544311462 0 0.28744958810085658 -0.4196490669458563 0 0.29178274806564442 -0.41520067436951369 0 0.28744958810085658 -0.4196490669458563 0 0.29178274806564442 -0.41520067436951369 0 0.29178274806564442 -0.41520067436951369 0 0.30888278388740348 -0.41521004381282178 0 0.30279640574840933 -0.42221027087496837 0 0.31075796009052831 -0.39572085063997808 0 0.29178274806564442 -0.41520067436951369 0 0.30888278388740348 -0.41521004381282178 0 0.31805921732413212 -0.42925550987442379 0 0.29246087371645019 -0.42917485544311462 0 0.31805921732413212 -0.42925550987442379 0 0.29246087371645019 -0.42917485544311462 0 0.30279640574840933 -0.42221027087496837 0 0.31805921732413212 -0.42925550987442379 0 0.29246087371645019 -0.42917485544311462 0 0.30493236766246812 -0.436345934488445 0 0.31805921732413212 -0.42925550987442379 0 0.30888278388740348 -0.41521004381282178 0 0.30279640574840933 -0.42221027087496837 0 0.31606165840676581 -0.44362460467171588 0 0.30512612189178517 -0.45184566719406782 0 0.29314772120251731 -0.44332876796452603 0 0.31606165840676581 -0.44362460467171588 0 0.30493236766246812 -0.436345934488445 0 0.29314772120251731 -0.44332876796452603 0 0.30512612189178517 -0.45184566719406782 0 0.29394025903575932 -0.45966064860657702 0 0.29314772120251731 -0.44332876796452603 0 0.31606165840676581 -0.44362460467171588 0 0.29314772120251731 -0.44332876796452603 0 0.31537357137569311 -0.47573542319158041 0 0.31637589709399738 -0.45542627657340667 0 0.30512612189178517 -0.45184566719406782 0 0.31537357137569311 -0.47573542319158041 0 0.30512612189178517 -0.45184566719406782 0 0.31537357137569311 -0.47573542319158041 0 0.30512612189178517 -0.45184566719406782 0 0.29394025903575932 -0.45966064860657702 0 0.29394025903575932 -0.45966064860657702 0 0.28491455044924457 -0.45954411970608688 0 0.29473279686900039 -0.47599252924862812 0 0.29394025903575932 -0.45966064860657702 0 0.29473279686900039 -0.47599252924862812 0 0.28491455044924457 -0.45954411970608688 0 0.29473279686900039 -0.47599252924862812 0 0.29394025903575932 -0.45966064860657702 0 0.28491455044924457 -0.45954411970608688 0 0.29314772120251731 -0.44332876796452603 0 0.29314772120251731 -0.44332876796452603 0 0.28269717206150108 -0.44245749461713091 0 0.27509630402948781 -0.44309571016354632 0 0.29314772120251731 -0.44332876796452603 0 0.27509630402948781 -0.44309571016354632 0 0.28491455044924457 -0.45954411970608688 0 0.29314772120251731 -0.44332876796452603 0 0.27509630402948781 -0.44309571016354632 0 0.29394025903575932 -0.45966064860657702 0 0.29314772120251731 -0.44332876796452603 0 0.28844378249660962 -0.43602848621063972 0 0.29314772120251731 -0.44332876796452603 0 0.28269717206150108 -0.44245749461713091 0 0.27851784514164207 -0.43605140350369348 0 0.28269717206150108 -0.44245749461713091 0 0.27509630402948781 -0.44309571016354632 0 0.28491455044924457 -0.45954411970608688 0 0.27509630402948781 -0.44309571016354632 0 0.27111210296809168 -0.43642101817110968 0 0.27851784514164207 -0.43605140350369348 0 0.27509630402948781 -0.44309571016354632 0 0.27509630402948781 -0.44309571016354632 0 0.2647405517406643 -0.44296200936694391 0 0.26894138168338477 -0.45835658674643581 0 0.27509630402948781 -0.44309571016354632 0 0.2647405517406643 -0.44296200936694391 0 0.27111210296809168 -0.43642101817110968 0 0.27509630402948781 -0.44309571016354632 0 0.2647405517406643 -0.44296200936694391 0 0.26225826081895931 -0.43553163761717179 0 0.27111210296809168 -0.43642101817110968 0 0.2647405517406643 -0.44296200936694391 0 0.27111210296809168 -0.43642101817110968 0 0.27509630402948781 -0.44309571016354632 0 0.27111210296809168 -0.43642101817110968 0 0.2647405517406643 -0.44296200936694391 0 0.2647405517406643 -0.44296200936694391 0 0.23528251899697711 -0.44258168330907049 0 0.26225826081895931 -0.43553163761717179 0 0.2647405517406643 -0.44296200936694391 0 0.24937758952868769 -0.43582476186075059 0 0.2647405517406643 -0.44296200936694391 0 0.24642569303344669 -0.46176391886762419 0 0.2647405517406643 -0.44296200936694391 0 0.26894138168338477 -0.45835658674643581 0 0.24642569303344669 -0.46176391886762419 0 0.26894138168338477 -0.45835658674643581 0 0.25460761733926612 -0.48077428153223201 0 0.24642569303344669 -0.46176391886762419 0 0.28491455044924457 -0.45954411970608688 0 0.26894138168338477 -0.45835658674643581 0 0.27481125637505999 -0.47672941046381351 0 0.28491455044924457 -0.45954411970608688 0 0.27509630402948781 -0.44309571016354632 0 0.26894138168338477 -0.45835658674643581 0 0.26894138168338477 -0.45835658674643581 0 0.27481125637505999 -0.47672941046381351 0 0.25460761733926612 -0.48077428153223201 0 0.25460761733926612 -0.48077428153223201 0 0.26992155257213829 -0.5 0 0.24394529676999099 -0.5 0 0.27481125637505999 -0.47672941046381351 0 0.25460761733926612 -0.48077428153223201 0 0.26992155257213829 -0.5 0 0.27481125637505999 -0.47672941046381351 0 0.26992155257213829 -0.5 0 0.28423504578222791 -0.48826781330302371 0 0.2958978083742857 -0.500000000000002 0 0.29473279686900039 -0.47599252924862812 0 0.28423504578222791 -0.48826781330302371 0 0.2958978083742857 -0.500000000000002 0 0.29473279686900039 -0.47599252924862812 0 0.26992155257213829 -0.5 0 0.28423504578222791 -0.48826781330302371 0 0.2958978083742857 -0.500000000000002 0 0.27481125637505999 -0.47672941046381351 0 0.28423504578222791 -0.48826781330302371 0 0.29473279686900039 -0.47599252924862812 0 0.28491455044924457 -0.45954411970608688 0 0.27481125637505999 -0.47672941046381351 0 0.29473279686900039 -0.47599252924862812 0 0.31537357137569311 -0.47573542319158041 0 0.29473279686900039 -0.47599252924862812 0 0.30906313459206908 -0.49999999999999822 0 0.31537357137569311 -0.47573542319158041 0 0.29394025903575932 -0.45966064860657702 0 0.29473279686900039 -0.47599252924862812 0 0.2958978083742857 -0.500000000000002 0 0.29473279686900039 -0.47599252924862812 0 0.30906313459206908 -0.49999999999999822 0 0.29473279686900039 -0.47599252924862812 0 0.30906313459206908 -0.49999999999999822 0 0.32957540708980337 -0.28233484169300721 0 0.33350720058453531 -0.3067582988720306 0 0.34777854009225467 -0.29092059718385621 0 0.33350720058453531 -0.3067582988720306 0 0.31940688812320073 -0.32114172553523779 0 0.31236919290445669 -0.30090688950199113 0 0.32957540708980337 -0.28233484169300721 0 0.33350720058453531 -0.3067582988720306 0 0.31236919290445669 -0.30090688950199113 0 0.32957540708980337 -0.28233484169300721 0 0.31236919290445669 -0.30090688950199113 0 0.31219288969015102 -0.27103532748113379 0 0.32957540708980337 -0.28233484169300721 0 0.32740146312166057 -0.2615598439342075 0 0.31219288969015102 -0.27103532748113379 0 0.30987088180634448 -0.24125362874219619 0 0.32740146312166057 -0.2615598439342075 0 0.31219288969015102 -0.27103532748113379 0 0.33627474799740559 -0.24529035195854479 0 0.32740146312166057 -0.2615598439342075 0 0.34280143854843398 -0.26651154424247869 0 0.32957540708980337 -0.28233484169300721 0 0.32740146312166057 -0.2615598439342075 0 0.34280143854843398 -0.26651154424247869 0 0.32957540708980337 -0.28233484169300721 0 0.34280143854843398 -0.26651154424247869 0 0.34777854009225467 -0.29092059718385621 0 0.34280143854843398 -0.26651154424247869 0 0.35666834061529479 -0.27123260863895199 0 0.34777854009225467 -0.29092059718385621 0 0.3592550994650468 -0.24613366971849041 0 0.34280143854843398 -0.26651154424247869 0 0.35666834061529479 -0.27123260863895199 0 0.33627474799740559 -0.24529035195854479 0 0.3592550994650468 -0.24613366971849041 0 0.34280143854843398 -0.26651154424247869 0 0.3592550994650468 -0.24613366971849041 0 0.37962897743813367 -0.25651992395937562 0 0.37050420578859872 -0.26776837990911312 0 0.3592550994650468 -0.24613366971849041 0 0.35666834061529479 -0.27123260863895199 0 0.37050420578859872 -0.26776837990911312 0 0.3592550994650468 -0.24613366971849041 0 0.37050420578859872 -0.26776837990911312 0 0.35666834061529479 -0.27123260863895199 0 0.37050420578859872 -0.26776837990911312 0 0.36300241918213971 -0.28482885214082171 0 0.37050420578859872 -0.26776837990911312 0 0.37154850581208082 -0.284248057172719 0 0.36300241918213971 -0.28482885214082171 0 0.38175331211215058 -0.28940309009973592 0 0.37050420578859872 -0.26776837990911312 0 0.37154850581208082 -0.284248057172719 0 0.37154850581208082 -0.284248057172719 0 0.37093408616543422 -0.29499190654120538 0 0.36300241918213971 -0.28482885214082171 0 0.38175331211215058 -0.28940309009973592 0 0.37154850581208082 -0.284248057172719 0 0.37093408616543422 -0.29499190654120538 0 0.37093408616543422 -0.29499190654120538 0 0.36300241918213971 -0.28482885214082171 0 0.36107539554114298 -0.29693991331551067 0 0.35666834061529479 -0.27123260863895199 0 0.36300241918213971 -0.28482885214082171 0 0.34777854009225467 -0.29092059718385621 0 0.36300241918213971 -0.28482885214082171 0 0.34777854009225467 -0.29092059718385621 0 0.36107539554114298 -0.29693991331551067 0 0.33350720058453531 -0.3067582988720306 0 0.35617419542099171 -0.30797258542327188 0 0.3434221482530771 -0.31898036386437462 0 0.33350720058453531 -0.3067582988720306 0 0.34777854009225467 -0.29092059718385621 0 0.35617419542099171 -0.30797258542327188 0 0.34777854009225467 -0.29092059718385621 0 0.35617419542099171 -0.30797258542327188 0 0.36107539554114298 -0.29693991331551067 0 0.35617419542099171 -0.30797258542327188 0 0.36107539554114298 -0.29693991331551067 0 0.37214457168145071 -0.30742358830148531 0 0.38029466251644028 -0.29986647237510811 0 0.37093408616543422 -0.29499190654120538 0 0.37214457168145071 -0.30742358830148531 0 0.37093408616543422 -0.29499190654120538 0 0.36107539554114298 -0.29693991331551067 0 0.37214457168145071 -0.30742358830148531 0 0.35617419542099171 -0.30797258542327188 0 0.37214457168145071 -0.30742358830148531 0 0.36996172146423478 -0.32754273311982529 0 0.35617419542099171 -0.30797258542327188 0 0.36996172146423478 -0.32754273311982529 0 0.35306648032504262 -0.33228776260873261 0 0.38164260336710232 -0.31615744579396521 0 0.37214457168145071 -0.30742358830148531 0 0.36996172146423478 -0.32754273311982529 0 0.36996172146423478 -0.32754273311982529 0 0.35306648032504262 -0.33228776260873261 0 0.35731430246447682 -0.34983201697113597 0 0.37618485313497191 -0.35303141813195599 0 0.36996172146423478 -0.32754273311982529 0 0.35731430246447682 -0.34983201697113597 0 0.37618485313497191 -0.35303141813195599 0 0.36996172146423478 -0.32754273311982529 0 0.35306648032504262 -0.33228776260873261 0 0.35731430246447682 -0.34983201697113597 0 0.34168414680625769 -0.34452156241349458 0 0.35617419542099171 -0.30797258542327188 0 0.35306648032504262 -0.33228776260873261 0 0.3434221482530771 -0.31898036386437462 0 0.37618485313497191 -0.35303141813195599 0 0.38240798480570892 -0.37852010314408679 0 0.3567457423339877 -0.37092962175819427 0 0.37618485313497191 -0.35303141813195599 0 0.35731430246447682 -0.34983201697113597 0 0.3567457423339877 -0.37092962175819427 0 0.35731430246447682 -0.34983201697113597 0 0.33741189226114721 -0.35981876257024509 0 0.34168414680625769 -0.34452156241349458 0 0.35731430246447682 -0.34983201697113597 0 0.3567457423339877 -0.37092962175819427 0 0.33741189226114721 -0.35981876257024509 0 0.33846966771265258 -0.37695460337982112 0 0.3567457423339877 -0.37092962175819427 0 0.33741189226114721 -0.35981876257024509 0 0.33846966771265258 -0.37695460337982112 0 0.33741189226114721 -0.35981876257024509 0 0.31915821050206972 -0.37043664262910392 0 0.33741189226114721 -0.35981876257024509 0 0.34168414680625769 -0.34452156241349458 0 0.32813074893442251 -0.34418371868588848 0 0.33741189226114721 -0.35981876257024509 0 0.32813074893442251 -0.34418371868588848 0 0.32201112636252999 -0.3528096981888329 0 0.32201112636252999 -0.3528096981888329 0 0.31915821050206972 -0.37043664262910392 0 0.30987318817222509 -0.34571298684785262 0 0.32813074893442251 -0.34418371868588848 0 0.32201112636252999 -0.3528096981888329 0 0.31771908807833588 -0.34170101098267841 0 0.32201112636252999 -0.3528096981888329 0 0.31771908807833588 -0.34170101098267841 0 0.30987318817222509 -0.34571298684785262 0 0.33741189226114721 -0.35981876257024509 0 0.32201112636252999 -0.3528096981888329 0 0.31915821050206972 -0.37043664262910392 0 0.35306648032504262 -0.33228776260873261 0 0.3434221482530771 -0.31898036386437462 0 0.33232496317177118 -0.32984298873849771 0 0.33350720058453531 -0.3067582988720306 0 0.3434221482530771 -0.31898036386437462 0 0.33232496317177118 -0.32984298873849771 0 0.33350720058453531 -0.3067582988720306 0 0.33232496317177118 -0.32984298873849771 0 0.31940688812320073 -0.32114172553523779 0 0.35306648032504262 -0.33228776260873261 0 0.34168414680625769 -0.34452156241349458 0 0.33232496317177118 -0.32984298873849771 0 0.34168414680625769 -0.34452156241349458 0 0.32813074893442251 -0.34418371868588848 0 0.33232496317177118 -0.32984298873849771 0 0.32813074893442251 -0.34418371868588848 0 0.33232496317177118 -0.32984298873849771 0 0.32267668596175481 -0.33341785867055518 0 0.33232496317177118 -0.32984298873849771 0 0.32267668596175481 -0.33341785867055518 0 0.31940688812320073 -0.32114172553523779 0 0.32813074893442251 -0.34418371868588848 0 0.32267668596175481 -0.33341785867055518 0 0.31771908807833588 -0.34170101098267841 0 0.32267668596175481 -0.33341785867055518 0 0.31771908807833588 -0.34170101098267841 0 0.31294298630122958 -0.33429540854302747 0 0.31771908807833588 -0.34170101098267841 0 0.31168118685013108 -0.34100175600761939 0 0.30987318817222509 -0.34571298684785262 0 0.31771908807833588 -0.34170101098267841 0 0.31294298630122958 -0.33429540854302747 0 0.31168118685013108 -0.34100175600761939 0 0.32267668596175481 -0.33341785867055518 0 0.31294298630122958 -0.33429540854302747 0 0.31940688812320073 -0.32114172553523779 0 0.31294298630122958 -0.33429540854302747 0 0.31940688812320073 -0.32114172553523779 0 0.30601167809918312 -0.32095610648709572 0 0.31940688812320073 -0.32114172553523779 0 0.30601167809918312 -0.32095610648709572 0 0.31236919290445669 -0.30090688950199113 0 0.30601167809918312 -0.32095610648709572 0 0.29267099061500118 -0.31767693215293968 0 0.29602111265001879 -0.30165816726207401 0 0.30601167809918312 -0.32095610648709572 0 0.30423517195087751 -0.34071154513897461 0 0.29267099061500118 -0.31767693215293968 0 0.31294298630122958 -0.33429540854302747 0 0.30601167809918312 -0.32095610648709572 0 0.30570887717953288 -0.34364700841230278 0 0.30423517195087751 -0.34071154513897461 0 0.29267099061500118 -0.31767693215293968 0 0.30601167809918312 -0.32095610648709572 0 0.30570887717953288 -0.34364700841230278 0 0.30423517195087751 -0.34071154513897461 0 0.31294298630122958 -0.33429540854302747 0 0.31168118685013108 -0.34100175600761939 0 0.30570887717953288 -0.34364700841230278 0 0.31168118685013108 -0.34100175600761939 0 0.30570887717953288 -0.34364700841230278 0 0.30987318817222509 -0.34571298684785262 0 0.30570887717953288 -0.34364700841230278 0 0.30423517195087751 -0.34071154513897461 0 0.30570887717953288 -0.34364700841230278 0 0.30351258495694688 -0.34255739421730541 0 0.30423517195087751 -0.34071154513897461 0 0.30570887717953288 -0.34364700841230278 0 0.30351258495694688 -0.34255739421730541 0 0.30351258495694688 -0.34255739421730541 0 0.30423517195087751 -0.34071154513897461 0 0.30423517195087751 -0.34071154513897461 0 0.29267099061500118 -0.31767693215293968 0 0.27697346549350221 -0.32939093076003212 0 0.30351258495694688 -0.34255739421730541 0 0.27697346549350221 -0.32939093076003212 0 0.30351258495694688 -0.34255739421730541 0 0.30423517195087751 -0.34071154513897461 0 0.27697346549350221 -0.32939093076003212 0 0.30351258495694688 -0.34255739421730541 0 0.28388279232808111 -0.34879423229863538 0 0.27697346549350221 -0.32939093076003212 0 0.3096773386499212 -0.3813243078888065 0 0.31915821050206972 -0.37043664262910392 0 0.29938815419514908 -0.36235191135060729 0 0.29526372343335222 -0.38214642848390951 0 0.29938815419514908 -0.36235191135060729 0 0.30570887717953288 -0.34364700841230278 0 0.30351258495694688 -0.34255739421730541 0 0.29938815419514908 -0.36235191135060729 0 0.31915821050206972 -0.37043664262910392 0 0.30570887717953288 -0.34364700841230278 0 0.30987318817222509 -0.34571298684785262 0 0.30351258495694688 -0.34255739421730541 0 0.29938815419514908 -0.36235191135060729 0 0.29225796469017368 -0.35486586181932289 0 0.31915821050206972 -0.37043664262910392 0 0.30570887717953288 -0.34364700841230278 0 0.29938815419514908 -0.36235191135060729 0 0.31915821050206972 -0.37043664262910392 0 0.30570887717953288 -0.34364700841230278 0 0.30351258495694688 -0.34255739421730541 0 0.29938815419514908 -0.36235191135060729 0 0.30570887717953288 -0.34364700841230278 0 0.30987318817222509 -0.34571298684785262 0 0.29225796469017368 -0.35486586181932289 0 0.28388279232808111 -0.34879423229863538 0 0.2822483272805178 -0.36575990941074382 0 0.30351258495694688 -0.34255739421730541 0 0.29225796469017368 -0.35486586181932289 0 0.28388279232808111 -0.34879423229863538 0 0.29526372343335222 -0.38214642848390951 0 0.29938815419514908 -0.36235191135060729 0 0.2822483272805178 -0.36575990941074382 0 0.29938815419514908 -0.36235191135060729 0 0.29225796469017368 -0.35486586181932289 0 0.2822483272805178 -0.36575990941074382 0 0.27569670368188232 -0.38326726020642471 0 0.2822483272805178 -0.36575990941074382 0 0.26273855981799532 -0.37402085189451678 0 0.2822483272805178 -0.36575990941074382 0 0.26391134377156378 -0.35745418407105078 0 0.26273855981799532 -0.37402085189451678 0 0.28388279232808111 -0.34879423229863538 0 0.2690396956517056 -0.34420120372419399 0 0.26391134377156378 -0.35745418407105078 0 0.28388279232808111 -0.34879423229863538 0 0.2822483272805178 -0.36575990941074382 0 0.26391134377156378 -0.35745418407105078 0 0.26391134377156378 -0.35745418407105078 0 0.25139118101367519 -0.34116546776705792 0 0.24725496166677341 -0.36469484034826838 0 0.2690396956517056 -0.34420120372419399 0 0.26391134377156378 -0.35745418407105078 0 0.25139118101367519 -0.34116546776705792 0 0.26391134377156378 -0.35745418407105078 0 0.26273855981799532 -0.37402085189451678 0 0.24725496166677341 -0.36469484034826838 0 0.26273855981799532 -0.37402085189451678 0 0.24725496166677341 -0.36469484034826838 0 0.2462658744323834 -0.38197959250061342 0 0.27697346549350221 -0.32939093076003212 0 0.2504343460300561 -0.31622446730276171 0 0.27399568940133018 -0.31084845435951231 0 0.29267099061500118 -0.31767693215293968 0 0.27697346549350221 -0.32939093076003212 0 0.27399568940133018 -0.31084845435951231 0 0.2690396956517056 -0.34420120372419399 0 0.27697346549350221 -0.32939093076003212 0 0.25139118101367519 -0.34116546776705792 0 0.28388279232808111 -0.34879423229863538 0 0.2690396956517056 -0.34420120372419399 0 0.27697346549350221 -0.32939093076003212 0 0.27697346549350221 -0.32939093076003212 0 0.25139118101367519 -0.34116546776705792 0 0.2504343460300561 -0.31622446730276171 0 0.27697346549350221 -0.32939093076003212 0 0.2504343460300561 -0.31622446730276171 0 0.2504343460300561 -0.31622446730276171 0 0.25790403393649142 -0.29221016043342007 0 0.26868825863076801 -0.29933442507853231 0 0.2504343460300561 -0.31622446730276171 0 0.27399568940133018 -0.31084845435951231 0 0.26868825863076801 -0.29933442507853231 0 0.25790403393649142 -0.29221016043342007 0 0.26247779924518422 -0.27455948017448001 0 0.23862998452346509 -0.28454510211497241 0 0.25790403393649142 -0.29221016043342007 0 0.27122533838754692 -0.28910882128364879 0 0.26247779924518422 -0.27455948017448001 0 0.27122533838754692 -0.28910882128364879 0 0.28742349607482037 -0.28773318483823551 0 0.26247779924518422 -0.27455948017448001 0 0.27122533838754692 -0.28910882128364879 0 0.27963310405047059 -0.29170685589357598 0 0.28742349607482037 -0.28773318483823551 0 0.25790403393649142 -0.29221016043342007 0 0.27122533838754692 -0.28910882128364879 0 0.26868825863076801 -0.29933442507853231 0 0.27122533838754692 -0.28910882128364879 0 0.27963310405047059 -0.29170685589357598 0 0.26868825863076801 -0.29933442507853231 0 0.27963310405047059 -0.29170685589357598 0 0.27399568940133018 -0.31084845435951231 0 0.26868825863076801 -0.29933442507853231 0 0.29267099061500118 -0.31767693215293968 0 0.27963310405047059 -0.29170685589357598 0 0.29267099061500118 -0.31767693215293968 0 0.27963310405047059 -0.29170685589357598 0 0.27399568940133018 -0.31084845435951231 0 0.29267099061500118 -0.31767693215293968 0 0.27963310405047059 -0.29170685589357598 0 0.29602111265001879 -0.30165816726207401 0 0.27963310405047059 -0.29170685589357598 0 0.29602111265001879 -0.30165816726207401 0 0.28742349607482037 -0.28773318483823551 0 0.28742349607482037 -0.28773318483823551 0 0.31236919290445669 -0.30090688950199113 0 0.29602111265001879 -0.30165816726207401 0 0.28742349607482037 -0.28773318483823551 0 0.31236919290445669 -0.30090688950199113 0 0.28742349607482037 -0.28773318483823551 0 0.31236919290445669 -0.30090688950199113 0 0.2973859747586714 -0.27579116796592118 0 0.31236919290445669 -0.30090688950199113 0 0.31219288969015102 -0.27103532748113379 0 0.2973859747586714 -0.27579116796592118 0 0.30601167809918312 -0.32095610648709572 0 0.29602111265001879 -0.30165816726207401 0 0.31236919290445669 -0.30090688950199113 0 0.30987088180634448 -0.24125362874219619 0 0.29250997527574701 -0.24677647679701359 0 0.31219288969015102 -0.27103532748113379 0 0.29250997527574701 -0.24677647679701359 0 0.31219288969015102 -0.27103532748113379 0 0.2896735531526361 -0.26412531454105981 0 0.31219288969015102 -0.27103532748113379 0 0.2973859747586714 -0.27579116796592118 0 0.2896735531526361 -0.26412531454105981 0 0.2973859747586714 -0.27579116796592118 0 0.28192096152604101 -0.27231994505035018 0 0.2896735531526361 -0.26412531454105981 0 0.28742349607482037 -0.28773318483823551 0 0.2973859747586714 -0.27579116796592118 0 0.28192096152604101 -0.27231994505035018 0 0.29250997527574701 -0.24677647679701359 0 0.2896735531526361 -0.26412531454105981 0 0.27534065318434953 -0.25880162201512719 0 0.28192096152604101 -0.27231994505035018 0 0.2896735531526361 -0.26412531454105981 0 0.27534065318434953 -0.25880162201512719 0 0.27462122614518292 -0.24127539045551061 0 0.27534065318434953 -0.25880162201512719 0 0.25726365536858148 -0.25362034743760148 0 0.28742349607482037 -0.28773318483823551 0 0.26247779924518422 -0.27455948017448001 0 0.28192096152604101 -0.27231994505035018 0 0.27534065318434953 -0.25880162201512719 0 0.26247779924518422 -0.27455948017448001 0 0.28742349607482037 -0.28773318483823551 0 0.28192096152604101 -0.27231994505035018 0 0.26247779924518422 -0.27455948017448001 0 0.26247779924518422 -0.27455948017448001 0 0.23753210241554801 -0.26138577551072451 0 0.26247779924518422 -0.27455948017448001 0 0.25726365536858148 -0.25362034743760148 0 0.23753210241554801 -0.26138577551072451 0 0.27534065318434953 -0.25880162201512719 0 0.26247779924518422 -0.27455948017448001 0 0.25726365536858148 -0.25362034743760148 0 0.23753210241554801 -0.26138577551072451 0 0.24146341680214309 -0.24448521489457861 0 0.2264227451730553 -0.24971222362376699 0 0.25726365536858148 -0.25362034743760148 0 0.23753210241554801 -0.26138577551072451 0 0.24146341680214309 -0.24448521489457861 0 0.26247779924518422 -0.27455948017448001 0 0.23753210241554801 -0.26138577551072451 0 0.23862998452346509 -0.28454510211497241 0 0.23753210241554801 -0.26138577551072451 0 0.2162589501465873 -0.27468266641732147 0 0.23862998452346509 -0.28454510211497241 0 0.23753210241554801 -0.26138577551072451 0 0.2162589501465873 -0.27468266641732147 0 0.2264227451730553 -0.24971222362376699 0 0.21040399342164171 -0.25176681621351038 0 0.2162589501465873 -0.27468266641732147 0 0.2264227451730553 -0.24971222362376699 0 0.21040399342164171 -0.25176681621351038 0 0.2162589501465873 -0.27468266641732147 0 0.1934777637386868 -0.26196852324515157 0 0.2162589501465873 -0.27468266641732147 0 0.1966688692062398 -0.27921476679881868 0 0.1934777637386868 -0.26196852324515157 0 0.1966688692062398 -0.27921476679881868 0 0.1934777637386868 -0.26196852324515157 0 0.177394147168592 -0.28445233252858981 0 0.21040399342164171 -0.25176681621351038 0 0.1934777637386868 -0.26196852324515157 0 0.19936230214102421 -0.2479946931896729 0 0.1934777637386868 -0.26196852324515157 0 0.18957958600208469 -0.24548130840959781 0 0.18140855909891221 -0.24875385404173869 0 0.1934777637386868 -0.26196852324515157 0 0.18957958600208469 -0.24548130840959781 0 0.19936230214102421 -0.2479946931896729 0 0.19954461577109309 -0.29575554500421197 0 0.1961972522999722 -0.32216937387389732 0 0.17947015261898311 -0.31043279954087621 0 0.1966688692062398 -0.27921476679881868 0 0.19954461577109309 -0.29575554500421197 0 0.177394147168592 -0.28445233252858981 0 0.2162589501465873 -0.27468266641732147 0 0.19954461577109309 -0.29575554500421197 0 0.22389522656661021 -0.30305800384549131 0 0.2162589501465873 -0.27468266641732147 0 0.1966688692062398 -0.27921476679881868 0 0.19954461577109309 -0.29575554500421197 0 0.19954461577109309 -0.29575554500421197 0 0.22389522656661021 -0.30305800384549131 0 0.1961972522999722 -0.32216937387389732 0 0.2504343460300561 -0.31622446730276171 0 0.25790403393649142 -0.29221016043342007 0 0.23862998452346509 -0.28454510211497241 0 0.2504343460300561 -0.31622446730276171 0 0.22389522656661021 -0.30305800384549131 0 0.23862998452346509 -0.28454510211497241 0 0.2162589501465873 -0.27468266641732147 0 0.22389522656661021 -0.30305800384549131 0 0.23862998452346509 -0.28454510211497241 0 0.2504343460300561 -0.31622446730276171 0 0.22389522656661021 -0.30305800384549131 0 0.22389522656661021 -0.30305800384549131 0 0.23204811719291779 -0.33532479601063409 0 0.2125404456115573 -0.3333426100015644 0 0.2504343460300561 -0.31622446730276171 0 0.22389522656661021 -0.30305800384549131 0 0.23204811719291779 -0.33532479601063409 0 0.25139118101367519 -0.34116546776705792 0 0.2504343460300561 -0.31622446730276171 0 0.23204811719291779 -0.33532479601063409 0 0.25139118101367519 -0.34116546776705792 0 0.23204811719291779 -0.33532479601063409 0 0.23339586826354061 -0.3539524211851004 0 0.23204811719291779 -0.33532479601063409 0 0.2148142246021956 -0.35440494078226209 0 0.2125404456115573 -0.3333426100015644 0 0.24725496166677341 -0.36469484034826838 0 0.23339586826354061 -0.3539524211851004 0 0.22607167799098421 -0.37270743793131111 0 0.24725496166677341 -0.36469484034826838 0 0.22607167799098421 -0.37270743793131111 0 0.2462658744323834 -0.38197959250061342 0 0.25139118101367519 -0.34116546776705792 0 0.24725496166677341 -0.36469484034826838 0 0.23339586826354061 -0.3539524211851004 0 0.23204811719291779 -0.33532479601063409 0 0.23339586826354061 -0.3539524211851004 0 0.2148142246021956 -0.35440494078226209 0 0.23339586826354061 -0.3539524211851004 0 0.22607167799098421 -0.37270743793131111 0 0.2148142246021956 -0.35440494078226209 0 0.22607167799098421 -0.37270743793131111 0 0.2148142246021956 -0.35440494078226209 0 0.20089624558916569 -0.37097766955135358 0 0.2148142246021956 -0.35440494078226209 0 0.196995760569282 -0.35087166092684791 0 0.2125404456115573 -0.3333426100015644 0 0.2148142246021956 -0.35440494078226209 0 0.196995760569282 -0.35087166092684791 0 0.20089624558916569 -0.37097766955135358 0 0.196995760569282 -0.35087166092684791 0 0.20089624558916569 -0.37097766955135358 0 0.1768321188753432 -0.36690628541415632 0 0.22389522656661021 -0.30305800384549131 0 0.2125404456115573 -0.3333426100015644 0 0.1961972522999722 -0.32216937387389732 0 0.196995760569282 -0.35087166092684791 0 0.2125404456115573 -0.3333426100015644 0 0.1961972522999722 -0.32216937387389732 0 0.196995760569282 -0.35087166092684791 0 0.1961972522999722 -0.32216937387389732 0 0.1815461580693743 -0.3364132665531625 0 0.1815461580693743 -0.3364132665531625 0 0.1643579081553766 -0.3243843153562348 0 0.17947015261898311 -0.31043279954087621 0 0.1815461580693743 -0.3364132665531625 0 0.17947015261898311 -0.31043279954087621 0 0.1961972522999722 -0.32216937387389732 0 0.1815461580693743 -0.3364132665531625 0 0.17947015261898311 -0.31043279954087621 0 0.1815461580693743 -0.3364132665531625 0 0.16209568629271459 -0.34050931120228572 0 0.17381591925058279 -0.35045305017024581 0 0.16209568629271459 -0.34050931120228572 0 0.1643579081553766 -0.3243843153562348 0 0.1490492594086629 -0.33054926329457512 0 0.1815461580693743 -0.3364132665531625 0 0.16209568629271459 -0.34050931120228572 0 0.1643579081553766 -0.3243843153562348 0 0.1643579081553766 -0.3243843153562348 0 0.14785798951182749 -0.31747381703923983 0 0.15879613053988581 -0.31078255386998788 0 0.1643579081553766 -0.3243843153562348 0 0.17947015261898311 -0.31043279954087621 0 0.15879613053988581 -0.31078255386998788 0 0.196995760569282 -0.35087166092684791 0 0.1815461580693743 -0.3364132665531625 0 0.17381591925058279 -0.35045305017024581 0 0.196995760569282 -0.35087166092684791 0 0.1768321188753432 -0.36690628541415632 0 0.196995760569282 -0.35087166092684791 0 0.1768321188753432 -0.36690628541415632 0 0.17381591925058279 -0.35045305017024581 0 0.16209568629271459 -0.34050931120228572 0 0.17381591925058279 -0.35045305017024581 0 0.15160987244619981 -0.35756472675477641 0 0.1768321188753432 -0.36690628541415632 0 0.17381591925058279 -0.35045305017024581 0 0.15160987244619981 -0.35756472675477641 0 0.1768321188753432 -0.36690628541415632 0 0.15160987244619981 -0.35756472675477641 0 0.15666847718140431 -0.38294090990146468 0 0.1768321188753432 -0.36690628541415632 0 0.15666847718140431 -0.38294090990146468 0 0.15160987244619981 -0.35756472675477641 0 0.13564640110034021 -0.35912784543918008 0 0.13554014667972011 -0.37371994475541209 0 0.15160987244619981 -0.35756472675477641 0 0.13554014667972011 -0.37371994475541209 0 0.15666847718140431 -0.38294090990146468 0 0.16209568629271459 -0.34050931120228572 0 0.15160987244619981 -0.35756472675477641 0 0.1475882597035684 -0.34306743954738478 0 0.15160987244619981 -0.35756472675477641 0 0.1343114121946197 -0.3455365503022883 0 0.1475882597035684 -0.34306743954738478 0 0.15160987244619981 -0.35756472675477641 0 0.1343114121946197 -0.3455365503022883 0 0.13564640110034021 -0.35912784543918008 0 0.1343114121946197 -0.3455365503022883 0 0.1218367566819203 -0.34066885685305681 0 0.1211241730808211 -0.35969015994424403 0 0.1343114121946197 -0.3455365503022883 0 0.13564640110034021 -0.35912784543918008 0 0.1211241730808211 -0.35969015994424403 0 0.13564640110034021 -0.35912784543918008 0 0.13554014667972011 -0.37371994475541209 0 0.1211241730808211 -0.35969015994424403 0 0.1643579081553766 -0.3243843153562348 0 0.14785798951182749 -0.31747381703923983 0 0.1490492594086629 -0.33054926329457512 0 0.14785798951182749 -0.31747381703923983 0 0.1490492594086629 -0.33054926329457512 0 0.13601489266483169 -0.3229904494785929 0 0.16209568629271459 -0.34050931120228572 0 0.1490492594086629 -0.33054926329457512 0 0.1475882597035684 -0.34306743954738478 0 0.1490492594086629 -0.33054926329457512 0 0.1475882597035684 -0.34306743954738478 0 0.1353950678134421 -0.33468762657073647 0 0.1490492594086629 -0.33054926329457512 0 0.1353950678134421 -0.33468762657073647 0 0.13601489266483169 -0.3229904494785929 0 0.1343114121946197 -0.3455365503022883 0 0.1475882597035684 -0.34306743954738478 0 0.1353950678134421 -0.33468762657073647 0 0.1343114121946197 -0.3455365503022883 0 0.1353950678134421 -0.33468762657073647 0 0.1218367566819203 -0.34066885685305681 0 0.1353950678134421 -0.33468762657073647 0 0.12646864396445259 -0.32771949481933838 0 0.13601489266483169 -0.3229904494785929 0 0.1353950678134421 -0.33468762657073647 0 0.12646864396445259 -0.32771949481933838 0 0.1218367566819203 -0.34066885685305681 0 0.12646864396445259 -0.32771949481933838 0 0.13601489266483169 -0.3229904494785929 0 0.1236403595102975 -0.31726182602291142 0 0.14785798951182749 -0.31747381703923983 0 0.13601489266483169 -0.3229904494785929 0 0.13602289492267541 -0.31130305695836602 0 0.13601489266483169 -0.3229904494785929 0 0.13602289492267541 -0.31130305695836602 0 0.1236403595102975 -0.31726182602291142 0 0.127428615210958 -0.30550107704066293 0 0.13602289492267541 -0.31130305695836602 0 0.1236403595102975 -0.31726182602291142 0 0.127428615210958 -0.30550107704066293 0 0.13551093200295419 -0.30168473438614679 0 0.1256525224322369 -0.29448257816376899 0 0.127428615210958 -0.30550107704066293 0 0.13551093200295419 -0.30168473438614679 0 0.13602289492267541 -0.31130305695836602 0 0.13551093200295419 -0.30168473438614679 0 0.13602289492267541 -0.31130305695836602 0 0.14563569558381231 -0.30495269920752849 0 0.14563569558381231 -0.30495269920752849 0 0.1436119925904093 -0.29293491915627751 0 0.1604468518829657 -0.29816604611383052 0 0.14785798951182749 -0.31747381703923983 0 0.13602289492267541 -0.31130305695836602 0 0.14563569558381231 -0.30495269920752849 0 0.13551093200295419 -0.30168473438614679 0 0.14563569558381231 -0.30495269920752849 0 0.1436119925904093 -0.29293491915627751 0 0.14563569558381231 -0.30495269920752849 0 0.15879613053988581 -0.31078255386998788 0 0.1604468518829657 -0.29816604611383052 0 0.14785798951182749 -0.31747381703923983 0 0.14563569558381231 -0.30495269920752849 0 0.15879613053988581 -0.31078255386998788 0 0.1436119925904093 -0.29293491915627751 0 0.1604468518829657 -0.29816604611383052 0 0.15777299279611159 -0.28544097237972332 0 0.1436119925904093 -0.29293491915627751 0 0.15114809845108379 -0.28013278059363872 0 0.15777299279611159 -0.28544097237972332 0 0.1436119925904093 -0.29293491915627751 0 0.1436168584679525 -0.2836209543501686 0 0.1357133019824012 -0.28986653681351437 0 0.1436119925904093 -0.29293491915627751 0 0.1436168584679525 -0.2836209543501686 0 0.15114809845108379 -0.28013278059363872 0 0.1436168584679525 -0.2836209543501686 0 0.12997183443900701 -0.2884276955838429 0 0.14612074404546729 -0.27464986070998659 0 0.1436168584679525 -0.2836209543501686 0 0.1357133019824012 -0.28986653681351437 0 0.12997183443900701 -0.2884276955838429 0 0.1436119925904093 -0.29293491915627751 0 0.1256525224322369 -0.29448257816376899 0 0.12997183443900701 -0.2884276955838429 0 0.14612074404546729 -0.27464986070998659 0 0.1436119925904093 -0.29293491915627751 0 0.1357133019824012 -0.28986653681351437 0 0.1256525224322369 -0.29448257816376899 0 0.13551093200295419 -0.30168473438614679 0 0.1436119925904093 -0.29293491915627751 0 0.1256525224322369 -0.29448257816376899 0 0.1357133019824012 -0.28986653681351437 0 0.1256525224322369 -0.29448257816376899 0 0.12997183443900701 -0.2884276955838429 0 0.1256525224322369 -0.29448257816376899 0 0.12997183443900701 -0.2884276955838429 0 0.1225628758501054 -0.2947488287446996 0 0.1256525224322369 -0.29448257816376899 0 0.12997183443900701 -0.2884276955838429 0 0.12997183443900701 -0.2884276955838429 0 0.1233634239504731 -0.2874855776093414 0 0.1225628758501054 -0.2947488287446996 0 0.12997183443900701 -0.2884276955838429 0 0.1225628758501054 -0.2947488287446996 0 0.12997183443900701 -0.2884276955838429 0 0.1275993617664036 -0.28112518425861122 0 0.1233634239504731 -0.2874855776093414 0 0.12997183443900701 -0.2884276955838429 0 0.1275993617664036 -0.28112518425861122 0 0.13485463758425459 -0.27391652201106309 0 0.1275993617664036 -0.28112518425861122 0 0.1280966355330338 -0.27434446718476552 0 0.12144198577599689 -0.28043819023602667 0 0.12997183443900701 -0.2884276955838429 0 0.14612074404546729 -0.27464986070998659 0 0.1420233446603141 -0.27153369043062148 0 0.12997183443900701 -0.2884276955838429 0 0.13485463758425459 -0.27391652201106309 0 0.1420233446603141 -0.27153369043062148 0 0.12997183443900701 -0.2884276955838429 0 0.1420233446603141 -0.27153369043062148 0 0.1275993617664036 -0.28112518425861122 0 0.1280966355330338 -0.27434446718476552 0 0.13485463758425459 -0.27391652201106309 0 0.1280966355330338 -0.27434446718476552 0 0.13485463758425459 -0.27391652201106309 0 0.13350735252106491 -0.26509119559065258 0 0.1280966355330338 -0.27434446718476552 0 0.13350735252106491 -0.26509119559065258 0 0.123327112510175 -0.26381005316279871 0 0.13811143923488059 -0.26777882680588339 0 0.13485463758425459 -0.27391652201106309 0 0.13350735252106491 -0.26509119559065258 0 0.13811143923488059 -0.26777882680588339 0 0.13485463758425459 -0.27391652201106309 0 0.1420233446603141 -0.27153369043062148 0 0.13350735252106491 -0.26509119559065258 0 0.1338120645475761 -0.25178135897747889 0 0.123327112510175 -0.26381005316279871 0 0.13350735252106491 -0.26509119559065258 0 0.1338120645475761 -0.25178135897747889 0 0.1420604221738889 -0.26057389919119672 0 0.13811143923488059 -0.26777882680588339 0 0.13350735252106491 -0.26509119559065258 0 0.1420604221738889 -0.26057389919119672 0 0.15407485488162029 -0.25463968527739939 0 0.1420233446603141 -0.27153369043062148 0 0.1338120645475761 -0.25178135897747889 0 0.15081333679343489 -0.24957271686280691 0 0.1504037114514421 -0.26476637401943331 0 0.15407485488162029 -0.25463968527739939 0 0.1420233446603141 -0.27153369043062148 0 0.1420604221738889 -0.26057389919119672 0 0.15407485488162029 -0.25463968527739939 0 0.1420233446603141 -0.27153369043062148 0 0.1338120645475761 -0.25178135897747889 0 0.14898820642875321 -0.25263106074458241 0 0.15081333679343489 -0.24957271686280691 0 0.1420604221738889 -0.26057389919119672 0 0.14898820642875321 -0.25263106074458241 0 0.15407485488162029 -0.25463968527739939 0 0.1338120645475761 -0.25178135897747889 0 0.14898820642875321 -0.25263106074458241 0 0.1338120645475761 -0.25178135897747889 0 0.1420604221738889 -0.26057389919119672 0 0.14898820642875321 -0.25263106074458241 0 0.1504037114514421 -0.26476637401943331 0 0.15407485488162029 -0.25463968527739939 0 0.15854298516514259 -0.2623064548534918 0 0.1504037114514421 -0.26476637401943331 0 0.15545765769127859 -0.26765705275147811 0 0.15854298516514259 -0.2623064548534918 0 0.14898820642875321 -0.25263106074458241 0 0.15407485488162029 -0.25463968527739939 0 0.16416434830993021 -0.25348076251168611 0 0.14898820642875321 -0.25263106074458241 0 0.16416434830993021 -0.25348076251168611 0 0.15081333679343489 -0.24957271686280691 0 0.1436168584679525 -0.2836209543501686 0 0.14612074404546729 -0.27464986070998659 0 0.15114809845108379 -0.28013278059363872 0 0.13811143923488059 -0.26777882680588339 0 0.1420604221738889 -0.26057389919119672 0 0.1420233446603141 -0.27153369043062148 0 0.1504037114514421 -0.26476637401943331 0 0.1420233446603141 -0.27153369043062148 0 0.14774651714261711 -0.27061417123897102 0 0.14612074404546729 -0.27464986070998659 0 0.1420233446603141 -0.27153369043062148 0 0.14774651714261711 -0.27061417123897102 0 0.15545765769127859 -0.26765705275147811 0 0.1524382684132447 -0.27150675979584271 0 0.16044566573528521 -0.27204862233714472 0 0.14612074404546729 -0.27464986070998659 0 0.14774651714261711 -0.27061417123897102 0 0.1524382684132447 -0.27150675979584271 0 0.1504037114514421 -0.26476637401943331 0 0.14774651714261711 -0.27061417123897102 0 0.1524382684132447 -0.27150675979584271 0 0.1504037114514421 -0.26476637401943331 0 0.15545765769127859 -0.26765705275147811 0 0.1524382684132447 -0.27150675979584271 0 0.1524382684132447 -0.27150675979584271 0 0.15114809845108379 -0.28013278059363872 0 0.16044566573528521 -0.27204862233714472 0 0.14612074404546729 -0.27464986070998659 0 0.1524382684132447 -0.27150675979584271 0 0.15114809845108379 -0.28013278059363872 0 0.16044566573528521 -0.27204862233714472 0 0.16717305761943019 -0.26615200754944318 0 0.177394147168592 -0.28445233252858981 0 0.16044566573528521 -0.27204862233714472 0 0.177394147168592 -0.28445233252858981 0 0.15777299279611159 -0.28544097237972332 0 0.15114809845108379 -0.28013278059363872 0 0.16044566573528521 -0.27204862233714472 0 0.15777299279611159 -0.28544097237972332 0 0.15545765769127859 -0.26765705275147811 0 0.16044566573528521 -0.27204862233714472 0 0.15854298516514259 -0.2623064548534918 0 0.16044566573528521 -0.27204862233714472 0 0.16717305761943019 -0.26615200754944318 0 0.15854298516514259 -0.2623064548534918 0 0.15407485488162029 -0.25463968527739939 0 0.15854298516514259 -0.2623064548534918 0 0.16416434830993021 -0.25348076251168611 0 0.14898820642875321 -0.25263106074458241 0 0.16416434830993021 -0.25348076251168611 0 0.16416434830993021 -0.25348076251168611 0 0.15746623258843939 -0.24717962177743169 0 0.15081333679343489 -0.24957271686280691 0 0.16717305761943019 -0.26615200754944318 0 0.15854298516514259 -0.2623064548534918 0 0.16416434830993021 -0.25348076251168611 0 0.16717305761943019 -0.26615200754944318 0 0.16416434830993021 -0.25348076251168611 0 0.17531814171820079 -0.25847186551630352 0 0.1934777637386868 -0.26196852324515157 0 0.17531814171820079 -0.25847186551630352 0 0.18140855909891221 -0.24875385404173869 0 0.16717305761943019 -0.26615200754944318 0 0.17531814171820079 -0.25847186551630352 0 0.177394147168592 -0.28445233252858981 0 0.1934777637386868 -0.26196852324515157 0 0.17531814171820079 -0.25847186551630352 0 0.177394147168592 -0.28445233252858981 0 0.17531814171820079 -0.25847186551630352 0 0.177394147168592 -0.28445233252858981 0 0.177394147168592 -0.28445233252858981 0 0.17947015261898311 -0.31043279954087621 0 0.1604468518829657 -0.29816604611383052 0 0.19954461577109309 -0.29575554500421197 0 0.177394147168592 -0.28445233252858981 0 0.17947015261898311 -0.31043279954087621 0 0.177394147168592 -0.28445233252858981 0 0.17947015261898311 -0.31043279954087621 0 0.17947015261898311 -0.31043279954087621 0 0.15879613053988581 -0.31078255386998788 0 0.1604468518829657 -0.29816604611383052 0 0.177394147168592 -0.28445233252858981 0 0.1604468518829657 -0.29816604611383052 0 0.15777299279611159 -0.28544097237972332 0 0.19199278516569629 -0.5 0 0.1900164382224285 -0.48271496941050879 0 0.20545646434069309 -0.4787017342280358 0 0.1900164382224285 -0.48271496941050879 0 0.20545646434069309 -0.4787017342280358 0 0.18613842771148381 -0.46787851807202258 0 0.20545646434069309 -0.4787017342280358 0 0.2281108343262262 -0.48056582836830158 0 0.21973600360042431 -0.45949417383294189 0 0.20545646434069309 -0.4787017342280358 0 0.21796904096784361 -0.5 0 0.2281108343262262 -0.48056582836830158 0 0.19199278516569629 -0.5 0 0.20545646434069309 -0.4787017342280358 0 0.21796904096784361 -0.5 0 0.21796904096784361 -0.5 0 0.24394529676999099 -0.5 0 0.2281108343262262 -0.48056582836830158 0 0.25460761733926612 -0.48077428153223201 0 0.24394529676999099 -0.5 0 0.2281108343262262 -0.48056582836830158 0 0.2281108343262262 -0.48056582836830158 0 0.24642569303344669 -0.46176391886762419 0 0.25460761733926612 -0.48077428153223201 0 0.2281108343262262 -0.48056582836830158 0 0.24642569303344669 -0.46176391886762419 0 0.2281108343262262 -0.48056582836830158 0 0.21973600360042431 -0.45949417383294189 0 0.2323887624892686 -0.4611014010944845 0 0.21973600360042431 -0.45949417383294189 0 0.2323887624892686 -0.4611014010944845 0 0.23528251899697711 -0.44258168330907049 0 0.2281108343262262 -0.48056582836830158 0 0.2323887624892686 -0.4611014010944845 0 0.24642569303344669 -0.46176391886762419 0 0.2323887624892686 -0.4611014010944845 0 0.24642569303344669 -0.46176391886762419 0 0.23528251899697711 -0.44258168330907049 0 0.2647405517406643 -0.44296200936694391 0 0.23528251899697711 -0.44258168330907049 0 0.24937758952868769 -0.43582476186075059 0 0.2647405517406643 -0.44296200936694391 0 0.24642569303344669 -0.46176391886762419 0 0.23528251899697711 -0.44258168330907049 0 0.21973600360042431 -0.45949417383294189 0 0.23528251899697711 -0.44258168330907049 0 0.20582448625328989 -0.44220135725120002 0 0.23528251899697711 -0.44258168330907049 0 0.20582448625328989 -0.44220135725120002 0 0.23528251899697711 -0.44258168330907049 0 0.20582448625328989 -0.44220135725120002 0 0.22256526670295609 -0.43567624475563838 0 0.20545646434069309 -0.4787017342280358 0 0.21973600360042431 -0.45949417383294189 0 0.202602484605724 -0.45942999972385479 0 0.21973600360042431 -0.45949417383294189 0 0.20582448625328989 -0.44220135725120002 0 0.202602484605724 -0.45942999972385479 0 0.202602484605724 -0.45942999972385479 0 0.19228485390892139 -0.44832807257495588 0 0.18613842771148381 -0.46787851807202258 0 0.20545646434069309 -0.4787017342280358 0 0.202602484605724 -0.45942999972385479 0 0.18613842771148381 -0.46787851807202258 0 0.20582448625328989 -0.44220135725120002 0 0.202602484605724 -0.45942999972385479 0 0.19228485390892139 -0.44832807257495588 0 0.20582448625328989 -0.44220135725120002 0 0.19228485390892139 -0.44832807257495588 0 0.1986877949313606 -0.42882383702638299 0 0.19228485390892139 -0.44832807257495588 0 0.1986877949313606 -0.42882383702638299 0 0.183200271073473 -0.43641073338783498 0 0.1986877949313606 -0.42882383702638299 0 0.1816281482625339 -0.41415137017959991 0 0.183200271073473 -0.43641073338783498 0 0.20582455939560251 -0.41258395769508027 0 0.1950935246886642 -0.40110820421824778 0 0.1816281482625339 -0.41415137017959991 0 0.1986877949313606 -0.42882383702638299 0 0.20582455939560251 -0.41258395769508027 0 0.1816281482625339 -0.41415137017959991 0 0.20582455939560251 -0.41258395769508027 0 0.21384958020830239 -0.42892716952759119 0 0.2218345854540221 -0.41854111548045619 0 0.20582455939560251 -0.41258395769508027 0 0.2218345854540221 -0.41854111548045619 0 0.2220903860499629 -0.40641314768071007 0 0.1986877949313606 -0.42882383702638299 0 0.20582455939560251 -0.41258395769508027 0 0.21384958020830239 -0.42892716952759119 0 0.20582448625328989 -0.44220135725120002 0 0.21384958020830239 -0.42892716952759119 0 0.22256526670295609 -0.43567624475563838 0 0.20582448625328989 -0.44220135725120002 0 0.1986877949313606 -0.42882383702638299 0 0.21384958020830239 -0.42892716952759119 0 0.21384958020830239 -0.42892716952759119 0 0.22256526670295609 -0.43567624475563838 0 0.23530448135325491 -0.42899476893469179 0 0.21384958020830239 -0.42892716952759119 0 0.23530448135325491 -0.42899476893469179 0 0.21384958020830239 -0.42892716952759119 0 0.23530448135325491 -0.42899476893469179 0 0.2218345854540221 -0.41854111548045619 0 0.23528251899697711 -0.44258168330907049 0 0.22256526670295609 -0.43567624475563838 0 0.23530448135325491 -0.42899476893469179 0 0.25675938249820729 -0.42906236834179229 0 0.23530448135325491 -0.42899476893469179 0 0.23528251899697711 -0.44258168330907049 0 0.23530448135325491 -0.42899476893469179 0 0.24937758952868769 -0.43582476186075059 0 0.25675938249820729 -0.42906236834179229 0 0.23530448135325491 -0.42899476893469179 0 0.24471655788437549 -0.41836465708289111 0 0.25675938249820729 -0.42906236834179229 0 0.23530448135325491 -0.42899476893469179 0 0.24937758952868769 -0.43582476186075059 0 0.25834465052961392 -0.41196496969487773 0 0.24471655788437549 -0.41836465708289111 0 0.2415255849161019 -0.40609463635975013 0 0.23530448135325491 -0.42899476893469179 0 0.24471655788437549 -0.41836465708289111 0 0.23210392026298771 -0.41578653356420769 0 0.24471655788437549 -0.41836465708289111 0 0.23210392026298771 -0.41578653356420769 0 0.2415255849161019 -0.40609463635975013 0 0.23210392026298771 -0.41578653356420769 0 0.2220903860499629 -0.40641314768071007 0 0.2415255849161019 -0.40609463635975013 0 0.23530448135325491 -0.42899476893469179 0 0.23210392026298771 -0.41578653356420769 0 0.2218345854540221 -0.41854111548045619 0 0.23210392026298771 -0.41578653356420769 0 0.2218345854540221 -0.41854111548045619 0 0.2220903860499629 -0.40641314768071007 0 0.2220903860499629 -0.40641314768071007 0 0.2325848323457651 -0.39226733923237422 0 0.2415255849161019 -0.40609463635975013 0 0.2220903860499629 -0.40641314768071007 0 0.2325848323457651 -0.39226733923237422 0 0.20793944219493879 -0.39039719718598698 0 0.25113336278303172 -0.39639034007073559 0 0.2325848323457651 -0.39226733923237422 0 0.2415255849161019 -0.40609463635975013 0 0.25113336278303172 -0.39639034007073559 0 0.2325848323457651 -0.39226733923237422 0 0.2462658744323834 -0.38197959250061342 0 0.22607167799098421 -0.37270743793131111 0 0.2325848323457651 -0.39226733923237422 0 0.2462658744323834 -0.38197959250061342 0 0.22607167799098421 -0.37270743793131111 0 0.2325848323457651 -0.39226733923237422 0 0.20793944219493879 -0.39039719718598698 0 0.22607167799098421 -0.37270743793131111 0 0.20089624558916569 -0.37097766955135358 0 0.20793944219493879 -0.39039719718598698 0 0.20582455939560251 -0.41258395769508027 0 0.2220903860499629 -0.40641314768071007 0 0.20793944219493879 -0.39039719718598698 0 0.20793944219493879 -0.39039719718598698 0 0.1950935246886642 -0.40110820421824778 0 0.18397260247544159 -0.38969422049886882 0 0.20582455939560251 -0.41258395769508027 0 0.20793944219493879 -0.39039719718598698 0 0.1950935246886642 -0.40110820421824778 0 0.20089624558916569 -0.37097766955135358 0 0.20793944219493879 -0.39039719718598698 0 0.18397260247544159 -0.38969422049886882 0 0.20089624558916569 -0.37097766955135358 0 0.1768321188753432 -0.36690628541415632 0 0.18397260247544159 -0.38969422049886882 0 0.1768321188753432 -0.36690628541415632 0 0.18397260247544159 -0.38969422049886882 0 0.15666847718140431 -0.38294090990146468 0 0.1950935246886642 -0.40110820421824778 0 0.18397260247544159 -0.38969422049886882 0 0.1816281482625339 -0.41415137017959991 0 0.18397260247544159 -0.38969422049886882 0 0.16282522567504601 -0.40076461101477862 0 0.1816281482625339 -0.41415137017959991 0 0.18397260247544159 -0.38969422049886882 0 0.16282522567504601 -0.40076461101477862 0 0.15666847718140431 -0.38294090990146468 0 0.13554014667972011 -0.37371994475541209 0 0.15666847718140431 -0.38294090990146468 0 0.13650483548746539 -0.39897553438877298 0 0.13554014667972011 -0.37371994475541209 0 0.13650483548746539 -0.39897553438877298 0 0.11257503074115451 -0.38498649823446041 0 0.16282522567504601 -0.40076461101477862 0 0.13650483548746539 -0.39897553438877298 0 0.15535206496838491 -0.41806102010518609 0 0.16282522567504601 -0.40076461101477862 0 0.15666847718140431 -0.38294090990146468 0 0.13650483548746539 -0.39897553438877298 0 0.15666847718140431 -0.38294090990146468 0 0.13650483548746539 -0.39897553438877298 0 0.13650483548746539 -0.39897553438877298 0 0.15535206496838491 -0.41806102010518609 0 0.13513029091253781 -0.42041342615249999 0 0.13650483548746539 -0.39897553438877298 0 0.1163411937935266 -0.41501015887608139 0 0.13650483548746539 -0.39897553438877298 0 0.13513029091253781 -0.42041342615249999 0 0.1163411937935266 -0.41501015887608139 0 0.13513029091253781 -0.42041342615249999 0 0.15032059054535499 -0.43467939270726969 0 0.13254635452133279 -0.44085243440563188 0 0.13513029091253781 -0.42041342615249999 0 0.13254635452133279 -0.44085243440563188 0 0.1143868512917591 -0.43285467588419202 0 0.15535206496838491 -0.41806102010518609 0 0.13513029091253781 -0.42041342615249999 0 0.15032059054535499 -0.43467939270726969 0 0.15535206496838491 -0.41806102010518609 0 0.15032059054535499 -0.43467939270726969 0 0.16908223299646141 -0.42841704329178959 0 0.15032059054535499 -0.43467939270726969 0 0.16908223299646141 -0.42841704329178959 0 0.16335318746445779 -0.4445252196366028 0 0.16282522567504601 -0.40076461101477862 0 0.15535206496838491 -0.41806102010518609 0 0.1816281482625339 -0.41415137017959991 0 0.15535206496838491 -0.41806102010518609 0 0.16908223299646141 -0.42841704329178959 0 0.1816281482625339 -0.41415137017959991 0 0.16908223299646141 -0.42841704329178959 0 0.183200271073473 -0.43641073338783498 0 0.16335318746445779 -0.4445252196366028 0 0.16908223299646141 -0.42841704329178959 0 0.1816281482625339 -0.41415137017959991 0 0.183200271073473 -0.43641073338783498 0 0.183200271073473 -0.43641073338783498 0 0.1772803827575771 -0.45352317498248768 0 0.16335318746445779 -0.4445252196366028 0 0.19228485390892139 -0.44832807257495588 0 0.183200271073473 -0.43641073338783498 0 0.1772803827575771 -0.45352317498248768 0 0.19228485390892139 -0.44832807257495588 0 0.1772803827575771 -0.45352317498248768 0 0.18613842771148381 -0.46787851807202258 0 0.1772803827575771 -0.45352317498248768 0 0.18613842771148381 -0.46787851807202258 0 0.16548752239589951 -0.46480458862744461 0 0.16548752239589951 -0.46480458862744461 0 0.16335318746445779 -0.4445252196366028 0 0.1464594124089553 -0.4558072126519076 0 0.1772803827575771 -0.45352317498248768 0 0.16548752239589951 -0.46480458862744461 0 0.16335318746445779 -0.4445252196366028 0 0.15032059054535499 -0.43467939270726969 0 0.16335318746445779 -0.4445252196366028 0 0.1464594124089553 -0.4558072126519076 0 0.15032059054535499 -0.43467939270726969 0 0.13254635452133279 -0.44085243440563188 0 0.1464594124089553 -0.4558072126519076 0 0.13254635452133279 -0.44085243440563188 0 0.1274715551183096 -0.46736641087901343 0 0.1464594124089553 -0.4558072126519076 0 0.16548752239589951 -0.46480458862744461 0 0.1464594124089553 -0.4558072126519076 0 0.1467440422409298 -0.48368320543950499 0 0.1274715551183096 -0.46736641087901343 0 0.1467440422409298 -0.48368320543950499 0 0.12445287299781339 -0.48580957524003149 0 0.1274715551183096 -0.46736641087901343 0 0.1464594124089553 -0.4558072126519076 0 0.1467440422409298 -0.48368320543950499 0 0.1274715551183096 -0.46736641087901343 0 0.1467440422409298 -0.48368320543950499 0 0.1467440422409298 -0.48368320543950499 0 0.13861342094189541 -0.5 0 0.12445287299781339 -0.48580957524003149 0 0.1467440422409298 -0.48368320543950499 0 0.13861342094189541 -0.5 0 0.16601652936354891 -0.49999999999999789 0 0.1467440422409298 -0.48368320543950499 0 0.16601652936354891 -0.49999999999999789 0 0.1742528725293658 -0.48296598532830509 0 0.1467440422409298 -0.48368320543950499 0 0.16601652936354891 -0.49999999999999789 0 0.16548752239589951 -0.46480458862744461 0 0.1467440422409298 -0.48368320543950499 0 0.1742528725293658 -0.48296598532830509 0 0.18613842771148381 -0.46787851807202258 0 0.16548752239589951 -0.46480458862744461 0 0.1742528725293658 -0.48296598532830509 0 0.1900164382224285 -0.48271496941050879 0 0.18613842771148381 -0.46787851807202258 0 0.1742528725293658 -0.48296598532830509 0 0.19199278516569629 -0.5 0 0.16601652936354891 -0.49999999999999789 0 0.1742528725293658 -0.48296598532830509 0 0.19199278516569629 -0.5 0 0.1900164382224285 -0.48271496941050879 0 0.1742528725293658 -0.48296598532830509 0 0.067672963152933252 -0.5 0 0.070479040632291823 -0.48264211959480191 0 0.053020152767299072 -0.48801933676575959 0 0.067672963152933252 -0.5 0 0.070479040632291823 -0.48264211959480191 0 0.080327064833409109 -0.49320164294834518 0 0.064630060102032719 -0.47456076603106118 0 0.075246676549625066 -0.47305272083988897 0 0.070479040632291823 -0.48264211959480191 0 0.064630060102032719 -0.47456076603106118 0 0.075246676549625066 -0.47305272083988897 0 0.061795930812101732 -0.46820781613902701 0 0.075246676549625066 -0.47305272083988897 0 0.092517011764567517 -0.47378197497117353 0 0.089959488850471461 -0.49094383163907668 0 0.075246676549625066 -0.47305272083988897 0 0.070479040632291823 -0.48264211959480191 0 0.089959488850471461 -0.49094383163907668 0 0.075246676549625066 -0.47305272083988897 0 0.092517011764567517 -0.47378197497117353 0 0.083633368414380696 -0.46621164320728742 0 0.075246676549625066 -0.47305272083988897 0 0.089959488850471461 -0.49094383163907668 0 0.067672963152933252 -0.5 0 0.080327064833409109 -0.49320164294834518 0 0.097406857924120502 -0.499999999999999 0 0.080327064833409109 -0.49320164294834518 0 0.089959488850471461 -0.49094383163907668 0 0.097406857924120502 -0.499999999999999 0 0.070479040632291823 -0.48264211959480191 0 0.080327064833409109 -0.49320164294834518 0 0.089959488850471461 -0.49094383163907668 0 0.070479040632291823 -0.48264211959480191 0 0.089959488850471461 -0.49094383163907668 0 0.089959488850471461 -0.49094383163907668 0 0.097406857924120502 -0.499999999999999 0 0.089959488850471461 -0.49094383163907668 0 0.097406857924120502 -0.499999999999999 0 0.1112103125202419 -0.50000000000000022 0 0.089959488850471461 -0.49094383163907668 0 0.1052052932537345 -0.48462989700511527 0 0.1112103125202419 -0.50000000000000022 0 0.089959488850471461 -0.49094383163907668 0 0.1112103125202419 -0.50000000000000022 0 0.1052052932537345 -0.48462989700511527 0 0.1112103125202419 -0.50000000000000022 0 0.12445287299781339 -0.48580957524003149 0 0.13861342094189541 -0.5 0 0.1112103125202419 -0.50000000000000022 0 0.12445287299781339 -0.48580957524003149 0 0.1052052932537345 -0.48462989700511527 0 0.12445287299781339 -0.48580957524003149 0 0.10908141417361709 -0.46883823252096812 0 0.1274715551183096 -0.46736641087901343 0 0.12445287299781339 -0.48580957524003149 0 0.10908141417361709 -0.46883823252096812 0 0.092517011764567517 -0.47378197497117353 0 0.089959488850471461 -0.49094383163907668 0 0.1052052932537345 -0.48462989700511527 0 0.092517011764567517 -0.47378197497117353 0 0.1052052932537345 -0.48462989700511527 0 0.10908141417361709 -0.46883823252096812 0 0.092517011764567517 -0.47378197497117353 0 0.10908141417361709 -0.46883823252096812 0 0.090724871429903375 -0.45809280890615561 0 0.10908141417361709 -0.46883823252096812 0 0.1081990679956894 -0.4510496163185217 0 0.090724871429903375 -0.45809280890615561 0 0.1274715551183096 -0.46736641087901343 0 0.10908141417361709 -0.46883823252096812 0 0.1081990679956894 -0.4510496163185217 0 0.1274715551183096 -0.46736641087901343 0 0.1081990679956894 -0.4510496163185217 0 0.13254635452133279 -0.44085243440563188 0 0.1274715551183096 -0.46736641087901343 0 0.1081990679956894 -0.4510496163185217 0 0.13254635452133279 -0.44085243440563188 0 0.1081990679956894 -0.4510496163185217 0 0.1143868512917591 -0.43285467588419202 0 0.1081990679956894 -0.4510496163185217 0 0.09424645164530171 -0.44210268425789312 0 0.090724871429903375 -0.45809280890615561 0 0.1081990679956894 -0.4510496163185217 0 0.09424645164530171 -0.44210268425789312 0 0.1143868512917591 -0.43285467588419202 0 0.09424645164530171 -0.44210268425789312 0 0.078924008128618786 -0.44927425917818692 0 0.090724871429903375 -0.45809280890615561 0 0.09424645164530171 -0.44210268425789312 0 0.078924008128618786 -0.44927425917818692 0 0.079815715379254276 -0.43713965414436617 0 0.092517011764567517 -0.47378197497117353 0 0.090724871429903375 -0.45809280890615561 0 0.083633368414380696 -0.46621164320728742 0 0.075246676549625066 -0.47305272083988897 0 0.083633368414380696 -0.46621164320728742 0 0.07604491391342684 -0.45991906811193117 0 0.090724871429903375 -0.45809280890615561 0 0.083633368414380696 -0.46621164320728742 0 0.07604491391342684 -0.45991906811193117 0 0.078924008128618786 -0.44927425917818692 0 0.090724871429903375 -0.45809280890615561 0 0.07604491391342684 -0.45991906811193117 0 0.075246676549625066 -0.47305272083988897 0 0.07604491391342684 -0.45991906811193117 0 0.060533864248779268 -0.45516161004070088 0 0.075246676549625066 -0.47305272083988897 0 0.060533864248779268 -0.45516161004070088 0 0.061795930812101732 -0.46820781613902701 0 0.078924008128618786 -0.44927425917818692 0 0.07604491391342684 -0.45991906811193117 0 0.066742638013750744 -0.45361708446569943 0 0.075246676549625066 -0.47305272083988897 0 0.060533864248779268 -0.45516161004070088 0 0.07604491391342684 -0.45991906811193117 0 0.066742638013750744 -0.45361708446569943 0 0.060533864248779268 -0.45516161004070088 0 0.066742638013750744 -0.45361708446569943 0 0.060533864248779268 -0.45516161004070088 0 0.066742638013750744 -0.45361708446569943 0 0.070851891070507364 -0.4429924727175758 0 0.060604784186928162 -0.44219524034701829 0 0.066742638013750744 -0.45361708446569943 0 0.060604784186928162 -0.44219524034701829 0 0.060533864248779268 -0.45516161004070088 0 0.070851891070507364 -0.4429924727175758 0 0.068700271916894928 -0.43290455926873739 0 0.060604784186928162 -0.44219524034701829 0 0.078924008128618786 -0.44927425917818692 0 0.070851891070507364 -0.4429924727175758 0 0.079815715379254276 -0.43713965414436617 0 0.070851891070507364 -0.4429924727175758 0 0.068700271916894928 -0.43290455926873739 0 0.079815715379254276 -0.43713965414436617 0 0.078924008128618786 -0.44927425917818692 0 0.066742638013750744 -0.45361708446569943 0 0.070851891070507364 -0.4429924727175758 0 0.068700271916894928 -0.43290455926873739 0 0.078113452497016317 -0.41994308157894578 0 0.079815715379254276 -0.43713965414436617 0 0.068700271916894928 -0.43290455926873739 0 0.078113452497016317 -0.41994308157894578 0 0.058719347470543831 -0.42372109043242612 0 0.068700271916894928 -0.43290455926873739 0 0.058719347470543831 -0.42372109043242612 0 0.060604784186928162 -0.44219524034701829 0 0.078113452497016317 -0.41994308157894578 0 0.070468827029821934 -0.40290810194725279 0 0.058719347470543831 -0.42372109043242612 0 0.078113452497016317 -0.41994308157894578 0 0.093810327587010828 -0.40408349715757252 0 0.070468827029821934 -0.40290810194725279 0 0.078113452497016317 -0.41994308157894578 0 0.096321857990668808 -0.42533267408736197 0 0.093810327587010828 -0.40408349715757252 0 0.078113452497016317 -0.41994308157894578 0 0.079815715379254276 -0.43713965414436617 0 0.096321857990668808 -0.42533267408736197 0 0.09424645164530171 -0.44210268425789312 0 0.079815715379254276 -0.43713965414436617 0 0.096321857990668808 -0.42533267408736197 0 0.09424645164530171 -0.44210268425789312 0 0.096321857990668808 -0.42533267408736197 0 0.1143868512917591 -0.43285467588419202 0 0.096321857990668808 -0.42533267408736197 0 0.1143868512917591 -0.43285467588419202 0 0.1163411937935266 -0.41501015887608139 0 0.13513029091253781 -0.42041342615249999 0 0.1143868512917591 -0.43285467588419202 0 0.1163411937935266 -0.41501015887608139 0 0.096321857990668808 -0.42533267408736197 0 0.1163411937935266 -0.41501015887608139 0 0.093810327587010828 -0.40408349715757252 0 0.1163411937935266 -0.41501015887608139 0 0.093810327587010828 -0.40408349715757252 0 0.11257503074115451 -0.38498649823446041 0 0.13650483548746539 -0.39897553438877298 0 0.1163411937935266 -0.41501015887608139 0 0.11257503074115451 -0.38498649823446041 0 0.11257503074115451 -0.38498649823446041 0 0.085185771917526548 -0.37977283474271561 0 0.10079201747098269 -0.36412242239479142 0 0.093810327587010828 -0.40408349715757252 0 0.11257503074115451 -0.38498649823446041 0 0.085185771917526548 -0.37977283474271561 0 0.093810327587010828 -0.40408349715757252 0 0.085185771917526548 -0.37977283474271561 0 0.070468827029821934 -0.40290810194725279 0 0.085185771917526548 -0.37977283474271561 0 0.070468827029821934 -0.40290810194725279 0 0.057841008155207027 -0.38245658693310142 0 0.070468827029821934 -0.40290810194725279 0 0.057841008155207027 -0.38245658693310142 0 0.049143054551627013 -0.40747152083875582 0 0.057841008155207027 -0.38245658693310142 0 0.043656632087297011 -0.39232656597616861 0 0.049143054551627013 -0.40747152083875582 0 0.043656632087297011 -0.39232656597616861 0 0.028999000949789959 -0.40147898970888801 0 0.049143054551627013 -0.40747152083875582 0 0.043656632087297011 -0.39232656597616861 0 0.028999000949789959 -0.40147898970888801 0 0.032111139506758431 -0.37191992684122582 0 0.057841008155207027 -0.38245658693310142 0 0.043656632087297011 -0.39232656597616861 0 0.032111139506758431 -0.37191992684122582 0 0.011472045166716269 -0.38952867199447438 0 0.032111139506758431 -0.37191992684122582 0 0.011472045166716269 -0.38952867199447438 0 0.028999000949789959 -0.40147898970888801 0 0.032111139506758431 -0.37191992684122582 0 0.011472045166716269 -0.38952867199447438 0 0.032111139506758431 -0.37191992684122582 0 0.0095024714850780283 -0.37458082262515818 0 -0.0042332821090469977 -0.36931681778231101 0 -0.0014384839491562609 -0.38294108750953337 0 0.0095024714850780283 -0.37458082262515818 0 -0.0014384839491562609 -0.38294108750953337 0 0.011472045166716269 -0.38952867199447438 0 0.0095024714850780283 -0.37458082262515818 0 -0.0091670491733258502 -0.407137417147723 0 0.011472045166716269 -0.38952867199447438 0 0.005108664055598287 -0.40528738143041459 0 0.011472045166716269 -0.38952867199447438 0 0.005108664055598287 -0.40528738143041459 0 0.01434864661312045 -0.40656634948070969 0 -0.0091670491733258502 -0.407137417147723 0 0.011472045166716269 -0.38952867199447438 0 0.011472045166716269 -0.38952867199447438 0 0.028999000949789959 -0.40147898970888801 0 0.01434864661312045 -0.40656634948070969 0 0.028999000949789959 -0.40147898970888801 0 0.01434864661312045 -0.40656634948070969 0 0.016816745003192791 -0.42357542462247538 0 0.028999000949789959 -0.40147898970888801 0 0.016816745003192791 -0.42357542462247538 0 0.038035624732997701 -0.42318917072202022 0 0.01434864661312045 -0.40656634948070969 0 0.0037810136158822729 -0.41791708709875131 0 0.016816745003192791 -0.42357542462247538 0 0.005108664055598287 -0.40528738143041459 0 0.01434864661312045 -0.40656634948070969 0 0.0037810136158822729 -0.41791708709875131 0 0.00079488181500260609 -0.42987501851034571 0 0.016816745003192791 -0.42357542462247538 0 0.0068165806591294316 -0.44348526320397952 0 0.0037810136158822729 -0.41791708709875131 0 0.00079488181500260609 -0.42987501851034571 0 0.016816745003192791 -0.42357542462247538 0 0.016816745003192791 -0.42357542462247538 0 0.038035624732997701 -0.42318917072202022 0 0.02666676983233552 -0.44312735458325581 0 0.016816745003192791 -0.42357542462247538 0 0.02666676983233552 -0.44312735458325581 0 0.0068165806591294316 -0.44348526320397952 0 0.038035624732997701 -0.42318917072202022 0 0.047868830590497097 -0.43976064414632088 0 0.02666676983233552 -0.44312735458325581 0 0.028999000949789959 -0.40147898970888801 0 0.038035624732997701 -0.42318917072202022 0 0.049143054551627013 -0.40747152083875582 0 0.070468827029821934 -0.40290810194725279 0 0.049143054551627013 -0.40747152083875582 0 0.058719347470543831 -0.42372109043242612 0 0.038035624732997701 -0.42318917072202022 0 0.049143054551627013 -0.40747152083875582 0 0.058719347470543831 -0.42372109043242612 0 0.058719347470543831 -0.42372109043242612 0 0.047868830590497097 -0.43976064414632088 0 0.060604784186928162 -0.44219524034701829 0 0.038035624732997701 -0.42318917072202022 0 0.058719347470543831 -0.42372109043242612 0 0.047868830590497097 -0.43976064414632088 0 0.047868830590497097 -0.43976064414632088 0 0.060533864248779268 -0.45516161004070088 0 0.03684497090434212 -0.46105457747661138 0 0.047868830590497097 -0.43976064414632088 0 0.060533864248779268 -0.45516161004070088 0 0.047868830590497097 -0.43976064414632088 0 0.060604784186928162 -0.44219524034701829 0 0.060533864248779268 -0.45516161004070088 0 0.060533864248779268 -0.45516161004070088 0 0.03684497090434212 -0.46105457747661138 0 0.060533864248779268 -0.45516161004070088 0 0.052543339594833843 -0.46469110280171649 0 0.03684497090434212 -0.46105457747661138 0 0.060533864248779268 -0.45516161004070088 0 0.061795930812101732 -0.46820781613902701 0 0.052543339594833843 -0.46469110280171649 0 0.052543339594833843 -0.46469110280171649 0 0.03684497090434212 -0.46105457747661138 0 0.050998592414112261 -0.47434040755052698 0 0.047868830590497097 -0.43976064414632088 0 0.03684497090434212 -0.46105457747661138 0 0.02666676983233552 -0.44312735458325581 0 0.02666676983233552 -0.44312735458325581 0 0.0068165806591294316 -0.44348526320397952 0 0.013156077559905371 -0.46694754491252372 0 -0.0057475739345891896 -0.4549207533069245 0 0.0068165806591294316 -0.44348526320397952 0 0.013156077559905371 -0.46694754491252372 0 0.03684497090434212 -0.46105457747661138 0 0.02666676983233552 -0.44312735458325581 0 0.013156077559905371 -0.46694754491252372 0 0.03684497090434212 -0.46105457747661138 0 0.013156077559905371 -0.46694754491252372 0 0.03684497090434212 -0.46105457747661138 0 0.013156077559905371 -0.46694754491252372 0 0.032323810821201983 -0.4810656019103603 0 0.013156077559905371 -0.46694754491252372 0 0.0082051736105589468 -0.5 0 0.032323810821201983 -0.4810656019103603 0 -0.01053281578453142 -0.47284051234843588 0 0.013156077559905371 -0.46694754491252372 0 0.0082051736105589468 -0.5 0 -0.01053281578453142 -0.47284051234843588 0 0.013156077559905371 -0.46694754491252372 0 0.0082051736105589468 -0.5 0 0.037939068381746099 -0.5 0 0.032323810821201983 -0.4810656019103603 0 0.037939068381746099 -0.5 0 0.032323810821201983 -0.4810656019103603 0 0.053020152767299072 -0.48801933676575959 0 0.032323810821201983 -0.4810656019103603 0 0.050998592414112261 -0.47434040755052698 0 0.053020152767299072 -0.48801933676575959 0 0.03684497090434212 -0.46105457747661138 0 0.032323810821201983 -0.4810656019103603 0 0.050998592414112261 -0.47434040755052698 0 0.070479040632291823 -0.48264211959480191 0 0.050998592414112261 -0.47434040755052698 0 0.064630060102032719 -0.47456076603106118 0 0.070479040632291823 -0.48264211959480191 0 0.050998592414112261 -0.47434040755052698 0 0.070479040632291823 -0.48264211959480191 0 0.050998592414112261 -0.47434040755052698 0 0.053020152767299072 -0.48801933676575959 0 0.064630060102032719 -0.47456076603106118 0 0.061795930812101732 -0.46820781613902701 0 0.050998592414112261 -0.47434040755052698 0 0.061795930812101732 -0.46820781613902701 0 0.052543339594833843 -0.46469110280171649 0 0.050998592414112261 -0.47434040755052698 0 0.067672963152933252 -0.5 0 0.037939068381746099 -0.5 0 0.053020152767299072 -0.48801933676575959 0 0.087473163936891085 -0.29777268792509082 0 0.081564451789839787 -0.2785545792295161 0 0.1018918429625556 -0.28221661660282987 0 0.087473163936891085 -0.29777268792509082 0 0.081564451789839787 -0.2785545792295161 0 0.087473163936891085 -0.29777268792509082 0 0.067853695646582016 -0.28620356249784679 0 0.081564451789839787 -0.2785545792295161 0 0.087473163936891085 -0.29777268792509082 0 0.071339674350402019 -0.30608447369461589 0 0.075597518235181557 -0.31257595346091949 0 0.087473163936891085 -0.29777268792509082 0 0.098187962191818287 -0.30489187491565878 0 0.094028422526884897 -0.31909369138147992 0 0.087473163936891085 -0.29777268792509082 0 0.094028422526884897 -0.31909369138147992 0 0.075597518235181557 -0.31257595346091949 0 0.087473163936891085 -0.29777268792509082 0 0.094028422526884897 -0.31909369138147992 0 0.087473163936891085 -0.29777268792509082 0 0.071339674350402019 -0.30608447369461589 0 0.060560524715249003 -0.30009188710746898 0 0.087473163936891085 -0.29777268792509082 0 0.060560524715249003 -0.30009188710746898 0 0.071339674350402019 -0.30608447369461589 0 0.075597518235181557 -0.31257595346091949 0 0.061727490514286158 -0.31389736628498438 0 0.071339674350402019 -0.30608447369461589 0 0.061727490514286158 -0.31389736628498438 0 0.060560524715249003 -0.30009188710746898 0 0.067853695646582016 -0.28620356249784679 0 0.059116804960237683 -0.29062940211096661 0 0.060560524715249003 -0.30009188710746898 0 0.087473163936891085 -0.29777268792509082 0 0.067853695646582016 -0.28620356249784679 0 0.060560524715249003 -0.30009188710746898 0 0.066214989649419603 -0.27316028682740479 0 0.075655739642787975 -0.2593364705339416 0 0.081564451789839787 -0.2785545792295161 0 0.067853695646582016 -0.28620356249784679 0 0.066214989649419603 -0.27316028682740479 0 0.081564451789839787 -0.2785545792295161 0 0.066214989649419603 -0.27316028682740479 0 0.075655739642787975 -0.2593364705339416 0 0.05341834128670471 -0.26222533989734959 0 0.075655739642787975 -0.2593364705339416 0 0.05341834128670471 -0.26222533989734959 0 0.071841433176306951 -0.24693042426755701 0 0.075655739642787975 -0.2593364705339416 0 0.05341834128670471 -0.26222533989734959 0 0.075655739642787975 -0.2593364705339416 0 0.071841433176306951 -0.24693042426755701 0 0.075655739642787975 -0.2593364705339416 0 0.097033033634931737 -0.25655933767435479 0 0.087503871482331325 -0.24918859503345439 0 0.075655739642787975 -0.2593364705339416 0 0.087704679779763817 -0.26614109232216421 0 0.097033033634931737 -0.25655933767435479 0 0.075655739642787975 -0.2593364705339416 0 0.071841433176306951 -0.24693042426755701 0 0.087503871482331325 -0.24918859503345439 0 0.075655739642787975 -0.2593364705339416 0 0.097033033634931737 -0.25655933767435479 0 0.075655739642787975 -0.2593364705339416 0 0.081564451789839787 -0.2785545792295161 0 0.081564451789839787 -0.2785545792295161 0 0.096565494051495782 -0.27011398185084429 0 0.1018918429625556 -0.28221661660282987 0 0.075655739642787975 -0.2593364705339416 0 0.081564451789839787 -0.2785545792295161 0 0.087704679779763817 -0.26614109232216421 0 0.081564451789839787 -0.2785545792295161 0 0.087704679779763817 -0.26614109232216421 0 0.096565494051495782 -0.27011398185084429 0 0.11343381581407461 -0.27807896693227868 0 0.1097056353048949 -0.26812745810770261 0 0.1018918429625556 -0.28221661660282987 0 0.096565494051495782 -0.27011398185084429 0 0.1097056353048949 -0.26812745810770261 0 0.1018918429625556 -0.28221661660282987 0 0.097033033634931737 -0.25655933767435479 0 0.11542254909125391 -0.25417034832591701 0 0.09726841460880753 -0.24973530510077291 0 0.097033033634931737 -0.25655933767435479 0 0.11542254909125391 -0.25417034832591701 0 0.1097056353048949 -0.26812745810770261 0 0.097033033634931737 -0.25655933767435479 0 0.11542254909125391 -0.25417034832591701 0 0.1155402395781918 -0.2507583320391269 0 0.09726841460880753 -0.24973530510077291 0 0.097033033634931737 -0.25655933767435479 0 0.087503871482331325 -0.24918859503345439 0 0.09726841460880753 -0.24973530510077291 0 0.097033033634931737 -0.25655933767435479 0 0.09726841460880753 -0.24973530510077291 0 0.096565494051495782 -0.27011398185084429 0 0.097033033634931737 -0.25655933767435479 0 0.087704679779763817 -0.26614109232216421 0 0.096565494051495782 -0.27011398185084429 0 0.097033033634931737 -0.25655933767435479 0 0.096565494051495782 -0.27011398185084429 0 0.097033033634931737 -0.25655933767435479 0 0.1097056353048949 -0.26812745810770261 0 0.1338120645475761 -0.25178135897747889 0 0.1155402395781918 -0.2507583320391269 0 0.11542254909125391 -0.25417034832591701 0 0.1155402395781918 -0.2507583320391269 0 0.11542254909125391 -0.25417034832591701 0 0.09726841460880753 -0.24973530510077291 0 0.1338120645475761 -0.25178135897747889 0 0.1155402395781918 -0.2507583320391269 0 0.1338120645475761 -0.25178135897747889 0 0.11542254909125391 -0.25417034832591701 0 0.123327112510175 -0.26381005316279871 0 0.1338120645475761 -0.25178135897747889 0 0.11542254909125391 -0.25417034832591701 0 0.11542254909125391 -0.25417034832591701 0 0.123327112510175 -0.26381005316279871 0 0.1097056353048949 -0.26812745810770261 0 0.11343381581407461 -0.27807896693227868 0 0.1097056353048949 -0.26812745810770261 0 0.119201036987635 -0.27295982712471439 0 0.1280966355330338 -0.27434446718476552 0 0.123327112510175 -0.26381005316279871 0 0.119201036987635 -0.27295982712471439 0 0.123327112510175 -0.26381005316279871 0 0.1097056353048949 -0.26812745810770261 0 0.119201036987635 -0.27295982712471439 0 0.11343381581407461 -0.27807896693227868 0 0.119201036987635 -0.27295982712471439 0 0.12144198577599689 -0.28043819023602667 0 0.1280966355330338 -0.27434446718476552 0 0.119201036987635 -0.27295982712471439 0 0.12144198577599689 -0.28043819023602667 0 0.1225628758501054 -0.2947488287446996 0 0.10501801989349829 -0.29626075833489562 0 0.12144198577599689 -0.28043819023602667 0 0.1233634239504731 -0.2874855776093414 0 0.1139532624844367 -0.28782333961704598 0 0.1275993617664036 -0.28112518425861122 0 0.12144198577599689 -0.28043819023602667 0 0.1233634239504731 -0.2874855776093414 0 0.1225628758501054 -0.2947488287446996 0 0.1139532624844367 -0.28782333961704598 0 0.10501801989349829 -0.29626075833489562 0 0.1233634239504731 -0.2874855776093414 0 0.1225628758501054 -0.2947488287446996 0 0.1139532624844367 -0.28782333961704598 0 0.1256525224322369 -0.29448257816376899 0 0.1225628758501054 -0.2947488287446996 0 0.11343381581407461 -0.27807896693227868 0 0.12144198577599689 -0.28043819023602667 0 0.1139532624844367 -0.28782333961704598 0 0.11343381581407461 -0.27807896693227868 0 0.1139532624844367 -0.28782333961704598 0 0.1018918429625556 -0.28221661660282987 0 0.1139532624844367 -0.28782333961704598 0 0.1018918429625556 -0.28221661660282987 0 0.10501801989349829 -0.29626075833489562 0 0.087473163936891085 -0.29777268792509082 0 0.1018918429625556 -0.28221661660282987 0 0.10501801989349829 -0.29626075833489562 0 0.087473163936891085 -0.29777268792509082 0 0.10501801989349829 -0.29626075833489562 0 0.087473163936891085 -0.29777268792509082 0 0.10501801989349829 -0.29626075833489562 0 0.098187962191818287 -0.30489187491565878 0 0.098187962191818287 -0.30489187491565878 0 0.10829564918849539 -0.30692126006309001 0 0.094028422526884897 -0.31909369138147992 0 0.10501801989349829 -0.29626075833489562 0 0.098187962191818287 -0.30489187491565878 0 0.10829564918849539 -0.30692126006309001 0 0.10829564918849539 -0.30692126006309001 0 0.11665503897845669 -0.30709539838653632 0 0.10765755552467721 -0.31970821860930398 0 0.1225628758501054 -0.2947488287446996 0 0.10501801989349829 -0.29626075833489562 0 0.10829564918849539 -0.30692126006309001 0 0.1225628758501054 -0.2947488287446996 0 0.10829564918849539 -0.30692126006309001 0 0.1225628758501054 -0.2947488287446996 0 0.10829564918849539 -0.30692126006309001 0 0.11665503897845669 -0.30709539838653632 0 0.127428615210958 -0.30550107704066293 0 0.1256525224322369 -0.29448257816376899 0 0.11665503897845669 -0.30709539838653632 0 0.1256525224322369 -0.29448257816376899 0 0.11665503897845669 -0.30709539838653632 0 0.1256525224322369 -0.29448257816376899 0 0.1225628758501054 -0.2947488287446996 0 0.11665503897845669 -0.30709539838653632 0 0.127428615210958 -0.30550107704066293 0 0.11665503897845669 -0.30709539838653632 0 0.1236403595102975 -0.31726182602291142 0 0.1236403595102975 -0.31726182602291142 0 0.1156667707943719 -0.32879233033577338 0 0.10765755552467721 -0.31970821860930398 0 0.11665503897845669 -0.30709539838653632 0 0.1236403595102975 -0.31726182602291142 0 0.10765755552467721 -0.31970821860930398 0 0.11665503897845669 -0.30709539838653632 0 0.10765755552467721 -0.31970821860930398 0 0.1156667707943719 -0.32879233033577338 0 0.1048460875680276 -0.32950050860128433 0 0.10765755552467721 -0.31970821860930398 0 0.12646864396445259 -0.32771949481933838 0 0.1236403595102975 -0.31726182602291142 0 0.1156667707943719 -0.32879233033577338 0 0.12646864396445259 -0.32771949481933838 0 0.1218367566819203 -0.34066885685305681 0 0.1156667707943719 -0.32879233033577338 0 0.1218367566819203 -0.34066885685305681 0 0.1156667707943719 -0.32879233033577338 0 0.1082494064665878 -0.33928340961487857 0 0.1156667707943719 -0.32879233033577338 0 0.1048460875680276 -0.32950050860128433 0 0.1082494064665878 -0.33928340961487857 0 0.1048460875680276 -0.32950050860128433 0 0.1082494064665878 -0.33928340961487857 0 0.097004582427965266 -0.33631516769786107 0 0.1082494064665878 -0.33928340961487857 0 0.097004582427965266 -0.33631516769786107 0 0.093814972832634291 -0.34820918954221819 0 0.1048460875680276 -0.32950050860128433 0 0.097004582427965266 -0.33631516769786107 0 0.096073069581201237 -0.32574391368982941 0 0.096073069581201237 -0.32574391368982941 0 0.094028422526884897 -0.31909369138147992 0 0.10765755552467721 -0.31970821860930398 0 0.096073069581201237 -0.32574391368982941 0 0.094028422526884897 -0.31909369138147992 0 0.10829564918849539 -0.30692126006309001 0 0.094028422526884897 -0.31909369138147992 0 0.10829564918849539 -0.30692126006309001 0 0.094028422526884897 -0.31909369138147992 0 0.10765755552467721 -0.31970821860930398 0 0.1048460875680276 -0.32950050860128433 0 0.096073069581201237 -0.32574391368982941 0 0.10765755552467721 -0.31970821860930398 0 0.13554014667972011 -0.37371994475541209 0 0.11257503074115451 -0.38498649823446041 0 0.1211241730808211 -0.35969015994424403 0 0.11257503074115451 -0.38498649823446041 0 0.1211241730808211 -0.35969015994424403 0 0.10079201747098269 -0.36412242239479142 0 0.1211241730808211 -0.35969015994424403 0 0.1091752126596531 -0.3513855426967849 0 0.10079201747098269 -0.36412242239479142 0 0.1218367566819203 -0.34066885685305681 0 0.1211241730808211 -0.35969015994424403 0 0.1091752126596531 -0.3513855426967849 0 0.1218367566819203 -0.34066885685305681 0 0.1082494064665878 -0.33928340961487857 0 0.1091752126596531 -0.3513855426967849 0 0.1091752126596531 -0.3513855426967849 0 0.093814972832634291 -0.34820918954221819 0 0.10079201747098269 -0.36412242239479142 0 0.1082494064665878 -0.33928340961487857 0 0.1091752126596531 -0.3513855426967849 0 0.093814972832634291 -0.34820918954221819 0 0.085185771917526548 -0.37977283474271561 0 0.10079201747098269 -0.36412242239479142 0 0.076425374258651049 -0.36036916924143869 0 0.093814972832634291 -0.34820918954221819 0 0.076425374258651049 -0.36036916924143869 0 0.073389328186842753 -0.33670243653472848 0 0.093814972832634291 -0.34820918954221819 0 0.10079201747098269 -0.36412242239479142 0 0.076425374258651049 -0.36036916924143869 0 0.076425374258651049 -0.36036916924143869 0 0.073389328186842753 -0.33670243653472848 0 0.052750233846800589 -0.35431118168797721 0 0.073389328186842753 -0.33670243653472848 0 0.052750233846800589 -0.35431118168797721 0 0.085185771917526548 -0.37977283474271561 0 0.057841008155207027 -0.38245658693310142 0 0.076425374258651049 -0.36036916924143869 0 0.094028422526884897 -0.31909369138147992 0 0.073389328186842753 -0.33670243653472848 0 0.096073069581201237 -0.32574391368982941 0 0.094028422526884897 -0.31909369138147992 0 0.073389328186842753 -0.33670243653472848 0 0.094028422526884897 -0.31909369138147992 0 0.073389328186842753 -0.33670243653472848 0 0.072651274237206992 -0.32234881883649769 0 0.094028422526884897 -0.31909369138147992 0 0.072651274237206992 -0.32234881883649769 0 0.075597518235181557 -0.31257595346091949 0 0.097004582427965266 -0.33631516769786107 0 0.096073069581201237 -0.32574391368982941 0 0.073389328186842753 -0.33670243653472848 0 0.097004582427965266 -0.33631516769786107 0 0.093814972832634291 -0.34820918954221819 0 0.073389328186842753 -0.33670243653472848 0 0.073389328186842753 -0.33670243653472848 0 0.072651274237206992 -0.32234881883649769 0 0.058513611722839573 -0.32947464652037622 0 0.072651274237206992 -0.32234881883649769 0 0.061727490514286158 -0.31389736628498438 0 0.058513611722839573 -0.32947464652037622 0 0.072651274237206992 -0.32234881883649769 0 0.075597518235181557 -0.31257595346091949 0 0.061727490514286158 -0.31389736628498438 0 0.061727490514286158 -0.31389736628498438 0 0.048871722081095123 -0.31851038162196682 0 0.053524671366835877 -0.30640407556079952 0 0.048871722081095123 -0.31851038162196682 0 0.058513611722839573 -0.32947464652037622 0 0.042608717461976538 -0.3312298768594002 0 0.061727490514286158 -0.31389736628498438 0 0.048871722081095123 -0.31851038162196682 0 0.058513611722839573 -0.32947464652037622 0 0.073389328186842753 -0.33670243653472848 0 0.058513611722839573 -0.32947464652037622 0 0.052750233846800589 -0.35431118168797721 0 0.058513611722839573 -0.32947464652037622 0 0.042608717461976538 -0.3312298768594002 0 0.052750233846800589 -0.35431118168797721 0 0.042608717461976538 -0.3312298768594002 0 0.032201100374313327 -0.3403185580786573 0 0.052750233846800589 -0.35431118168797721 0 0.042608717461976538 -0.3312298768594002 0 0.032201100374313327 -0.3403185580786573 0 0.02803274898307424 -0.32856413603580631 0 0.042608717461976538 -0.3312298768594002 0 0.035004108339948901 -0.31633090919971779 0 0.02803274898307424 -0.32856413603580631 0 0.048871722081095123 -0.31851038162196682 0 0.035004108339948901 -0.31633090919971779 0 0.042659306472636778 -0.3047174731171407 0 0.048871722081095123 -0.31851038162196682 0 0.042608717461976538 -0.3312298768594002 0 0.035004108339948901 -0.31633090919971779 0 0.057841008155207027 -0.38245658693310142 0 0.052750233846800589 -0.35431118168797721 0 0.032111139506758431 -0.37191992684122582 0 0.057841008155207027 -0.38245658693310142 0 0.076425374258651049 -0.36036916924143869 0 0.052750233846800589 -0.35431118168797721 0 0.032201100374313327 -0.3403185580786573 0 0.052750233846800589 -0.35431118168797721 0 0.023184557849655049 -0.35200766470484768 0 0.052750233846800589 -0.35431118168797721 0 0.032111139506758431 -0.37191992684122582 0 0.052750233846800589 -0.35431118168797721 0 0.032111139506758431 -0.37191992684122582 0 0.023184557849655049 -0.35200766470484768 0 0.032111139506758431 -0.37191992684122582 0 0.023184557849655049 -0.35200766470484768 0 0.010345294108568969 -0.36081801354288939 0 0.032111139506758431 -0.37191992684122582 0 0.010345294108568969 -0.36081801354288939 0 0.0095024714850780283 -0.37458082262515818 0 -0.0019921573348008 -0.35014241775074068 0 0.023184557849655049 -0.35200766470484768 0 0.014429243730060239 -0.33547993110525531 0 -0.0019921573348008 -0.35014241775074068 0 0.023184557849655049 -0.35200766470484768 0 0.010345294108568969 -0.36081801354288939 0 -0.0019921573348008 -0.35014241775074068 0 -0.0042332821090469977 -0.36931681778231101 0 0.010345294108568969 -0.36081801354288939 0 -0.0042332821090469977 -0.36931681778231101 0 0.010345294108568969 -0.36081801354288939 0 0.0095024714850780283 -0.37458082262515818 0 0.035004108339948901 -0.31633090919971779 0 0.02803274898307424 -0.32856413603580631 0 0.015526697491276621 -0.31392901685578528 0 0.02803274898307424 -0.32856413603580631 0 0.014429243730060239 -0.33547993110525531 0 0.015526697491276621 -0.31392901685578528 0 0.032201100374313327 -0.3403185580786573 0 0.023184557849655049 -0.35200766470484768 0 0.014429243730060239 -0.33547993110525531 0 0.032201100374313327 -0.3403185580786573 0 0.02803274898307424 -0.32856413603580631 0 0.014429243730060239 -0.33547993110525531 0 -0.008605873932596356 -0.33624452634938418 0 -0.0019921573348008 -0.35014241775074068 0 0.014429243730060239 -0.33547993110525531 0 -0.008605873932596356 -0.33624452634938418 0 0.014429243730060239 -0.33547993110525531 0 0.0035141492887302548 -0.32519051246028208 0 0.014429243730060239 -0.33547993110525531 0 0.0035141492887302548 -0.32519051246028208 0 0.015526697491276621 -0.31392901685578528 0 -0.0093546214437348063 -0.3154421594820554 0 0.0035141492887302548 -0.32519051246028208 0 0.015526697491276621 -0.31392901685578528 0 -0.0093546214437348063 -0.3154421594820554 0 0.015526697491276621 -0.31392901685578528 0 0.0025702240157044749 -0.30194718224499639 0 0.015526697491276621 -0.31392901685578528 0 0.0025702240157044749 -0.30194718224499639 0 0.018894421690538499 -0.29417828297256371 0 0.0025702240157044749 -0.30194718224499639 0 0.001953977901653102 -0.28749824366549498 0 0.018894421690538499 -0.29417828297256371 0 0.001953977901653102 -0.28749824366549498 0 0.018894421690538499 -0.29417828297256371 0 0.015670532879786751 -0.2762907948651831 0 0.018894421690538499 -0.29417828297256371 0 0.030268242974381541 -0.30296892509516138 0 0.036539995597899583 -0.28735292316580879 0 0.018894421690538499 -0.29417828297256371 0 0.036539995597899583 -0.28735292316580879 0 0.015670532879786751 -0.2762907948651831 0 0.015526697491276621 -0.31392901685578528 0 0.018894421690538499 -0.29417828297256371 0 0.030268242974381541 -0.30296892509516138 0 0.035004108339948901 -0.31633090919971779 0 0.015526697491276621 -0.31392901685578528 0 0.030268242974381541 -0.30296892509516138 0 0.030268242974381541 -0.30296892509516138 0 0.042659306472636778 -0.3047174731171407 0 0.036539995597899583 -0.28735292316580879 0 0.035004108339948901 -0.31633090919971779 0 0.030268242974381541 -0.30296892509516138 0 0.042659306472636778 -0.3047174731171407 0 0.042659306472636778 -0.3047174731171407 0 0.036539995597899583 -0.28735292316580879 0 0.051747098475659753 -0.29673762405939008 0 0.051747098475659753 -0.29673762405939008 0 0.052582719881183543 -0.27948148197836992 0 0.051747098475659753 -0.29673762405939008 0 0.059116804960237683 -0.29062940211096661 0 0.052582719881183543 -0.27948148197836992 0 0.036539995597899583 -0.28735292316580879 0 0.051747098475659753 -0.29673762405939008 0 0.052582719881183543 -0.27948148197836992 0 0.067853695646582016 -0.28620356249784679 0 0.059116804960237683 -0.29062940211096661 0 0.052582719881183543 -0.27948148197836992 0 0.051747098475659753 -0.29673762405939008 0 0.059116804960237683 -0.29062940211096661 0 0.060560524715249003 -0.30009188710746898 0 0.051747098475659753 -0.29673762405939008 0 0.060560524715249003 -0.30009188710746898 0 0.053524671366835877 -0.30640407556079952 0 0.061727490514286158 -0.31389736628498438 0 0.060560524715249003 -0.30009188710746898 0 0.053524671366835877 -0.30640407556079952 0 0.048871722081095123 -0.31851038162196682 0 0.042659306472636778 -0.3047174731171407 0 0.053524671366835877 -0.30640407556079952 0 0.042659306472636778 -0.3047174731171407 0 0.051747098475659753 -0.29673762405939008 0 0.053524671366835877 -0.30640407556079952 0 0.05341834128670471 -0.26222533989734959 0 0.054455146400998369 -0.2408146193913096 0 0.05341834128670471 -0.26222533989734959 0 0.041504830166615332 -0.24909079072316551 0 0.054455146400998369 -0.2408146193913096 0 0.05341834128670471 -0.26222533989734959 0 0.052582719881183543 -0.27948148197836992 0 0.066214989649419603 -0.27316028682740479 0 0.05341834128670471 -0.26222533989734959 0 0.052582719881183543 -0.27948148197836992 0 0.067853695646582016 -0.28620356249784679 0 0.066214989649419603 -0.27316028682740479 0 0.052582719881183543 -0.27948148197836992 0 0.05341834128670471 -0.26222533989734959 0 0.052582719881183543 -0.27948148197836992 0 0.028317708997288939 -0.2654861731325095 0 0.036539995597899583 -0.28735292316580879 0 0.052582719881183543 -0.27948148197836992 0 0.028317708997288939 -0.2654861731325095 0 0.028317708997288939 -0.2654861731325095 0 0.026822654761378281 -0.24010580347910071 0 0.041504830166615332 -0.24909079072316551 0 0.05341834128670471 -0.26222533989734959 0 0.028317708997288939 -0.2654861731325095 0 0.041504830166615332 -0.24909079072316551 0 0.05341834128670471 -0.26222533989734959 0 0.028317708997288939 -0.2654861731325095 0 0.028317708997288939 -0.2654861731325095 0 0.01150473642008854 -0.25100487296640661 0 0.026822654761378281 -0.24010580347910071 0 0.028317708997288939 -0.2654861731325095 0 0.015670532879786751 -0.2762907948651831 0 0.0049597396345670026 -0.26452376434945218 0 0.036539995597899583 -0.28735292316580879 0 0.028317708997288939 -0.2654861731325095 0 0.015670532879786751 -0.2762907948651831 0 -0.002131649244152236 -0.27375645946249172 0 0.015670532879786751 -0.2762907948651831 0 0.0049597396345670026 -0.26452376434945218 0 -0.002131649244152236 -0.27375645946249172 0 0.001953977901653102 -0.28749824366549498 0 0.015670532879786751 -0.2762907948651831 0 -0.0050603712554523096 -0.25502580822232418 0 0.01150473642008854 -0.25100487296640661 0 0.0049597396345670026 -0.26452376434945218 0 0.028317708997288939 -0.2654861731325095 0 0.01150473642008854 -0.25100487296640661 0 0.0049597396345670026 -0.26452376434945218 0 -0.0050603712554523096 -0.25502580822232418 0 -0.0012779613340340411 -0.24176494305706761 0 0.01150473642008854 -0.25100487296640661 0 -0.0012779613340340411 -0.24176494305706761 0 0.01150473642008854 -0.25100487296640661 0 0.01227448810303049 -0.23689425083746071 0 -0.0012779613340340411 -0.24176494305706761 0 -0.0016127085748020571 -0.22712480654777251 0 0.01227448810303049 -0.23689425083746071 0 -0.0016127085748020571 -0.22712480654777251 0 0.01227448810303049 -0.23689425083746071 0 0.01698840492239578 -0.2228903554452914 0 -0.0016127085748020571 -0.22712480654777251 0 0.01698840492239578 -0.2228903554452914 0 0.0064561243882930407 -0.21561537692257879 0 0.01227448810303049 -0.23689425083746071 0 0.01698840492239578 -0.2228903554452914 0 0.026822654761378281 -0.24010580347910071 0 0.01698840492239578 -0.2228903554452914 0 0.026822654761378281 -0.24010580347910071 0 0.034262553780134708 -0.21981152268886431 0 0.01150473642008854 -0.25100487296640661 0 0.01227448810303049 -0.23689425083746071 0 0.026822654761378281 -0.24010580347910071 0 -0.0048422933519348798 -0.20657909219758999 0 0.01498437965793468 -0.2009023489100171 0 0.0039750345954989988 -0.18651425943902311 0 0.01498437965793468 -0.2009023489100171 0 0.019555974831457788 -0.18489329081675979 0 0.0039750345954989988 -0.18651425943902311 0 -0.0048422933519348798 -0.20657909219758999 0 0.01498437965793468 -0.2009023489100171 0 0.0064561243882930407 -0.21561537692257879 0 0.01498437965793468 -0.2009023489100171 0 0.0064561243882930407 -0.21561537692257879 0 0.022166629418003729 -0.2118345471400416 0 0.01698840492239578 -0.2228903554452914 0 0.0064561243882930407 -0.21561537692257879 0 0.022166629418003729 -0.2118345471400416 0 -0.0016127085748020571 -0.22712480654777251 0 -0.0048422933519348798 -0.20657909219758999 0 0.0064561243882930407 -0.21561537692257879 0 0.01698840492239578 -0.2228903554452914 0 0.022166629418003729 -0.2118345471400416 0 0.034262553780134708 -0.21981152268886431 0 0.01498437965793468 -0.2009023489100171 0 0.022166629418003729 -0.2118345471400416 0 0.031897636722889637 -0.2043381853445167 0 0.022166629418003729 -0.2118345471400416 0 0.031897636722889637 -0.2043381853445167 0 0.034262553780134708 -0.21981152268886431 0 0.01498437965793468 -0.2009023489100171 0 0.027972004457906641 -0.19290593557317351 0 0.019555974831457788 -0.18489329081675979 0 0.01498437965793468 -0.2009023489100171 0 0.027972004457906641 -0.19290593557317351 0 0.031897636722889637 -0.2043381853445167 0 0.056528756629579638 -0.1979931783792292 0 0.033889281643562412 -0.17857272488157999 0 0.027972004457906641 -0.19290593557317351 0 0.03953274943368866 -0.19582312791299369 0 0.033889281643562412 -0.17857272488157999 0 0.03953274943368866 -0.19582312791299369 0 0.044202360045936313 -0.20737869318372881 0 0.056528756629579638 -0.1979931783792292 0 0.03953274943368866 -0.19582312791299369 0 0.056528756629579638 -0.1979931783792292 0 0.033889281643562412 -0.17857272488157999 0 0.027972004457906641 -0.19290593557317351 0 0.03953274943368866 -0.19582312791299369 0 0.031897636722889637 -0.2043381853445167 0 0.03953274943368866 -0.19582312791299369 0 0.044202360045936313 -0.20737869318372881 0 0.031897636722889637 -0.2043381853445167 0 0.044202360045936313 -0.20737869318372881 0 0.034262553780134708 -0.21981152268886431 0 0.055491951515289413 -0.2194038988852694 0 0.044202360045936313 -0.20737869318372881 0 0.031897636722889637 -0.2043381853445167 0 0.034262553780134708 -0.21981152268886431 0 0.058246448850680657 -0.19946663842738771 0 0.055491951515289413 -0.2194038988852694 0 0.066041136181110544 -0.21386160323267189 0 0.056528756629579638 -0.1979931783792292 0 0.055491951515289413 -0.2194038988852694 0 0.058246448850680657 -0.19946663842738771 0 0.056528756629579638 -0.1979931783792292 0 0.055491951515289413 -0.2194038988852694 0 0.044202360045936313 -0.20737869318372881 0 0.056528756629579638 -0.1979931783792292 0 0.055491951515289413 -0.2194038988852694 0 0.056528756629579638 -0.1979931783792292 0 0.057329549479635908 -0.18145626931170691 0 0.056528756629579638 -0.1979931783792292 0 0.065123946871468164 -0.19127238357693871 0 0.057329549479635908 -0.18145626931170691 0 0.058246448850680657 -0.19946663842738771 0 0.056528756629579638 -0.1979931783792292 0 0.065123946871468164 -0.19127238357693871 0 0.058246448850680657 -0.19946663842738771 0 0.056528756629579638 -0.1979931783792292 0 0.041504830166615332 -0.24909079072316551 0 0.041828765002810943 -0.233037808058844 0 0.054455146400998369 -0.2408146193913096 0 0.026822654761378281 -0.24010580347910071 0 0.041504830166615332 -0.24909079072316551 0 0.041828765002810943 -0.233037808058844 0 0.041828765002810943 -0.233037808058844 0 0.034262553780134708 -0.21981152268886431 0 0.055491951515289413 -0.2194038988852694 0 0.026822654761378281 -0.24010580347910071 0 0.041828765002810943 -0.233037808058844 0 0.034262553780134708 -0.21981152268886431 0 0.055491951515289413 -0.2194038988852694 0 0.054455146400998369 -0.2408146193913096 0 0.070056056729074334 -0.23044917593339351 0 0.055491951515289413 -0.2194038988852694 0 0.054455146400998369 -0.2408146193913096 0 0.041828765002810943 -0.233037808058844 0 0.055491951515289413 -0.2194038988852694 0 0.054455146400998369 -0.2408146193913096 0 0.05341834128670471 -0.26222533989734959 0 0.054455146400998369 -0.2408146193913096 0 0.071841433176306951 -0.24693042426755701 0 0.071841433176306951 -0.24693042426755701 0 0.078351655706027534 -0.24017870186704479 0 0.070056056729074334 -0.23044917593339351 0 0.054455146400998369 -0.2408146193913096 0 0.071841433176306951 -0.24693042426755701 0 0.070056056729074334 -0.23044917593339351 0 0.078351655706027534 -0.24017870186704479 0 0.084005261436397555 -0.23414661223377431 0 0.070056056729074334 -0.23044917593339351 0 0.071841433176306951 -0.24693042426755701 0 0.078351655706027534 -0.24017870186704479 0 0.087503871482331325 -0.24918859503345439 0 0.084005261436397555 -0.23414661223377431 0 0.09726841460880753 -0.24973530510077291 0 0.098224276789357245 -0.22202348732504129 0 0.078351655706027534 -0.24017870186704479 0 0.087503871482331325 -0.24918859503345439 0 0.084005261436397555 -0.23414661223377431 0 0.087503871482331325 -0.24918859503345439 0 0.084005261436397555 -0.23414661223377431 0 0.09726841460880753 -0.24973530510077291 0 0.087503871482331325 -0.24918859503345439 0 0.09726841460880753 -0.24973530510077291 0 0.084005261436397555 -0.23414661223377431 0 0.077944909524616218 -0.21644665818138251 0 0.098224276789357245 -0.22202348732504129 0 0.084005261436397555 -0.23414661223377431 0 0.070056056729074334 -0.23044917593339351 0 0.077944909524616218 -0.21644665818138251 0 0.070056056729074334 -0.23044917593339351 0 0.066041136181110544 -0.21386160323267189 0 0.077944909524616218 -0.21644665818138251 0 0.055491951515289413 -0.2194038988852694 0 0.070056056729074334 -0.23044917593339351 0 0.066041136181110544 -0.21386160323267189 0 0.058246448850680657 -0.19946663842738771 0 0.066041136181110544 -0.21386160323267189 0 0.071428190199665467 -0.20133585635874521 0 0.066041136181110544 -0.21386160323267189 0 0.077944909524616218 -0.21644665818138251 0 0.071428190199665467 -0.20133585635874521 0 0.058246448850680657 -0.19946663842738771 0 0.065123946871468164 -0.19127238357693871 0 0.071428190199665467 -0.20133585635874521 0 0.065123946871468164 -0.19127238357693871 0 0.071428190199665467 -0.20133585635874521 0 0.077775677467109644 -0.1894438906232867 0 0.077775677467109644 -0.1894438906232867 0 0.085264727641627694 -0.2009309552866074 0 0.087035172899110766 -0.18202416968187909 0 0.085264727641627694 -0.2009309552866074 0 0.099180138969906934 -0.19431166954930951 0 0.087035172899110766 -0.18202416968187909 0 0.071428190199665467 -0.20133585635874521 0 0.077775677467109644 -0.1894438906232867 0 0.085264727641627694 -0.2009309552866074 0 0.077944909524616218 -0.21644665818138251 0 0.085264727641627694 -0.2009309552866074 0 0.098224276789357245 -0.22202348732504129 0 0.077944909524616218 -0.21644665818138251 0 0.071428190199665467 -0.20133585635874521 0 0.085264727641627694 -0.2009309552866074 0 0.085264727641627694 -0.2009309552866074 0 0.099180138969906934 -0.19431166954930951 0 0.098224276789357245 -0.22202348732504129 0 0.099180138969906934 -0.19431166954930951 0 0.11354412200005309 -0.20878294345574169 0 0.098224276789357245 -0.22202348732504129 0 0.099180138969906934 -0.19431166954930951 0 0.098224276789357245 -0.22202348732504129 0 0.099180138969906934 -0.19431166954930951 0 0.1232396379011078 -0.1927549034493776 0 0.1116878195257827 -0.17967737761147759 0 0.099180138969906934 -0.19431166954930951 0 0.1232396379011078 -0.1927549034493776 0 0.11354412200005309 -0.20878294345574169 0 0.1232396379011078 -0.1927549034493776 0 0.11354412200005309 -0.20878294345574169 0 0.1296813367821156 -0.2112782106774091 0 0.11354412200005309 -0.20878294345574169 0 0.11925867152865099 -0.22395178641925401 0 0.1296813367821156 -0.2112782106774091 0 0.11354412200005309 -0.20878294345574169 0 0.11925867152865099 -0.22395178641925401 0 0.098224276789357245 -0.22202348732504129 0 0.11925867152865099 -0.22395178641925401 0 0.1115141746540584 -0.23685798868452451 0 0.098224276789357245 -0.22202348732504129 0 0.11925867152865099 -0.22395178641925401 0 0.1115141746540584 -0.23685798868452451 0 0.12727927076528461 -0.2378210325384271 0 0.1155402395781918 -0.2507583320391269 0 0.1115141746540584 -0.23685798868452451 0 0.12727927076528461 -0.2378210325384271 0 0.09726841460880753 -0.24973530510077291 0 0.098224276789357245 -0.22202348732504129 0 0.1115141746540584 -0.23685798868452451 0 0.09726841460880753 -0.24973530510077291 0 0.098224276789357245 -0.22202348732504129 0 0.1155402395781918 -0.2507583320391269 0 0.1115141746540584 -0.23685798868452451 0 0.09726841460880753 -0.24973530510077291 0 0.1006234008225292 -0.15246943509712671 0 0.1001360011504572 -0.16659985177357781 0 0.083956960864695562 -0.1482839632705675 0 0.093837558922739497 -0.14264619108299431 0 0.1006234008225292 -0.15246943509712671 0 0.1028307954559992 -0.13579239345953559 0 0.1006234008225292 -0.15246943509712671 0 0.1028307954559992 -0.13579239345953559 0 0.1133439292462652 -0.14669813101470161 0 0.1006234008225292 -0.15246943509712671 0 0.1133439292462652 -0.14669813101470161 0 0.1122920085546638 -0.16227381202107721 0 0.093837558922739497 -0.14264619108299431 0 0.1028307954559992 -0.13579239345953559 0 0.086025777066828416 -0.13071312073542821 0 0.1028307954559992 -0.13579239345953559 0 0.086025777066828416 -0.13071312073542821 0 0.1003755091591467 -0.120365047089626 0 0.1028307954559992 -0.13579239345953559 0 0.1110772144577262 -0.12607447494648069 0 0.1003755091591467 -0.120365047089626 0 0.1028307954559992 -0.13579239345953559 0 0.1110772144577262 -0.12607447494648069 0 0.1195920268695274 -0.13435801890873961 0 0.1028307954559992 -0.13579239345953559 0 0.1195920268695274 -0.13435801890873961 0 0.1133439292462652 -0.14669813101470161 0 0.1110772144577262 -0.12607447494648069 0 0.1195920268695274 -0.13435801890873961 0 0.125059882544757 -0.1243050716586782 0 0.1195920268695274 -0.13435801890873961 0 0.1133439292462652 -0.14669813101470161 0 0.12550759679471971 -0.14428239988351421 0 0.1133439292462652 -0.14669813101470161 0 0.1238726331408222 -0.15597973401630799 0 0.1122920085546638 -0.16227381202107721 0 0.1133439292462652 -0.14669813101470161 0 0.1238726331408222 -0.15597973401630799 0 0.12550759679471971 -0.14428239988351421 0 0.1122920085546638 -0.16227381202107721 0 0.1240882674421261 -0.17221834261327171 0 0.1116878195257827 -0.17967737761147759 0 0.1238726331408222 -0.15597973401630799 0 0.1122920085546638 -0.16227381202107721 0 0.1240882674421261 -0.17221834261327171 0 0.1232396379011078 -0.1927549034493776 0 0.1240882674421261 -0.17221834261327171 0 0.1116878195257827 -0.17967737761147759 0 0.1232396379011078 -0.1927549034493776 0 0.1116878195257827 -0.17967737761147759 0 0.099180138969906934 -0.19431166954930951 0 0.1116878195257827 -0.17967737761147759 0 0.1001360011504572 -0.16659985177357781 0 0.099180138969906934 -0.19431166954930951 0 0.1001360011504572 -0.16659985177357781 0 0.099180138969906934 -0.19431166954930951 0 0.1001360011504572 -0.16659985177357781 0 0.087035172899110766 -0.18202416968187909 0 0.1116878195257827 -0.17967737761147759 0 0.1001360011504572 -0.16659985177357781 0 0.1122920085546638 -0.16227381202107721 0 0.1116878195257827 -0.17967737761147759 0 0.1001360011504572 -0.16659985177357781 0 0.1006234008225292 -0.15246943509712671 0 0.1122920085546638 -0.16227381202107721 0 0.1001360011504572 -0.16659985177357781 0 0.1006234008225292 -0.15246943509712671 0 0.1001360011504572 -0.16659985177357781 0 0.1001360011504572 -0.16659985177357781 0 0.083956960864695562 -0.1482839632705675 0 0.1001360011504572 -0.16659985177357781 0 0.079225084705666013 -0.1675683830972868 0 0.083956960864695562 -0.1482839632705675 0 0.077775677467109644 -0.1894438906232867 0 0.087035172899110766 -0.18202416968187909 0 0.070769962292113645 -0.17944740942254711 0 0.079225084705666013 -0.1675683830972868 0 0.087035172899110766 -0.18202416968187909 0 0.070769962292113645 -0.17944740942254711 0 0.1001360011504572 -0.16659985177357781 0 0.079225084705666013 -0.1675683830972868 0 0.087035172899110766 -0.18202416968187909 0 0.065123946871468164 -0.19127238357693871 0 0.077775677467109644 -0.1894438906232867 0 0.070769962292113645 -0.17944740942254711 0 0.065123946871468164 -0.19127238357693871 0 0.070769962292113645 -0.17944740942254711 0 0.057329549479635908 -0.18145626931170691 0 0.079225084705666013 -0.1675683830972868 0 0.069844290743162202 -0.15572535069481899 0 0.058130342329691373 -0.1649193602441846 0 0.079225084705666013 -0.1675683830972868 0 0.069844290743162202 -0.15572535069481899 0 0.083956960864695562 -0.1482839632705675 0 0.079225084705666013 -0.1675683830972868 0 0.070769962292113645 -0.17944740942254711 0 0.058130342329691373 -0.1649193602441846 0 0.069844290743162202 -0.15572535069481899 0 0.065690713085214791 -0.1421362209973312 0 0.083956960864695562 -0.1482839632705675 0 0.069844290743162202 -0.15572535069481899 0 0.065690713085214791 -0.1421362209973312 0 0.055338914955394031 -0.1557955185274518 0 0.093837558922739497 -0.14264619108299431 0 0.1006234008225292 -0.15246943509712671 0 0.083956960864695562 -0.1482839632705675 0 0.083956960864695562 -0.1482839632705675 0 0.086025777066828416 -0.13071312073542821 0 0.067777920578933518 -0.1299680747675574 0 0.093837558922739497 -0.14264619108299431 0 0.083956960864695562 -0.1482839632705675 0 0.086025777066828416 -0.13071312073542821 0 0.083956960864695562 -0.1482839632705675 0 0.067777920578933518 -0.1299680747675574 0 0.065690713085214791 -0.1421362209973312 0 0.083956960864695562 -0.1482839632705675 0 0.067777920578933518 -0.1299680747675574 0 0.086025777066828416 -0.13071312073542821 0 0.067777920578933518 -0.1299680747675574 0 0.076734835755005087 -0.11970758577673089 0 0.067777920578933518 -0.1299680747675574 0 0.053441304474890289 -0.13464385441717969 0 0.05399936433302991 -0.12122894057442581 0 0.053441304474890289 -0.13464385441717969 0 0.041268264505893618 -0.12924178955595211 0 0.05399936433302991 -0.12122894057442581 0 0.065690713085214791 -0.1421362209973312 0 0.067777920578933518 -0.1299680747675574 0 0.053441304474890289 -0.13464385441717969 0 0.065690713085214791 -0.1421362209973312 0 0.055338914955394031 -0.1557955185274518 0 0.0384702598713796 -0.15064424619063199 0 0.065690713085214791 -0.1421362209973312 0 0.0384702598713796 -0.15064424619063199 0 0.065690713085214791 -0.1421362209973312 0 0.053441304474890289 -0.13464385441717969 0 0.0384702598713796 -0.15064424619063199 0 0.053441304474890289 -0.13464385441717969 0 0.0384702598713796 -0.15064424619063199 0 0.041268264505893618 -0.12924178955595211 0 0.0384702598713796 -0.15064424619063199 0 0.041268264505893618 -0.12924178955595211 0 0.015842377588640461 -0.12995768139491151 0 0.057329549479635908 -0.18145626931170691 0 0.058130342329691373 -0.1649193602441846 0 0.056528756629579638 -0.1979931783792292 0 0.057329549479635908 -0.18145626931170691 0 0.033889281643562412 -0.17857272488157999 0 0.070769962292113645 -0.17944740942254711 0 0.057329549479635908 -0.18145626931170691 0 0.058130342329691373 -0.1649193602441846 0 0.057329549479635908 -0.18145626931170691 0 0.058130342329691373 -0.1649193602441846 0 0.04455896874752216 -0.16555241451029229 0 0.069844290743162202 -0.15572535069481899 0 0.055338914955394031 -0.1557955185274518 0 0.058130342329691373 -0.1649193602441846 0 0.055338914955394031 -0.1557955185274518 0 0.058130342329691373 -0.1649193602441846 0 0.04455896874752216 -0.16555241451029229 0 0.055338914955394031 -0.1557955185274518 0 0.0384702598713796 -0.15064424619063199 0 0.04455896874752216 -0.16555241451029229 0 0.0384702598713796 -0.15064424619063199 0 0.031574010555557599 -0.1635538019881777 0 0.04455896874752216 -0.16555241451029229 0 0.031574010555557599 -0.1635538019881777 0 0.04455896874752216 -0.16555241451029229 0 0.033889281643562412 -0.17857272488157999 0 0.057329549479635908 -0.18145626931170691 0 0.04455896874752216 -0.16555241451029229 0 0.033889281643562412 -0.17857272488157999 0 0.033889281643562412 -0.17857272488157999 0 0.019555974831457788 -0.18489329081675979 0 0.017860935761059481 -0.17540941327727391 0 0.033889281643562412 -0.17857272488157999 0 0.017860935761059481 -0.17540941327727391 0 0.018922444694438611 -0.16573396598117041 0 0.027972004457906641 -0.19290593557317351 0 0.033889281643562412 -0.17857272488157999 0 0.019555974831457788 -0.18489329081675979 0 0.033889281643562412 -0.17857272488157999 0 0.018922444694438611 -0.16573396598117041 0 0.0384702598713796 -0.15064424619063199 0 0.031574010555557599 -0.1635538019881777 0 0.011249806657544249 -0.1591522713839319 0 0.031574010555557599 -0.1635538019881777 0 0.018922444694438611 -0.16573396598117041 0 0.011249806657544249 -0.1591522713839319 0 0.031574010555557599 -0.1635538019881777 0 0.033889281643562412 -0.17857272488157999 0 0.018922444694438611 -0.16573396598117041 0 0.018922444694438611 -0.16573396598117041 0 0.011249806657544249 -0.1591522713839319 0 0.0051361497124387812 -0.16106315607433669 0 0.018922444694438611 -0.16573396598117041 0 0.0051361497124387812 -0.16106315607433669 0 0.018922444694438611 -0.16573396598117041 0 0.011249806657544249 -0.1591522713839319 0 0.011249806657544249 -0.1591522713839319 0 0.0051361497124387812 -0.16106315607433669 0 0.011249806657544249 -0.1591522713839319 0 0.0051361497124387812 -0.16106315607433669 0 0.00014451492137988051 -0.1496259991592768 0 -0.001198061652550745 -0.17280609881212911 0 0.0051361497124387812 -0.16106315607433669 0 0.0083362452288298274 -0.17396118646513589 0 0.018922444694438611 -0.16573396598117041 0 0.0051361497124387812 -0.16106315607433669 0 0.0083362452288298274 -0.17396118646513589 0 0.017860935761059481 -0.17540941327727391 0 0.018922444694438611 -0.16573396598117041 0 0.0083362452288298274 -0.17396118646513589 0 0.019555974831457788 -0.18489329081675979 0 0.017860935761059481 -0.17540941327727391 0 0.0083362452288298274 -0.17396118646513589 0 -0.001198061652550745 -0.17280609881212911 0 0.0083362452288298274 -0.17396118646513589 0 0.0039750345954989988 -0.18651425943902311 0 0.019555974831457788 -0.18489329081675979 0 0.0083362452288298274 -0.17396118646513589 0 0.0039750345954989988 -0.18651425943902311 0 0.041268264505893618 -0.12924178955595211 0 0.015842377588640461 -0.12995768139491151 0 0.0384702598713796 -0.15064424619063199 0 0.015842377588640461 -0.12995768139491151 0 0.011224689942066299 -0.1440107542725246 0 0.0384702598713796 -0.15064424619063199 0 0.011249806657544249 -0.1591522713839319 0 0.011224689942066299 -0.1440107542725246 0 0.0384702598713796 -0.15064424619063199 0 0.011249806657544249 -0.1591522713839319 0 -0.0095835093286126792 -0.13067357323387099 0 0.011224689942066299 -0.1440107542725246 0 0.00014451492137988051 -0.1496259991592768 0 0.011249806657544249 -0.1591522713839319 0 0.00014451492137988051 -0.1496259991592768 0 0.011249806657544249 -0.1591522713839319 0 0.011224689942066299 -0.1440107542725246 0 0.00014451492137988051 -0.1496259991592768 0 -0.0095835093286126792 -0.13067357323387099 0 0.015842377588640461 -0.12995768139491151 0 -0.0095835093286126792 -0.13067357323387099 0 0.015842377588640461 -0.12995768139491151 0 0.011224689942066299 -0.1440107542725246 0 -0.004447001458793981 -0.1103644265276268 0 -0.0095835093286126792 -0.13067357323387099 0 0.015842377588640461 -0.12995768139491151 0 -0.004447001458793981 -0.1103644265276268 0 0.015842377588640461 -0.12995768139491151 0 0.019064047731892519 -0.1027428983621612 0 0.015842377588640461 -0.12995768139491151 0 0.019064047731892519 -0.1027428983621612 0 0.037106240101941267 -0.1127949235512794 0 0.019064047731892519 -0.1027428983621612 0 0.037234516137291472 -0.08975442686183864 0 0.037106240101941267 -0.1127949235512794 0 -0.004447001458793981 -0.1103644265276268 0 0.019064047731892519 -0.1027428983621612 0 -0.0041979068999104599 -0.092692987180200151 0 -0.004447001458793981 -0.1103644265276268 0 0.019064047731892519 -0.1027428983621612 0 -0.0041979068999104599 -0.092692987180200151 0 0.003886405537072308 -0.074985287574065307 0 0.019828086476746741 -0.084468472620665633 0 -0.0041979068999104599 -0.092692987180200151 0 0.019064047731892519 -0.1027428983621612 0 0.019828086476746741 -0.084468472620665633 0 0.003886405537072308 -0.074985287574065307 0 0.028295076817156449 -0.069568801619081161 0 0.019828086476746741 -0.084468472620665633 0 0.003886405537072308 -0.074985287574065307 0 0.028295076817156449 -0.069568801619081161 0 0.01833358543460277 -0.05641701057889667 0 0.019064047731892519 -0.1027428983621612 0 0.019828086476746741 -0.084468472620665633 0 0.037234516137291472 -0.08975442686183864 0 0.028295076817156449 -0.069568801619081161 0 0.019828086476746741 -0.084468472620665633 0 0.037234516137291472 -0.08975442686183864 0 0.028295076817156449 -0.069568801619081161 0 0.037234516137291472 -0.08975442686183864 0 0.056852127489792813 -0.07490730178705754 0 0.028295076817156449 -0.069568801619081161 0 0.056852127489792813 -0.07490730178705754 0 0.043412112850471737 -0.054930671915401803 0 0.056852127489792813 -0.07490730178705754 0 0.043412112850471737 -0.054930671915401803 0 0.062505798999464707 -0.060826586793076412 0 0.056852127489792813 -0.07490730178705754 0 0.055228870314899682 -0.103843804558387 0 0.070281085843191191 -0.093817275438188408 0 0.037234516137291472 -0.08975442686183864 0 0.056852127489792813 -0.07490730178705754 0 0.055228870314899682 -0.103843804558387 0 0.055228870314899682 -0.103843804558387 0 0.05399936433302991 -0.12122894057442581 0 0.037106240101941267 -0.1127949235512794 0 0.055228870314899682 -0.103843804558387 0 0.05399936433302991 -0.12122894057442581 0 0.065906963652981487 -0.1182248878619804 0 0.041268264505893618 -0.12924178955595211 0 0.05399936433302991 -0.12122894057442581 0 0.037106240101941267 -0.1127949235512794 0 0.041268264505893618 -0.12924178955595211 0 0.015842377588640461 -0.12995768139491151 0 0.037106240101941267 -0.1127949235512794 0 0.037234516137291472 -0.08975442686183864 0 0.055228870314899682 -0.103843804558387 0 0.037106240101941267 -0.1127949235512794 0 0.030110906951190688 -0.01173386609504996 0 0.0045774522161646097 -0.0093144947699853528 0 0.019230231732056138 -0.023667566818530359 0 0.018044735406519189 -0.0027914786915071068 0 0.030110906951190688 -0.01173386609504996 0 0.0045774522161646097 -0.0093144947699853528 0 0.035622497167505339 0.0063925700628825917 0 0.018044735406519189 -0.0027914786915071068 0 0.030110906951190688 -0.01173386609504996 0 0.030110906951190688 -0.01173386609504996 0 0.0045774522161646097 -0.0093144947699853528 0 0.018044735406519189 -0.0027914786915071068 0 0.002394805847480138 -0.0071764921779012506 0 0.0045774522161646097 -0.0093144947699853528 0 0.0006213327713558641 -0.0089396406014967747 0 0.0045774522161646097 -0.0093144947699853528 0 0.0014199230119024339 -0.021574900853890581 0 0.002394805847480138 -0.0071764921779012506 0 0.0006213327713558641 -0.0089396406014967747 0 0.0045774522161646097 -0.0093144947699853528 0 0.0006213327713558641 -0.0089396406014967747 0 0.0045774522161646097 -0.0093144947699853528 0 -0.001488115343110989 -0.0087397640735148233 0 0.002394805847480138 -0.0071764921779012506 0 0.0006213327713558641 -0.0089396406014967747 0 0.002394805847480138 -0.0071764921779012506 0 0.0006213327713558641 -0.0089396406014967747 0 0.002394805847480138 -0.0071764921779012506 0 0.0045774522161646097 -0.0093144947699853528 0 0.0045774522161646097 -0.0093144947699853528 0 0.019230231732056138 -0.023667566818530359 0 0.0045774522161646097 -0.0093144947699853528 0 0.0014199230119024339 -0.021574900853890581 0 0.019230231732056138 -0.023667566818530359 0 0.0014199230119024339 -0.021574900853890581 0 0.0083973707027768379 -0.030855929703784798 0 0.019230231732056138 -0.023667566818530359 0 -0.003476286599935095 -0.036271506326322138 0 0.0014199230119024339 -0.021574900853890581 0 0.0083973707027768379 -0.030855929703784798 0 0.030110906951190688 -0.01173386609504996 0 0.019230231732056138 -0.023667566818530359 0 0.031518170358815163 -0.024102367719011381 0 0.019230231732056138 -0.023667566818530359 0 0.033883011247947889 -0.038020638867075192 0 0.031518170358815163 -0.024102367719011381 0 0.019230231732056138 -0.023667566818530359 0 0.033883011247947889 -0.038020638867075192 0 0.01494251690265052 -0.041372340822573933 0 0.01833358543460277 -0.05641701057889667 0 0.033883011247947889 -0.038020638867075192 0 0.019230231732056138 -0.023667566818530359 0 0.01494251690265052 -0.041372340822573933 0 0.033883011247947889 -0.038020638867075192 0 -0.003476286599935095 -0.036271506326322138 0 -0.00022463716734756899 -0.054496453091326037 0 0.01494251690265052 -0.041372340822573933 0 -0.003476286599935095 -0.036271506326322138 0 0.0083973707027768379 -0.030855929703784798 0 0.01494251690265052 -0.041372340822573933 0 0.0083973707027768379 -0.030855929703784798 0 0.019230231732056138 -0.023667566818530359 0 0.01494251690265052 -0.041372340822573933 0 -0.00022463716734756899 -0.054496453091326037 0 0.003886405537072308 -0.074985287574065307 0 0.01833358543460277 -0.05641701057889667 0 -0.00022463716734756899 -0.054496453091326037 0 0.01494251690265052 -0.041372340822573933 0 0.01833358543460277 -0.05641701057889667 0 0.028295076817156449 -0.069568801619081161 0 0.01833358543460277 -0.05641701057889667 0 0.043412112850471737 -0.054930671915401803 0 0.01833358543460277 -0.05641701057889667 0 0.043412112850471737 -0.054930671915401803 0 0.033883011247947889 -0.038020638867075192 0 0.043412112850471737 -0.054930671915401803 0 0.059769218069649313 -0.045902054602901338 0 0.062505798999464707 -0.060826586793076412 0 0.043412112850471737 -0.054930671915401803 0 0.059769218069649313 -0.045902054602901338 0 0.051344651808144813 -0.03456126235542302 0 0.051344651808144813 -0.03456126235542302 0 0.056061594203691133 -0.025076371103657479 0 0.065665228365204262 -0.034364577790676212 0 0.059769218069649313 -0.045902054602901338 0 0.051344651808144813 -0.03456126235542302 0 0.065665228365204262 -0.034364577790676212 0 0.043412112850471737 -0.054930671915401803 0 0.051344651808144813 -0.03456126235542302 0 0.033883011247947889 -0.038020638867075192 0 0.051344651808144813 -0.03456126235542302 0 0.033883011247947889 -0.038020638867075192 0 0.042848531504065902 -0.022987399095390042 0 0.030110906951190688 -0.01173386609504996 0 0.042848531504065902 -0.022987399095390042 0 0.055644361686216767 -0.014153237420114781 0 0.033883011247947889 -0.038020638867075192 0 0.031518170358815163 -0.024102367719011381 0 0.042848531504065902 -0.022987399095390042 0 0.030110906951190688 -0.01173386609504996 0 0.031518170358815163 -0.024102367719011381 0 0.042848531504065902 -0.022987399095390042 0 0.051344651808144813 -0.03456126235542302 0 0.042848531504065902 -0.022987399095390042 0 0.056061594203691133 -0.025076371103657479 0 0.056061594203691133 -0.025076371103657479 0 0.064805197654823885 -0.019315378856683371 0 0.065665228365204262 -0.034364577790676212 0 0.056061594203691133 -0.025076371103657479 0 0.055644361686216767 -0.014153237420114781 0 0.064805197654823885 -0.019315378856683371 0 0.042848531504065902 -0.022987399095390042 0 0.056061594203691133 -0.025076371103657479 0 0.055644361686216767 -0.014153237420114781 0 0.055644361686216767 -0.014153237420114781 0 0.058196269712748661 -0.0010094984802769141 0 0.069352637037845374 -0.0058266927155855106 0 0.055644361686216767 -0.014153237420114781 0 0.058196269712748661 -0.0010094984802769141 0 0.045210290485040869 -0.0034719151203993228 0 0.030110906951190688 -0.01173386609504996 0 0.055644361686216767 -0.014153237420114781 0 0.045210290485040869 -0.0034719151203993228 0 0.035622497167505339 0.0063925700628825917 0 0.030110906951190688 -0.01173386609504996 0 0.045210290485040869 -0.0034719151203993228 0 0.030110906951190688 -0.01173386609504996 0 0.055644361686216767 -0.014153237420114781 0 0.096167504599054904 0.0042442054759202954 0 0.081717153665888317 -0.0025063239881197622 0 0.095472413630543998 -0.0072730453323191883 0 0.081717153665888317 -0.0025063239881197622 0 0.081177816421242804 -0.016572608745179591 0 0.095472413630543998 -0.0072730453323191883 0 0.055644361686216767 -0.014153237420114781 0 0.081177816421242804 -0.016572608745179591 0 0.055644361686216767 -0.014153237420114781 0 0.069352637037845374 -0.0058266927155855106 0 0.081177816421242804 -0.016572608745179591 0 0.070381517258247442 0.0054324954822656396 0 0.081717153665888317 -0.0025063239881197622 0 0.069352637037845374 -0.0058266927155855106 0 0.070381517258247442 0.0054324954822656396 0 0.058196269712748661 -0.0010094984802769141 0 0.069352637037845374 -0.0058266927155855106 0 0.081717153665888317 -0.0025063239881197622 0 0.069352637037845374 -0.0058266927155855106 0 0.081177816421242804 -0.016572608745179591 0 0.064805197654823885 -0.019315378856683371 0 0.085712771491518958 -0.038211511484016539 0 0.065665228365204262 -0.034364577790676212 0 0.064805197654823885 -0.019315378856683371 0 0.076287907678157074 -0.023986159701047009 0 0.081177816421242804 -0.016572608745179591 0 0.055644361686216767 -0.014153237420114781 0 0.064805197654823885 -0.019315378856683371 0 0.081177816421242804 -0.016572608745179591 0 0.064805197654823885 -0.019315378856683371 0 0.076287907678157074 -0.023986159701047009 0 0.085712771491518958 -0.038211511484016539 0 0.064805197654823885 -0.019315378856683371 0 0.085712771491518958 -0.038211511484016539 0 0.076287907678157074 -0.023986159701047009 0 0.090532384742726735 -0.027505059676875141 0 0.085712771491518958 -0.038211511484016539 0 0.076287907678157074 -0.023986159701047009 0 0.085712771491518958 -0.038211511484016539 0 0.081177816421242804 -0.016572608745179591 0 0.090532384742726735 -0.027505059676875141 0 0.1067112711562688 -0.01899198007024441 0 0.076287907678157074 -0.023986159701047009 0 0.081177816421242804 -0.016572608745179591 0 0.090532384742726735 -0.027505059676875141 0 0.090532384742726735 -0.027505059676875141 0 0.085712771491518958 -0.038211511484016539 0 0.102772156966446 -0.039763038383888151 0 0.085712771491518958 -0.038211511484016539 0 0.07267749436203183 -0.048188407729665747 0 0.085132366133298415 -0.052458296335176707 0 0.085712771491518958 -0.038211511484016539 0 0.065665228365204262 -0.034364577790676212 0 0.07267749436203183 -0.048188407729665747 0 0.059769218069649313 -0.045902054602901338 0 0.065665228365204262 -0.034364577790676212 0 0.07267749436203183 -0.048188407729665747 0 0.059769218069649313 -0.045902054602901338 0 0.07267749436203183 -0.048188407729665747 0 0.062505798999464707 -0.060826586793076412 0 0.07267749436203183 -0.048188407729665747 0 0.062505798999464707 -0.060826586793076412 0 0.07727958311305537 -0.057367419372147309 0 0.085712771491518958 -0.038211511484016539 0 0.098207536939253007 -0.057070397666300149 0 0.07727958311305537 -0.057367419372147309 0 0.085132366133298415 -0.052458296335176707 0 0.088807886296056321 -0.06442462200908719 0 0.085712771491518958 -0.038211511484016539 0 0.085132366133298415 -0.052458296335176707 0 0.098207536939253007 -0.057070397666300149 0 0.07267749436203183 -0.048188407729665747 0 0.07727958311305537 -0.057367419372147309 0 0.085132366133298415 -0.052458296335176707 0 0.085132366133298415 -0.052458296335176707 0 0.098207536939253007 -0.057070397666300149 0 0.088807886296056321 -0.06442462200908719 0 0.085712771491518958 -0.038211511484016539 0 0.1060355466537841 -0.056579106778484822 0 0.085712771491518958 -0.038211511484016539 0 0.098207536939253007 -0.057070397666300149 0 0.1060355466537841 -0.056579106778484822 0 0.098207536939253007 -0.057070397666300149 0 0.1060355466537841 -0.056579106778484822 0 0.1035330678577871 -0.060408744014543561 0 0.1060355466537841 -0.056579106778484822 0 0.1035330678577871 -0.060408744014543561 0 0.1060355466537841 -0.056579106778484822 0 0.12407046944405239 -0.056682210957894767 0 0.1194833752947594 -0.035999389823432593 0 0.1060355466537841 -0.056579106778484822 0 0.1194833752947594 -0.035999389823432593 0 0.102772156966446 -0.039763038383888151 0 0.1060355466537841 -0.056579106778484822 0 0.1194833752947594 -0.035999389823432593 0 0.1194833752947594 -0.035999389823432593 0 0.102772156966446 -0.039763038383888151 0 0.1067112711562688 -0.01899198007024441 0 0.085712771491518958 -0.038211511484016539 0 0.1060355466537841 -0.056579106778484822 0 0.102772156966446 -0.039763038383888151 0 0.090532384742726735 -0.027505059676875141 0 0.102772156966446 -0.039763038383888151 0 0.1067112711562688 -0.01899198007024441 0 0.081177816421242804 -0.016572608745179591 0 0.1067112711562688 -0.01899198007024441 0 0.1194833752947594 -0.035999389823432593 0 0.119688443476294 -0.020419382492060888 0 0.13293120393573529 -0.01541967286838083 0 0.1194833752947594 -0.035999389823432593 0 0.1067112711562688 -0.01899198007024441 0 0.119688443476294 -0.020419382492060888 0 0.119688443476294 -0.020419382492060888 0 0.1196279235184127 -0.011266487206185741 0 0.13293120393573529 -0.01541967286838083 0 0.1067112711562688 -0.01899198007024441 0 0.119688443476294 -0.020419382492060888 0 0.1196279235184127 -0.011266487206185741 0 0.1067112711562688 -0.01899198007024441 0 0.1196279235184127 -0.011266487206185741 0 0.11158832231026521 -0.002538519333972472 0 0.12681727907172599 0.0028609529651058472 0 0.1196279235184127 -0.011266487206185741 0 0.11158832231026521 -0.002538519333972472 0 0.081177816421242804 -0.016572608745179591 0 0.1067112711562688 -0.01899198007024441 0 0.095472413630543998 -0.0072730453323191883 0 0.1067112711562688 -0.01899198007024441 0 0.11158832231026521 -0.002538519333972472 0 0.095472413630543998 -0.0072730453323191883 0 0.096167504599054904 0.0042442054759202954 0 0.11158832231026521 -0.002538519333972472 0 0.095472413630543998 -0.0072730453323191883 0 0.088205186756687592 -0.098499163401079406 0 0.088306584707542421 -0.11364295246223539 0 0.1041297467101449 -0.10443009357677931 0 0.088205186756687592 -0.098499163401079406 0 0.088306584707542421 -0.11364295246223539 0 0.074368452797441906 -0.1081427041937684 0 0.086025777066828416 -0.13071312073542821 0 0.088306584707542421 -0.11364295246223539 0 0.1003755091591467 -0.120365047089626 0 0.086025777066828416 -0.13071312073542821 0 0.088306584707542421 -0.11364295246223539 0 0.076734835755005087 -0.11970758577673089 0 0.088306584707542421 -0.11364295246223539 0 0.076734835755005087 -0.11970758577673089 0 0.074368452797441906 -0.1081427041937684 0 0.076734835755005087 -0.11970758577673089 0 0.065906963652981487 -0.1182248878619804 0 0.074368452797441906 -0.1081427041937684 0 0.055228870314899682 -0.103843804558387 0 0.065906963652981487 -0.1182248878619804 0 0.074368452797441906 -0.1081427041937684 0 0.067777920578933518 -0.1299680747675574 0 0.076734835755005087 -0.11970758577673089 0 0.065906963652981487 -0.1182248878619804 0 0.067777920578933518 -0.1299680747675574 0 0.05399936433302991 -0.12122894057442581 0 0.065906963652981487 -0.1182248878619804 0 0.088205186756687592 -0.098499163401079406 0 0.070281085843191191 -0.093817275438188408 0 0.074368452797441906 -0.1081427041937684 0 0.055228870314899682 -0.103843804558387 0 0.070281085843191191 -0.093817275438188408 0 0.074368452797441906 -0.1081427041937684 0 0.056852127489792813 -0.07490730178705754 0 0.078967107604769243 -0.081534257868326937 0 0.056852127489792813 -0.07490730178705754 0 0.070281085843191191 -0.093817275438188408 0 0.078967107604769243 -0.081534257868326937 0 0.062505798999464707 -0.060826586793076412 0 0.07727958311305537 -0.057367419372147309 0 0.078967107604769243 -0.081534257868326937 0 0.056852127489792813 -0.07490730178705754 0 0.062505798999464707 -0.060826586793076412 0 0.078967107604769243 -0.081534257868326937 0 0.07727958311305537 -0.057367419372147309 0 0.088807886296056321 -0.06442462200908719 0 0.078967107604769243 -0.081534257868326937 0 0.088807886296056321 -0.06442462200908719 0 0.078967107604769243 -0.081534257868326937 0 0.094886380824945021 -0.074739832907536372 0 0.088205186756687592 -0.098499163401079406 0 0.078967107604769243 -0.081534257868326937 0 0.10108208771974569 -0.088161213949596334 0 0.078967107604769243 -0.081534257868326937 0 0.10108208771974569 -0.088161213949596334 0 0.088205186756687592 -0.098499163401079406 0 0.070281085843191191 -0.093817275438188408 0 0.078967107604769243 -0.081534257868326937 0 0.078967107604769243 -0.081534257868326937 0 0.10108208771974569 -0.088161213949596334 0 0.094886380824945021 -0.074739832907536372 0 0.10108208771974569 -0.088161213949596334 0 0.094886380824945021 -0.074739832907536372 0 0.1107023023869871 -0.07592928384858362 0 0.1060355466537841 -0.056579106778484822 0 0.1035330678577871 -0.060408744014543561 0 0.1107023023869871 -0.07592928384858362 0 0.098151026611810355 -0.068041034107876819 0 0.094886380824945021 -0.074739832907536372 0 0.1107023023869871 -0.07592928384858362 0 0.098207536939253007 -0.057070397666300149 0 0.1107023023869871 -0.07592928384858362 0 0.098207536939253007 -0.057070397666300149 0 0.098151026611810355 -0.068041034107876819 0 0.1107023023869871 -0.07592928384858362 0 0.098207536939253007 -0.057070397666300149 0 0.1035330678577871 -0.060408744014543561 0 0.1107023023869871 -0.07592928384858362 0 0.088807886296056321 -0.06442462200908719 0 0.098151026611810355 -0.068041034107876819 0 0.094886380824945021 -0.074739832907536372 0 0.098207536939253007 -0.057070397666300149 0 0.088807886296056321 -0.06442462200908719 0 0.098151026611810355 -0.068041034107876819 0 0.1060355466537841 -0.056579106778484822 0 0.1107023023869871 -0.07592928384858362 0 0.12599115970317629 -0.074614863284063901 0 0.1060355466537841 -0.056579106778484822 0 0.12599115970317629 -0.074614863284063901 0 0.1060355466537841 -0.056579106778484822 0 0.12407046944405239 -0.056682210957894767 0 0.12599115970317629 -0.074614863284063901 0 0.1107023023869871 -0.07592928384858362 0 0.1231970678347219 -0.094788170030866675 0 0.10108208771974569 -0.088161213949596334 0 0.1231970678347219 -0.094788170030866675 0 0.10108208771974569 -0.088161213949596334 0 0.1107023023869871 -0.07592928384858362 0 0.1231970678347219 -0.094788170030866675 0 0.1107023023869871 -0.07592928384858362 0 0.1231970678347219 -0.094788170030866675 0 0.12599115970317629 -0.074614863284063901 0 0.1231970678347219 -0.094788170030866675 0 0.1041297467101449 -0.10443009357677931 0 0.1165495357793246 -0.11537146045311671 0 0.10108208771974569 -0.088161213949596334 0 0.1231970678347219 -0.094788170030866675 0 0.1041297467101449 -0.10443009357677931 0 0.088205186756687592 -0.098499163401079406 0 0.10108208771974569 -0.088161213949596334 0 0.1041297467101449 -0.10443009357677931 0 0.1110772144577262 -0.12607447494648069 0 0.1003755091591467 -0.120365047089626 0 0.1165495357793246 -0.11537146045311671 0 0.088306584707542421 -0.11364295246223539 0 0.1041297467101449 -0.10443009357677931 0 0.1003755091591467 -0.120365047089626 0 0.1041297467101449 -0.10443009357677931 0 0.1003755091591467 -0.120365047089626 0 0.1165495357793246 -0.11537146045311671 0 0.1110772144577262 -0.12607447494648069 0 0.1165495357793246 -0.11537146045311671 0 0.125059882544757 -0.1243050716586782 0 0.1165495357793246 -0.11537146045311671 0 0.125059882544757 -0.1243050716586782 0 0.13570225296767791 -0.1136627830916173 0 0.125059882544757 -0.1243050716586782 0 0.13570225296767791 -0.1136627830916173 0 0.13351042007077771 -0.13535464583232679 0 0.13570225296767791 -0.1136627830916173 0 0.14916210969568239 -0.1144869233999513 0 0.14820743810063461 -0.13253739615236759 0 0.13570225296767791 -0.1136627830916173 0 0.14820743810063461 -0.13253739615236759 0 0.14916210969568239 -0.1144869233999513 0 0.1659023858019596 -0.11068637629522381 0 0.14820743810063461 -0.13253739615236759 0 0.13570225296767791 -0.1136627830916173 0 0.14916210969568239 -0.1144869233999513 0 0.1438387705826743 -0.1009736450727655 0 0.14916210969568239 -0.1144869233999513 0 0.1438387705826743 -0.1009736450727655 0 0.1659023858019596 -0.11068637629522381 0 0.1438387705826743 -0.1009736450727655 0 0.14594677275256851 -0.092650619789643215 0 0.1659023858019596 -0.11068637629522381 0 0.14594677275256851 -0.092650619789643215 0 0.1659023858019596 -0.11068637629522381 0 0.1231970678347219 -0.094788170030866675 0 0.1438387705826743 -0.1009736450727655 0 0.14594677275256851 -0.092650619789643215 0 0.1231970678347219 -0.094788170030866675 0 0.1438387705826743 -0.1009736450727655 0 0.1231970678347219 -0.094788170030866675 0 0.13570225296767791 -0.1136627830916173 0 0.1231970678347219 -0.094788170030866675 0 0.13570225296767791 -0.1136627830916173 0 0.1438387705826743 -0.1009736450727655 0 0.1231970678347219 -0.094788170030866675 0 0.1165495357793246 -0.11537146045311671 0 0.13570225296767791 -0.1136627830916173 0 0.12599115970317629 -0.074614863284063901 0 0.14324551520284479 -0.074303388514748908 0 0.14594677275256851 -0.092650619789643215 0 0.12599115970317629 -0.074614863284063901 0 0.14594677275256851 -0.092650619789643215 0 0.1231970678347219 -0.094788170030866675 0 0.12599115970317629 -0.074614863284063901 0 0.14594677275256851 -0.092650619789643215 0 0.13274812921261911 -0.06482196831319062 0 0.14324551520284479 -0.074303388514748908 0 0.14208920836164879 -0.057453001683217583 0 0.12407046944405239 -0.056682210957894767 0 0.13274812921261911 -0.06482196831319062 0 0.12599115970317629 -0.074614863284063901 0 0.13274812921261911 -0.06482196831319062 0 0.12599115970317629 -0.074614863284063901 0 0.14324551520284479 -0.074303388514748908 0 0.14324551520284479 -0.074303388514748908 0 0.1577676676713505 -0.070958881179004327 0 0.14208920836164879 -0.057453001683217583 0 0.14324551520284479 -0.074303388514748908 0 0.15552700132703259 -0.084480842179265062 0 0.1577676676713505 -0.070958881179004327 0 0.14594677275256851 -0.092650619789643215 0 0.15552700132703259 -0.084480842179265062 0 0.16270751108717671 -0.093919671838121624 0 0.14324551520284479 -0.074303388514748908 0 0.14594677275256851 -0.092650619789643215 0 0.15552700132703259 -0.084480842179265062 0 0.15552700132703259 -0.084480842179265062 0 0.1577676676713505 -0.070958881179004327 0 0.17317205283599571 -0.083245500938658068 0 0.15552700132703259 -0.084480842179265062 0 0.17317205283599571 -0.083245500938658068 0 0.16270751108717671 -0.093919671838121624 0 0.17317205283599571 -0.083245500938658068 0 0.1732436498299591 -0.098484742462365965 0 0.16270751108717671 -0.093919671838121624 0 0.1577676676713505 -0.070958881179004327 0 0.17329006297225849 -0.067144545014819187 0 0.17317205283599571 -0.083245500938658068 0 0.1577676676713505 -0.070958881179004327 0 0.17329006297225849 -0.067144545014819187 0 0.16114266970546481 -0.055348584155622209 0 0.17329006297225849 -0.067144545014819187 0 0.18660459660722059 -0.07121356670435669 0 0.17317205283599571 -0.083245500938658068 0 0.17329006297225849 -0.067144545014819187 0 0.18660459660722059 -0.07121356670435669 0 0.18383722960737159 -0.053734604093409272 0 0.18660459660722059 -0.07121356670435669 0 0.17317205283599571 -0.083245500938658068 0 0.19163234817905089 -0.084272585639399919 0 0.17317205283599571 -0.083245500938658068 0 0.18448732685510821 -0.096160788283265797 0 0.19163234817905089 -0.084272585639399919 0 0.17317205283599571 -0.083245500938658068 0 0.18448732685510821 -0.096160788283265797 0 0.1732436498299591 -0.098484742462365965 0 0.18448732685510821 -0.096160788283265797 0 0.1732436498299591 -0.098484742462365965 0 0.1799489725695555 -0.1084113749565605 0 0.1732436498299591 -0.098484742462365965 0 0.1799489725695555 -0.1084113749565605 0 0.1659023858019596 -0.11068637629522381 0 0.18448732685510821 -0.096160788283265797 0 0.1799489725695555 -0.1084113749565605 0 0.19189947738255089 -0.11079770296415201 0 0.1799489725695555 -0.1084113749565605 0 0.1659023858019596 -0.11068637629522381 0 0.18392927920566929 -0.12697896821793581 0 0.1659023858019596 -0.11068637629522381 0 0.18392927920566929 -0.12697896821793581 0 0.1799489725695555 -0.1084113749565605 0 0.19189947738255089 -0.11079770296415201 0 0.18392927920566929 -0.12697896821793581 0 0.1659023858019596 -0.11068637629522381 0 0.17135699408012309 -0.1393121638749876 0 0.1732436498299591 -0.098484742462365965 0 0.1659023858019596 -0.11068637629522381 0 0.16270751108717671 -0.093919671838121624 0 0.14594677275256851 -0.092650619789643215 0 0.1659023858019596 -0.11068637629522381 0 0.16270751108717671 -0.093919671838121624 0 0.1659023858019596 -0.11068637629522381 0 0.16270751108717671 -0.093919671838121624 0 0.1463790325767105 0.0051600440866713393 0 0.13293120393573529 -0.01541967286838083 0 0.14494909117168939 -0.01571097116995826 0 0.1463790325767105 0.0051600440866713393 0 0.15462421245165581 -0.0058893527151400796 0 0.14494909117168939 -0.01571097116995826 0 0.1463790325767105 0.0051600440866713393 0 0.14494909117168939 -0.01571097116995826 0 0.15462421245165581 -0.0058893527151400796 0 0.14494909117168939 -0.01571097116995826 0 0.1598580582920249 -0.020425916519869049 0 0.1463790325767105 0.0051600440866713393 0 0.12681727907172599 0.0028609529651058472 0 0.13293120393573529 -0.01541967286838083 0 0.1463790325767105 0.0051600440866713393 0 0.13293120393573529 -0.01541967286838083 0 0.12681727907172599 0.0028609529651058472 0 0.1196279235184127 -0.011266487206185741 0 0.13293120393573529 -0.01541967286838083 0 0.13293120393573529 -0.01541967286838083 0 0.14494909117168939 -0.01571097116995826 0 0.1435191497666691 -0.036581986426587887 0 0.1194833752947594 -0.035999389823432593 0 0.13293120393573529 -0.01541967286838083 0 0.1435191497666691 -0.036581986426587887 0 0.1194833752947594 -0.035999389823432593 0 0.13293120393573529 -0.01541967286838083 0 0.14494909117168939 -0.01571097116995826 0 0.1435191497666691 -0.036581986426587887 0 0.14494909117168939 -0.01571097116995826 0 0.1435191497666691 -0.036581986426587887 0 0.1598580582920249 -0.020425916519869049 0 0.1194833752947594 -0.035999389823432593 0 0.1435191497666691 -0.036581986426587887 0 0.13229055071678239 -0.046679147222783213 0 0.12407046944405239 -0.056682210957894767 0 0.1194833752947594 -0.035999389823432593 0 0.13229055071678239 -0.046679147222783213 0 0.1435191497666691 -0.036581986426587887 0 0.13229055071678239 -0.046679147222783213 0 0.14208920836164879 -0.057453001683217583 0 0.12407046944405239 -0.056682210957894767 0 0.13229055071678239 -0.046679147222783213 0 0.14208920836164879 -0.057453001683217583 0 0.12407046944405239 -0.056682210957894767 0 0.13274812921261911 -0.06482196831319062 0 0.14208920836164879 -0.057453001683217583 0 0.1577676676713505 -0.070958881179004327 0 0.14208920836164879 -0.057453001683217583 0 0.16114266970546481 -0.055348584155622209 0 0.1435191497666691 -0.036581986426587887 0 0.14208920836164879 -0.057453001683217583 0 0.1435191497666691 -0.036581986426587887 0 0.14208920836164879 -0.057453001683217583 0 0.16114266970546481 -0.055348584155622209 0 0.16114266970546481 -0.055348584155622209 0 0.18383722960737159 -0.053734604093409272 0 0.16867226584066319 -0.036111154955617203 0 0.17329006297225849 -0.067144545014819187 0 0.16114266970546481 -0.055348584155622209 0 0.18383722960737159 -0.053734604093409272 0 0.18383722960737159 -0.053734604093409272 0 0.16867226584066319 -0.036111154955617203 0 0.1895671539671433 -0.037285104408639982 0 0.1435191497666691 -0.036581986426587887 0 0.16114266970546481 -0.055348584155622209 0 0.16867226584066319 -0.036111154955617203 0 0.1435191497666691 -0.036581986426587887 0 0.16867226584066319 -0.036111154955617203 0 0.1598580582920249 -0.020425916519869049 0 0.16867226584066319 -0.036111154955617203 0 0.1598580582920249 -0.020425916519869049 0 0.17626464034529979 -0.01218273843611789 0 0.16867226584066319 -0.036111154955617203 0 0.17626464034529979 -0.01218273843611789 0 0.19288185645158881 -0.018686415508600542 0 0.16867226584066319 -0.036111154955617203 0 0.19288185645158881 -0.018686415508600542 0 0.16867226584066319 -0.036111154955617203 0 0.19288185645158881 -0.018686415508600542 0 0.1895671539671433 -0.037285104408639982 0 0.1913914811785945 0.0015479160267864781 0 0.177795833794237 0.0058736288592868176 0 0.17626464034529979 -0.01218273843611789 0 0.177795833794237 0.0058736288592868176 0 0.17626464034529979 -0.01218273843611789 0 0.16638725000284621 -0.0041024332455818144 0 0.1913914811785945 0.0015479160267864781 0 0.17626464034529979 -0.01218273843611789 0 0.19288185645158881 -0.018686415508600542 0 0.15462421245165581 -0.0058893527151400796 0 0.1598580582920249 -0.020425916519869049 0 0.16638725000284621 -0.0041024332455818144 0 0.1598580582920249 -0.020425916519869049 0 0.17626464034529979 -0.01218273843611789 0 0.16638725000284621 -0.0041024332455818144 0 0.15628357420278671 0.003810722324721363 0 0.15462421245165581 -0.0058893527151400796 0 0.16638725000284621 -0.0041024332455818144 0 0.21709144706251299 -0.0012616760615819459 0 0.19288185645158881 -0.018686415508600542 0 0.21709144706251299 -0.0012616760615819459 0 0.19288185645158881 -0.018686415508600542 0 0.21106230177929311 -0.016930390785221641 0 0.21709144706251299 -0.0012616760615819459 0 0.21106230177929311 -0.016930390785221641 0 0.21880732635032871 -0.001449260780306197 0 0.21106230177929311 -0.016930390785221641 0 0.22385231661827831 -0.017244899007901549 0 0.21880732635032871 -0.001449260780306197 0 0.21991949691130641 0.00077379957079282309 0 0.21709144706251299 -0.0012616760615819459 0 0.21991949691130641 0.00077379957079282309 0 0.21709144706251299 -0.0012616760615819459 0 0.21880732635032871 -0.001449260780306197 0 0.21709144706251299 -0.0012616760615819459 0 0.21880732635032871 -0.001449260780306197 0 0.21106230177929311 -0.016930390785221641 0 0.21880732635032871 -0.001449260780306197 0 0.1913914811785945 0.0015479160267864781 0 0.21709144706251299 -0.0012616760615819459 0 0.19288185645158881 -0.018686415508600542 0 0.19288185645158881 -0.018686415508600542 0 0.21106230177929311 -0.016930390785221641 0 0.2033172772082579 -0.032411520790137288 0 0.19288185645158881 -0.018686415508600542 0 0.2033172772082579 -0.032411520790137288 0 0.1895671539671433 -0.037285104408639982 0 0.21106230177929311 -0.016930390785221641 0 0.2033172772082579 -0.032411520790137288 0 0.21106230177929311 -0.016930390785221641 0 0.21701755041282189 -0.032304719396535099 0 0.2033172772082579 -0.032411520790137288 0 0.21106230177929311 -0.016930390785221641 0 0.21701755041282189 -0.032304719396535099 0 0.22385231661827831 -0.017244899007901549 0 0.21701755041282189 -0.032304719396535099 0 0.21047104707744299 -0.044055030933792823 0 0.21970932447173591 -0.041885045690610363 0 0.21047104707744299 -0.044055030933792823 0 0.2163169812201669 -0.048151654183774213 0 0.21970932447173591 -0.041885045690610363 0 0.21047104707744299 -0.044055030933792823 0 0.2033172772082579 -0.032411520790137288 0 0.19912714072783499 -0.045481826695435601 0 0.21701755041282189 -0.032304719396535099 0 0.21047104707744299 -0.044055030933792823 0 0.2033172772082579 -0.032411520790137288 0 0.2033172772082579 -0.032411520790137288 0 0.1895671539671433 -0.037285104408639982 0 0.19912714072783499 -0.045481826695435601 0 0.18383722960737159 -0.053734604093409272 0 0.1895671539671433 -0.037285104408639982 0 0.19912714072783499 -0.045481826695435601 0 0.18383722960737159 -0.053734604093409272 0 0.19912714072783499 -0.045481826695435601 0 0.20031667673944939 -0.057421141152823332 0 0.18383722960737159 -0.053734604093409272 0 0.20031667673944939 -0.057421141152823332 0 0.19584992287481651 -0.066326971565447423 0 0.19912714072783499 -0.045481826695435601 0 0.20031667673944939 -0.057421141152823332 0 0.20701231567461709 -0.051722697756719387 0 0.20031667673944939 -0.057421141152823332 0 0.21110366793748389 -0.058962871247726333 0 0.20754781500579161 -0.067167929918243774 0 0.20031667673944939 -0.057421141152823332 0 0.20701231567461709 -0.051722697756719387 0 0.21110366793748389 -0.058962871247726333 0 0.21047104707744299 -0.044055030933792823 0 0.19912714072783499 -0.045481826695435601 0 0.20701231567461709 -0.051722697756719387 0 0.21047104707744299 -0.044055030933792823 0 0.20701231567461709 -0.051722697756719387 0 0.21404304589087411 -0.052692618753818851 0 0.20701231567461709 -0.051722697756719387 0 0.21404304589087411 -0.052692618753818851 0 0.21110366793748389 -0.058962871247726333 0 0.21047104707744299 -0.044055030933792823 0 0.21404304589087411 -0.052692618753818851 0 0.2163169812201669 -0.048151654183774213 0 0.21404304589087411 -0.052692618753818851 0 0.2163169812201669 -0.048151654183774213 0 0.22104450744061471 -0.053973921356874788 0 0.21404304589087411 -0.052692618753818851 0 0.21720125996139161 -0.057407354338342383 0 0.22104450744061471 -0.053973921356874788 0 0.21720125996139161 -0.057407354338342383 0 0.21110366793748389 -0.058962871247726333 0 0.2190710203991128 -0.066761103999133015 0 0.21404304589087411 -0.052692618753818851 0 0.21720125996139161 -0.057407354338342383 0 0.21110366793748389 -0.058962871247726333 0 0.22259109842381891 -0.056331752972584533 0 0.24466000719816181 -0.052572806154117767 0 0.23359814963938669 -0.073112384460560717 0 0.22259109842381891 -0.056331752972584533 0 0.2190710203991128 -0.066761103999133015 0 0.21720125996139161 -0.057407354338342383 0 0.22259109842381891 -0.056331752972584533 0 0.2190710203991128 -0.066761103999133015 0 0.21720125996139161 -0.057407354338342383 0 0.22259109842381891 -0.056331752972584533 0 0.22104450744061471 -0.053973921356874788 0 0.22259109842381891 -0.056331752972584533 0 0.22104450744061471 -0.053973921356874788 0 0.2163169812201669 -0.048151654183774213 0 0.22104450744061471 -0.053973921356874788 0 0.21970932447173591 -0.041885045690610363 0 0.25572186475693609 -0.032033227847674262 0 0.24466000719816181 -0.052572806154117767 0 0.2314560627619717 -0.030066475819188941 0 0.22259109842381891 -0.056331752972584533 0 0.24466000719816181 -0.052572806154117767 0 0.2314560627619717 -0.030066475819188941 0 0.22259109842381891 -0.056331752972584533 0 0.2314560627619717 -0.030066475819188941 0 0.22259109842381891 -0.056331752972584533 0 0.22104450744061471 -0.053973921356874788 0 0.2314560627619717 -0.030066475819188941 0 0.22104450744061471 -0.053973921356874788 0 0.21970932447173591 -0.041885045690610363 0 0.2314560627619717 -0.030066475819188941 0 0.21701755041282189 -0.032304719396535099 0 0.21970932447173591 -0.041885045690610363 0 0.2314560627619717 -0.030066475819188941 0 0.22385231661827831 -0.017244899007901549 0 0.2314560627619717 -0.030066475819188941 0 0.2403210271001277 -0.0038011986657945939 0 0.21701755041282189 -0.032304719396535099 0 0.22385231661827831 -0.017244899007901549 0 0.2314560627619717 -0.030066475819188941 0 0.25159771702699008 -0.014371615300676641 0 0.2314560627619717 -0.030066475819188941 0 0.2403210271001277 -0.0038011986657945939 0 0.25572186475693609 -0.032033227847674262 0 0.25159771702699008 -0.014371615300676641 0 0.2314560627619717 -0.030066475819188941 0 0.2314560627619717 -0.030066475819188941 0 0.2403210271001277 -0.0038011986657945939 0 0.2403210271001277 -0.0038011986657945939 0 0.21880732635032871 -0.001449260780306197 0 0.21991949691130641 0.00077379957079282309 0 0.2403210271001277 -0.0038011986657945939 0 0.21880732635032871 -0.001449260780306197 0 0.22385231661827831 -0.017244899007901549 0 0.2403210271001277 -0.0038011986657945939 0 0.21880732635032871 -0.001449260780306197 0 0.21991949691130641 0.00077379957079282309 0 0.21880732635032871 -0.001449260780306197 0 0.20659325823048899 -0.099029874252906047 0 0.21655448612892231 -0.108466948295262 0 0.2034485844213379 -0.1104083252764293 0 0.20659325823048899 -0.099029874252906047 0 0.21858698215692479 -0.095058636804357027 0 0.21655448612892231 -0.108466948295262 0 0.20659325823048899 -0.099029874252906047 0 0.21858698215692479 -0.095058636804357027 0 0.21076223576946701 -0.091385441013354662 0 0.21237619803781799 -0.123978557377612 0 0.2034485844213379 -0.1104083252764293 0 0.19857579603009881 -0.123745354966356 0 0.21655448612892231 -0.108466948295262 0 0.21237619803781799 -0.123978557377612 0 0.2034485844213379 -0.1104083252764293 0 0.19857579603009881 -0.123745354966356 0 0.19189947738255089 -0.11079770296415201 0 0.18392927920566929 -0.12697896821793581 0 0.2034485844213379 -0.1104083252764293 0 0.19857579603009881 -0.123745354966356 0 0.19189947738255089 -0.11079770296415201 0 0.18448732685510821 -0.096160788283265797 0 0.19189947738255089 -0.11079770296415201 0 0.19704440529688971 -0.097808096169463843 0 0.2034485844213379 -0.1104083252764293 0 0.19189947738255089 -0.11079770296415201 0 0.19704440529688971 -0.097808096169463843 0 0.20659325823048899 -0.099029874252906047 0 0.2034485844213379 -0.1104083252764293 0 0.19704440529688971 -0.097808096169463843 0 0.20659325823048899 -0.099029874252906047 0 0.19704440529688971 -0.097808096169463843 0 0.20377507451519661 -0.086639367611932153 0 0.18448732685510821 -0.096160788283265797 0 0.19704440529688971 -0.097808096169463843 0 0.19163234817905089 -0.084272585639399919 0 0.19163234817905089 -0.084272585639399919 0 0.20020732292815921 -0.075382335334988601 0 0.20377507451519661 -0.086639367611932153 0 0.19704440529688971 -0.097808096169463843 0 0.19163234817905089 -0.084272585639399919 0 0.20377507451519661 -0.086639367611932153 0 0.18660459660722059 -0.07121356670435669 0 0.18383722960737159 -0.053734604093409272 0 0.19584992287481651 -0.066326971565447423 0 0.18660459660722059 -0.07121356670435669 0 0.20020732292815921 -0.075382335334988601 0 0.19584992287481651 -0.066326971565447423 0 0.18660459660722059 -0.07121356670435669 0 0.19163234817905089 -0.084272585639399919 0 0.20020732292815921 -0.075382335334988601 0 0.20031667673944939 -0.057421141152823332 0 0.19584992287481651 -0.066326971565447423 0 0.20754781500579161 -0.067167929918243774 0 0.20020732292815921 -0.075382335334988601 0 0.19584992287481651 -0.066326971565447423 0 0.20754781500579161 -0.067167929918243774 0 0.20020732292815921 -0.075382335334988601 0 0.20754781500579161 -0.067167929918243774 0 0.21182278070176411 -0.07642901816315241 0 0.21182278070176411 -0.07642901816315241 0 0.2190710203991128 -0.066761103999133015 0 0.22185546860341471 -0.076890537193463129 0 0.21110366793748389 -0.058962871247726333 0 0.20754781500579161 -0.067167929918243774 0 0.2190710203991128 -0.066761103999133015 0 0.20754781500579161 -0.067167929918243774 0 0.21182278070176411 -0.07642901816315241 0 0.2190710203991128 -0.066761103999133015 0 0.20377507451519661 -0.086639367611932153 0 0.21076223576946701 -0.091385441013354662 0 0.2156201083762905 -0.085211377739258853 0 0.20659325823048899 -0.099029874252906047 0 0.20377507451519661 -0.086639367611932153 0 0.21076223576946701 -0.091385441013354662 0 0.21182278070176411 -0.07642901816315241 0 0.20377507451519661 -0.086639367611932153 0 0.2156201083762905 -0.085211377739258853 0 0.20020732292815921 -0.075382335334988601 0 0.21182278070176411 -0.07642901816315241 0 0.20377507451519661 -0.086639367611932153 0 0.21182278070176411 -0.07642901816315241 0 0.2156201083762905 -0.085211377739258853 0 0.22185546860341471 -0.076890537193463129 0 0.21858698215692479 -0.095058636804357027 0 0.21076223576946701 -0.091385441013354662 0 0.2156201083762905 -0.085211377739258853 0 0.21858698215692479 -0.095058636804357027 0 0.22254221780738029 -0.08612048538839856 0 0.22945301150852729 -0.089618177888440453 0 0.21858698215692479 -0.095058636804357027 0 0.2156201083762905 -0.085211377739258853 0 0.22254221780738029 -0.08612048538839856 0 0.22254221780738029 -0.08612048538839856 0 0.22667762447946821 -0.081336379644961862 0 0.22945301150852729 -0.089618177888440453 0 0.2156201083762905 -0.085211377739258853 0 0.22254221780738029 -0.08612048538839856 0 0.22185546860341471 -0.076890537193463129 0 0.22254221780738029 -0.08612048538839856 0 0.22667762447946821 -0.081336379644961862 0 0.22185546860341471 -0.076890537193463129 0 0.22667762447946821 -0.081336379644961862 0 0.22945301150852729 -0.089618177888440453 0 0.232130230341555 -0.075838006554786702 0 0.22259109842381891 -0.056331752972584533 0 0.23359814963938669 -0.073112384460560717 0 0.22259109842381891 -0.056331752972584533 0 0.22559767577824291 -0.070341033318702742 0 0.23359814963938669 -0.073112384460560717 0 0.22259109842381891 -0.056331752972584533 0 0.2190710203991128 -0.066761103999133015 0 0.22559767577824291 -0.070341033318702742 0 0.2190710203991128 -0.066761103999133015 0 0.22559767577824291 -0.070341033318702742 0 0.22185546860341471 -0.076890537193463129 0 0.22559767577824291 -0.070341033318702742 0 0.22185546860341471 -0.076890537193463129 0 0.226513327956856 -0.076031742247647013 0 0.22667762447946821 -0.081336379644961862 0 0.22185546860341471 -0.076890537193463129 0 0.226513327956856 -0.076031742247647013 0 0.22559767577824291 -0.070341033318702742 0 0.232130230341555 -0.075838006554786702 0 0.23359814963938669 -0.073112384460560717 0 0.22667762447946821 -0.081336379644961862 0 0.226513327956856 -0.076031742247647013 0 0.232130230341555 -0.075838006554786702 0 0.232130230341555 -0.075838006554786702 0 0.23359814963938669 -0.073112384460560717 0 0.22559767577824291 -0.070341033318702742 0 0.226513327956856 -0.076031742247647013 0 0.232130230341555 -0.075838006554786702 0 0.25578894406637898 -0.071814983055159112 0 0.24466000719816181 -0.052572806154117767 0 0.23359814963938669 -0.073112384460560717 0 0.24466000719816181 -0.052572806154117767 0 0.23359814963938669 -0.073112384460560717 0 0.232130230341555 -0.075838006554786702 0 0.23359814963938669 -0.073112384460560717 0 0.248052431344363 -0.095148438437639593 0 0.25578894406637898 -0.071814983055159112 0 0.23359814963938669 -0.073112384460560717 0 0.248052431344363 -0.095148438437639593 0 0.23359814963938669 -0.073112384460560717 0 0.248052431344363 -0.095148438437639593 0 0.22945301150852729 -0.089618177888440453 0 0.232130230341555 -0.075838006554786702 0 0.248052431344363 -0.095148438437639593 0 0.22945301150852729 -0.089618177888440453 0 0.248052431344363 -0.095148438437639593 0 0.23028066412444251 -0.1035134914659659 0 0.248052431344363 -0.095148438437639593 0 0.23028066412444251 -0.1035134914659659 0 0.24260121657943401 -0.11258968035378961 0 0.21858698215692479 -0.095058636804357027 0 0.21655448612892231 -0.108466948295262 0 0.23028066412444251 -0.1035134914659659 0 0.21858698215692479 -0.095058636804357027 0 0.22945301150852729 -0.089618177888440453 0 0.23028066412444251 -0.1035134914659659 0 0.21655448612892231 -0.108466948295262 0 0.21237619803781799 -0.123978557377612 0 0.22804122980252159 -0.1188128045943018 0 0.21655448612892231 -0.108466948295262 0 0.23028066412444251 -0.1035134914659659 0 0.22804122980252159 -0.1188128045943018 0 0.23028066412444251 -0.1035134914659659 0 0.22804122980252159 -0.1188128045943018 0 0.24260121657943401 -0.11258968035378961 0 0.26250671304934198 -0.1171844924147165 0 0.24260121657943401 -0.11258968035378961 0 0.2441250445765018 -0.1282891748563233 0 0.22804122980252159 -0.1188128045943018 0 0.24260121657943401 -0.11258968035378961 0 0.2441250445765018 -0.1282891748563233 0 0.2441250445765018 -0.1282891748563233 0 0.23903729808979979 -0.1497956366535709 0 0.2244889389359962 -0.13749465980780429 0 0.26140577643439422 -0.14332992145424359 0 0.2441250445765018 -0.1282891748563233 0 0.23903729808979979 -0.1497956366535709 0 0.26140577643439422 -0.14332992145424359 0 0.23903729808979979 -0.1497956366535709 0 0.24727016264961249 -0.1692414738038848 0 0.23903729808979979 -0.1497956366535709 0 0.2244889389359962 -0.13749465980780429 0 0.2199830660130864 -0.1595641520633625 0 0.22804122980252159 -0.1188128045943018 0 0.2441250445765018 -0.1282891748563233 0 0.2244889389359962 -0.13749465980780429 0 0.21237619803781799 -0.123978557377612 0 0.22804122980252159 -0.1188128045943018 0 0.2244889389359962 -0.13749465980780429 0 0.21237619803781799 -0.123978557377612 0 0.2244889389359962 -0.13749465980780429 0 0.2019561726093779 -0.14327156014064921 0 0.21237619803781799 -0.123978557377612 0 0.19857579603009881 -0.123745354966356 0 0.2019561726093779 -0.14327156014064921 0 0.2244889389359962 -0.13749465980780429 0 0.2019561726093779 -0.14327156014064921 0 0.2199830660130864 -0.1595641520633625 0 0.2019561726093779 -0.14327156014064921 0 0.2199830660130864 -0.1595641520633625 0 0.2019561726093779 -0.14327156014064921 0 0.2047419039749544 -0.16383627848553101 0 0.2199830660130864 -0.1595641520633625 0 0.2019561726093779 -0.14327156014064921 0 0.1858442134446858 -0.1403981851473228 0 0.18613440788357311 -0.15203004835571851 0 0.2019561726093779 -0.14327156014064921 0 0.2047419039749544 -0.16383627848553101 0 0.18613440788357311 -0.15203004835571851 0 0.19857579603009881 -0.123745354966356 0 0.2019561726093779 -0.14327156014064921 0 0.18392927920566929 -0.12697896821793581 0 0.2019561726093779 -0.14327156014064921 0 0.18392927920566929 -0.12697896821793581 0 0.2019561726093779 -0.14327156014064921 0 0.1858442134446858 -0.1403981851473228 0 0.18392927920566929 -0.12697896821793581 0 0.20143056513873611 -0.17998665641699849 0 0.18945430304214239 -0.18113699365130109 0 0.1956775580667883 -0.19315745649050381 0 0.20143056513873611 -0.17998665641699849 0 0.18945430304214239 -0.18113699365130109 0 0.19108557901044451 -0.16803916485973749 0 0.19108557901044451 -0.16803916485973749 0 0.2047419039749544 -0.16383627848553101 0 0.18613440788357311 -0.15203004835571851 0 0.20143056513873611 -0.17998665641699849 0 0.19108557901044451 -0.16803916485973749 0 0.2047419039749544 -0.16383627848553101 0 0.2047419039749544 -0.16383627848553101 0 0.21987806867346529 -0.181539582491408 0 0.2199830660130864 -0.1595641520633625 0 0.20143056513873611 -0.17998665641699849 0 0.2047419039749544 -0.16383627848553101 0 0.21987806867346529 -0.181539582491408 0 0.20143056513873611 -0.17998665641699849 0 0.21987806867346529 -0.181539582491408 0 0.21026993533039931 -0.19452922539566581 0 0.21987806867346529 -0.181539582491408 0 0.2199830660130864 -0.1595641520633625 0 0.23800995941679501 -0.17585674398607579 0 0.21987806867346529 -0.181539582491408 0 0.23800995941679501 -0.17585674398607579 0 0.2331345488648309 -0.19515302615352589 0 0.2199830660130864 -0.1595641520633625 0 0.23800995941679501 -0.17585674398607579 0 0.23903729808979979 -0.1497956366535709 0 0.2199830660130864 -0.1595641520633625 0 0.23506515458377289 -0.16194558534122611 0 0.2199830660130864 -0.1595641520633625 0 0.23506515458377289 -0.16194558534122611 0 0.23800995941679501 -0.17585674398607579 0 0.23903729808979979 -0.1497956366535709 0 0.23506515458377289 -0.16194558534122611 0 0.24727016264961249 -0.1692414738038848 0 0.23506515458377289 -0.16194558534122611 0 0.24727016264961249 -0.1692414738038848 0 0.23800995941679501 -0.17585674398607579 0 0.24727016264961249 -0.1692414738038848 0 0.2331345488648309 -0.19515302615352589 0 0.24727016264961249 -0.1692414738038848 0 0.23800995941679501 -0.17585674398607579 0 0.2331345488648309 -0.19515302615352589 0 0.25115080808597218 -0.18349252771031549 0 0.24727016264961249 -0.1692414738038848 0 0.2331345488648309 -0.19515302615352589 0 0.25294493867930001 -0.1971512634910503 0 0.25115080808597218 -0.18349252771031549 0 0.2331345488648309 -0.19515302615352589 0 0.25294493867930001 -0.1971512634910503 0 0.23924146656863479 -0.21600942233651971 0 0.2331345488648309 -0.19515302615352589 0 0.25948399805722178 -0.21095426616987389 0 0.23924146656863479 -0.21600942233651971 0 0.23924146656863479 -0.21600942233651971 0 0.218998935080048 -0.22106457850316641 0 0.21946760776481619 -0.20450875509018021 0 0.2331345488648309 -0.19515302615352589 0 0.218998935080048 -0.22106457850316641 0 0.2331345488648309 -0.19515302615352589 0 0.218998935080048 -0.22106457850316641 0 0.23924146656863479 -0.21600942233651971 0 0.2331345488648309 -0.19515302615352589 0 0.218998935080048 -0.22106457850316641 0 0.21946760776481619 -0.20450875509018021 0 0.22068754015837791 -0.19393264728269499 0 0.2331345488648309 -0.19515302615352589 0 0.21987806867346529 -0.181539582491408 0 0.22068754015837791 -0.19393264728269499 0 0.2331345488648309 -0.19515302615352589 0 0.25406429941061343 -0.23112732810889039 0 0.24146341680214309 -0.24448521489457861 0 0.23197262628044979 -0.22995906340082059 0 0.25406429941061343 -0.23112732810889039 0 0.23924146656863479 -0.21600942233651971 0 0.23197262628044979 -0.22995906340082059 0 0.23924146656863479 -0.21600942233651971 0 0.218998935080048 -0.22106457850316641 0 0.23197262628044979 -0.22995906340082059 0 0.218998935080048 -0.22106457850316641 0 0.23197262628044979 -0.22995906340082059 0 0.2174712270181591 -0.22386497246011361 0 0.23197262628044979 -0.22995906340082059 0 0.22090538197196211 -0.23599380530564679 0 0.2174712270181591 -0.22386497246011361 0 0.23197262628044979 -0.22995906340082059 0 0.2264227451730553 -0.24971222362376699 0 0.22090538197196211 -0.23599380530564679 0 0.24146341680214309 -0.24448521489457861 0 0.23197262628044979 -0.22995906340082059 0 0.2264227451730553 -0.24971222362376699 0 0.21040399342164171 -0.25176681621351038 0 0.2264227451730553 -0.24971222362376699 0 0.22090538197196211 -0.23599380530564679 0 0.21040399342164171 -0.25176681621351038 0 0.22090538197196211 -0.23599380530564679 0 0.20830595876386901 -0.23638945826593061 0 0.21040399342164171 -0.25176681621351038 0 0.20830595876386901 -0.23638945826593061 0 0.19936230214102421 -0.2479946931896729 0 0.22090538197196211 -0.23599380530564679 0 0.20830595876386901 -0.23638945826593061 0 0.2144511399868903 -0.2312706685566866 0 0.218998935080048 -0.22106457850316641 0 0.19612053567392879 -0.2267779885035914 0 0.218998935080048 -0.22106457850316641 0 0.19612053567392879 -0.2267779885035914 0 0.2105383011147646 -0.21819048542197941 0 0.218998935080048 -0.22106457850316641 0 0.20576090592389351 -0.2270860010417686 0 0.19612053567392879 -0.2267779885035914 0 0.20830595876386901 -0.23638945826593061 0 0.20576090592389351 -0.2270860010417686 0 0.20182830522270101 -0.2319599292687276 0 0.20830595876386901 -0.23638945826593061 0 0.20576090592389351 -0.2270860010417686 0 0.2144511399868903 -0.2312706685566866 0 0.22090538197196211 -0.23599380530564679 0 0.2144511399868903 -0.2312706685566866 0 0.2174712270181591 -0.22386497246011361 0 0.20576090592389351 -0.2270860010417686 0 0.2144511399868903 -0.2312706685566866 0 0.21346905720863779 -0.2258257771414271 0 0.2144511399868903 -0.2312706685566866 0 0.21346905720863779 -0.2258257771414271 0 0.2174712270181591 -0.22386497246011361 0 0.218998935080048 -0.22106457850316641 0 0.20576090592389351 -0.2270860010417686 0 0.21346905720863779 -0.2258257771414271 0 0.218998935080048 -0.22106457850316641 0 0.21346905720863779 -0.2258257771414271 0 0.2174712270181591 -0.22386497246011361 0 0.218998935080048 -0.22106457850316641 0 0.2174712270181591 -0.22386497246011361 0 0.19612053567392879 -0.2267779885035914 0 0.2105383011147646 -0.21819048542197941 0 0.20425053182178279 -0.21841625855527369 0 0.19777000223886329 -0.21875233346220549 0 0.19612053567392879 -0.2267779885035914 0 0.20425053182178279 -0.21841625855527369 0 0.19777000223886329 -0.21875233346220549 0 0.19393270034329779 -0.22126915535208849 0 0.19612053567392879 -0.2267779885035914 0 0.19393270034329779 -0.22126915535208849 0 0.18772081891462031 -0.22518952661427791 0 0.19612053567392879 -0.2267779885035914 0 0.19393270034329779 -0.22126915535208849 0 0.18772081891462031 -0.22518952661427791 0 0.19411944454577909 -0.214356772828279 0 0.19612053567392879 -0.2267779885035914 0 0.19712582052911259 -0.23758626926361981 0 0.1871717184338115 -0.23640941086597769 0 0.19612053567392879 -0.2267779885035914 0 0.20182830522270101 -0.2319599292687276 0 0.19712582052911259 -0.23758626926361981 0 0.20576090592389351 -0.2270860010417686 0 0.19612053567392879 -0.2267779885035914 0 0.20182830522270101 -0.2319599292687276 0 0.20830595876386901 -0.23638945826593061 0 0.19712582052911259 -0.23758626926361981 0 0.19936230214102421 -0.2479946931896729 0 0.20830595876386901 -0.23638945826593061 0 0.20182830522270101 -0.2319599292687276 0 0.19712582052911259 -0.23758626926361981 0 0.19712582052911259 -0.23758626926361981 0 0.18957958600208469 -0.24548130840959781 0 0.1871717184338115 -0.23640941086597769 0 0.19712582052911259 -0.23758626926361981 0 0.18957958600208469 -0.24548130840959781 0 0.19936230214102421 -0.2479946931896729 0 0.21026993533039931 -0.19452922539566581 0 0.2106024981415649 -0.2056222994823437 0 0.20186537415214451 -0.20478020160934601 0 0.21987806867346529 -0.181539582491408 0 0.22068754015837791 -0.19393264728269499 0 0.21026993533039931 -0.19452922539566581 0 0.21946760776481619 -0.20450875509018021 0 0.22068754015837791 -0.19393264728269499 0 0.21026993533039931 -0.19452922539566581 0 0.21946760776481619 -0.20450875509018021 0 0.21026993533039931 -0.19452922539566581 0 0.2106024981415649 -0.2056222994823437 0 0.21946760776481619 -0.20450875509018021 0 0.218998935080048 -0.22106457850316641 0 0.21566385185952111 -0.2138241496878262 0 0.21946760776481619 -0.20450875509018021 0 0.21566385185952111 -0.2138241496878262 0 0.21365056347845579 -0.2115327797359787 0 0.21946760776481619 -0.20450875509018021 0 0.21365056347845579 -0.2115327797359787 0 0.2106024981415649 -0.2056222994823437 0 0.218998935080048 -0.22106457850316641 0 0.21566385185952111 -0.2138241496878262 0 0.2105383011147646 -0.21819048542197941 0 0.21566385185952111 -0.2138241496878262 0 0.21365056347845579 -0.2115327797359787 0 0.2105383011147646 -0.21819048542197941 0 0.2105383011147646 -0.21819048542197941 0 0.20775900998200869 -0.21276053558054769 0 0.20425053182178279 -0.21841625855527369 0 0.21365056347845579 -0.2115327797359787 0 0.2105383011147646 -0.21819048542197941 0 0.20775900998200869 -0.21276053558054769 0 0.20775900998200869 -0.21276053558054769 0 0.20425053182178279 -0.21841625855527369 0 0.20156851284219721 -0.21282904574896491 0 0.20775900998200869 -0.21276053558054769 0 0.20186537415214451 -0.20478020160934601 0 0.20156851284219721 -0.21282904574896491 0 0.20775900998200869 -0.21276053558054769 0 0.2106024981415649 -0.2056222994823437 0 0.20186537415214451 -0.20478020160934601 0 0.21365056347845579 -0.2115327797359787 0 0.20775900998200869 -0.21276053558054769 0 0.2106024981415649 -0.2056222994823437 0 0.20186537415214451 -0.20478020160934601 0 0.19411944454577909 -0.214356772828279 0 0.19348214685029161 -0.20221454249066079 0 0.18772081891462031 -0.22518952661427791 0 0.19411944454577909 -0.214356772828279 0 0.18226621063645451 -0.19656373903451449 0 0.20186537415214451 -0.20478020160934601 0 0.20156851284219721 -0.21282904574896491 0 0.19411944454577909 -0.214356772828279 0 0.19411944454577909 -0.214356772828279 0 0.19348214685029161 -0.20221454249066079 0 0.18226621063645451 -0.19656373903451449 0 0.19777000223886329 -0.21875233346220549 0 0.20425053182178279 -0.21841625855527369 0 0.20156851284219721 -0.21282904574896491 0 0.19777000223886329 -0.21875233346220549 0 0.20156851284219721 -0.21282904574896491 0 0.19411944454577909 -0.214356772828279 0 0.19777000223886329 -0.21875233346220549 0 0.19393270034329779 -0.22126915535208849 0 0.19411944454577909 -0.214356772828279 0 0.19348214685029161 -0.20221454249066079 0 0.1956775580667883 -0.19315745649050381 0 0.18226621063645451 -0.19656373903451449 0 0.20186537415214451 -0.20478020160934601 0 0.19348214685029161 -0.20221454249066079 0 0.1956775580667883 -0.19315745649050381 0 0.21026993533039931 -0.19452922539566581 0 0.20186537415214451 -0.20478020160934601 0 0.1956775580667883 -0.19315745649050381 0 0.20143056513873611 -0.17998665641699849 0 0.21026993533039931 -0.19452922539566581 0 0.1956775580667883 -0.19315745649050381 0 0.18945430304214239 -0.18113699365130109 0 0.1956775580667883 -0.19315745649050381 0 0.18226621063645451 -0.19656373903451449 0 0.18226621063645451 -0.19656373903451449 0 0.1715432114556068 -0.21122996104898861 0 0.16984428664340401 -0.18996852359395999 0 0.18772081891462031 -0.22518952661427791 0 0.18226621063645451 -0.19656373903451449 0 0.1715432114556068 -0.21122996104898861 0 0.18772081891462031 -0.22518952661427791 0 0.18226621063645451 -0.19656373903451449 0 0.1715432114556068 -0.21122996104898861 0 0.1573322870795833 -0.20789039819694149 0 0.1623168744573055 -0.22287573648660611 0 0.1573322870795833 -0.20789039819694149 0 0.1623168744573055 -0.22287573648660611 0 0.1522967848894444 -0.22083493224417339 0 0.1715432114556068 -0.21122996104898861 0 0.1573322870795833 -0.20789039819694149 0 0.16984428664340401 -0.18996852359395999 0 0.1573322870795833 -0.20789039819694149 0 0.16984428664340401 -0.18996852359395999 0 0.15597410852767299 -0.19239463322910441 0 0.1715432114556068 -0.21122996104898861 0 0.16984428664340401 -0.18996852359395999 0 0.16984428664340401 -0.18996852359395999 0 0.15597410852767299 -0.19239463322910441 0 0.1614518955362341 -0.18261220584938501 0 0.17531814171820079 -0.25847186551630352 0 0.18140855909891221 -0.24875385404173869 0 0.17324213626780979 -0.23249139850401729 0 0.17531814171820079 -0.25847186551630352 0 0.17324213626780979 -0.23249139850401729 0 0.18140855909891221 -0.24875385404173869 0 0.182482909248532 -0.24101033857802051 0 0.17324213626780979 -0.23249139850401729 0 0.18957958600208469 -0.24548130840959781 0 0.18140855909891221 -0.24875385404173869 0 0.182482909248532 -0.24101033857802051 0 0.18957958600208469 -0.24548130840959781 0 0.182482909248532 -0.24101033857802051 0 0.1871717184338115 -0.23640941086597769 0 0.182482909248532 -0.24101033857802051 0 0.1871717184338115 -0.23640941086597769 0 0.17324213626780979 -0.23249139850401729 0 0.18772081891462031 -0.22518952661427791 0 0.19612053567392879 -0.2267779885035914 0 0.17324213626780979 -0.23249139850401729 0 0.19612053567392879 -0.2267779885035914 0 0.1871717184338115 -0.23640941086597769 0 0.17324213626780979 -0.23249139850401729 0 0.1715432114556068 -0.21122996104898861 0 0.17324213626780979 -0.23249139850401729 0 0.19612053567392879 -0.2267779885035914 0 0.17324213626780979 -0.23249139850401729 0 0.18772081891462031 -0.22518952661427791 0 0.1715432114556068 -0.21122996104898861 0 0.17324213626780979 -0.23249139850401729 0 0.1715432114556068 -0.21122996104898861 0 0.17324213626780979 -0.23249139850401729 0 0.1623168744573055 -0.22287573648660611 0 0.1623168744573055 -0.22287573648660611 0 0.15535209141549861 -0.22942801887575409 0 0.1522967848894444 -0.22083493224417339 0 0.1623168744573055 -0.22287573648660611 0 0.16254320702155209 -0.2351632361734422 0 0.15535209141549861 -0.22942801887575409 0 0.17324213626780979 -0.23249139850401729 0 0.16254320702155209 -0.2351632361734422 0 0.17324213626780979 -0.23249139850401729 0 0.1623168744573055 -0.22287573648660611 0 0.16254320702155209 -0.2351632361734422 0 0.16416434830993021 -0.25348076251168611 0 0.17531814171820079 -0.25847186551630352 0 0.17324213626780979 -0.23249139850401729 0 0.16416434830993021 -0.25348076251168611 0 0.17324213626780979 -0.23249139850401729 0 0.16097870724125449 -0.24292032119762011 0 0.17324213626780979 -0.23249139850401729 0 0.16254320702155209 -0.2351632361734422 0 0.16097870724125449 -0.24292032119762011 0 0.16254320702155209 -0.2351632361734422 0 0.16097870724125449 -0.24292032119762011 0 0.15390853800913809 -0.24274468653761391 0 0.16416434830993021 -0.25348076251168611 0 0.16097870724125449 -0.24292032119762011 0 0.15746623258843939 -0.24717962177743169 0 0.16097870724125449 -0.24292032119762011 0 0.15746623258843939 -0.24717962177743169 0 0.15390853800913809 -0.24274468653761391 0 0.1338120645475761 -0.25178135897747889 0 0.14143480209138451 -0.24391931440815429 0 0.15081333679343489 -0.24957271686280691 0 0.14143480209138451 -0.24391931440815429 0 0.14954523601732381 -0.23656141158161401 0 0.13965007243053049 -0.2272862619181428 0 0.14143480209138451 -0.24391931440815429 0 0.15081333679343489 -0.24957271686280691 0 0.14892547822782029 -0.24319953234754729 0 0.15746623258843939 -0.24717962177743169 0 0.15081333679343489 -0.24957271686280691 0 0.15390853800913809 -0.24274468653761391 0 0.15081333679343489 -0.24957271686280691 0 0.15390853800913809 -0.24274468653761391 0 0.14892547822782029 -0.24319953234754729 0 0.16254320702155209 -0.2351632361734422 0 0.15390853800913809 -0.24274468653761391 0 0.14954523601732381 -0.23656141158161401 0 0.15390853800913809 -0.24274468653761391 0 0.14892547822782029 -0.24319953234754729 0 0.14954523601732381 -0.23656141158161401 0 0.14143480209138451 -0.24391931440815429 0 0.14892547822782029 -0.24319953234754729 0 0.14954523601732381 -0.23656141158161401 0 0.14954523601732381 -0.23656141158161401 0 0.15535209141549861 -0.22942801887575409 0 0.13965007243053049 -0.2272862619181428 0 0.15535209141549861 -0.22942801887575409 0 0.1522967848894444 -0.22083493224417339 0 0.13965007243053049 -0.2272862619181428 0 0.16254320702155209 -0.2351632361734422 0 0.14954523601732381 -0.23656141158161401 0 0.15535209141549861 -0.22942801887575409 0 0.1522967848894444 -0.22083493224417339 0 0.13965007243053049 -0.2272862619181428 0 0.14214428324753289 -0.2154529738929884 0 0.11925867152865099 -0.22395178641925401 0 0.13965007243053049 -0.2272862619181428 0 0.12727927076528461 -0.2378210325384271 0 0.11925867152865099 -0.22395178641925401 0 0.13965007243053049 -0.2272862619181428 0 0.1296813367821156 -0.2112782106774091 0 0.14143480209138451 -0.24391931440815429 0 0.13965007243053049 -0.2272862619181428 0 0.12727927076528461 -0.2378210325384271 0 0.1338120645475761 -0.25178135897747889 0 0.1155402395781918 -0.2507583320391269 0 0.12727927076528461 -0.2378210325384271 0 0.1338120645475761 -0.25178135897747889 0 0.14143480209138451 -0.24391931440815429 0 0.12727927076528461 -0.2378210325384271 0 0.1472064603361167 -0.20247602688276969 0 0.14541013119376039 -0.19094925991957609 0 0.13560729147637779 -0.19666813964102769 0 0.1472064603361167 -0.20247602688276969 0 0.14541013119376039 -0.19094925991957609 0 0.15597410852767299 -0.19239463322910441 0 0.14541013119376039 -0.19094925991957609 0 0.15597410852767299 -0.19239463322910441 0 0.15149562072024261 -0.18002206604153331 0 0.1573322870795833 -0.20789039819694149 0 0.1472064603361167 -0.20247602688276969 0 0.15597410852767299 -0.19239463322910441 0 0.1573322870795833 -0.20789039819694149 0 0.1472064603361167 -0.20247602688276969 0 0.14214428324753289 -0.2154529738929884 0 0.1573322870795833 -0.20789039819694149 0 0.1522967848894444 -0.22083493224417339 0 0.14214428324753289 -0.2154529738929884 0 0.1472064603361167 -0.20247602688276969 0 0.14214428324753289 -0.2154529738929884 0 0.1296813367821156 -0.2112782106774091 0 0.1472064603361167 -0.20247602688276969 0 0.1296813367821156 -0.2112782106774091 0 0.13560729147637779 -0.19666813964102769 0 0.13965007243053049 -0.2272862619181428 0 0.14214428324753289 -0.2154529738929884 0 0.1296813367821156 -0.2112782106774091 0 0.1232396379011078 -0.1927549034493776 0 0.1296813367821156 -0.2112782106774091 0 0.13560729147637779 -0.19666813964102769 0 0.14541013119376039 -0.19094925991957609 0 0.13560729147637779 -0.19666813964102769 0 0.1367671749083921 -0.18318543380344571 0 0.1232396379011078 -0.1927549034493776 0 0.13560729147637779 -0.19666813964102769 0 0.1367671749083921 -0.18318543380344571 0 0.1232396379011078 -0.1927549034493776 0 0.1240882674421261 -0.17221834261327171 0 0.1367671749083921 -0.18318543380344571 0 0.1240882674421261 -0.17221834261327171 0 0.1367671749083921 -0.18318543380344571 0 0.13968624526684381 -0.1663096509244866 0 0.14541013119376039 -0.19094925991957609 0 0.1367671749083921 -0.18318543380344571 0 0.15149562072024261 -0.18002206604153331 0 0.1367671749083921 -0.18318543380344571 0 0.15149562072024261 -0.18002206604153331 0 0.13968624526684381 -0.1663096509244866 0 0.15149562072024261 -0.18002206604153331 0 0.15438358984087761 -0.16681526513507461 0 0.15901421514929279 -0.17490695601163531 0 0.13968624526684381 -0.1663096509244866 0 0.137218974646206 -0.14902146964549531 0 0.15110583492258711 -0.15411329859263981 0 0.15438358984087761 -0.16681526513507461 0 0.15110583492258711 -0.15411329859263981 0 0.16298457853711951 -0.16119870976526179 0 0.15149562072024261 -0.18002206604153331 0 0.15438358984087761 -0.16681526513507461 0 0.13968624526684381 -0.1663096509244866 0 0.15438358984087761 -0.16681526513507461 0 0.13968624526684381 -0.1663096509244866 0 0.15110583492258711 -0.15411329859263981 0 0.1238726331408222 -0.15597973401630799 0 0.13968624526684381 -0.1663096509244866 0 0.137218974646206 -0.14902146964549531 0 0.1238726331408222 -0.15597973401630799 0 0.1240882674421261 -0.17221834261327171 0 0.13968624526684381 -0.1663096509244866 0 0.1238726331408222 -0.15597973401630799 0 0.12550759679471971 -0.14428239988351421 0 0.137218974646206 -0.14902146964549531 0 0.12550759679471971 -0.14428239988351421 0 0.137218974646206 -0.14902146964549531 0 0.13351042007077771 -0.13535464583232679 0 0.13570225296767791 -0.1136627830916173 0 0.13351042007077771 -0.13535464583232679 0 0.14820743810063461 -0.13253739615236759 0 0.137218974646206 -0.14902146964549531 0 0.13351042007077771 -0.13535464583232679 0 0.14820743810063461 -0.13253739615236759 0 0.1195920268695274 -0.13435801890873961 0 0.125059882544757 -0.1243050716586782 0 0.13351042007077771 -0.13535464583232679 0 0.1195920268695274 -0.13435801890873961 0 0.12550759679471971 -0.14428239988351421 0 0.13351042007077771 -0.13535464583232679 0 0.14820743810063461 -0.13253739615236759 0 0.15110583492258711 -0.15411329859263981 0 0.1632605781546366 -0.14974645590444771 0 0.137218974646206 -0.14902146964549531 0 0.14820743810063461 -0.13253739615236759 0 0.15110583492258711 -0.15411329859263981 0 0.1632605781546366 -0.14974645590444771 0 0.17135699408012309 -0.1393121638749876 0 0.1768116023582888 -0.16793795145475099 0 0.15110583492258711 -0.15411329859263981 0 0.1632605781546366 -0.14974645590444771 0 0.16298457853711951 -0.16119870976526179 0 0.14820743810063461 -0.13253739615236759 0 0.1632605781546366 -0.14974645590444771 0 0.17135699408012309 -0.1393121638749876 0 0.1659023858019596 -0.11068637629522381 0 0.14820743810063461 -0.13253739615236759 0 0.17135699408012309 -0.1393121638749876 0 0.1659023858019596 -0.11068637629522381 0 0.17135699408012309 -0.1393121638749876 0 0.18392927920566929 -0.12697896821793581 0 0.17135699408012309 -0.1393121638749876 0 0.1858442134446858 -0.1403981851473228 0 0.18392927920566929 -0.12697896821793581 0 0.17135699408012309 -0.1393121638749876 0 0.1768116023582888 -0.16793795145475099 0 0.17135699408012309 -0.1393121638749876 0 0.18613440788357311 -0.15203004835571851 0 0.1768116023582888 -0.16793795145475099 0 0.17135699408012309 -0.1393121638749876 0 0.1858442134446858 -0.1403981851473228 0 0.18613440788357311 -0.15203004835571851 0 0.19108557901044451 -0.16803916485973749 0 0.18613440788357311 -0.15203004835571851 0 0.1768116023582888 -0.16793795145475099 0 0.18226621063645451 -0.19656373903451449 0 0.16984428664340401 -0.18996852359395999 0 0.1768116023582888 -0.16793795145475099 0 0.18945430304214239 -0.18113699365130109 0 0.19108557901044451 -0.16803916485973749 0 0.1768116023582888 -0.16793795145475099 0 0.18226621063645451 -0.19656373903451449 0 0.1768116023582888 -0.16793795145475099 0 0.18945430304214239 -0.18113699365130109 0 0.18226621063645451 -0.19656373903451449 0 0.1768116023582888 -0.16793795145475099 0 0.16984428664340401 -0.18996852359395999 0 0.1681453618312011 -0.16870708613893129 0 0.16984428664340401 -0.18996852359395999 0 0.1768116023582888 -0.16793795145475099 0 0.1681453618312011 -0.16870708613893129 0 0.16984428664340401 -0.18996852359395999 0 0.1614518955362341 -0.18261220584938501 0 0.1681453618312011 -0.16870708613893129 0 0.15597410852767299 -0.19239463322910441 0 0.15149562072024261 -0.18002206604153331 0 0.1614518955362341 -0.18261220584938501 0 0.1614518955362341 -0.18261220584938501 0 0.15901421514929279 -0.17490695601163531 0 0.1681453618312011 -0.16870708613893129 0 0.15149562072024261 -0.18002206604153331 0 0.1614518955362341 -0.18261220584938501 0 0.15901421514929279 -0.17490695601163531 0 0.15438358984087761 -0.16681526513507461 0 0.16298457853711951 -0.16119870976526179 0 0.1681453618312011 -0.16870708613893129 0 0.15438358984087761 -0.16681526513507461 0 0.15901421514929279 -0.17490695601163531 0 0.1681453618312011 -0.16870708613893129 0 0.1632605781546366 -0.14974645590444771 0 0.1768116023582888 -0.16793795145475099 0 0.16298457853711951 -0.16119870976526179 0 0.1768116023582888 -0.16793795145475099 0 0.16298457853711951 -0.16119870976526179 0 0.1681453618312011 -0.16870708613893129 0 
</DataArray>
</Points>
<Cells>
<DataArray type="UInt32" Name="connectivity" format="ascii">
0 1 2 3 4 5 6 7 8 9 10 11 12 13 14 15 16 17 18 19 20 21 22 23 24 25 26 27 28 29 30 31 32 33 34 35 36 37 38 39 40 41 42 43 44 45 46 47 48 49 50 51 52 53 54 55 56 57 58 59 60 61 62 63 64 65 66 67 68 69 70 71 72 73 74 75 76 77 78 79 80 81 82 83 84 85 86 87 88 89 90 91 92 93 94 95 96 97 98 99 100 101 102 103 104 105 106 107 108 109 110 111 112 113 114 115 116 117 118 119 120 121 122 123 124 125 126 127 128 129 130 131 132 133 134 135 136 137 138 139 140 141 142 143 144 145 146 147 148 149 150 151 152 153 154 155 156 157 158 159 160 161 162 163 164 165 166 167 168 169 170 171 172 173 174 175 176 177 178 179 180 181 182 183 184 185 186 187 188 189 190 191 192 193 194 195 196 197 198 199 200 201 202 203 204 205 206 207 208 209 210 211 212 213 214 215 216 217 218 219 220 221 222 223 224 225 226 227 228 229 230 231 232 233 234 235 236 237 238 239 240 241 242 243 244 245 246 247 248 249 250 251 252 253 254 255 256 257 258 259 260 261 262 263 264 265 266 267 268 269 270 271 272 273 274 275 276 277 278 279 280 281 282 283 284 285 286 287 288 289 290 291 292 293 294 295 296 297 298 299 300 301 302 303 304 305 306 307 308 309 310 311 312 313 314 315 316 317 318 319 320 321 322 323 324 325 326 327 328 329 330 331 332 333 334 335 336 337 338 339 340 341 342 343 344 345 346 347 348 349 350 351 352 353 354 355 356 357 358 359 360 361 362 363 364 365 366 367 368 369 370 371 372 373 374 375 376 377 378 379 380 381 382 383 384 385 386 387 388 389 390 391 392 393 394 395 396 397 398 399 400 401 402 403 404 405 406 407 408 409 410 411 412 413 414 415 416 417 418 419 420 421 422 423 424 425 426 427 428 429 430 431 432 433 434 435 436 437 438 439 440 441 442 443 444 445 446 447 448 449 450 451 452 453 454 455 456 457 458 459 460 461 462 463 464 465 466 467 468 469 470 471 472 473 474 475 476 477 478 479 480 481 482 483 484 485 486 487 488 489 490 491 492 493 494 495 496 497 498 499 500 501 502 503 504 505 506 507 508 509 510 511 512 513 514 515 516 517 518 519 520 521 522 523 524 525 526 527 528 529 530 531 532 533 534 535 536 537 538 539 540 541 542 543 544 545 546 547 548 549 550 551 552 553 554 555 556 557 558 559 560 561 562 563 564 565 566 567 568 569 570 571 572 573 574 575 576 577 578 579 580 581 582 583 584 585 586 587 588 589 590 591 592 593 594 595 596 597 598 599 600 601 602 603 604 605 606 607 608 609 610 611 612 613 614 615 616 617 618 619 620 621 622 623 624 625 626 627 628 629 630 631 632 633 634 635 636 637 638 639 640 641 642 643 644 645 646 647 648 649 650 651 652 653 654 655 656 657 658 659 660 661 662 663 664 665 666 667 668 669 670 671 672 673 674 675 676 677 678 679 680 681 682 683 684 685 686 687 688 689 690 691 692 693 694 695 696 697 698 699 700 701 702 703 704 705 706 707 708 709 710 711 712 713 714 715 716 717 718 719 720 721 722 723 724 725 726 727 728 729 730 731 732 733 734 735 736 737 738 739 740 741 742 743 744 745 746 747 748 749 750 751 752 753 754 755 756 757 758 759 760 761 762 763 764 765 766 767 768 769 770 771 772 773 774 775 776 777 778 779 780 781 782 783 784 785 786 787 788 789 790 791 792 793 794 795 796 797 798 799 800 801 802 803 804 805 806 807 808 809 810 811 812 813 814 815 816 817 818 819 820 821 822 823 824 825 826 827 828 829 830 831 832 833 834 835 836 837 838 839 840 841 842 843 844 845 846 847 848 849 850 851 852 853 854 855 856 857 858 859 860 861 862 863 864 865 866 867 868 869 870 871 872 873 874 875 876 877 878 879 880 881 882 883 884 885 886 887 888 889 890 891 892 893 894 895 896 897 898 899 900 901 902 903 904 905 906 907 908 909 910 911 912 913 914 915 916 917 918 919 920 921 922 923 924 925 926 927 928 929 930 931 932 933 934 935 936 937 938 939 940 941 942 943 944 945 946 947 948 949 950 951 952 953 954 955 956 957 958 959 960 961 962 963 964 965 966 967 968 969 970 971 972 973 974 975 976 977 978 979 980 981 982 983 984 985 986 987 988 989 990 991 992 993 994 995 996 997 998 999 1000 1001 1002 1003 1004 1005 1006 1007 1008 1009 1010 1011 1012 1013 1014 1015 1016 1017 1018 1019 1020 1021 1022 1023 1024 1025 1026 1027 1028 1029 1030 1031 1032 1033 1034 1035 1036 1037 1038 1039 1040 1041 1042 1043 1044 1045 1046 1047 1048 1049 1050 1051 1052 1053 1054 1055 1056 1057 1058 1059 1060 1061 1062 1063 1064 1065 1066 1067 1068 1069 1070 1071 1072 1073 1074 1075 1076 1077 1078 1079 1080 1081 1082 1083 1084 1085 1086 1087 1088 1089 1090 1091 1092 1093 1094 1095 1096 1097 1098 1099 1100 1101 1102 1103 1104 1105 1106 1107 1108 1109 1110 1111 1112 1113 1114 1115 1116 1117 1118 1119 1120 1121 1122 1123 1124 1125 1126 1127 1128 1129 1130 1131 1132 1133 1134 1135 1136 1137 1138 1139 1140 1141 1142 1143 1144 1145 1146 1147 1148 1149 1150 1151 1152 1153 1154 1155 1156 1157 1158 1159 1160 1161 1162 1163 1164 1165 1166 1167 1168 1169 1170 1171 1172 1173 1174 1175 1176 1177 1178 1179 1180 1181 1182 1183 1184 1185 1186 1187 1188 1189 1190 1191 1192 1193 1194 1195 1196 1197 1198 1199 1200 1201 1202 1203 1204 1205 1206 1207 1208 1209 1210 1211 1212 1213 1214 1215 1216 1217 1218 1219 1220 1221 1222 1223 1224 1225 1226 1227 1228 1229 1230 1231 1232 1233 1234 1235 1236 1237 1238 1239 1240 1241 1242 1243 1244 1245 1246 1247 1248 1249 1250 1251 1252 1253 1254 1255 1256 1257 1258 1259 1260 1261 1262 1263 1264 1265 1266 1267 1268 1269 1270 1271 1272 1273 1274 1275 1276 1277 1278 1279 1280 1281 1282 1283 1284 1285 1286 1287 1288 1289 1290 1291 1292 1293 1294 1295 1296 1297 1298 1299 1300 1301 1302 1303 1304 1305 1306 1307 1308 1309 1310 1311 1312 1313 1314 1315 1316 1317 1318 1319 1320 1321 1322 1323 1324 1325 1326 1327 1328 1329 1330 1331 1332 1333 1334 1335 1336 1337 1338 1339 1340 1341 1342 1343 1344 1345 1346 1347 1348 1349 1350 1351 1352 1353 1354 1355 1356 1357 1358 1359 1360 1361 1362 1363 1364 1365 1366 1367 1368 1369 1370 1371 1372 1373 1374 1375 1376 1377 1378 1379 1380 1381 1382 1383 1384 1385 1386 1387 1388 1389 1390 1391 1392 1393 1394 1395 1396 1397 1398 1399 1400 1401 1402 1403 1404 1405 1406 1407 1408 1409 1410 1411 1412 1413 1414 1415 1416 1417 1418 1419 1420 1421 1422 1423 1424 1425 1426 1427 1428 1429 1430 1431 1432 1433 1434 1435 1436 1437 1438 1439 1440 1441 1442 1443 1444 1445 1446 1447 1448 1449 1450 1451 1452 1453 1454 1455 1456 1457 1458 1459 1460 1461 1462 1463 1464 1465 1466 1467 1468 1469 1470 1471 1472 1473 1474 1475 1476 1477 1478 1479 1480 1481 1482 1483 1484 1485 1486 1487 1488 1489 1490 1491 1492 1493 1494 1495 1496 1497 1498 1499 1500 1501 1502 1503 1504 1505 1506 1507 1508 1509 1510 1511 1512 1513 1514 1515 1516 1517 1518 1519 1520 1521 1522 1523 1524 1525 1526 1527 1528 1529 1530 1531 1532 1533 1534 1535 1536 1537 1538 1539 1540 1541 1542 1543 1544 1545 1546 1547 1548 1549 1550 1551 1552 1553 1554 1555 1556 1557 1558 1559 1560 1561 1562 1563 1564 1565 1566 1567 1568 1569 1570 1571 1572 1573 1574 1575 1576 1577 1578 1579 1580 1581 1582 1583 1584 1585 1586 1587 1588 1589 1590 1591 1592 1593 1594 1595 1596 1597 1598 1599 1600 1601 1602 1603 1604 1605 1606 1607 1608 1609 1610 1611 1612 1613 1614 1615 1616 1617 1618 1619 1620 1621 1622 1623 1624 1625 1626 1627 1628 1629 1630 1631 1632 1633 1634 1635 1636 1637 1638 1639 1640 1641 1642 1643 1644 1645 1646 1647 1648 1649 1650 1651 1652 1653 1654 1655 1656 1657 1658 1659 1660 1661 1662 1663 1664 1665 1666 1667 1668 1669 1670 1671 1672 1673 1674 1675 1676 1677 1678 1679 1680 1681 1682 1683 1684 1685 1686 1687 1688 1689 1690 1691 1692 1693 1694 1695 1696 1697 1698 1699 1700 1701 1702 1703 1704 1705 1706 1707 1708 1709 1710 1711 1712 1713 1714 1715 1716 1717 1718 1719 1720 1721 1722 1723 1724 1725 1726 1727 1728 1729 1730 1731 1732 1733 1734 1735 1736 1737 1738 1739 1740 1741 1742 1743 1744 1745 1746 1747 1748 1749 1750 1751 1752 1753 1754 1755 1756 1757 1758 1759 1760 1761 1762 1763 1764 1765 1766 1767 1768 1769 1770 1771 1772 1773 1774 1775 1776 1777 1778 1779 1780 1781 1782 1783 1784 1785 1786 1787 1788 1789 1790 1791 1792 1793 1794 1795 1796 1797 1798 1799 1800 1801 1802 1803 1804 1805 1806 1807 1808 1809 1810 1811 1812 1813 1814 1815 1816 1817 1818 1819 1820 1821 1822 1823 1824 1825 1826 1827 1828 1829 1830 1831 1832 1833 1834 1835 1836 1837 1838 1839 1840 1841 1842 1843 1844 1845 1846 1847 1848 1849 1850 1851 1852 1853 1854 1855 1856 1857 1858 1859 1860 1861 1862 1863 1864 1865 1866 1867 1868 1869 1870 1871 1872 1873 1874 1875 1876 1877 1878 1879 1880 1881 1882 1883 1884 1885 1886 1887 1888 1889 1890 1891 1892 1893 1894 1895 1896 1897 1898 1899 1900 1901 1902 1903 1904 1905 1906 1907 1908 1909 1910 1911 1912 1913 1914 1915 1916 1917 1918 1919 1920 1921 1922 1923 1924 1925 1926 1927 1928 1929 1930 1931 1932 1933 1934 1935 1936 1937 1938 1939 1940 1941 1942 1943 1944 1945 1946 1947 1948 1949 1950 1951 1952 1953 1954 1955 1956 1957 1958 1959 1960 1961 1962 1963 1964 1965 1966 1967 1968 1969 1970 1971 1972 1973 1974 1975 1976 1977 1978 1979 1980 1981 1982 1983 1984 1985 1986 1987 1988 1989 1990 1991 1992 1993 1994 1995 1996 1997 1998 1999 2000 2001 2002 2003 2004 2005 2006 2007 2008 2009 2010 2011 2012 2013 2014 2015 2016 2017 2018 2019 2020 2021 2022 2023 2024 2025 2026 2027 2028 2029 2030 2031 2032 2033 2034 2035 2036 2037 2038 2039 2040 2041 2042 2043 2044 2045 2046 2047 2048 2049 2050 2051 2052 2053 2054 2055 2056 2057 2058 2059 2060 2061 2062 2063 2064 2065 2066 2067 2068 2069 2070 2071 2072 2073 2074 2075 2076 2077 2078 2079 2080 2081 2082 2083 2084 2085 2086 2087 2088 2089 2090 2091 2092 2093 2094 2095 2096 2097 2098 2099 2100 2101 2102 2103 2104 2105 2106 2107 2108 2109 2110 2111 2112 2113 2114 2115 2116 2117 2118 2119 2120 2121 2122 2123 2124 2125 2126 2127 2128 2129 2130 2131 2132 2133 2134 2135 2136 2137 2138 2139 2140 2141 2142 2143 2144 2145 2146 2147 2148 2149 2150 2151 2152 2153 2154 2155 2156 2157 2158 2159 2160 2161 2162 2163 2164 2165 2166 2167 2168 2169 2170 2171 2172 2173 2174 2175 2176 2177 2178 2179 2180 2181 2182 2183 2184 2185 2186 2187 2188 2189 2190 2191 2192 2193 2194 2195 2196 2197 2198 2199 2200 2201 2202 2203 2204 2205 2206 2207 2208 2209 2210 2211 2212 2213 2214 2215 2216 2217 2218 2219 2220 2221 2222 2223 2224 2225 2226 2227 2228 2229 2230 2231 2232 2233 2234 2235 2236 2237 2238 2239 2240 2241 2242 2243 2244 2245 2246 2247 2248 2249 2250 2251 2252 2253 2254 2255 2256 2257 2258 2259 2260 2261 2262 2263 2264 2265 2266 2267 2268 2269 2270 2271 2272 2273 2274 2275 2276 2277 2278 2279 2280 2281 2282 2283 2284 2285 2286 2287 2288 2289 2290 2291 2292 2293 2294 2295 2296 2297 2298 2299 2300 2301 2302 2303 2304 2305 2306 2307 2308 2309 2310 2311 2312 2313 2314 2315 2316 2317 2318 2319 2320 2321 2322 2323 2324 2325 2326 2327 2328 2329 2330 2331 2332 2333 2334 2335 2336 2337 2338 2339 2340 2341 2342 2343 2344 2345 2346 2347 2348 2349 2350 2351 2352 2353 2354 2355 2356 2357 2358 2359 2360 2361 2362 2363 2364 2365 2366 2367 2368 2369 2370 2371 2372 2373 2374 2375 2376 2377 2378 2379 2380 2381 2382 2383 2384 2385 2386 2387 2388 2389 2390 2391 2392 2393 2394 2395 2396 2397 2398 2399 2400 2401 2402 2403 2404 2405 2406 2407 2408 2409 2410 2411 2412 2413 2414 2415 2416 2417 2418 2419 2420 2421 2422 2423 2424 2425 2426 2427 2428 2429 2430 2431 2432 2433 2434 2435 2436 2437 2438 2439 2440 2441 2442 2443 2444 2445 2446 2447 2448 2449 2450 2451 2452 2453 2454 2455 2456 2457 2458 2459 2460 2461 2462 2463 2464 2465 2466 2467 2468 2469 2470 2471 2472 2473 2474 2475 2476 2477 2478 2479 2480 2481 2482 2483 2484 2485 2486 2487 2488 2489 2490 2491 2492 2493 2494 2495 2496 2497 2498 2499 2500 2501 2502 2503 2504 2505 2506 2507 2508 2509 2510 2511 2512 2513 2514 2515 2516 2517 2518 2519 2520 2521 2522 2523 2524 2525 2526 2527 2528 2529 2530 2531 2532 2533 2534 2535 2536 2537 2538 2539 2540 2541 2542 2543 2544 2545 2546 2547 2548 2549 2550 2551 2552 2553 2554 2555 2556 2557 2558 2559 2560 2561 2562 2563 2564 2565 2566 2567 2568 2569 2570 2571 2572 2573 2574 2575 2576 2577 2578 2579 2580 2581 2582 2583 2584 2585 2586 2587 2588 2589 2590 2591 2592 2593 2594 2595 2596 2597 2598 2599 2600 2601 2602 2603 2604 2605 2606 2607 2608 2609 2610 2611 2612 2613 2614 2615 2616 2617 2618 2619 2620 2621 2622 2623 2624 2625 2626 2627 2628 2629 2630 2631 2632 2633 2634 2635 2636 2637 2638 2639 2640 2641 2642 2643 2644 2645 2646 2647 2648 2649 2650 2651 2652 2653 2654 2655 2656 2657 2658 2659 2660 2661 2662 2663 2664 2665 2666 2667 2668 2669 2670 2671 2672 2673 2674 2675 2676 2677 2678 2679 2680 2681 2682 2683 2684 2685 2686 2687 2688 2689 2690 2691 2692 2693 2694 2695 2696 2697 2698 2699 2700 2701 2702 2703 2704 2705 2706 2707 2708 2709 2710 2711 2712 2713 2714 2715 2716 2717 2718 2719 2720 2721 2722 2723 2724 2725 2726 2727 2728 2729 2730 2731 2732 2733 2734 2735 2736 2737 2738 2739 2740 2741 2742 2743 2744 2745 2746 2747 2748 2749 2750 2751 2752 2753 2754 2755 2756 2757 2758 2759 2760 2761 2762 2763 2764 2765 2766 2767 2768 2769 2770 2771 2772 2773 2774 2775 2776 2777 2778 2779 2780 2781 2782 2783 2784 2785 2786 2787 2788 2789 2790 2791 2792 2793 2794 2795 2796 2797 2798 2799 2800 2801 2802 2803 2804 2805 2806 2807 2808 2809 2810 2811 2812 2813 2814 2815 2816 2817 2818 2819 2820 2821 2822 2823 2824 2825 2826 2827 2828 2829 2830 2831 2832 2833 2834 2835 2836 2837 2838 2839 2840 2841 2842 2843 2844 2845 2846 2847 2848 2849 2850 2851 2852 2853 2854 2855 2856 2857 2858 2859 2860 2861 2862 2863 2864 2865 2866 2867 2868 2869 2870 2871 2872 2873 2874 2875 2876 2877 2878 2879 2880 2881 2882 2883 2884 2885 2886 2887 2888 2889 2890 2891 2892 2893 2894 2895 2896 2897 2898 2899 2900 2901 2902 2903 2904 2905 2906 2907 2908 2909 2910 2911 2912 2913 2914 2915 2916 2917 2918 2919 2920 2921 2922 2923 2924 2925 2926 2927 2928 2929 2930 2931 2932 2933 2934 2935 2936 2937 2938 2939 2940 2941 2942 2943 2944 2945 2946 2947 2948 2949 2950 2951 2952 2953 2954 2955 2956 2957 2958 2959 2960 2961 2962 2963 2964 2965 2966 2967 2968 2969 2970 2971 2972 2973 2974 2975 2976 2977 2978 2979 2980 2981 2982 2983 2984 2985 2986 2987 2988 2989 2990 2991 2992 2993 2994 2995 2996 2997 2998 2999 3000 3001 3002 3003 3004 3005 3006 3007 3008 3009 3010 3011 3012 3013 3014 3015 3016 3017 3018 3019 3020 3021 3022 3023 3024 3025 3026 3027 3028 3029 3030 3031 3032 3033 3034 3035 3036 3037 3038 3039 3040 3041 3042 3043 3044 3045 3046 3047 3048 3049 3050 3051 3052 3053 3054 3055 3056 3057 3058 3059 3060 3061 3062 3063 3064 3065 3066 3067 3068 3069 3070 3071 3072 3073 3074 3075 3076 3077 3078 3079 3080 3081 3082 3083 3084 3085 3086 3087 3088 3089 3090 3091 3092 3093 3094 3095 3096 3097 3098 3099 3100 3101 3102 3103 3104 3105 3106 3107 3108 3109 3110 3111 3112 3113 3114 3115 3116 3117 3118 3119 3120 3121 3122 3123 3124 3125 3126 3127 3128 3129 3130 3131 3132 3133 3134 3135 3136 3137 3138 3139 3140 3141 3142 3143 3144 3145 3146 3147 3148 3149 3150 3151 3152 3153 3154 3155 3156 3157 3158 3159 3160 3161 3162 3163 3164 3165 3166 3167 3168 3169 3170 3171 3172 3173 3174 3175 3176 3177 3178 3179 3180 3181 3182 3183 3184 3185 3186 3187 3188 3189 3190 3191 3192 3193 3194 3195 3196 3197 3198 3199 3200 3201 3202 3203 3204 3205 3206 3207 3208 3209 3210 3211 3212 3213 3214 3215 3216 3217 3218 3219 3220 3221 3222 3223 3224 3225 3226 3227 3228 3229 3230 3231 3232 3233 3234 3235 3236 3237 3238 3239 3240 3241 3242 3243 3244 3245 3246 3247 3248 3249 3250 3251 3252 3253 3254 3255 3256 3257 3258 3259 3260 3261 3262 3263 3264 3265 3266 3267 3268 3269 3270 3271 3272 3273 3274 3275 3276 3277 3278 3279 3280 3281 3282 3283 3284 3285 3286 3287 3288 3289 3290 3291 3292 3293 3294 3295 3296 3297 3298 3299 3300 3301 3302 3303 3304 3305 3306 3307 3308 3309 3310 3311 3312 3313 3314 3315 3316 3317 3318 3319 3320 3321 3322 3323 3324 3325 3326 3327 3328 3329 3330 3331 3332 3333 3334 3335 3336 3337 3338 3339 3340 3341 3342 3343 3344 3345 3346 3347 3348 3349 3350 3351 3352 3353 3354 3355 3356 3357 3358 3359 3360 3361 3362 3363 3364 3365 3366 3367 3368 3369 3370 3371 3372 3373 3374 3375 3376 3377 3378 3379 3380 3381 3382 3383 3384 3385 3386 3387 3388 3389 3390 3391 3392 3393 3394 3395 3396 3397 3398 3399 3400 3401 3402 3403 3404 3405 3406 3407 3408 3409 3410 3411 3412 3413 3414 3415 3416 3417 3418 3419 3420 3421 3422 3423 3424 3425 3426 3427 3428 3429 3430 3431 3432 3433 3434 3435 3436 3437 3438 3439 3440 3441 3442 3443 3444 3445 3446 3447 3448 3449 3450 3451 3452 3453 3454 3455 3456 3457 3458 3459 3460 3461 3462 3463 3464 3465 3466 3467 3468 3469 3470 3471 3472 3473 3474 3475 3476 3477 3478 3479 3480 3481 3482 3483 3484 3485 3486 3487 3488 3489 3490 3491 3492 3493 3494 3495 3496 3497 3498 3499 3500 3501 3502 3503 3504 3505 3506 3507 3508 3509 3510 3511 3512 3513 3514 3515 3516 3517 3518 3519 3520 3521 3522 3523 3524 3525 3526 3527 3528 3529 3530 3531 3532 3533 3534 3535 3536 3537 3538 3539 3540 3541 3542 3543 3544 3545 3546 3547 3548 3549 3550 3551 3552 3553 3554 3555 3556 3557 3558 3559 3560 3561 3562 3563 3564 3565 3566 3567 3568 3569 3570 3571 3572 3573 3574 3575 3576 3577 3578 3579 3580 3581 3582 3583 3584 3585 3586 3587 3588 3589 3590 3591 3592 3593 3594 3595 3596 3597 3598 3599 3600 3601 3602 3603 3604 3605 3606 3607 3608 3609 3610 3611 3612 3613 3614 3615 3616 3617 3618 3619 3620 3621 3622 3623 3624 3625 3626 3627 3628 3629 3630 3631 3632 3633 3634 3635 3636 3637 3638 3639 3640 3641 3642 3643 3644 3645 3646 3647 3648 3649 3650 3651 3652 3653 3654 3655 3656 3657 3658 3659 3660 3661 3662 3663 3664 3665 3666 3667 3668 3669 3670 3671 3672 3673 3674 3675 3676 3677 3678 3679 3680 3681 3682 3683 3684 3685 3686 3687 3688 3689 3690 3691 3692 3693 3694 3695 3696 3697 3698 3699 3700 3701 3702 3703 3704 3705 3706 3707 3708 3709 3710 3711 3712 3713 3714 3715 3716 3717 3718 3719 3720 3721 3722 3723 3724 3725 3726 3727 3728 3729 3730 3731 3732 3733 3734 3735 3736 3737 3738 3739 3740 3741 3742 3743 3744 3745 3746 3747 3748 3749 3750 3751 3752 3753 3754 3755 3756 3757 3758 3759 3760 3761 3762 3763 3764 3765 3766 3767 3768 3769 3770 3771 3772 3773 3774 3775 3776 3777 3778 3779 3780 3781 3782 3783 3784 3785 3786 3787 3788 3789 3790 3791 3792 3793 3794 3795 3796 3797 3798 3799 3800 3801 3802 3803 3804 3805 3806 3807 3808 3809 3810 3811 3812 3813 3814 3815 3816 3817 3818 3819 3820 3821 3822 3823 3824 3825 3826 3827 3828 3829 3830 3831 3832 3833 3834 3835 3836 3837 3838 3839 3840 3841 3842 3843 3844 3845 3846 3847 3848 3849 3850 3851 3852 3853 3854 3855 3856 3857 3858 3859 3860 3861 3862 3863 3864 3865 3866 3867 3868 3869 3870 3871 3872 3873 3874 3875 3876 3877 3878 3879 3880 3881 3882 3883 3884 3885 3886 3887 3888 3889 3890 3891 3892 3893 3894 3895 3896 3897 3898 3899 3900 3901 3902 3903 3904 3905 3906 3907 3908 3909 3910 3911 3912 3913 3914 3915 3916 3917 3918 3919 3920 3921 3922 3923 3924 3925 3926 3927 3928 3929 3930 3931 3932 3933 3934 3935 3936 3937 3938 3939 3940 3941 3942 3943 3944 3945 3946 3947 3948 3949 3950 3951 3952 3953 3954 3955 3956 3957 3958 3959 3960 3961 3962 3963 3964 3965 3966 3967 3968 3969 3970 3971 3972 3973 3974 3975 3976 3977 3978 3979 3980 3981 3982 3983 3984 3985 3986 3987 3988 3989 3990 3991 3992 3993 3994 3995 3996 3997 3998 3999 4000 4001 4002 4003 4004 4005 4006 4007 4008 4009 4010 4011 4012 4013 4014 4015 4016 4017 4018 4019 4020 4021 4022 4023 4024 4025 4026 4027 4028 4029 4030 4031 4032 4033 4034 4035 4036 4037 4038 4039 4040 4041 4042 4043 4044 4045 4046 4047 4048 4049 4050 4051 4052 4053 4054 4055 4056 4057 4058 4059 4060 4061 4062 4063 4064 4065 4066 4067 4068 4069 4070 4071 4072 4073 4074 4075 4076 4077 4078 4079 4080 4081 4082 4083 4084 4085 4086 4087 4088 4089 4090 4091 4092 4093 4094 4095 4096 4097 4098 4099 4100 4101 4102 4103 4104 4105 4106 4107 4108 4109 4110 4111 4112 4113 4114 4115 4116 4117 4118 4119 4120 4121 4122 4123 4124 4125 4126 4127 4128 4129 4130 4131 4132 4133 4134 4135 4136 4137 4138 4139 4140 4141 4142 4143 4144 4145 4146 4147 4148 4149 4150 4151 4152 4153 4154 4155 4156 4157 4158 4159 4160 4161 4162 4163 4164 4165 4166 4167 4168 4169 4170 4171 4172 4173 4174 4175 4176 4177 4178 4179 4180 4181 4182 4183 4184 4185 4186 4187 4188 4189 4190 4191 4192 4193 4194 4195 4196 4197 4198 4199 4200 4201 4202 4203 4204 4205 4206 4207 4208 4209 4210 4211 4212 4213 4214 4215 4216 4217 4218 4219 4220 4221 4222 4223 4224 4225 4226 4227 4228 4229 4230 4231 4232 4233 4234 4235 4236 4237 4238 4239 4240 4241 4242 4243 4244 4245 4246 4247 4248 4249 4250 4251 4252 4253 4254 4255 4256 4257 4258 4259 4260 4261 4262 4263 4264 4265 4266 4267 4268 4269 4270 4271 4272 4273 4274 4275 4276 4277 4278 4279 4280 4281 4282 4283 4284 4285 4286 4287 4288 4289 4290 4291 4292 4293 4294 4295 4296 4297 4298 4299 4300 4301 4302 4303 4304 4305 4306 4307 4308 4309 4310 4311 4312 4313 4314 4315 4316 4317 4318 4319 4320 4321 4322 4323 4324 4325 4326 4327 4328 4329 4330 4331 4332 4333 4334 4335 4336 4337 4338 4339 4340 4341 4342 4343 4344 4345 4346 4347 4348 4349 4350 4351 4352 4353 4354 4355 4356 4357 4358 4359 4360 4361 4362 4363 4364 4365 4366 4367 4368 4369 4370 4371 4372 4373 4374 4375 4376 4377 4378 4379 4380 4381 4382 4383 4384 4385 4386 4387 4388 4389 4390 4391 4392 4393 4394 4395 4396 4397 4398 4399 4400 4401 4402 4403 4404 4405 4406 4407 4408 4409 4410 4411 4412 4413 4414 4415 4416 4417 4418 4419 4420 4421 4422 4423 4424 4425 4426 4427 4428 4429 4430 4431 4432 4433 4434 4435 4436 4437 4438 4439 4440 4441 4442 4443 4444 4445 4446 4447 4448 4449 4450 4451 4452 4453 4454 4455 4456 4457 4458 4459 4460 4461 4462 4463 4464 4465 4466 4467 4468 4469 4470 4471 4472 4473 4474 4475 4476 4477 4478 4479 4480 4481 4482 4483 4484 4485 4486 4487 4488 4489 4490 4491 4492 4493 4494 4495 4496 4497 4498 4499 4500 4501 4502 4503 4504 4505 4506 4507 4508 4509 4510 4511 4512 4513 4514 4515 4516 4517 4518 4519 4520 4521 4522 4523 4524 4525 4526 4527 4528 4529 4530 4531 4532 4533 4534 4535 4536 4537 4538 4539 4540 4541 4542 4543 4544 4545 4546 4547 4548 4549 4550 4551 4552 4553 4554 4555 4556 4557 4558 4559 4560 4561 4562 4563 4564 4565 4566 4567 4568 4569 4570 4571 4572 4573 4574 4575 4576 4577 4578 4579 4580 4581 4582 4583 4584 4585 4586 4587 4588 4589 4590 4591 4592 4593 4594 4595 4596 4597 4598 4599 4600 4601 4602 4603 4604 4605 4606 4607 4608 4609 4610 4611 4612 4613 4614 4615 4616 4617 4618 4619 4620 4621 4622 4623 4624 4625 4626 4627 4628 4629 4630 4631 4632 4633 4634 4635 4636 4637 4638 4639 4640 4641 4642 4643 4644 4645 4646 4647 4648 4649 4650 4651 4652 4653 4654 4655 4656 4657 4658 4659 4660 4661 4662 4663 4664 4665 4666 4667 4668 4669 4670 4671 4672 4673 4674 4675 4676 4677 4678 4679 4680 4681 4682 4683 4684 4685 4686 4687 4688 4689 4690 4691 4692 4693 4694 4695 4696 4697 4698 4699 4700 4701 4702 4703 4704 4705 4706 4707 4708 4709 4710 4711 4712 4713 4714 4715 4716 4717 4718 4719 4720 4721 4722 4723 4724 4725 4726 4727 4728 4729 4730 4731 4732 4733 4734 4735 4736 4737 4738 4739 4740 4741 4742 4743 4744 4745 4746 4747 4748 4749 4750 4751 4752 4753 4754 4755 4756 4757 4758 4759 4760 4761 4762 4763 4764 4765 4766 4767 4768 4769 4770 4771 4772 4773 4774 4775 4776 4777 4778 4779 4780 4781 4782 4783 4784 4785 4786 4787 4788 4789 4790 4791 4792 4793 4794 4795 4796 4797 4798 4799 4800 4801 4802 4803 4804 4805 4806 4807 4808 4809 4810 4811 4812 4813 4814 4815 4816 4817 4818 4819 4820 4821 4822 4823 4824 4825 4826 4827 4828 4829 4830 4831 4832 4833 4834 4835 4836 4837 4838 4839 4840 4841 4842 4843 4844 4845 4846 4847 4848 4849 4850 4851 4852 4853 4854 4855 4856 4857 4858 4859 4860 4861 4862 4863 4864 4865 4866 4867 4868 4869 4870 4871 4872 4873 4874 4875 4876 4877 4878 4879 4880 4881 4882 4883 4884 4885 4886 4887 4888 4889 4890 4891 4892 4893 4894 4895 4896 4897 4898 4899 4900 4901 4902 4903 4904 4905 4906 4907 4908 4909 4910 4911 4912 4913 4914 4915 4916 4917 4918 4919 4920 4921 4922 4923 4924 4925 4926 4927 4928 4929 4930 4931 4932 4933 4934 4935 4936 4937 4938 4939 4940 4941 4942 4943 4944 4945 4946 4947 4948 4949 4950 4951 4952 4953 4954 4955 4956 4957 4958 4959 4960 4961 4962 4963 4964 4965 4966 4967 4968 4969 4970 4971 4972 4973 4974 4975 4976 4977 4978 4979 4980 4981 4982 4983 4984 4985 4986 4987 4988 4989 4990 4991 4992 4993 4994 4995 4996 4997 4998 4999 5000 5001 5002 5003 5004 5005 5006 5007 5008 5009 5010 5011 5012 5013 5014 5015 5016 5017 5018 5019 5020 5021 5022 5023 5024 5025 5026 5027 5028 5029 5030 5031 5032 5033 5034 5035 5036 5037 5038 5039 5040 5041 5042 5043 5044 5045 5046 5047 5048 5049 5050 5051 5052 5053 5054 5055 5056 5057 5058 5059 5060 5061 5062 5063 5064 5065 5066 5067 5068 5069 5070 5071 5072 5073 5074 5075 5076 5077 5078 5079 5080 5081 5082 5083 5084 5085 5086 5087 5088 5089 5090 5091 5092 5093 5094 5095 5096 5097 5098 5099 5100 5101 5102 5103 5104 5105 5106 5107 5108 5109 5110 5111 5112 5113 5114 5115 5116 5117 5118 5119 5120 5121 5122 5123 5124 5125 5126 5127 5128 5129 5130 5131 5132 5133 5134 5135 5136 5137 5138 5139 5140 5141 5142 5143 5144 5145 5146 5147 5148 5149 5150 5151 5152 5153 5154 5155 5156 5157 5158 5159 5160 5161 5162 5163 5164 5165 5166 5167 5168 5169 5170 5171 5172 5173 5174 5175 5176 5177 5178 5179 5180 5181 5182 5183 5184 5185 5186 5187 5188 5189 5190 5191 5192 5193 5194 5195 5196 5197 5198 5199 5200 5201 5202 5203 5204 5205 5206 5207 5208 5209 5210 5211 5212 5213 5214 5215 5216 5217 5218 5219 5220 5221 5222 5223 5224 5225 5226 5227 5228 5229 5230 5231 5232 5233 5234 5235 5236 5237 5238 5239 5240 5241 5242 5243 5244 5245 5246 5247 5248 5249 5250 5251 5252 5253 5254 5255 5256 5257 5258 5259 5260 5261 5262 5263 5264 5265 5266 5267 5268 5269 5270 5271 5272 5273 5274 5275 5276 5277 5278 5279 5280 5281 5282 5283 5284 5285 5286 5287 5288 5289 5290 5291 5292 5293 5294 5295 5296 5297 5298 5299 5300 5301 5302 5303 5304 5305 5306 5307 5308 5309 5310 5311 5312 5313 5314 5315 5316 5317 5318 5319 5320 5321 5322 5323 5324 5325 5326 5327 5328 5329 5330 5331 5332 5333 5334 5335 5336 5337 5338 5339 5340 5341 5342 5343 5344 5345 5346 5347 5348 5349 5350 5351 5352 5353 5354 5355 5356 5357 5358 5359 5360 5361 5362 5363 5364 5365 5366 5367 5368 5369 5370 5371 5372 5373 5374 5375 5376 5377 5378 5379 5380 5381 5382 5383 5384 5385 5386 5387 5388 5389 5390 5391 5392 5393 5394 5395 5396 5397 5398 5399 5400 5401 5402 5403 5404 5405 5406 5407 5408 5409 5410 5411 5412 5413 5414 5415 5416 5417 5418 5419 5420 5421 5422 5423 5424 5425 5426 5427 5428 5429 5430 5431 5432 5433 5434 5435 5436 5437 5438 5439 5440 5441 5442 5443 5444 5445 5446 5447 5448 5449 5450 5451 5452 5453 5454 5455 5456 5457 5458 5459 5460 5461 5462 5463 5464 5465 5466 5467 5468 5469 5470 5471 5472 5473 5474 5475 5476 5477 5478 5479 5480 5481 5482 5483 5484 5485 5486 5487 5488 5489 5490 5491 5492 5493 5494 5495 5496 5497 5498 5499 5500 5501 5502 5503 5504 5505 5506 5507 5508 5509 5510 5511 5512 5513 5514 5515 5516 5517 5518 5519 5520 5521 5522 5523 5524 5525 5526 5527 5528 5529 5530 5531 5532 5533 5534 5535 5536 5537 5538 5539 5540 5541 5542 5543 5544 5545 5546 5547 5548 5549 5550 5551 5552 5553 5554 5555 5556 5557 5558 5559 5560 5561 5562 5563 5564 5565 5566 5567 5568 5569 5570 5571 5572 5573 5574 5575 5576 5577 5578 5579 5580 5581 5582 5583 5584 5585 5586 5587 5588 5589 5590 5591 5592 5593 5594 5595 5596 5597 5598 5599 5600 5601 5602 5603 5604 5605 5606 5607 5608 5609 5610 5611 5612 5613 5614 5615 5616 5617 5618 5619 5620 5621 5622 5623 5624 5625 5626 5627 5628 5629 5630 5631 5632 5633 5634 5635 5636 5637 5638 5639 5640 5641 5642 5643 5644 5645 5646 5647 5648 5649 5650 5651 5652 5653 5654 5655 5656 5657 5658 5659 5660 5661 5662 5663 5664 5665 5666 5667 5668 5669 5670 5671 5672 5673 5674 5675 5676 5677 5678 5679 5680 5681 5682 5683 5684 5685 5686 5687 5688 5689 5690 5691 5692 5693 5694 5695 5696 5697 5698 5699 5700 5701 5702 5703 5704 5705 5706 5707 5708 5709 5710 5711 5712 5713 5714 5715 5716 5717 5718 5719 5720 5721 5722 5723 5724 5725 5726 5727 5728 5729 5730 5731 5732 5733 5734 5735 5736 5737 5738 5739 5740 5741 5742 5743 5744 5745 5746 5747 5748 5749 5750 5751 5752 5753 5754 5755 5756 5757 5758 5759 5760 5761 5762 5763 5764 5765 5766 5767 5768 5769 5770 5771 5772 5773 5774 5775 5776 5777 5778 5779 5780 5781 5782 5783 5784 5785 5786 5787 5788 5789 5790 5791 5792 5793 5794 5795 5796 5797 5798 5799 5800 5801 5802 5803 5804 5805 5806 5807 5808 5809 5810 5811 5812 5813 5814 5815 5816 5817 5818 5819 5820 5821 5822 5823 5824 5825 5826 5827 5828 5829 5830 5831 5832 5833 5834 5835 5836 5837 5838 5839 5840 5841 5842 5843 5844 5845 5846 5847 5848 5849 5850 5851 5852 5853 5854 5855 5856 5857 5858 5859 5860 5861 5862 5863 5864 5865 5866 5867 5868 5869 5870 5871 5872 5873 5874 5875 5876 5877 5878 5879 5880 5881 5882 5883 5884 5885 5886 5887 5888 5889 5890 5891 5892 5893 5894 5895 5896 5897 5898 5899 5900 5901 5902 5903 5904 5905 5906 5907 5908 5909 5910 5911 5912 5913 5914 5915 5916 5917 5918 5919 5920 5921 5922 5923 5924 5925 5926 5927 5928 5929 5930 5931 5932 5933 5934 5935 5936 5937 5938 5939 5940 5941 5942 5943 5944 5945 5946 5947 5948 5949 5950 5951 5952 5953 5954 5955 5956 5957 5958 5959 5960 5961 5962 5963 5964 5965 5966 5967 5968 5969 5970 5971 5972 5973 5974 5975 5976 5977 5978 5979 5980 5981 5982 5983 5984 5985 5986 5987 5988 5989 5990 5991 5992 5993 5994 5995 5996 5997 5998 5999 6000 6001 6002 6003 6004 6005 6006 6007 6008 6009 6010 6011 6012 6013 6014 6015 6016 6017 6018 6019 6020 6021 6022 6023 6024 6025 6026 6027 6028 6029 6030 6031 6032 6033 6034 6035 6036 6037 6038 6039 6040 6041 6042 6043 6044 6045 6046 6047 6048 6049 6050 6051 6052 6053 6054 6055 6056 6057 6058 6059 6060 6061 6062 6063 6064 6065 6066 6067 6068 6069 6070 6071 6072 6073 6074 6075 6076 6077 6078 6079 6080 6081 6082 6083 6084 6085 6086 6087 6088 6089 6090 6091 6092 6093 6094 6095 6096 6097 6098 6099 6100 6101 6102 6103 6104 6105 6106 6107 6108 6109 6110 6111 6112 6113 6114 6115 6116 6117 6118 6119 6120 6121 6122 6123 6124 6125 6126 6127 6128 6129 6130 6131 6132 6133 6134 6135 6136 6137 6138 6139 6140 6141 6142 6143 6144 6145 6146 6147 6148 6149 6150 6151 6152 6153 6154 6155 6156 6157 6158 6159 6160 6161 6162 6163 6164 6165 6166 6167 6168 6169 6170 6171 6172 6173 6174 6175 6176 6177 6178 6179 6180 6181 6182 6183 6184 6185 6186 6187 6188 6189 6190 6191 6192 6193 6194 6195 6196 6197 6198 6199 6200 6201 6202 6203 6204 6205 6206 6207 6208 6209 6210 6211 6212 6213 6214 6215 6216 6217 6218 6219 6220 6221 6222 6223 6224 6225 6226 6227 6228 6229 6230 6231 6232 6233 6234 6235 6236 6237 6238 6239 6240 6241 6242 6243 6244 6245 6246 6247 6248 6249 6250 6251 6252 6253 6254 6255 6256 6257 6258 6259 6260 6261 6262 6263 6264 6265 6266 6267 6268 6269 6270 6271 6272 6273 6274 6275 6276 6277 6278 6279 6280 6281 6282 6283 6284 6285 6286 6287 6288 6289 6290 6291 6292 6293 6294 6295 6296 6297 6298 6299 6300 6301 6302 6303 6304 6305 6306 6307 6308 6309 6310 6311 6312 6313 6314 6315 6316 6317 6318 6319 6320 6321 6322 6323 6324 6325 6326 6327 6328 6329 6330 6331 6332 6333 6334 6335 6336 6337 6338 6339 6340 6341 6342 6343 6344 6345 6346 6347 6348 6349 6350 6351 6352 6353 6354 6355 6356 6357 6358 6359 6360 6361 6362 6363 6364 6365 6366 6367 6368 6369 6370 6371 6372 6373 6374 6375 6376 6377 6378 6379 6380 6381 6382 6383 6384 6385 6386 6387 6388 6389 6390 6391 6392 6393 6394 6395 6396 6397 6398 6399 6400 6401 6402 6403 6404 6405 6406 6407 6408 6409 6410 6411 6412 6413 6414 6415 6416 6417 6418 6419 6420 6421 6422 6423 6424 6425 6426 6427 6428 6429 6430 6431 6432 6433 6434 6435 6436 6437 6438 6439 6440 6441 6442 6443 6444 6445 6446 6447 6448 6449 6450 6451 6452 6453 6454 6455 6456 6457 6458 6459 6460 6461 6462 6463 6464 6465 6466 6467 6468 6469 6470 6471 6472 6473 6474 6475 6476 6477 6478 6479 6480 6481 6482 6483 6484 6485 6486 6487 6488 6489 6490 6491 6492 6493 6494 6495 6496 6497 6498 6499 6500 6501 6502 6503 6504 6505 6506 6507 6508 6509 6510 6511 6512 6513 6514 6515 6516 6517 6518 6519 6520 6521 6522 6523 6524 6525 6526 6527 6528 6529 6530 6531 6532 6533 6534 6535 6536 6537 6538 6539 6540 6541 6542 6543 6544 6545 6546 6547 6548 6549 6550 6551 6552 6553 6554 6555 6556 6557 6558 6559 6560 6561 6562 6563 6564 6565 6566 6567 6568 6569 6570 6571 6572 6573 6574 6575 6576 6577 6578 6579 6580 6581 6582 6583 6584 6585 6586 6587 6588 6589 6590 6591 6592 6593 6594 6595 6596 6597 6598 6599 6600 6601 6602 6603 6604 6605 6606 6607 6608 6609 6610 6611 6612 6613 6614 6615 6616 6617 6618 6619 6620 6621 6622 6623 6624 6625 6626 6627 6628 6629 6630 6631 6632 6633 6634 6635 6636 6637 6638 6639 6640 6641 6642 6643 6644 6645 6646 6647 6648 6649 6650 6651 6652 6653 6654 6655 6656 6657 6658 6659 6660 6661 6662 6663 6664 6665 6666 6667 6668 6669 6670 6671 6672 6673 6674 6675 6676 6677 6678 6679 6680 6681 6682 6683 6684 6685 6686 6687 6688 6689 6690 6691 6692 6693 6694 6695 6696 6697 6698 6699 6700 6701 6702 6703 6704 6705 6706 6707 6708 6709 6710 6711 6712 6713 6714 6715 6716 6717 6718 6719 6720 6721 6722 6723 6724 6725 6726 6727 6728 6729 6730 6731 6732 6733 6734 6735 6736 6737 6738 6739 6740 6741 6742 6743 6744 6745 6746 6747 6748 6749 6750 6751 6752 6753 6754 6755 6756 6757 6758 6759 6760 6761 6762 6763 6764 6765 6766 6767 6768 6769 6770 6771 6772 6773 6774 6775 6776 6777 6778 6779 6780 6781 6782 6783 6784 6785 6786 6787 6788 6789 6790 6791 6792 6793 6794 6795 6796 6797 6798 6799 6800 6801 6802 6803 6804 6805 6806 6807 6808 6809 6810 6811 6812 6813 6814 6815 6816 6817 6818 6819 6820 6821 6822 6823 6824 6825 6826 6827 6828 6829 6830 6831 6832 6833 6834 6835 6836 6837 6838 6839 6840 6841 6842 6843 6844 6845 6846 6847 6848 6849 6850 6851 6852 6853 6854 6855 6856 6857 6858 6859 6860 6861 6862 6863 6864 6865 6866 6867 6868 6869 6870 6871 6872 6873 6874 6875 6876 6877 6878 6879 6880 6881 6882 6883 6884 6885 6886 6887 6888 6889 6890 6891 6892 6893 6894 6895 6896 6897 6898 6899 6900 6901 6902 6903 6904 6905 6906 6907 6908 6909 6910 6911 6912 6913 6914 6915 6916 6917 6918 6919 6920 6921 6922 6923 6924 6925 6926 6927 6928 6929 6930 6931 6932 6933 6934 6935 6936 6937 6938 6939 6940 6941 6942 6943 6944 6945 6946 6947 6948 6949 6950 6951 6952 6953 6954 6955 6956 6957 6958 6959 6960 6961 6962 6963 6964 6965 6966 6967 6968 6969 6970 6971 6972 6973 6974 6975 6976 6977 6978 6979 6980 6981 6982 6983 6984 6985 6986 6987 6988 6989 6990 6991 6992 6993 6994 6995 6996 6997 6998 6999 7000 7001 7002 7003 7004 7005 7006 7007 7008 7009 7010 7011 7012 7013 7014 7015 7016 7017 7018 7019 7020 7021 7022 7023 7024 7025 7026 7027 7028 7029 7030 7031 7032 7033 7034 7035 7036 7037 7038 7039 7040 7041 7042 7043 7044 7045 7046 7047 7048 7049 7050 7051 7052 7053 7054 7055 7056 7057 7058 7059 7060 7061 7062 7063 7064 7065 7066 7067 7068 7069 7070 7071 7072 7073 7074 7075 7076 7077 7078 7079 7080 7081 7082 7083 7084 7085 7086 7087 7088 7089 7090 7091 7092 7093 7094 7095 7096 7097 7098 7099 7100 7101 7102 7103 7104 7105 7106 7107 7108 7109 7110 7111 7112 7113 7114 7115 7116 7117 7118 7119 7120 7121 7122 7123 7124 7125 7126 7127 7128 7129 7130 7131 7132 7133 7134 7135 7136 7137 7138 7139 7140 7141 7142 7143 7144 7145 7146 7147 7148 7149 7150 7151 7152 7153 7154 7155 7156 7157 7158 7159 7160 7161 7162 7163 7164 7165 7166 7167 7168 7169 7170 7171 7172 7173 7174 7175 7176 7177 7178 7179 7180 7181 7182 7183 7184 7185 7186 7187 7188 7189 7190 7191 7192 7193 7194 7195 7196 7197 7198 7199 7200 7201 7202 7203 7204 7205 7206 7207 7208 7209 7210 7211 7212 7213 7214 7215 7216 7217 7218 7219 7220 7221 7222 7223 7224 7225 7226 7227 7228 7229 7230 7231 7232 7233 7234 7235 7236 7237 7238 7239 7240 7241 7242 7243 7244 7245 7246 7247 7248 7249 7250 7251 7252 7253 7254 7255 7256 7257 7258 7259 7260 7261 7262 7263 7264 7265 7266 7267 7268 7269 7270 7271 7272 7273 7274 7275 7276 7277 7278 7279 7280 7281 7282 7283 7284 7285 7286 7287 7288 7289 7290 7291 7292 7293 7294 7295 7296 7297 7298 7299 7300 7301 7302 7303 7304 7305 7306 7307 7308 7309 7310 7311 7312 7313 7314 7315 7316 7317 7318 7319 7320 7321 7322 7323 7324 7325 7326 7327 7328 7329 7330 7331 7332 7333 7334 7335 7336 7337 7338 7339 7340 7341 7342 7343 7344 7345 7346 7347 7348 7349 7350 7351 7352 7353 7354 7355 7356 7357 7358 7359 7360 7361 7362 7363 7364 7365 7366 7367 7368 7369 7370 7371 7372 7373 7374 7375 7376 7377 7378 7379 7380 7381 7382 7383 7384 7385 7386 7387 7388 7389 7390 7391 7392 7393 7394 7395 7396 7397 7398 7399 7400 7401 7402 7403 7404 7405 7406 7407 7408 7409 7410 7411 7412 7413 7414 7415 7416 7417 7418 7419 7420 7421 7422 7423 7424 7425 7426 7427 7428 7429 7430 7431 7432 7433 7434 7435 7436 7437 7438 7439 7440 7441 7442 7443 7444 7445 7446 7447 7448 7449 7450 7451 7452 7453 7454 7455 7456 7457 7458 7459 7460 7461 7462 7463 7464 7465 7466 7467 7468 7469 7470 7471 7472 7473 7474 7475 7476 7477 7478 7479 7480 7481 7482 7483 7484 7485 7486 7487 7488 7489 7490 7491 7492 7493 7494 7495 7496 7497 7498 7499 7500 7501 7502 7503 7504 7505 7506 7507 7508 7509 7510 7511 7512 7513 7514 7515 7516 7517 7518 7519 7520 7521 7522 7523 7524 7525 7526 7527 7528 7529 7530 7531 7532 7533 7534 7535 7536 7537 7538 7539 7540 7541 7542 7543 7544 7545 7546 7547 7548 7549 7550 7551 7552 7553 7554 7555 7556 7557 7558 7559 7560 7561 7562 7563 7564 7565 7566 7567 7568 7569 7570 7571 7572 7573 7574 7575 7576 7577 7578 7579 7580 7581 7582 7583 7584 7585 7586 7587 7588 7589 7590 7591 7592 7593 7594 7595 7596 7597 7598 7599 7600 7601 7602 7603 7604 7605 7606 7607 7608 7609 7610 7611 7612 7613 7614 7615 7616 7617 7618 7619 7620 7621 7622 7623 7624 7625 7626 7627 7628 7629 7630 7631 7632 7633 7634 7635 7636 7637 7638 7639 7640 7641 7642 7643 7644 7645 7646 7647 7648 7649 7650 7651 7652 7653 7654 7655 7656 7657 7658 7659 7660 7661 7662 7663 7664 7665 7666 7667 7668 7669 7670 7671 7672 7673 7674 7675 7676 7677 7678 7679 7680 7681 7682 7683 7684 7685 7686 7687 7688 7689 7690 7691 7692 7693 7694 7695 7696 7697 7698 7699 7700 7701 7702 7703 7704 7705 7706 7707 7708 7709 7710 7711 7712 7713 7714 7715 7716 7717 7718 7719 7720 7721 7722 7723 7724 7725 7726 7727 7728 7729 7730 7731 7732 7733 7734 7735 7736 7737 7738 7739 7740 7741 7742 7743 7744 7745 7746 7747 7748 7749 7750 7751 7752 7753 7754 7755 7756 7757 7758 7759 7760 7761 7762 7763 7764 7765 7766 7767 7768 7769 7770 7771 7772 7773 7774 7775 7776 7777 7778 7779 7780 7781 7782 7783 7784 7785 7786 7787 7788 7789 7790 7791 7792 7793 7794 7795 7796 7797 7798 7799 7800 7801 7802 7803 7804 7805 7806 7807 7808 7809 7810 7811 7812 7813 7814 7815 7816 7817 7818 7819 7820 7821 7822 7823 7824 7825 7826 7827 7828 7829 7830 7831 7832 7833 7834 7835 7836 7837 7838 7839 7840 7841 7842 7843 7844 7845 7846 7847 7848 7849 7850 7851 7852 7853 7854 7855 7856 7857 7858 7859 7860 7861 7862 7863 7864 7865 7866 7867 7868 7869 7870 7871 7872 7873 7874 7875 7876 7877 7878 7879 7880 7881 7882 7883 7884 7885 7886 7887 7888 7889 7890 7891 7892 7893 7894 7895 7896 7897 7898 7899 7900 7901 7902 7903 7904 7905 7906 7907 7908 7909 7910 7911 7912 7913 7914 7915 7916 7917 7918 7919 7920 7921 7922 7923 7924 7925 7926 7927 7928 7929 7930 7931 7932 7933 7934 7935 7936 7937 7938 7939 7940 7941 7942 7943 7944 7945 7946 7947 7948 7949 7950 7951 7952 7953 7954 7955 7956 7957 7958 7959 7960 7961 7962 7963 7964 7965 7966 7967 7968 7969 7970 7971 7972 7973 7974 7975 7976 7977 7978 7979 7980 7981 7982 7983 7984 7985 7986 7987 7988 7989 7990 7991 7992 7993 7994 7995 7996 7997 7998 7999 8000 8001 8002 8003 8004 8005 8006 8007 8008 8009 8010 8011 8012 8013 8014 8015 8016 8017 8018 8019 8020 8021 8022 8023 8024 8025 8026 8027 8028 8029 8030 8031 8032 8033 8034 8035 8036 8037 8038 8039 8040 8041 8042 8043 8044 8045 8046 8047 8048 8049 8050 8051 8052 8053 8054 8055 8056 8057 8058 8059 8060 8061 8062 8063 8064 8065 8066 8067 8068 8069 8070 8071 8072 8073 8074 8075 8076 8077 8078 8079 8080 8081 8082 8083 8084 8085 8086 8087 8088 8089 8090 8091 8092 8093 8094 8095 8096 8097 8098 8099 8100 8101 8102 8103 8104 8105 8106 8107 8108 8109 8110 8111 8112 8113 8114 8115 8116 8117 8118 8119 8120 8121 8122 8123 8124 8125 8126 8127 8128 8129 8130 8131 8132 8133 8134 8135 8136 8137 8138 8139 8140 8141 8142 8143 8144 8145 8146 8147 8148 8149 8150 8151 8152 8153 8154 8155 8156 8157 8158 8159 8160 8161 8162 8163 8164 8165 8166 8167 8168 8169 8170 8171 8172 8173 8174 8175 8176 8177 8178 8179 8180 8181 8182 8183 8184 8185 8186 8187 8188 8189 8190 8191 8192 8193 8194 8195 8196 8197 8198 8199 8200 8201 8202 8203 8204 8205 8206 8207 8208 8209 8210 8211 8212 8213 8214 8215 8216 8217 8218 8219 8220 8221 8222 8223 8224 8225 8226 8227 8228 8229 8230 8231 8232 8233 8234 8235 8236 8237 8238 8239 8240 8241 8242 8243 8244 8245 8246 8247 8248 8249 8250 8251 8252 8253 8254 8255 8256 8257 8258 8259 8260 8261 8262 8263 8264 8265 8266 8267 8268 8269 8270 8271 8272 8273 8274 8275 8276 8277 8278 8279 8280 8281 8282 8283 8284 8285 8286 8287 8288 8289 8290 8291 8292 8293 8294 8295 8296 8297 8298 8299 8300 8301 8302 8303 8304 8305 8306 8307 8308 8309 8310 8311 8312 8313 8314 8315 8316 8317 8318 8319 8320 8321 8322 8323 8324 8325 8326 8327 8328 8329 8330 8331 8332 8333 8334 8335 8336 8337 8338 8339 8340 8341 8342 8343 8344 8345 8346 8347 8348 8349 8350 8351 8352 8353 8354 8355 8356 8357 8358 8359 8360 8361 8362 8363 8364 8365 8366 8367 8368 8369 8370 8371 8372 8373 8374 8375 8376 8377 8378 8379 8380 8381 8382 8383 8384 8385 8386 8387 8388 8389 8390 8391 8392 8393 8394 8395 8396 8397 8398 8399 8400 8401 8402 8403 8404 8405 8406 8407 8408 8409 8410 8411 8412 8413 8414 8415 8416 8417 8418 8419 8420 8421 8422 8423 8424 8425 8426 8427 8428 8429 8430 8431 8432 8433 8434 8435 8436 8437 8438 8439 8440 8441 8442 8443 8444 8445 8446 8447 8448 8449 8450 8451 8452 8453 8454 8455 8456 8457 8458 8459 8460 8461 8462 8463 8464 8465 8466 8467 8468 8469 8470 8471 8472 8473 8474 8475 8476 8477 8478 8479 8480 8481 8482 8483 8484 8485 8486 8487 8488 8489 8490 8491 8492 8493 8494 8495 8496 8497 8498 8499 8500 8501 8502 8503 8504 8505 8506 8507 8508 8509 8510 8511 8512 8513 8514 8515 8516 8517 8518 8519 8520 8521 8522 8523 8524 8525 8526 8527 8528 8529 8530 8531 8532 8533 8534 8535 8536 8537 8538 8539 8540 8541 8542 8543 8544 8545 8546 8547 8548 8549 8550 8551 8552 8553 8554 8555 8556 8557 8558 8559 8560 8561 8562 8563 8564 8565 8566 8567 8568 8569 8570 8571 8572 8573 8574 8575 8576 8577 8578 8579 8580 8581 8582 8583 8584 8585 8586 8587 8588 8589 8590 8591 8592 8593 8594 8595 8596 8597 8598 8599 8600 8601 8602 8603 8604 8605 8606 8607 8608 8609 8610 8611 8612 8613 8614 8615 8616 8617 8618 8619 8620 8621 8622 8623 8624 8625 8626 8627 8628 8629 8630 8631 8632 8633 8634 8635 8636 8637 8638 8639 8640 8641 8642 8643 8644 8645 8646 8647 8648 8649 8650 8651 8652 8653 8654 8655 8656 8657 8658 8659 8660 8661 8662 8663 8664 8665 8666 8667 8668 8669 8670 8671 8672 8673 8674 8675 8676 8677 8678 8679 8680 8681 8682 8683 8684 8685 8686 8687 8688 8689 8690 8691 8692 8693 8694 8695 8696 8697 8698 8699 8700 8701 8702 8703 8704 8705 8706 8707 8708 8709 8710 8711 8712 8713 8714 8715 8716 8717 8718 8719 8720 8721 8722 8723 8724 8725 8726 8727 8728 8729 8730 8731 8732 8733 8734 8735 8736 8737 8738 8739 8740 8741 8742 8743 8744 8745 8746 8747 8748 8749 8750 8751 8752 8753 8754 8755 8756 8757 8758 8759 8760 8761 8762 8763 8764 8765 8766 8767 8768 8769 8770 8771 8772 8773 8774 8775 8776 8777 8778 8779 8780 8781 8782 8783 8784 8785 8786 8787 8788 8789 8790 8791 8792 8793 8794 8795 8796 8797 8798 8799 8800 8801 8802 8803 8804 8805 8806 8807 8808 8809 8810 8811 8812 8813 8814 8815 8816 8817 8818 8819 8820 8821 8822 8823 8824 8825 8826 8827 8828 8829 8830 8831 8832 8833 8834 8835 8836 8837 8838 8839 8840 8841 8842 8843 8844 8845 8846 8847 8848 8849 8850 8851 8852 8853 8854 8855 8856 8857 8858 8859 8860 8861 8862 8863 8864 8865 8866 8867 8868 8869 8870 8871 8872 8873 8874 8875 8876 8877 8878 8879 8880 8881 8882 8883 8884 8885 8886 8887 8888 8889 8890 8891 8892 8893 8894 8895 8896 8897 8898 8899 8900 8901 8902 8903 8904 8905 8906 8907 8908 8909 8910 8911 8912 8913 8914 8915 8916 8917 8918 8919 8920 8921 8922 8923 8924 8925 8926 8927 8928 8929 8930 8931 8932 8933 8934 8935 8936 8937 8938 8939 8940 8941 8942 8943 8944 8945 8946 8947 8948 8949 8950 8951 8952 8953 8954 8955 8956 8957 8958 8959 8960 8961 8962 8963 8964 8965 8966 8967 8968 8969 8970 8971 8972 8973 8974 8975 8976 8977 8978 8979 8980 8981 8982 8983 8984 8985 8986 8987 8988 8989 8990 8991 8992 8993 8994 8995 8996 8997 8998 8999 9000 9001 9002 9003 9004 9005 9006 9007 9008 9009 9010 9011 9012 9013 9014 9015 9016 9017 9018 9019 9020 9021 9022 9023 9024 9025 9026 9027 9028 9029 9030 9031 9032 9033 9034 9035 9036 9037 9038 9039 9040 9041 9042 9043 9044 9045 9046 9047 9048 9049 9050 9051 9052 9053 9054 9055 9056 9057 9058 9059 9060 9061 9062 9063 9064 9065 9066 9067 9068 9069 9070 9071 9072 9073 9074 9075 9076 9077 9078 9079 9080 9081 9082 9083 9084 9085 9086 9087 9088 9089 9090 9091 9092 9093 9094 9095 9096 9097 9098 9099 9100 9101 9102 9103 9104 9105 9106 9107 9108 9109 9110 9111 9112 9113 9114 9115 9116 9117 9118 9119 9120 9121 9122 9123 9124 9125 9126 9127 9128 9129 9130 9131 9132 9133 9134 9135 9136 9137 9138 9139 9140 9141 9142 9143 9144 9145 9146 9147 9148 9149 9150 9151 9152 9153 9154 9155 9156 9157 9158 9159 9160 9161 9162 9163 9164 9165 9166 9167 9168 9169 9170 9171 9172 9173 9174 9175 9176 9177 9178 9179 9180 9181 9182 9183 9184 9185 9186 9187 9188 9189 9190 9191 9192 9193 9194 9195 9196 9197 9198 9199 9200 9201 9202 9203 9204 9205 9206 9207 9208 9209 9210 9211 9212 9213 9214 9215 9216 9217 9218 9219 9220 9221 9222 9223 9224 9225 9226 9227 9228 9229 9230 9231 9232 9233 9234 9235 9236 9237 9238 9239 9240 9241 9242 9243 9244 9245 9246 9247 9248 9249 9250 9251 9252 9253 9254 9255 9256 9257 9258 9259 9260 9261 9262 9263 9264 9265 9266 9267 9268 9269 9270 9271 9272 9273 9274 9275 9276 9277 9278 9279 9280 9281 9282 9283 9284 9285 9286 9287 9288 9289 9290 9291 9292 9293 9294 9295 9296 9297 9298 9299 9300 9301 9302 9303 9304 9305 9306 9307 9308 9309 9310 9311 9312 9313 9314 9315 9316 9317 9318 9319 9320 9321 9322 9323 9324 9325 9326 9327 9328 9329 9330 9331 9332 9333 9334 9335 9336 9337 9338 9339 9340 9341 9342 9343 9344 9345 9346 9347 9348 9349 9350 9351 9352 9353 9354 9355 9356 9357 9358 9359 9360 9361 9362 9363 9364 9365 9366 9367 9368 9369 9370 9371 9372 9373 9374 9375 9376 9377 9378 9379 9380 9381 9382 9383 9384 9385 9386 9387 9388 9389 9390 9391 9392 9393 9394 9395 9396 9397 9398 9399 9400 9401 9402 9403 9404 9405 9406 9407 9408 9409 9410 9411 9412 9413 9414 9415 9416 9417 9418 9419 9420 9421 9422 9423 9424 9425 9426 9427 9428 9429 9430 9431 9432 9433 9434 9435 9436 9437 9438 9439 9440 9441 9442 9443 9444 9445 9446 9447 9448 9449 9450 9451 9452 9453 9454 9455 9456 9457 9458 9459 9460 9461 9462 9463 9464 9465 9466 9467 9468 9469 9470 9471 9472 9473 9474 9475 9476 9477 9478 9479 9480 9481 9482 9483 9484 9485 9486 9487 9488 9489 9490 9491 9492 9493 9494 9495 9496 9497 9498 9499 9500 9501 9502 9503 9504 9505 9506 9507 9508 9509 9510 9511 9512 9513 9514 9515 9516 9517 9518 9519 9520 9521 9522 9523 9524 9525 9526 9527 9528 9529 9530 9531 9532 9533 9534 9535 9536 9537 9538 9539 9540 9541 9542 9543 9544 9545 9546 9547 9548 9549 9550 9551 9552 9553 9554 9555 9556 9557 9558 9559 9560 9561 9562 9563 9564 9565 9566 9567 9568 9569 9570 9571 9572 9573 9574 9575 9576 9577 9578 9579 9580 9581 9582 9583 9584 9585 9586 9587 9588 9589 9590 9591 9592 9593 9594 9595 9596 9597 9598 9599 9600 9601 9602 9603 9604 9605 9606 9607 9608 9609 9610 9611 9612 9613 9614 9615 9616 9617 9618 9619 9620 9621 9622 9623 9624 9625 9626 9627 9628 9629 9630 9631 9632 9633 9634 9635 9636 9637 9638 9639 9640 9641 9642 9643 9644 9645 9646 9647 9648 9649 9650 9651 9652 9653 9654 9655 9656 9657 9658 9659 9660 9661 9662 9663 9664 9665 9666 9667 9668 9669 9670 9671 9672 9673 9674 9675 9676 9677 9678 9679 9680 9681 9682 9683 9684 9685 9686 9687 9688 9689 9690 9691 9692 9693 9694 9695 9696 9697 9698 9699 9700 9701 9702 9703 9704 9705 9706 9707 9708 9709 9710 9711 9712 9713 9714 9715 9716 9717 9718 9719 9720 9721 9722 9723 9724 9725 9726 9727 9728 9729 9730 9731 9732 9733 9734 9735 9736 9737 9738 9739 9740 9741 9742 9743 9744 9745 9746 9747 9748 9749 9750 9751 9752 9753 9754 9755 9756 9757 9758 9759 9760 9761 9762 9763 9764 9765 9766 9767 9768 9769 9770 9771 9772 9773 9774 9775 9776 9777 9778 9779 9780 9781 9782 9783 9784 9785 9786 9787 9788 9789 9790 9791 9792 9793 9794 9795 9796 9797 9798 9799 9800 9801 9802 9803 9804 9805 9806 9807 9808 9809 9810 9811 9812 9813 9814 9815 9816 9817 9818 9819 9820 9821 9822 9823 9824 9825 9826 9827 9828 9829 9830 9831 9832 9833 9834 9835 9836 9837 9838 9839 9840 9841 9842 9843 9844 9845 9846 9847 9848 9849 9850 9851 9852 9853 9854 9855 9856 9857 9858 9859 9860 9861 9862 9863 9864 9865 9866 9867 9868 9869 9870 9871 9872 9873 9874 9875 9876 9877 9878 9879 9880 9881 9882 9883 9884 9885 9886 9887 9888 9889 9890 9891 9892 9893 9894 9895 9896 9897 9898 9899 9900 9901 9902 9903 9904 9905 9906 9907 9908 9909 9910 9911 9912 9913 9914 9915 9916 9917 9918 9919 9920 9921 9922 9923 9924 9925 9926 9927 9928 9929 9930 9931 9932 9933 9934 9935 9936 9937 9938 9939 9940 9941 9942 9943 9944 9945 9946 9947 9948 9949 9950 9951 9952 9953 9954 9955 9956 9957 9958 9959 9960 9961 9962 9963 9964 9965 9966 9967 9968 9969 9970 9971 9972 9973 9974 9975 9976 9977 9978 9979 9980 9981 9982 9983 9984 9985 9986 9987 9988 9989 9990 9991 9992 9993 9994 9995 9996 9997 9998 9999 10000 10001 10002 10003 10004 10005 10006 10007 10008 10009 10010 10011 10012 10013 10014 10015 10016 10017 10018 10019 10020 10021 10022 10023 10024 10025 10026 10027 10028 10029 10030 10031 10032 10033 10034 10035 10036 10037 10038 10039 10040 10041 10042 10043 10044 10045 10046 10047 10048 10049 10050 10051 10052 10053 10054 10055 10056 10057 10058 10059 10060 10061 10062 10063 10064 10065 10066 10067 10068 10069 10070 10071 10072 10073 10074 10075 10076 10077 10078 10079 10080 10081 10082 10083 10084 10085 10086 10087 10088 10089 10090 10091 10092 10093 10094 10095 10096 10097 10098 10099 10100 10101 10102 10103 10104 10105 10106 10107 10108 10109 10110 10111 10112 10113 10114 10115 10116 10117 10118 10119 10120 10121 10122 10123 10124 10125 10126 10127 10128 10129 10130 10131 10132 10133 10134 10135 10136 10137 10138 10139 10140 10141 10142 10143 10144 10145 10146 10147 10148 10149 10150 10151 10152 10153 10154 10155 10156 10157 10158 10159 10160 10161 10162 10163 10164 10165 10166 10167 10168 10169 10170 10171 10172 10173 10174 10175 10176 10177 10178 10179 10180 10181 10182 10183 10184 10185 10186 10187 10188 10189 10190 10191 10192 10193 10194 10195 10196 10197 10198 10199 10200 10201 10202 10203 10204 10205 10206 10207 10208 10209 10210 10211 10212 10213 10214 10215 10216 10217 10218 10219 10220 10221 10222 10223 10224 10225 10226 10227 10228 10229 10230 10231 10232 10233 10234 10235 10236 10237 10238 10239 10240 10241 10242 10243 10244 10245 10246 10247 10248 10249 10250 10251 10252 10253 10254 10255 10256 10257 10258 10259 10260 10261 10262 10263 10264 10265 10266 10267 10268 10269 10270 10271 10272 10273 10274 10275 10276 10277 10278 10279 10280 10281 10282 10283 10284 10285 10286 10287 10288 10289 10290 10291 10292 10293 10294 10295 10296 10297 10298 10299 10300 10301 10302 10303 10304 10305 10306 10307 10308 10309 10310 10311 10312 10313 10314 10315 10316 10317 10318 10319 10320 10321 10322 10323 10324 10325 10326 10327 10328 10329 10330 10331 10332 10333 10334 10335 10336 10337 10338 10339 10340 10341 10342 10343 10344 10345 10346 10347 10348 10349 10350 10351 10352 10353 10354 10355 10356 10357 10358 10359 10360 10361 10362 10363 10364 10365 10366 10367 10368 10369 10370 10371 10372 10373 10374 10375 10376 10377 10378 10379 10380 10381 10382 10383 10384 10385 10386 10387 10388 10389 10390 10391 10392 10393 10394 10395 10396 10397 10398 10399 10400 10401 10402 10403 10404 10405 10406 10407 10408 10409 10410 10411 10412 10413 10414 10415 10416 10417 10418 10419 10420 10421 10422 10423 10424 10425 10426 10427 10428 10429 10430 10431 10432 10433 10434 10435 10436 10437 10438 10439 10440 10441 10442 10443 10444 10445 10446 10447 10448 10449 10450 10451 10452 10453 10454 10455 10456 10457 10458 10459 10460 10461 10462 10463 10464 10465 10466 10467 10468 10469 10470 10471 10472 10473 10474 10475 10476 10477 10478 10479 10480 10481 10482 10483 10484 10485 10486 10487 10488 10489 10490 10491 10492 10493 10494 10495 10496 10497 10498 10499 10500 10501 10502 10503 10504 10505 10506 10507 10508 10509 10510 10511 10512 10513 10514 10515 10516 10517 10518 10519 10520 10521 10522 10523 10524 10525 10526 10527 10528 10529 10530 10531 10532 10533 10534 10535 10536 10537 10538 10539 10540 10541 10542 10543 10544 10545 10546 10547 10548 10549 10550 10551 10552 10553 10554 10555 10556 10557 10558 10559 10560 10561 10562 10563 10564 10565 10566 10567 10568 10569 10570 10571 10572 10573 10574 10575 10576 10577 10578 10579 10580 10581 10582 10583 10584 10585 10586 10587 10588 10589 10590 10591 10592 10593 10594 10595 10596 10597 10598 10599 10600 10601 10602 10603 10604 10605 10606 10607 10608 10609 10610 10611 10612 10613 10614 10615 10616 10617 10618 10619 10620 10621 10622 10623 10624 10625 10626 10627 10628 10629 10630 10631 10632 10633 10634 10635 10636 10637 10638 10639 10640 10641 10642 10643 10644 10645 10646 10647 10648 10649 10650 10651 10652 10653 10654 10655 10656 10657 10658 10659 10660 10661 10662 10663 10664 10665 10666 10667 10668 10669 10670 10671 10672 10673 10674 10675 10676 10677 10678 10679 10680 10681 10682 10683 10684 10685 10686 10687 10688 10689 10690 10691 10692 10693 10694 10695 10696 10697 10698 10699 10700 10701 10702 10703 10704 10705 10706 10707 10708 10709 10710 10711 10712 10713 10714 10715 10716 10717 10718 10719 10720 10721 10722 10723 10724 10725 10726 10727 10728 10729 10730 10731 10732 10733 10734 10735 10736 10737 10738 10739 10740 10741 10742 10743 10744 10745 10746 10747 10748 10749 10750 10751 10752 10753 10754 10755 10756 10757 10758 10759 10760 10761 10762 10763 10764 10765 10766 10767 10768 10769 10770 10771 10772 10773 10774 10775 10776 10777 10778 10779 10780 10781 10782 10783 10784 10785 10786 10787 10788 10789 10790 10791 10792 10793 10794 10795 10796 10797 10798 10799 10800 10801 10802 10803 10804 10805 10806 10807 10808 10809 10810 10811 10812 10813 10814 10815 10816 10817 10818 10819 10820 10821 10822 10823 10824 10825 10826 10827 10828 10829 10830 10831 10832 10833 10834 10835 10836 10837 10838 10839 10840 10841 10842 10843 10844 10845 10846 10847 10848 10849 10850 10851 10852 10853 10854 10855 10856 10857 10858 10859 10860 10861 10862 10863 10864 10865 10866 10867 10868 10869 10870 10871 10872 10873 10874 10875 10876 10877 10878 10879 10880 10881 10882 10883 10884 10885 10886 10887 10888 10889 10890 10891 10892 10893 10894 10895 10896 10897 10898 10899 10900 10901 10902 10903 10904 10905 10906 10907 10908 10909 10910 10911 10912 10913 10914 10915 10916 10917 10918 10919 10920 10921 10922 10923 10924 10925 10926 10927 10928 10929 10930 10931 10932 10933 10934 10935 10936 10937 10938 10939 10940 10941 10942 10943 10944 10945 10946 10947 10948 10949 10950 10951 10952 10953 10954 10955 10956 10957 10958 10959 10960 10961 10962 10963 10964 10965 10966 10967 10968 10969 10970 10971 10972 10973 10974 10975 10976 10977 10978 10979 10980 10981 10982 10983 10984 10985 10986 10987 10988 10989 10990 10991 10992 10993 10994 10995 10996 10997 10998 10999 11000 11001 11002 11003 11004 11005 11006 11007 11008 11009 11010 11011 11012 11013 11014 11015 11016 11017 11018 11019 11020 11021 11022 11023 11024 11025 11026 11027 11028 11029 11030 11031 11032 11033 11034 11035 11036 11037 11038 11039 11040 11041 11042 11043 11044 11045 11046 11047 11048 11049 11050 11051 11052 11053 11054 11055 11056 11057 11058 11059 11060 11061 11062 11063 11064 11065 11066 11067 11068 11069 11070 11071 11072 11073 11074 11075 11076 11077 11078 11079 11080 11081 11082 11083 11084 11085 11086 11087 11088 11089 11090 11091 11092 11093 11094 11095 11096 11097 11098 11099 11100 11101 11102 11103 11104 11105 11106 11107 11108 11109 11110 11111 11112 11113 11114 11115 11116 11117 11118 11119 11120 11121 11122 11123 11124 11125 11126 11127 11128 11129 11130 11131 11132 11133 11134 11135 11136 11137 11138 11139 11140 11141 11142 11143 11144 11145 11146 11147 11148 11149 11150 11151 11152 11153 11154 11155 11156 11157 11158 11159 11160 11161 11162 11163 11164 11165 11166 11167 11168 11169 11170 11171 11172 11173 11174 11175 11176 11177 11178 11179 11180 11181 11182 11183 11184 11185 11186 11187 11188 11189 11190 11191 11192 11193 11194 11195 11196 11197 11198 11199 11200 11201 11202 11203 11204 11205 11206 11207 11208 11209 11210 11211 11212 11213 11214 11215 11216 11217 11218 11219 11220 11221 11222 11223 11224 11225 11226 11227 11228 11229 11230 11231 11232 11233 11234 11235 11236 11237 11238 11239 11240 11241 11242 11243 11244 11245 11246 11247 11248 11249 11250 11251 11252 11253 11254 11255 11256 11257 11258 11259 11260 11261 11262 11263 11264 11265 11266 11267 11268 11269 11270 11271 11272 11273 11274 11275 11276 11277 11278 11279 11280 11281 11282 11283 11284 11285 11286 11287 11288 11289 11290 11291 11292 11293 11294 11295 11296 11297 11298 11299 11300 11301 11302 11303 11304 11305 11306 11307 11308 11309 11310 11311 11312 11313 11314 11315 11316 11317 11318 11319 11320 11321 11322 11323 11324 11325 11326 11327 11328 11329 11330 11331 11332 11333 11334 11335 11336 11337 11338 11339 11340 11341 11342 11343 11344 11345 11346 11347 11348 11349 11350 11351 11352 11353 11354 11355 11356 11357 11358 11359 11360 11361 11362 11363 11364 11365 11366 11367 11368 11369 11370 11371 11372 11373 11374 11375 11376 11377 11378 11379 11380 11381 11382 11383 11384 11385 11386 11387 11388 11389 11390 11391 11392 11393 11394 11395 11396 11397 11398 11399 11400 11401 11402 11403 11404 11405 11406 11407 11408 11409 11410 11411 11412 11413 11414 11415 11416 11417 11418 11419 11420 11421 11422 11423 11424 11425 11426 11427 11428 11429 11430 11431 11432 11433 11434 11435 11436 11437 11438 11439 11440 11441 11442 11443 11444 11445 11446 11447 11448 11449 11450 11451 11452 11453 11454 11455 11456 11457 11458 11459 11460 11461 11462 11463 11464 11465 11466 11467 11468 11469 11470 11471 11472 11473 11474 11475 11476 11477 11478 11479 11480 11481 11482 11483 11484 11485 11486 11487 11488 11489 11490 11491 11492 11493 11494 11495 11496 11497 11498 11499 11500 11501 11502 11503 11504 11505 11506 11507 11508 11509 11510 11511 11512 11513 11514 11515 11516 11517 11518 11519 11520 11521 11522 11523 11524 11525 11526 11527 11528 11529 11530 11531 11532 11533 11534 11535 11536 11537 11538 11539 11540 11541 11542 11543 11544 11545 11546 11547 11548 11549 11550 11551 11552 11553 11554 11555 11556 11557 11558 11559 11560 11561 11562 11563 11564 11565 11566 11567 11568 11569 11570 11571 11572 11573 11574 11575 11576 11577 11578 11579 11580 11581 11582 11583 11584 11585 11586 11587 11588 11589 11590 11591 11592 11593 11594 11595 11596 11597 11598 11599 11600 11601 11602 11603 11604 11605 11606 11607 11608 11609 11610 11611 11612 11613 11614 11615 11616 11617 11618 11619 11620 11621 11622 11623 11624 11625 11626 11627 11628 11629 11630 11631 11632 11633 11634 11635 11636 11637 11638 11639 11640 11641 11642 11643 11644 11645 11646 11647 11648 11649 11650 11651 11652 11653 11654 11655 11656 11657 11658 11659 11660 11661 11662 11663 11664 11665 11666 11667 11668 11669 11670 11671 11672 11673 11674 11675 11676 11677 11678 11679 11680 11681 11682 11683 11684 11685 11686 11687 11688 11689 11690 11691 11692 11693 11694 11695 11696 11697 11698 11699 11700 11701 11702 11703 11704 11705 11706 11707 11708 11709 11710 11711 11712 11713 11714 11715 11716 11717 11718 11719 11720 11721 11722 11723 11724 11725 11726 11727 11728 11729 11730 11731 11732 11733 11734 11735 11736 11737 11738 11739 11740 11741 11742 11743 11744 11745 11746 11747 11748 11749 11750 11751 11752 11753 11754 11755 11756 11757 11758 11759 11760 11761 11762 11763 11764 11765 11766 11767 11768 11769 11770 11771 11772 11773 11774 11775 11776 11777 11778 11779 11780 11781 11782 11783 11784 11785 11786 11787 11788 11789 11790 11791 11792 11793 11794 11795 11796 11797 11798 11799 11800 11801 11802 11803 11804 11805 11806 11807 11808 11809 11810 11811 11812 11813 11814 11815 11816 11817 11818 11819 11820 11821 11822 11823 11824 11825 11826 11827 11828 11829 11830 11831 11832 11833 11834 11835 11836 11837 11838 11839 11840 11841 11842 11843 11844 11845 11846 11847 11848 11849 11850 11851 11852 11853 11854 11855 11856 11857 11858 11859 11860 11861 11862 11863 11864 11865 11866 11867 11868 11869 11870 11871 11872 11873 11874 11875 11876 11877 11878 11879 11880 11881 11882 11883 11884 11885 11886 11887 11888 11889 11890 11891 11892 11893 11894 11895 11896 11897 11898 11899 11900 11901 11902 11903 11904 11905 11906 11907 11908 11909 11910 11911 11912 11913 11914 11915 11916 11917 11918 11919 11920 11921 11922 11923 11924 11925 11926 11927 11928 11929 11930 11931 11932 11933 11934 11935 11936 11937 11938 11939 11940 11941 11942 11943 11944 11945 11946 11947 11948 11949 11950 11951 11952 11953 11954 11955 11956 11957 11958 11959 11960 11961 11962 11963 11964 11965 11966 11967 11968 11969 11970 11971 11972 11973 11974 11975 11976 11977 11978 11979 11980 11981 11982 11983 11984 11985 11986 11987 11988 11989 11990 11991 11992 11993 11994 11995 11996 11997 11998 11999 12000 12001 12002 12003 12004 12005 12006 12007 12008 12009 12010 12011 12012 12013 12014 12015 12016 12017 12018 12019 12020 12021 12022 12023 12024 12025 12026 12027 12028 12029 12030 12031 12032 12033 12034 12035 12036 12037 12038 12039 12040 12041 12042 12043 12044 12045 12046 12047 12048 12049 12050 12051 12052 12053 12054 12055 12056 12057 12058 12059 12060 12061 12062 12063 12064 12065 12066 12067 12068 12069 12070 12071 12072 12073 12074 12075 12076 12077 12078 12079 12080 12081 12082 12083 12084 12085 12086 12087 12088 12089 12090 12091 12092 12093 12094 12095 12096 12097 12098 12099 12100 12101 12102 12103 12104 12105 12106 12107 12108 12109 12110 12111 12112 12113 12114 12115 12116 12117 12118 12119 12120 12121 12122 12123 12124 12125 12126 12127 12128 12129 12130 12131 12132 12133 12134 12135 12136 12137 12138 12139 12140 12141 12142 12143 12144 12145 12146 12147 12148 12149 12150 12151 12152 12153 12154 12155 12156 12157 12158 12159 12160 12161 12162 12163 12164 12165 12166 12167 12168 12169 12170 12171 12172 12173 12174 12175 12176 12177 12178 12179 12180 12181 12182 12183 12184 12185 12186 12187 12188 12189 12190 12191 12192 12193 12194 12195 12196 12197 12198 12199 12200 12201 12202 12203 12204 12205 12206 12207 12208 12209 12210 12211 12212 12213 12214 12215 12216 12217 12218 12219 12220 12221 12222 12223 12224 12225 12226 12227 12228 12229 12230 12231 12232 12233 12234 12235 12236 12237 12238 12239 12240 12241 12242 12243 12244 12245 12246 12247 12248 12249 12250 12251 12252 12253 12254 12255 12256 12257 12258 12259 12260 12261 12262 12263 12264 12265 12266 12267 12268 12269 12270 12271 12272 12273 12274 12275 12276 12277 12278 12279 12280 12281 12282 12283 12284 12285 12286 12287 12288 12289 12290 12291 12292 12293 12294 12295 12296 12297 12298 12299 12300 12301 12302 12303 12304 12305 12306 12307 12308 12309 12310 12311 12312 12313 12314 12315 12316 12317 12318 12319 12320 12321 12322 12323 12324 12325 12326 12327 12328 12329 12330 12331 12332 12333 12334 12335 12336 12337 12338 12339 12340 12341 12342 12343 12344 12345 12346 12347 12348 12349 12350 12351 12352 12353 12354 12355 12356 12357 12358 12359 12360 12361 12362 12363 12364 12365 12366 12367 12368 12369 12370 12371 12372 12373 12374 12375 12376 12377 12378 12379 12380 12381 12382 12383 12384 12385 12386 12387 12388 12389 12390 12391 12392 12393 12394 12395 12396 12397 12398 12399 12400 12401 12402 12403 12404 12405 12406 12407 12408 12409 12410 12411 12412 12413 12414 12415 12416 12417 12418 12419 12420 12421 12422 12423 12424 12425 12426 12427 12428 12429 12430 12431 12432 12433 12434 12435 12436 12437 12438 12439 12440 12441 12442 12443 12444 12445 12446 12447 12448 12449 12450 12451 12452 12453 12454 12455 12456 12457 12458 12459 12460 12461 12462 12463 12464 12465 12466 12467 12468 12469 12470 12471 12472 12473 12474 12475 12476 12477 12478 12479 12480 12481 12482 12483 12484 12485 12486 12487 12488 12489 12490 12491 12492 12493 12494 12495 12496 12497 12498 12499 12500 12501 12502 12503 12504 12505 12506 12507 12508 12509 12510 12511 12512 12513 12514 12515 12516 12517 12518 12519 12520 12521 12522 12523 12524 12525 12526 12527 12528 12529 12530 12531 12532 12533 12534 12535 12536 12537 12538 12539 12540 12541 12542 12543 12544 12545 12546 12547 12548 12549 12550 12551 12552 12553 12554 12555 12556 12557 12558 12559 12560 12561 12562 12563 12564 12565 12566 12567 12568 12569 12570 12571 12572 12573 12574 12575 12576 12577 12578 12579 12580 12581 12582 12583 12584 12585 12586 12587 12588 12589 12590 12591 12592 12593 12594 12595 12596 12597 12598 12599 12600 12601 12602 12603 12604 12605 12606 12607 12608 12609 12610 12611 12612 12613 12614 12615 12616 12617 12618 12619 12620 12621 12622 12623 12624 12625 12626 12627 12628 12629 12630 12631 12632 12633 12634 12635 12636 12637 12638 12639 12640 12641 12642 12643 12644 12645 12646 12647 12648 12649 12650 12651 12652 12653 12654 12655 12656 12657 12658 12659 12660 12661 12662 12663 12664 12665 12666 12667 12668 12669 12670 12671 12672 12673 12674 12675 12676 12677 12678 12679 12680 12681 12682 12683 12684 12685 12686 12687 12688 12689 12690 12691 12692 12693 12694 12695 12696 12697 12698 12699 12700 12701 12702 12703 12704 12705 12706 12707 12708 12709 12710 12711 12712 12713 12714 12715 12716 12717 12718 12719 12720 12721 12722 12723 12724 12725 12726 12727 12728 12729 12730 12731 12732 12733 12734 12735 12736 12737 12738 12739 12740 12741 12742 12743 12744 12745 12746 12747 12748 12749 12750 12751 12752 12753 12754 12755 12756 12757 12758 12759 12760 12761 12762 12763 12764 12765 12766 12767 12768 12769 12770 12771 12772 12773 12774 12775 12776 12777 12778 12779 12780 12781 12782 12783 12784 12785 12786 12787 12788 12789 12790 12791 12792 12793 12794 12795 12796 12797 12798 12799 12800 12801 12802 12803 12804 12805 12806 12807 12808 12809 12810 12811 12812 12813 12814 12815 12816 12817 12818 12819 12820 12821 12822 12823 12824 12825 12826 12827 12828 12829 12830 12831 12832 12833 12834 12835 12836 12837 12838 12839 12840 12841 12842 12843 12844 12845 12846 12847 12848 12849 12850 12851 12852 12853 12854 12855 12856 12857 12858 12859 12860 12861 12862 12863 12864 12865 12866 12867 12868 12869 12870 12871 12872 12873 12874 12875 12876 12877 12878 12879 12880 12881 12882 12883 12884 12885 12886 12887 12888 12889 12890 12891 12892 12893 12894 12895 12896 12897 12898 12899 12900 12901 12902 12903 12904 12905 12906 12907 12908 12909 12910 12911 12912 12913 12914 12915 12916 12917 12918 12919 12920 12921 12922 12923 12924 12925 12926 12927 12928 12929 12930 12931 12932 12933 12934 12935 12936 12937 12938 12939 12940 12941 12942 12943 12944 12945 12946 12947 12948 12949 12950 12951 12952 12953 12954 12955 12956 12957 12958 12959 12960 12961 12962 12963 12964 12965 12966 12967 12968 12969 12970 12971 12972 12973 12974 12975 12976 12977 12978 12979 12980 12981 12982 12983 12984 12985 12986 12987 12988 12989 12990 12991 12992 12993 12994 12995 12996 12997 12998 12999 13000 13001 13002 13003 13004 13005 13006 13007 13008 13009 13010 13011 13012 13013 13014 13015 13016 13017 13018 13019 13020 13021 13022 13023 13024 13025 13026 13027 13028 13029 13030 13031 13032 13033 13034 13035 13036 13037 13038 13039 13040 13041 13042 13043 13044 13045 13046 13047 13048 13049 13050 13051 13052 13053 13054 13055 13056 13057 13058 13059 13060 13061 13062 13063 13064 13065 13066 13067 13068 13069 13070 13071 13072 13073 13074 13075 13076 13077 13078 13079 13080 13081 13082 13083 13084 13085 13086 13087 13088 13089 13090 13091 13092 13093 13094 13095 13096 13097 13098 13099 13100 13101 13102 13103 13104 13105 13106 13107 13108 13109 13110 13111 13112 13113 13114 13115 13116 13117 13118 13119 13120 13121 13122 13123 13124 13125 13126 13127 13128 13129 13130 13131 13132 13133 13134 13135 13136 13137 13138 13139 13140 13141 13142 13143 13144 13145 13146 13147 13148 13149 13150 13151 13152 13153 13154 13155 13156 13157 13158 13159 13160 13161 13162 13163 13164 13165 13166 13167 13168 13169 13170 13171 13172 13173 13174 13175 13176 13177 13178 13179 13180 13181 13182 13183 13184 13185 13186 13187 13188 13189 13190 13191 13192 13193 13194 13195 13196 13197 13198 13199 13200 13201 13202 13203 13204 13205 13206 13207 13208 13209 13210 13211 13212 13213 13214 13215 13216 13217 13218 13219 13220 13221 13222 13223 13224 13225 13226 13227 13228 13229 13230 13231 13232 13233 13234 13235 13236 13237 13238 13239 13240 13241 13242 13243 13244 13245 13246 13247 13248 13249 13250 13251 13252 13253 13254 13255 13256 13257 13258 13259 13260 13261 13262 13263 13264 13265 13266 13267 13268 13269 13270 13271 13272 13273 13274 13275 13276 13277 13278 13279 13280 13281 13282 13283 13284 13285 13286 13287 13288 13289 13290 13291 13292 13293 13294 13295 13296 13297 13298 13299 13300 13301 13302 13303 13304 13305 13306 13307 13308 13309 13310 13311 13312 13313 13314 13315 13316 13317 13318 13319 13320 13321 13322 13323 13324 13325 13326 13327 13328 13329 13330 13331 13332 13333 13334 13335 13336 13337 13338 13339 13340 13341 13342 13343 13344 13345 13346 13347 13348 13349 13350 13351 13352 13353 13354 13355 13356 13357 13358 13359 13360 13361 13362 13363 13364 13365 13366 13367 13368 13369 13370 13371 13372 13373 13374 13375 13376 13377 13378 13379 13380 13381 13382 13383 13384 13385 13386 13387 13388 13389 13390 13391 13392 13393 13394 13395 13396 13397 13398 13399 13400 13401 13402 13403 13404 13405 13406 13407 13408 13409 13410 13411 13412 13413 13414 13415 13416 13417 13418 13419 13420 13421 13422 13423 13424 13425 13426 13427 13428 13429 13430 13431 13432 13433 13434 13435 13436 13437 13438 13439 13440 13441 13442 13443 13444 13445 13446 13447 13448 13449 13450 13451 13452 13453 13454 13455 13456 13457 13458 13459 13460 13461 13462 13463 13464 13465 13466 13467 13468 13469 13470 13471 13472 13473 13474 13475 13476 13477 13478 13479 13480 13481 13482 13483 13484 13485 13486 13487 13488 13489 13490 13491 13492 13493 13494 13495 13496 13497 13498 13499 13500 13501 13502 13503 13504 13505 13506 13507 13508 13509 13510 13511 13512 13513 13514 13515 13516 13517 13518 13519 13520 13521 13522 13523 13524 13525 13526 13527 13528 13529 13530 13531 13532 13533 13534 13535 13536 13537 13538 13539 13540 13541 13542 13543 13544 13545 13546 13547 13548 13549 13550 13551 13552 13553 13554 13555 13556 13557 13558 13559 13560 13561 13562 13563 13564 13565 13566 13567 13568 13569 13570 13571 13572 13573 13574 13575 13576 13577 13578 13579 13580 13581 13582 13583 13584 13585 13586 13587 13588 13589 13590 13591 13592 13593 13594 13595 13596 13597 13598 13599 13600 13601 13602 13603 13604 13605 13606 13607 13608 13609 13610 13611 13612 13613 13614 13615 13616 13617 13618 13619 13620 13621 13622 13623 13624 13625 13626 13627 13628 13629 13630 13631 13632 13633 13634 13635 13636 13637 13638 13639 13640 13641 13642 13643 13644 13645 13646 13647 13648 13649 13650 13651 13652 13653 13654 13655 13656 13657 13658 13659 13660 13661 13662 13663 13664 13665 13666 13667 13668 13669 13670 13671 13672 13673 13674 13675 13676 13677 13678 13679 13680 13681 13682 13683 13684 13685 13686 13687 13688 13689 13690 13691 13692 13693 13694 13695 13696 13697 13698 13699 13700 13701 13702 13703 13704 13705 13706 13707 13708 13709 13710 13711 13712 13713 13714 13715 13716 13717 13718 13719 13720 13721 13722 13723 13724 13725 13726 13727 13728 13729 13730 13731 13732 13733 13734 13735 13736 13737 13738 13739 13740 13741 13742 13743 13744 13745 13746 13747 13748 13749 13750 13751 13752 13753 13754 13755 13756 13757 13758 13759 13760 13761 13762 13763 13764 13765 13766 13767 13768 13769 13770 13771 13772 13773 13774 13775 13776 13777 13778 13779 13780 13781 13782 13783 13784 13785 13786 13787 13788 13789 13790 13791 13792 13793 13794 13795 13796 13797 13798 13799 13800 13801 13802 13803 13804 13805 13806 13807 13808 13809 13810 13811 13812 13813 13814 13815 13816 13817 13818 13819 13820 13821 13822 13823 13824 13825 13826 13827 13828 13829 13830 13831 13832 13833 13834 13835 13836 13837 13838 13839 13840 13841 13842 13843 13844 13845 13846 13847 13848 13849 13850 13851 13852 13853 13854 13855 13856 13857 13858 13859 13860 13861 13862 13863 13864 13865 13866 13867 13868 13869 13870 13871 13872 13873 13874 13875 13876 13877 13878 13879 13880 13881 13882 13883 13884 13885 13886 13887 13888 13889 13890 13891 13892 13893 13894 13895 13896 13897 13898 13899 13900 13901 13902 13903 13904 13905 13906 13907 13908 13909 13910 13911 13912 13913 13914 13915 13916 13917 13918 13919 13920 13921 13922 13923 13924 13925 13926 13927 13928 13929 13930 13931 13932 13933 13934 13935 13936 13937 13938 13939 13940 13941 13942 13943 13944 13945 13946 13947 13948 13949 13950 13951 13952 13953 13954 13955 13956 13957 13958 13959 13960 13961 13962 13963 13964 13965 13966 13967 13968 13969 13970 13971 13972 13973 13974 13975 13976 13977 13978 13979 13980 13981 13982 13983 13984 13985 13986 13987 13988 13989 13990 13991 13992 13993 13994 13995 13996 13997 13998 13999 14000 14001 14002 14003 14004 14005 14006 14007 14008 14009 14010 14011 14012 14013 14014 14015 14016 14017 14018 14019 14020 14021 14022 14023 14024 14025 14026 14027 14028 14029 14030 14031 14032 14033 14034 14035 14036 14037 14038 14039 14040 14041 14042 14043 14044 14045 14046 14047 14048 14049 14050 14051 14052 14053 14054 14055 14056 14057 14058 14059 14060 14061 14062 14063 14064 14065 14066 14067 14068 14069 14070 14071 14072 14073 14074 14075 14076 14077 14078 14079 14080 14081 14082 14083 14084 14085 14086 14087 14088 14089 14090 14091 14092 14093 14094 14095 14096 14097 14098 14099 14100 14101 14102 14103 14104 14105 14106 14107 14108 14109 14110 14111 14112 14113 14114 14115 14116 14117 14118 14119 14120 14121 14122 14123 14124 14125 14126 14127 14128 14129 14130 14131 14132 14133 14134 14135 14136 14137 14138 14139 14140 14141 14142 14143 14144 14145 14146 14147 14148 14149 14150 14151 14152 14153 14154 14155 14156 14157 14158 14159 14160 14161 14162 14163 14164 14165 14166 14167 14168 14169 14170 14171 14172 14173 14174 14175 14176 14177 14178 14179 14180 14181 14182 14183 14184 14185 14186 14187 14188 14189 14190 14191 14192 14193 14194 14195 14196 14197 14198 14199 14200 14201 14202 14203 14204 14205 14206 14207 14208 14209 14210 14211 14212 14213 14214 14215 14216 14217 14218 14219 14220 14221 14222 14223 14224 14225 14226 14227 14228 14229 14230 14231 14232 14233 14234 14235 14236 14237 14238 14239 14240 14241 14242 14243 14244 14245 14246 14247 14248 14249 14250 14251 14252 14253 14254 14255 14256 14257 14258 14259 14260 14261 14262 14263 14264 14265 14266 14267 14268 14269 14270 14271 14272 14273 14274 14275 14276 14277 14278 14279 14280 14281 14282 14283 14284 14285 14286 14287 14288 14289 14290 14291 14292 14293 14294 14295 14296 14297 14298 14299 14300 14301 14302 14303 14304 14305 14306 14307 14308 14309 14310 14311 14312 14313 14314 14315 14316 14317 14318 14319 14320 14321 14322 14323 14324 14325 14326 14327 14328 14329 14330 14331 14332 14333 14334 14335 14336 14337 14338 14339 14340 14341 14342 14343 14344 14345 14346 14347 14348 14349 14350 14351 14352 14353 14354 14355 14356 14357 14358 14359 14360 14361 14362 14363 14364 14365 14366 14367 14368 14369 14370 14371 14372 14373 14374 14375 14376 14377 14378 14379 14380 14381 14382 14383 14384 14385 14386 14387 14388 14389 14390 14391 14392 14393 14394 14395 14396 14397 14398 14399 14400 14401 14402 14403 14404 14405 14406 14407 14408 14409 14410 14411 14412 14413 14414 14415 14416 14417 14418 14419 14420 14421 14422 14423 14424 14425 14426 14427 14428 14429 14430 14431 14432 14433 14434 14435 14436 14437 14438 14439 14440 14441 14442 14443 14444 14445 14446 14447 14448 14449 14450 14451 14452 14453 14454 14455 14456 14457 14458 14459 14460 14461 14462 14463 14464 14465 14466 14467 14468 14469 14470 14471 14472 14473 14474 14475 14476 14477 14478 14479 14480 14481 14482 14483 14484 14485 14486 14487 14488 14489 14490 14491 14492 14493 14494 14495 14496 14497 14498 14499 14500 14501 14502 14503 14504 14505 14506 14507 14508 14509 14510 14511 14512 14513 14514 14515 14516 14517 14518 14519 14520 14521 14522 14523 14524 14525 14526 14527 14528 14529 14530 14531 14532 14533 14534 14535 14536 14537 14538 14539 14540 14541 14542 14543 14544 14545 14546 14547 14548 14549 14550 14551 14552 14553 14554 14555 14556 14557 14558 14559 14560 14561 14562 14563 14564 14565 14566 14567 14568 14569 14570 14571 14572 14573 14574 14575 14576 14577 14578 14579 14580 14581 14582 14583 14584 14585 14586 14587 14588 14589 14590 14591 14592 14593 14594 14595 14596 14597 14598 14599 14600 14601 14602 14603 14604 14605 14606 14607 14608 14609 14610 14611 14612 14613 14614 14615 14616 14617 14618 14619 14620 14621 14622 14623 14624 14625 14626 14627 14628 14629 14630 14631 14632 14633 14634 14635 14636 14637 14638 14639 14640 14641 14642 14643 14644 14645 14646 14647 14648 14649 14650 14651 14652 14653 14654 14655 14656 14657 14658 14659 14660 14661 14662 14663 14664 14665 14666 14667 14668 14669 14670 14671 14672 14673 14674 14675 14676 14677 14678 14679 14680 14681 14682 14683 14684 14685 14686 14687 14688 14689 14690 14691 14692 14693 14694 14695 14696 14697 14698 14699 14700 14701 14702 14703 14704 14705 14706 14707 14708 14709 14710 14711 14712 14713 14714 14715 14716 14717 14718 14719 14720 14721 14722 14723 14724 14725 14726 14727 14728 14729 14730 14731 14732 14733 14734 14735 14736 14737 14738 14739 14740 14741 14742 14743 14744 14745 14746 14747 14748 14749 14750 14751 14752 14753 14754 14755 14756 14757 14758 14759 14760 14761 14762 14763 14764 14765 14766 14767 14768 14769 14770 14771 14772 14773 14774 14775 14776 14777 14778 14779 14780 14781 14782 14783 14784 14785 14786 14787 14788 14789 14790 14791 14792 14793 14794 14795 14796 14797 14798 14799 14800 14801 14802 14803 14804 14805 14806 14807 14808 14809 14810 14811 14812 14813 14814 14815 14816 14817 14818 14819 14820 14821 14822 14823 14824 14825 14826 14827 14828 14829 14830 14831 14832 14833 14834 14835 14836 14837 14838 14839 14840 14841 14842 14843 14844 14845 14846 14847 14848 14849 14850 14851 14852 14853 14854 14855 14856 14857 14858 14859 14860 14861 14862 14863 14864 14865 14866 14867 14868 14869 14870 14871 14872 14873 14874 14875 14876 14877 14878 14879 14880 14881 14882 14883 14884 14885 14886 14887 14888 14889 14890 14891 14892 14893 14894 14895 14896 14897 14898 14899 14900 14901 14902 14903 14904 14905 14906 14907 14908 14909 14910 14911 14912 14913 14914 14915 14916 14917 14918 14919 14920 14921 14922 14923 14924 14925 14926 14927 14928 14929 14930 14931 14932 14933 14934 14935 14936 14937 14938 14939 14940 14941 14942 14943 14944 14945 14946 14947 14948 14949 14950 14951 14952 14953 14954 14955 14956 14957 14958 14959 14960 14961 14962 14963 14964 14965 14966 14967 14968 14969 14970 14971 14972 14973 14974 14975 14976 14977 14978 14979 14980 14981 14982 14983 14984 14985 14986 14987 14988 14989 14990 14991 14992 14993 14994 14995 14996 14997 14998 14999 15000 15001 15002 15003 15004 15005 15006 15007 15008 15009 15010 15011 15012 15013 15014 15015 15016 15017 15018 15019 15020 15021 15022 15023 15024 15025 15026 15027 15028 15029 15030 15031 15032 15033 15034 15035 15036 15037 15038 15039 15040 15041 15042 15043 15044 15045 15046 15047 15048 15049 15050 15051 15052 15053 15054 15055 15056 15057 15058 15059 15060 15061 15062 15063 15064 15065 15066 15067 15068 15069 15070 15071 15072 15073 15074 15075 15076 15077 15078 15079 15080 15081 15082 15083 15084 15085 15086 15087 15088 15089 15090 15091 15092 15093 15094 15095 15096 15097 15098 15099 15100 15101 15102 15103 15104 15105 15106 15107 15108 15109 15110 15111 15112 15113 15114 15115 15116 15117 15118 15119 15120 15121 15122 15123 15124 15125 15126 15127 15128 15129 15130 15131 15132 15133 15134 15135 15136 15137 15138 15139 15140 15141 15142 15143 15144 15145 15146 15147 15148 15149 15150 15151 15152 15153 15154 15155 15156 15157 15158 15159 15160 15161 15162 15163 15164 15165 15166 15167 15168 15169 15170 15171 15172 15173 15174 15175 15176 15177 15178 15179 15180 15181 15182 15183 15184 15185 15186 15187 15188 15189 15190 15191 15192 15193 15194 15195 15196 15197 15198 15199 15200 15201 15202 15203 15204 15205 15206 15207 15208 15209 15210 15211 15212 15213 15214 15215 15216 15217 15218 15219 15220 15221 15222 15223 15224 15225 15226 15227 15228 15229 15230 15231 15232 15233 15234 15235 15236 15237 15238 15239 15240 15241 15242 15243 15244 15245 15246 15247 15248 15249 15250 15251 15252 15253 15254 15255 15256 15257 15258 15259 15260 15261 15262 15263 15264 15265 15266 15267 15268 15269 15270 15271 15272 15273 15274 15275 15276 15277 15278 15279 15280 15281 15282 15283 15284 15285 15286 15287 15288 15289 15290 15291 15292 15293 15294 15295 15296 15297 15298 15299 15300 15301 15302 15303 15304 15305 15306 15307 15308 15309 15310 15311 15312 15313 15314 15315 15316 15317 15318 15319 15320 15321 15322 15323 15324 15325 15326 15327 15328 15329 15330 15331 15332 15333 15334 15335 15336 15337 15338 15339 15340 15341 15342 15343 15344 15345 15346 15347 15348 15349 15350 15351 15352 15353 15354 15355 15356 15357 15358 15359 15360 15361 15362 15363 15364 15365 15366 15367 15368 15369 15370 15371 15372 15373 15374 15375 15376 15377 15378 15379 15380 15381 15382 15383 15384 15385 15386 15387 15388 15389 15390 15391 15392 15393 15394 15395 15396 15397 15398 15399 15400 15401 15402 15403 15404 15405 15406 15407 15408 15409 15410 15411 15412 15413 15414 15415 15416 15417 15418 15419 15420 15421 15422 15423 15424 15425 15426 15427 15428 15429 15430 15431 15432 15433 15434 15435 15436 15437 15438 15439 15440 15441 15442 15443 15444 15445 15446 15447 15448 15449 15450 15451 15452 15453 15454 15455 15456 15457 15458 15459 15460 15461 15462 15463 15464 15465 15466 15467 15468 15469 15470 15471 15472 15473 15474 15475 15476 15477 15478 15479 15480 15481 15482 15483 15484 15485 15486 15487 15488 15489 15490 15491 15492 15493 15494 15495 15496 15497 15498 15499 15500 15501 15502 15503 15504 15505 15506 15507 15508 15509 15510 15511 15512 15513 15514 15515 15516 15517 15518 15519 15520 15521 15522 15523 15524 15525 15526 15527 15528 15529 15530 15531 15532 15533 15534 15535 15536 15537 15538 15539 15540 15541 15542 15543 15544 15545 15546 15547 15548 15549 15550 15551 15552 15553 15554 15555 15556 15557 15558 15559 15560 15561 15562 15563 15564 15565 15566 15567 15568 15569 15570 15571 15572 15573 15574 15575 15576 15577 15578 15579 15580 15581 15582 15583 15584 15585 15586 15587 15588 15589 15590 15591 15592 15593 15594 15595 15596 15597 15598 15599 15600 15601 15602 15603 15604 15605 15606 15607 15608 15609 15610 15611 15612 15613 15614 15615 15616 15617 15618 15619 15620 15621 15622 15623 15624 15625 15626 15627 15628 15629 15630 15631 15632 15633 15634 15635 15636 15637 15638 15639 15640 15641 15642 15643 15644 15645 15646 15647 15648 15649 15650 15651 15652 15653 15654 15655 15656 15657 15658 15659 15660 15661 15662 15663 15664 15665 15666 15667 15668 15669 15670 15671 15672 15673 15674 15675 15676 15677 15678 15679 15680 15681 15682 15683 15684 15685 15686 15687 15688 15689 15690 15691 15692 15693 15694 15695 15696 15697 15698 15699 15700 15701 15702 15703 15704 15705 15706 15707 15708 15709 15710 15711 15712 15713 15714 15715 15716 15717 15718 15719 15720 15721 15722 15723 15724 15725 15726 15727 15728 15729 15730 15731 15732 15733 15734 15735 15736 15737 15738 15739 15740 15741 15742 15743 15744 15745 15746 15747 15748 15749 15750 15751 15752 15753 15754 15755 15756 15757 15758 15759 15760 15761 15762 15763 15764 15765 15766 15767 15768 15769 15770 15771 15772 15773 15774 15775 15776 15777 15778 15779 15780 15781 15782 15783 15784 15785 15786 15787 15788 15789 15790 15791 15792 15793 15794 15795 15796 15797 15798 15799 15800 15801 15802 15803 15804 15805 15806 15807 15808 15809 15810 15811 15812 15813 15814 15815 15816 15817 15818 15819 15820 15821 15822 15823 15824 15825 15826 15827 15828 15829 15830 15831 15832 15833 15834 15835 15836 15837 15838 15839 15840 15841 15842 15843 15844 15845 15846 15847 15848 15849 15850 15851 15852 15853 15854 15855 15856 15857 15858 15859 15860 15861 15862 15863 15864 15865 15866 15867 15868 15869 15870 15871 15872 15873 15874 15875 15876 15877 15878 15879 15880 15881 15882 15883 15884 15885 15886 15887 15888 15889 15890 15891 15892 15893 15894 15895 15896 15897 15898 15899 15900 15901 15902 15903 15904 15905 15906 15907 15908 15909 15910 15911 15912 15913 15914 15915 15916 15917 15918 15919 15920 15921 15922 15923 15924 15925 15926 15927 15928 15929 15930 15931 15932 15933 15934 15935 15936 15937 15938 15939 15940 15941 15942 15943 15944 15945 15946 15947 15948 15949 15950 15951 15952 15953 15954 15955 15956 15957 15958 15959 15960 15961 15962 15963 15964 15965 15966 15967 15968 15969 15970 15971 15972 15973 15974 15975 15976 15977 15978 15979 15980 15981 15982 15983 15984 15985 15986 15987 15988 15989 15990 15991 15992 15993 15994 15995 15996 15997 15998 15999 16000 16001 16002 16003 16004 16005 16006 16007 16008 16009 16010 16011 16012 16013 16014 16015 16016 16017 16018 16019 16020 16021 16022 16023 16024 16025 16026 16027 16028 16029 16030 16031 16032 16033 16034 16035 16036 16037 16038 16039 16040 16041 16042 16043 16044 16045 16046 16047 16048 16049 16050 16051 16052 16053 16054 16055 16056 16057 16058 16059 16060 16061 16062 16063 16064 16065 16066 16067 16068 16069 16070 16071 16072 16073 16074 16075 16076 16077 16078 16079 16080 16081 16082 16083 16084 16085 16086 16087 16088 16089 16090 16091 16092 16093 16094 16095 16096 16097 16098 16099 16100 16101 16102 16103 16104 16105 16106 16107 16108 16109 16110 16111 16112 16113 16114 16115 16116 16117 16118 16119 16120 16121 16122 16123 16124 16125 16126 16127 16128 16129 16130 16131 16132 16133 16134 16135 16136 16137 16138 16139 16140 16141 16142 16143 16144 16145 16146 16147 16148 16149 16150 16151 16152 16153 16154 16155 16156 16157 16158 16159 16160 16161 16162 16163 16164 16165 16166 16167 16168 16169 16170 16171 16172 16173 16174 16175 16176 16177 16178 16179 16180 16181 16182 16183 16184 16185 16186 16187 16188 16189 16190 16191 16192 16193 16194 16195 16196 16197 16198 16199 16200 16201 16202 16203 16204 16205 16206 16207 16208 16209 16210 16211 16212 16213 16214 16215 16216 16217 16218 16219 16220 16221 16222 16223 16224 16225 16226 16227 16228 16229 16230 16231 16232 16233 16234 16235 16236 16237 16238 16239 16240 16241 16242 16243 16244 16245 16246 16247 16248 16249 16250 16251 16252 16253 16254 16255 16256 16257 16258 16259 16260 16261 16262 16263 16264 16265 16266 16267 16268 16269 16270 16271 16272 16273 16274 16275 16276 16277 16278 16279 16280 16281 16282 16283 16284 16285 16286 16287 16288 16289 16290 16291 16292 16293 16294 16295 16296 16297 16298 16299 16300 16301 16302 16303 16304 16305 16306 16307 16308 16309 16310 16311 16312 16313 16314 16315 16316 16317 16318 16319 16320 16321 16322 16323 16324 16325 16326 16327 16328 16329 16330 16331 16332 16333 16334 16335 16336 16337 16338 16339 16340 16341 16342 16343 16344 16345 16346 16347 16348 16349 16350 16351 16352 16353 16354 16355 16356 16357 16358 16359 16360 16361 16362 16363 16364 16365 16366 16367 16368 16369 16370 16371 16372 16373 16374 16375 16376 16377 16378 16379 16380 16381 16382 16383 16384 16385 16386 16387 16388 16389 16390 16391 16392 16393 16394 16395 16396 16397 16398 16399 16400 16401 16402 16403 16404 16405 16406 16407 16408 16409 16410 16411 16412 16413 16414 16415 16416 16417 16418 16419 16420 16421 16422 16423 16424 16425 16426 16427 16428 16429 16430 16431 16432 16433 16434 16435 16436 16437 16438 16439 16440 16441 16442 16443 16444 16445 16446 16447 16448 16449 16450 16451 16452 16453 16454 16455 16456 16457 16458 16459 16460 16461 16462 16463 16464 16465 16466 16467 16468 16469 16470 16471 16472 16473 16474 16475 16476 16477 16478 16479 16480 16481 16482 16483 16484 16485 16486 16487 16488 16489 16490 16491 16492 16493 16494 16495 16496 16497 16498 16499 16500 16501 16502 16503 16504 16505 16506 16507 16508 16509 16510 16511 16512 16513 16514 16515 16516 16517 16518 16519 16520 16521 16522 16523 16524 16525 16526 16527 16528 16529 16530 16531 16532 16533 16534 16535 16536 16537 16538 16539 16540 16541 16542 16543 16544 16545 16546 16547 16548 16549 16550 16551 16552 16553 16554 16555 16556 16557 16558 16559 16560 16561 16562 16563 16564 16565 16566 16567 16568 16569 16570 16571 16572 16573 16574 16575 16576 16577 16578 16579 16580 16581 16582 16583 16584 16585 16586 16587 16588 16589 16590 16591 16592 16593 16594 16595 16596 16597 16598 16599 16600 16601 16602 16603 16604 16605 16606 16607 16608 16609 16610 16611 16612 16613 16614 16615 16616 16617 16618 16619 16620 16621 16622 16623 16624 16625 16626 16627 16628 16629 16630 16631 16632 16633 16634 16635 16636 16637 16638 16639 16640 16641 16642 16643 16644 16645 16646 16647 16648 16649 16650 16651 16652 16653 16654 16655 16656 16657 16658 16659 16660 16661 16662 16663 16664 16665 16666 16667 16668 16669 16670 16671 16672 16673 16674 16675 16676 16677 16678 16679 16680 16681 16682 16683 16684 16685 16686 16687 16688 16689 16690 16691 16692 16693 16694 16695 16696 16697 16698 16699 16700 16701 16702 16703 16704 16705 16706 16707 16708 16709 16710 16711 16712 16713 16714 16715 16716 16717 16718 16719 16720 16721 16722 16723 16724 16725 16726 16727 16728 16729 16730 16731 16732 16733 16734 16735 16736 16737 16738 16739 16740 16741 16742 16743 16744 16745 16746 16747 16748 16749 16750 16751 16752 16753 16754 16755 16756 16757 16758 16759 16760 16761 16762 16763 16764 16765 16766 16767 16768 16769 16770 16771 16772 16773 16774 16775 16776 16777 16778 16779 16780 16781 16782 16783 16784 16785 16786 16787 16788 16789 16790 16791 16792 16793 16794 16795 16796 16797 16798 16799 16800 16801 16802 16803 16804 16805 16806 16807 16808 16809 16810 16811 16812 16813 16814 16815 16816 16817 16818 16819 16820 16821 16822 16823 16824 16825 16826 16827 16828 16829 16830 16831 16832 16833 16834 16835 16836 16837 16838 16839 16840 16841 16842 16843 16844 16845 16846 16847 16848 16849 16850 16851 16852 16853 16854 16855 16856 16857 16858 16859 16860 16861 16862 16863 16864 16865 16866 16867 16868 16869 16870 16871 16872 16873 16874 16875 16876 16877 16878 16879 16880 16881 16882 16883 16884 16885 16886 16887 16888 16889 16890 16891 16892 16893 16894 16895 16896 16897 16898 16899 16900 16901 16902 16903 16904 16905 16906 16907 16908 16909 16910 16911 16912 16913 16914 16915 16916 16917 16918 16919 16920 16921 16922 16923 16924 16925 16926 16927 16928 16929 16930 16931 16932 16933 16934 16935 16936 16937 16938 16939 16940 16941 16942 16943 16944 16945 16946 16947 16948 16949 16950 16951 16952 16953 16954 16955 16956 16957 16958 16959 16960 16961 16962 16963 16964 16965 16966 16967 16968 16969 16970 16971 16972 16973 16974 16975 16976 16977 16978 16979 16980 16981 16982 16983 16984 16985 16986 16987 16988 16989 16990 16991 16992 16993 16994 16995 16996 16997 16998 16999 17000 17001 17002 17003 17004 17005 17006 17007 17008 17009 17010 17011 17012 17013 17014 17015 17016 17017 17018 17019 17020 17021 17022 17023 17024 17025 17026 17027 17028 17029 17030 17031 17032 17033 17034 17035 17036 17037 17038 17039 17040 17041 17042 17043 17044 17045 17046 17047 17048 17049 17050 17051 17052 17053 17054 17055 17056 17057 17058 17059 17060 17061 17062 17063 17064 17065 17066 17067 17068 17069 17070 17071 17072 17073 17074 17075 17076 17077 17078 17079 17080 17081 17082 17083 17084 17085 17086 17087 17088 17089 17090 17091 17092 17093 17094 17095 17096 17097 17098 17099 17100 17101 17102 17103 17104 17105 17106 17107 17108 17109 17110 17111 17112 17113 17114 17115 17116 17117 17118 17119 17120 17121 17122 17123 17124 17125 17126 17127 17128 17129 17130 17131 17132 17133 17134 17135 17136 17137 17138 17139 17140 17141 17142 17143 17144 17145 17146 17147 17148 17149 17150 17151 17152 17153 17154 17155 17156 17157 17158 17159 17160 17161 17162 17163 17164 17165 17166 17167 17168 17169 17170 17171 17172 17173 17174 17175 17176 17177 17178 17179 17180 17181 17182 17183 17184 17185 17186 17187 17188 17189 17190 17191 17192 17193 17194 17195 17196 17197 17198 17199 17200 17201 17202 17203 17204 17205 17206 17207 17208 17209 17210 17211 17212 17213 17214 17215 17216 17217 17218 17219 17220 17221 17222 17223 17224 17225 17226 17227 17228 17229 17230 17231 17232 17233 17234 17235 17236 17237 17238 17239 17240 17241 17242 17243 17244 17245 17246 17247 17248 17249 17250 17251 17252 17253 17254 17255 17256 17257 17258 17259 17260 17261 17262 17263 17264 17265 17266 17267 17268 17269 17270 17271 17272 17273 17274 17275 17276 17277 17278 17279 17280 17281 17282 17283 17284 17285 17286 17287 17288 17289 17290 17291 17292 17293 17294 17295 17296 17297 17298 17299 17300 17301 17302 17303 17304 17305 17306 17307 17308 17309 17310 17311 17312 17313 17314 17315 17316 17317 17318 17319 17320 17321 17322 17323 17324 17325 17326 17327 17328 17329 17330 17331 17332 17333 17334 17335 17336 17337 17338 17339 17340 17341 17342 17343 17344 17345 17346 17347 17348 17349 17350 17351 17352 17353 17354 17355 17356 17357 17358 17359 17360 17361 17362 17363 17364 17365 17366 17367 17368 17369 17370 17371 17372 17373 17374 17375 17376 17377 17378 17379 17380 17381 17382 17383 17384 17385 17386 17387 17388 17389 17390 17391 17392 17393 17394 17395 17396 17397 17398 17399 17400 17401 17402 17403 17404 17405 17406 17407 17408 17409 17410 17411 17412 17413 17414 17415 17416 17417 17418 17419 17420 17421 17422 17423 17424 17425 17426 17427 17428 17429 17430 17431 17432 17433 17434 17435 17436 17437 17438 17439 17440 17441 17442 17443 17444 17445 17446 17447 17448 17449 17450 17451 17452 17453 17454 17455 17456 17457 17458 17459 17460 17461 17462 17463 17464 17465 17466 17467 17468 17469 17470 17471 17472 17473 17474 17475 17476 17477 17478 17479 17480 17481 17482 17483 17484 17485 17486 17487 17488 17489 17490 17491 17492 17493 17494 17495 17496 17497 17498 17499 17500 17501 17502 17503 17504 17505 17506 17507 17508 17509 17510 17511 17512 17513 17514 17515 17516 17517 17518 17519 17520 17521 17522 17523 17524 17525 17526 17527 17528 17529 17530 17531 17532 17533 17534 17535 17536 17537 17538 17539 17540 17541 17542 17543 17544 17545 17546 17547 17548 17549 17550 17551 17552 17553 17554 17555 17556 17557 17558 17559 17560 17561 17562 17563 17564 17565 17566 17567 17568 17569 17570 17571 17572 17573 17574 17575 17576 17577 17578 17579 17580 17581 17582 17583 17584 17585 17586 17587 17588 17589 17590 17591 17592 17593 17594 17595 17596 17597 17598 17599 17600 17601 17602 17603 17604 17605 17606 17607 17608 17609 17610 17611 17612 17613 17614 17615 17616 17617 17618 17619 17620 17621 17622 17623 17624 17625 17626 17627 17628 17629 17630 17631 17632 17633 17634 17635 17636 17637 17638 17639 17640 17641 17642 17643 17644 17645 17646 17647 17648 17649 17650 17651 17652 17653 17654 17655 17656 17657 17658 17659 17660 17661 17662 17663 17664 17665 17666 17667 17668 17669 17670 17671 17672 17673 17674 17675 17676 17677 17678 17679 17680 17681 17682 17683 17684 17685 17686 17687 17688 17689 17690 17691 17692 17693 17694 17695 17696 17697 17698 17699 17700 17701 17702 17703 17704 17705 17706 17707 17708 17709 17710 17711 17712 17713 17714 17715 17716 17717 17718 17719 17720 17721 17722 17723 17724 17725 17726 17727 17728 17729 17730 17731 17732 17733 17734 17735 17736 17737 17738 17739 17740 17741 17742 17743 17744 17745 17746 17747 17748 17749 17750 17751 17752 17753 17754 17755 17756 17757 17758 17759 17760 17761 17762 17763 17764 17765 17766 17767 17768 17769 17770 17771 17772 17773 17774 17775 17776 17777 17778 17779 17780 17781 17782 17783 17784 17785 17786 17787 17788 17789 17790 17791 17792 17793 17794 17795 17796 17797 17798 17799 17800 17801 17802 17803 17804 17805 17806 17807 17808 17809 17810 17811 17812 17813 17814 17815 17816 17817 17818 17819 17820 17821 17822 17823 17824 17825 17826 17827 17828 17829 17830 17831 17832 17833 17834 17835 17836 17837 17838 17839 17840 17841 17842 17843 17844 17845 17846 17847 17848 17849 17850 17851 17852 17853 17854 17855 17856 17857 17858 17859 17860 17861 17862 17863 17864 17865 17866 17867 17868 17869 17870 17871 17872 17873 17874 17875 17876 17877 17878 17879 17880 17881 17882 17883 17884 17885 17886 17887 17888 17889 17890 17891 17892 17893 17894 17895 17896 17897 17898 17899 17900 17901 17902 17903 17904 17905 17906 17907 17908 17909 17910 17911 17912 17913 17914 17915 17916 17917 17918 17919 17920 17921 17922 17923 17924 17925 17926 17927 17928 17929 17930 17931 17932 17933 17934 17935 17936 17937 17938 17939 17940 17941 17942 17943 17944 17945 17946 17947 17948 17949 17950 17951 17952 17953 17954 17955 17956 17957 17958 17959 17960 17961 17962 17963 17964 17965 17966 17967 17968 17969 17970 17971 17972 17973 17974 17975 17976 17977 17978 17979 17980 17981 17982 17983 17984 17985 17986 17987 17988 17989 17990 17991 17992 17993 17994 17995 17996 17997 17998 17999 18000 18001 18002 18003 18004 18005 18006 18007 18008 18009 18010 18011 18012 18013 18014 18015 18016 18017 18018 18019 18020 18021 18022 18023 18024 18025 18026 18027 18028 18029 18030 18031 18032 18033 18034 18035 18036 18037 18038 18039 18040 18041 18042 18043 18044 18045 18046 18047 18048 18049 18050 18051 18052 18053 18054 18055 18056 18057 18058 18059 18060 18061 18062 18063 18064 18065 18066 18067 18068 18069 18070 18071 18072 18073 18074 18075 18076 18077 18078 18079 18080 18081 18082 18083 18084 18085 18086 18087 18088 18089 18090 18091 18092 18093 18094 18095 18096 18097 18098 18099 18100 18101 18102 18103 18104 18105 18106 18107 18108 18109 18110 18111 18112 18113 18114 18115 18116 18117 18118 18119 18120 18121 18122 18123 18124 18125 18126 18127 18128 18129 18130 18131 18132 18133 18134 18135 18136 18137 18138 18139 18140 18141 18142 18143 18144 18145 18146 18147 18148 18149 18150 18151 18152 18153 18154 18155 18156 18157 18158 18159 18160 18161 18162 18163 18164 18165 18166 18167 18168 18169 18170 18171 18172 18173 18174 18175 18176 18177 18178 18179 18180 18181 18182 18183 18184 18185 18186 18187 18188 18189 18190 18191 18192 18193 18194 18195 18196 18197 18198 18199 18200 18201 18202 18203 18204 18205 18206 18207 18208 18209 18210 18211 18212 18213 18214 18215 18216 18217 18218 18219 18220 18221 18222 18223 18224 18225 18226 18227 18228 18229 18230 18231 18232 18233 18234 18235 18236 18237 18238 18239 18240 18241 18242 18243 18244 18245 18246 18247 18248 18249 18250 18251 18252 18253 18254 18255 18256 18257 18258 18259 18260 18261 18262 18263 18264 18265 18266 18267 18268 18269 18270 18271 18272 18273 18274 18275 18276 18277 18278 18279 18280 18281 18282 18283 18284 18285 18286 18287 18288 18289 18290 18291 18292 18293 18294 18295 18296 18297 18298 18299 18300 18301 18302 18303 18304 18305 18306 18307 18308 18309 18310 18311 18312 18313 18314 18315 18316 18317 18318 18319 18320 18321 18322 18323 18324 18325 18326 18327 18328 18329 18330 18331 18332 18333 18334 18335 18336 18337 18338 18339 18340 18341 18342 18343 18344 18345 18346 18347 18348 18349 18350 18351 18352 18353 18354 18355 18356 18357 18358 18359 18360 18361 18362 18363 18364 18365 18366 18367 18368 18369 18370 18371 18372 18373 18374 18375 18376 18377 18378 18379 18380 18381 18382 18383 18384 18385 18386 18387 18388 18389 18390 18391 18392 18393 18394 18395 18396 18397 18398 18399 18400 18401 18402 18403 18404 18405 18406 18407 18408 18409 18410 18411 18412 18413 18414 18415 18416 18417 18418 18419 18420 18421 18422 18423 18424 18425 18426 18427 18428 18429 18430 18431 18432 18433 18434 18435 18436 18437 18438 18439 18440 18441 18442 18443 18444 18445 18446 18447 18448 18449 18450 18451 18452 18453 18454 18455 18456 18457 18458 18459 18460 18461 18462 18463 18464 18465 18466 18467 18468 18469 18470 18471 18472 18473 18474 18475 18476 18477 18478 18479 18480 18481 18482 18483 18484 18485 18486 18487 18488 18489 18490 18491 18492 18493 18494 18495 18496 18497 18498 18499 18500 18501 18502 18503 18504 18505 18506 18507 18508 18509 18510 18511 18512 18513 18514 18515 18516 18517 18518 18519 18520 18521 18522 18523 18524 18525 18526 18527 18528 18529 18530 18531 18532 18533 18534 18535 18536 18537 18538 18539 18540 18541 18542 18543 18544 18545 18546 18547 18548 18549 18550 18551 18552 18553 18554 18555 18556 18557 18558 18559 18560 18561 18562 18563 18564 18565 18566 18567 18568 18569 18570 18571 18572 18573 18574 18575 18576 18577 18578 18579 18580 18581 18582 18583 18584 18585 18586 18587 18588 18589 18590 18591 18592 18593 18594 18595 18596 18597 18598 18599 18600 18601 18602 18603 18604 18605 18606 18607 18608 18609 18610 18611 18612 18613 18614 18615 18616 18617 18618 18619 18620 18621 18622 18623 18624 18625 18626 18627 18628 18629 18630 18631 18632 18633 18634 18635 18636 18637 18638 18639 18640 18641 18642 18643 18644 18645 18646 18647 18648 18649 18650 18651 18652 18653 18654 18655 18656 18657 18658 18659 18660 18661 18662 18663 18664 18665 18666 18667 18668 18669 18670 18671 18672 18673 18674 18675 18676 18677 18678 18679 18680 18681 18682 18683 18684 18685 18686 18687 18688 18689 18690 18691 18692 18693 18694 18695 18696 18697 18698 18699 18700 18701 18702 18703 18704 18705 18706 18707 18708 18709 18710 18711 18712 18713 18714 18715 18716 18717 18718 18719 18720 18721 18722 18723 18724 18725 18726 18727 18728 18729 18730 18731 18732 18733 18734 18735 18736 18737 18738 18739 18740 18741 18742 18743 18744 18745 18746 18747 18748 18749 18750 18751 18752 18753 18754 18755 18756 18757 18758 18759 18760 18761 18762 18763 18764 18765 18766 18767 18768 18769 18770 18771 18772 18773 18774 18775 18776 18777 18778 18779 18780 18781 18782 18783 18784 18785 18786 18787 18788 18789 18790 18791 18792 18793 18794 18795 18796 18797 18798 18799 18800 18801 18802 18803 18804 18805 18806 18807 18808 18809 18810 18811 18812 18813 18814 18815 18816 18817 18818 18819 18820 18821 18822 18823 18824 18825 18826 18827 18828 18829 18830 18831 18832 18833 18834 18835 18836 18837 18838 18839 18840 18841 18842 18843 18844 18845 18846 18847 18848 18849 18850 18851 18852 18853 18854 18855 18856 18857 18858 18859 18860 18861 18862 18863 18864 18865 18866 18867 18868 18869 18870 18871 18872 18873 18874 18875 18876 18877 18878 18879 18880 18881 18882 18883 18884 18885 18886 18887 18888 18889 18890 18891 18892 18893 18894 18895 18896 18897 18898 18899 18900 18901 18902 18903 18904 18905 18906 18907 18908 18909 18910 18911 18912 18913 18914 18915 18916 18917 18918 18919 18920 18921 18922 18923 18924 18925 18926 18927 18928 18929 18930 18931 18932 18933 18934 18935 18936 18937 18938 18939 18940 18941 18942 18943 18944 18945 18946 18947 18948 18949 18950 18951 18952 18953 18954 18955 18956 18957 18958 18959 18960 18961 18962 18963 18964 18965 18966 18967 18968 18969 18970 18971 18972 18973 18974 18975 18976 18977 18978 18979 18980 18981 18982 18983 18984 18985 18986 18987 18988 18989 18990 18991 18992 18993 18994 18995 18996 18997 18998 18999 19000 19001 19002 19003 19004 19005 19006 19007 19008 19009 19010 19011 19012 19013 19014 19015 19016 19017 19018 19019 19020 19021 19022 19023 19024 19025 19026 19027 19028 19029 19030 19031 19032 19033 19034 19035 19036 19037 19038 19039 19040 19041 19042 19043 19044 19045 19046 19047 19048 19049 19050 19051 19052 19053 19054 19055 19056 19057 19058 19059 19060 19061 19062 19063 19064 19065 19066 19067 19068 19069 19070 19071 19072 19073 19074 19075 19076 19077 19078 19079 19080 19081 19082 19083 19084 19085 19086 19087 19088 19089 19090 19091 19092 19093 19094 19095 19096 19097 19098 19099 19100 19101 19102 19103 19104 19105 19106 19107 19108 19109 19110 19111 19112 19113 19114 19115 19116 19117 19118 19119 19120 19121 19122 19123 19124 19125 19126 19127 19128 19129 19130 19131 19132 19133 19134 19135 19136 19137 19138 19139 19140 19141 19142 19143 19144 19145 19146 19147 19148 19149 19150 19151 19152 19153 19154 19155 19156 19157 19158 19159 19160 19161 19162 19163 19164 19165 19166 19167 19168 19169 19170 19171 19172 19173 19174 19175 19176 19177 19178 19179 19180 19181 19182 19183 19184 19185 19186 19187 19188 19189 19190 19191 19192 19193 19194 19195 19196 19197 19198 19199 19200 19201 19202 19203 19204 19205 19206 19207 19208 19209 19210 19211 19212 19213 19214 19215 19216 19217 19218 19219 19220 19221 19222 19223 19224 19225 19226 19227 19228 19229 19230 19231 19232 19233 19234 19235 19236 19237 19238 19239 19240 19241 19242 19243 19244 19245 19246 19247 19248 19249 19250 19251 19252 19253 19254 19255 19256 19257 19258 19259 19260 19261 19262 19263 19264 19265 19266 19267 19268 19269 19270 19271 19272 19273 19274 19275 19276 19277 19278 19279 19280 19281 19282 19283 19284 19285 19286 19287 19288 19289 19290 19291 19292 19293 19294 19295 19296 19297 19298 19299 19300 19301 19302 19303 19304 19305 19306 19307 19308 19309 19310 19311 19312 19313 19314 19315 19316 19317 19318 19319 19320 19321 19322 19323 19324 19325 19326 19327 19328 19329 19330 19331 19332 19333 19334 19335 19336 19337 19338 19339 19340 19341 19342 19343 19344 19345 19346 19347 19348 19349 19350 19351 19352 19353 19354 19355 19356 19357 19358 19359 19360 19361 19362 19363 19364 19365 19366 19367 19368 19369 19370 19371 19372 19373 19374 19375 19376 19377 19378 19379 19380 19381 19382 19383 19384 19385 19386 19387 19388 19389 19390 19391 19392 19393 19394 19395 19396 19397 19398 19399 19400 19401 19402 19403 19404 19405 19406 19407 19408 19409 19410 19411 19412 19413 19414 19415 19416 19417 19418 19419 19420 19421 19422 19423 19424 19425 19426 19427 19428 19429 19430 19431 19432 19433 19434 19435 19436 19437 19438 19439 19440 19441 19442 19443 19444 19445 19446 19447 19448 19449 19450 19451 19452 19453 19454 19455 19456 19457 19458 19459 19460 19461 19462 19463 19464 19465 19466 19467 19468 19469 19470 19471 19472 19473 19474 19475 19476 19477 19478 19479 19480 19481 19482 19483 19484 19485 19486 19487 19488 19489 19490 19491 19492 19493 19494 19495 19496 19497 19498 19499 19500 19501 19502 19503 19504 19505 19506 19507 19508 19509 19510 19511 19512 19513 19514 19515 19516 19517 19518 19519 19520 19521 19522 19523 19524 19525 19526 19527 19528 19529 19530 19531 19532 19533 19534 19535 19536 19537 19538 19539 19540 19541 19542 19543 19544 19545 19546 19547 19548 19549 19550 19551 19552 19553 19554 19555 19556 19557 19558 19559 19560 19561 19562 19563 19564 19565 19566 19567 19568 19569 19570 19571 19572 19573 19574 19575 19576 19577 19578 19579 19580 19581 19582 19583 19584 19585 19586 19587 19588 19589 19590 19591 19592 19593 19594 19595 19596 19597 19598 19599 19600 19601 19602 19603 19604 19605 19606 19607 19608 19609 19610 19611 19612 19613 19614 19615 19616 19617 19618 19619 19620 19621 19622 19623 19624 19625 19626 19627 19628 19629 19630 19631 19632 19633 19634 19635 19636 19637 19638 19639 19640 19641 19642 19643 19644 19645 19646 19647 19648 19649 19650 19651 19652 19653 19654 19655 19656 19657 19658 19659 19660 19661 19662 19663 19664 19665 19666 19667 19668 19669 19670 19671 19672 19673 19674 19675 19676 19677 19678 19679 19680 19681 19682 19683 19684 19685 19686 19687 19688 19689 19690 19691 19692 19693 19694 19695 19696 19697 19698 19699 19700 19701 19702 19703 19704 19705 19706 19707 19708 19709 19710 19711 19712 19713 19714 19715 19716 19717 19718 19719 19720 19721 19722 19723 19724 19725 19726 19727 19728 19729 19730 19731 19732 19733 19734 19735 19736 19737 19738 19739 19740 19741 19742 19743 19744 19745 19746 19747 19748 19749 19750 19751 19752 19753 19754 19755 19756 19757 19758 19759 19760 19761 19762 19763 19764 19765 19766 19767 19768 19769 19770 19771 19772 19773 19774 19775 19776 19777 19778 19779 19780 19781 19782 19783 19784 19785 19786 19787 19788 19789 19790 19791 19792 19793 19794 19795 19796 19797 19798 19799 19800 19801 19802 19803 19804 19805 19806 19807 19808 19809 19810 19811 19812 19813 19814 19815 19816 19817 19818 19819 19820 19821 19822 19823 19824 19825 19826 19827 19828 19829 19830 19831 19832 19833 19834 19835 19836 19837 19838 19839 19840 19841 19842 19843 19844 19845 19846 19847 19848 19849 19850 19851 19852 19853 19854 19855 19856 19857 19858 19859 19860 19861 19862 19863 19864 19865 19866 19867 19868 19869 19870 19871 19872 19873 19874 19875 19876 19877 19878 19879 19880 19881 19882 19883 19884 19885 19886 19887 19888 19889 19890 19891 19892 19893 19894 19895 19896 19897 19898 19899 19900 19901 19902 19903 19904 19905 19906 19907 19908 19909 19910 19911 19912 19913 19914 19915 19916 19917 19918 19919 19920 19921 19922 19923 19924 19925 19926 19927 19928 19929 19930 19931 19932 19933 19934 19935 19936 19937 19938 19939 19940 19941 19942 19943 19944 19945 19946 19947 19948 19949 19950 19951 19952 19953 19954 19955 19956 19957 19958 19959 19960 19961 19962 19963 19964 19965 19966 19967 19968 19969 19970 19971 19972 19973 19974 19975 19976 19977 19978 19979 19980 19981 19982 19983 19984 19985 19986 19987 19988 19989 19990 19991 19992 19993 19994 19995 19996 19997 19998 19999 20000 20001 20002 20003 20004 20005 20006 20007 20008 20009 20010 20011 20012 20013 20014 20015 20016 20017 20018 20019 20020 20021 20022 20023 20024 20025 20026 20027 20028 20029 20030 20031 20032 20033 20034 20035 20036 20037 20038 20039 20040 20041 20042 20043 20044 20045 20046 20047 20048 20049 20050 20051 20052 20053 20054 20055 20056 20057 20058 20059 20060 20061 20062 20063 20064 20065 20066 20067 20068 20069 20070 20071 20072 20073 20074 20075 20076 20077 20078 20079 20080 20081 20082 20083 20084 20085 20086 20087 20088 20089 20090 20091 20092 20093 20094 20095 20096 20097 20098 20099 20100 20101 20102 20103 20104 20105 20106 20107 20108 20109 20110 20111 20112 20113 20114 20115 20116 20117 20118 20119 20120 20121 20122 20123 20124 20125 20126 20127 20128 20129 20130 20131 20132 20133 20134 20135 20136 20137 20138 20139 20140 20141 20142 20143 20144 20145 20146 20147 20148 20149 20150 20151 20152 20153 20154 20155 20156 20157 20158 20159 20160 20161 20162 20163 20164 20165 20166 20167 20168 20169 20170 20171 20172 20173 20174 20175 20176 20177 20178 20179 20180 20181 20182 20183 20184 20185 20186 20187 20188 20189 20190 20191 20192 20193 20194 20195 20196 20197 20198 20199 20200 20201 20202 20203 20204 20205 20206 20207 20208 20209 20210 20211 20212 20213 20214 20215 20216 20217 20218 20219 20220 20221 20222 20223 20224 20225 20226 20227 20228 20229 20230 20231 20232 20233 20234 20235 20236 20237 20238 20239 20240 20241 20242 20243 20244 20245 20246 20247 20248 20249 20250 20251 20252 20253 20254 20255 20256 20257 20258 20259 20260 20261 20262 20263 20264 20265 20266 20267 20268 20269 20270 20271 20272 20273 20274 20275 20276 20277 20278 20279 20280 20281 20282 20283 20284 20285 20286 20287 20288 20289 20290 20291 20292 20293 20294 20295 20296 20297 20298 20299 20300 20301 20302 20303 20304 20305 20306 20307 20308 20309 20310 20311 20312 20313 20314 20315 20316 20317 20318 20319 20320 20321 20322 20323 20324 20325 20326 20327 20328 20329 20330 20331 20332 20333 20334 20335 20336 20337 20338 20339 20340 20341 20342 20343 20344 20345 20346 20347 20348 20349 20350 20351 20352 20353 20354 20355 20356 20357 20358 20359 20360 20361 20362 20363 20364 20365 20366 20367 20368 20369 20370 20371 20372 20373 20374 20375 20376 20377 20378 20379 20380 20381 20382 20383 20384 20385 20386 20387 20388 20389 20390 20391 20392 20393 20394 20395 20396 20397 20398 20399 20400 20401 20402 20403 20404 20405 20406 20407 20408 20409 20410 20411 20412 20413 20414 20415 20416 20417 20418 20419 20420 20421 20422 20423 20424 20425 20426 20427 20428 20429 20430 20431 20432 20433 20434 20435 20436 20437 20438 20439 20440 20441 20442 20443 20444 20445 20446 20447 20448 20449 20450 20451 20452 20453 20454 20455 20456 20457 20458 20459 20460 20461 20462 20463 20464 20465 20466 20467 20468 20469 20470 20471 20472 20473 20474 20475 20476 20477 20478 20479 20480 20481 20482 20483 20484 20485 20486 20487 20488 20489 20490 20491 20492 20493 20494 20495 20496 20497 20498 20499 20500 20501 20502 20503 20504 20505 20506 20507 20508 20509 20510 20511 20512 20513 20514 20515 20516 20517 20518 20519 20520 20521 20522 20523 20524 20525 20526 20527 20528 20529 20530 20531 20532 20533 20534 20535 20536 20537 20538 20539 20540 20541 20542 20543 20544 20545 20546 20547 20548 20549 20550 20551 20552 20553 20554 20555 20556 20557 20558 20559 20560 20561 20562 20563 20564 20565 20566 20567 20568 20569 20570 20571 20572 20573 20574 20575 20576 20577 20578 20579 20580 20581 20582 20583 20584 20585 20586 20587 20588 20589 20590 20591 20592 20593 20594 20595 20596 20597 20598 20599 20600 20601 20602 20603 20604 20605 20606 20607 20608 20609 20610 20611 20612 20613 20614 20615 20616 20617 20618 20619 20620 20621 20622 20623 20624 20625 20626 20627 20628 20629 20630 20631 20632 20633 20634 20635 20636 20637 20638 20639 20640 20641 20642 20643 20644 20645 20646 20647 20648 20649 20650 20651 20652 20653 20654 20655 20656 20657 20658 20659 20660 20661 20662 20663 20664 20665 20666 20667 20668 20669 20670 20671 20672 20673 20674 20675 20676 20677 20678 20679 20680 20681 20682 20683 20684 20685 20686 20687 20688 20689 20690 20691 20692 20693 20694 20695 20696 20697 20698 20699 20700 20701 20702 20703 20704 20705 20706 20707 20708 20709 20710 20711 20712 20713 20714 20715 20716 20717 20718 20719 20720 20721 20722 20723 20724 20725 20726 20727 20728 20729 20730 20731 20732 20733 20734 20735 20736 20737 20738 20739 20740 20741 20742 20743 20744 20745 20746 20747 20748 20749 20750 20751 20752 20753 20754 20755 20756 20757 20758 20759 20760 20761 20762 20763 20764 20765 20766 20767 20768 20769 20770 20771 20772 20773 20774 20775 20776 20777 20778 20779 20780 20781 20782 20783 20784 20785 20786 20787 20788 20789 20790 20791 20792 20793 20794 20795 20796 20797 20798 20799 20800 20801 20802 20803 20804 20805 20806 20807 20808 20809 20810 20811 20812 20813 20814 20815 20816 20817 20818 20819 20820 20821 20822 20823 20824 20825 20826 20827 20828 20829 20830 20831 20832 20833 20834 20835 20836 20837 20838 20839 20840 20841 20842 20843 20844 20845 20846 20847 20848 20849 20850 20851 20852 20853 20854 20855 20856 20857 20858 20859 20860 20861 20862 20863 20864 20865 20866 20867 20868 20869 20870 20871 20872 20873 20874 20875 20876 20877 20878 20879 20880 20881 20882 20883 20884 20885 20886 20887 20888 20889 20890 20891 20892 20893 20894 20895 20896 20897 20898 20899 20900 20901 20902 20903 20904 20905 20906 20907 20908 20909 20910 20911 20912 20913 20914 20915 20916 20917 20918 20919 20920 20921 20922 20923 20924 20925 20926 20927 20928 20929 20930 20931 20932 20933 20934 20935 20936 20937 20938 20939 20940 20941 20942 20943 20944 20945 20946 20947 20948 20949 20950 20951 20952 20953 20954 20955 20956 20957 20958 20959 20960 20961 20962 20963 20964 20965 20966 20967 20968 20969 20970 20971 20972 20973 20974 20975 20976 20977 20978 20979 20980 20981 20982 20983 20984 20985 20986 20987 20988 20989 20990 20991 20992 20993 20994 20995 20996 20997 20998 20999 21000 21001 21002 21003 21004 21005 21006 21007 21008 21009 21010 21011 21012 21013 21014 21015 21016 21017 21018 21019 21020 21021 21022 21023 21024 21025 21026 21027 21028 21029 21030 21031 21032 21033 21034 21035 21036 21037 21038 21039 21040 21041 21042 21043 21044 21045 21046 21047 21048 21049 21050 21051 21052 21053 21054 21055 21056 21057 21058 21059 21060 21061 21062 21063 21064 21065 21066 21067 21068 21069 21070 21071 21072 21073 21074 21075 21076 21077 21078 21079 21080 21081 21082 21083 21084 21085 21086 21087 21088 21089 21090 21091 21092 21093 21094 21095 21096 21097 21098 21099 21100 21101 21102 21103 21104 21105 21106 21107 21108 21109 21110 21111 21112 21113 21114 21115 21116 21117 21118 21119 21120 21121 21122 21123 21124 21125 21126 21127 21128 21129 21130 21131 21132 21133 21134 21135 21136 21137 21138 21139 21140 21141 21142 21143 21144 21145 21146 21147 21148 21149 21150 21151 21152 21153 21154 21155 21156 21157 21158 21159 21160 21161 21162 21163 21164 21165 21166 21167 21168 21169 21170 21171 21172 21173 21174 21175 21176 21177 21178 21179 21180 21181 21182 21183 21184 21185 21186 21187 21188 21189 21190 21191 21192 21193 21194 21195 21196 21197 21198 21199 21200 21201 21202 21203 21204 21205 21206 21207 21208 21209 21210 21211 21212 21213 21214 21215 21216 21217 21218 21219 21220 21221 21222 21223 21224 21225 21226 21227 21228 21229 21230 21231 21232 21233 21234 21235 21236 21237 21238 21239 21240 21241 21242 21243 21244 21245 21246 21247 21248 21249 21250 21251 21252 21253 21254 21255 21256 21257 21258 21259 21260 21261 21262 21263 21264 21265 21266 21267 21268 21269 21270 21271 21272 21273 21274 21275 21276 21277 21278 21279 21280 21281 21282 21283 21284 21285 21286 21287 21288 21289 21290 21291 21292 21293 21294 21295 21296 21297 21298 21299 21300 21301 21302 21303 21304 21305 21306 21307 21308 21309 21310 21311 21312 21313 21314 21315 21316 21317 21318 21319 21320 21321 21322 21323 21324 21325 21326 21327 21328 21329 21330 21331 21332 21333 21334 21335 21336 21337 21338 21339 21340 21341 21342 21343 21344 21345 21346 21347 21348 21349 21350 21351 21352 21353 21354 21355 21356 21357 21358 21359 21360 21361 21362 21363 21364 21365 21366 21367 21368 21369 21370 21371 21372 21373 21374 21375 21376 21377 21378 21379 21380 21381 21382 21383 21384 21385 21386 21387 21388 21389 21390 21391 21392 21393 21394 21395 21396 21397 21398 21399 21400 21401 21402 21403 21404 21405 21406 21407 21408 21409 21410 21411 21412 21413 21414 21415 21416 21417 21418 21419 21420 21421 21422 21423 21424 21425 21426 21427 21428 21429 21430 21431 21432 21433 21434 21435 21436 21437 21438 21439 21440 21441 21442 21443 21444 21445 21446 21447 21448 21449 21450 21451 21452 21453 21454 21455 21456 21457 21458 21459 21460 21461 21462 21463 21464 21465 21466 21467 21468 21469 21470 21471 21472 21473 21474 21475 21476 21477 21478 21479 21480 21481 21482 21483 21484 21485 21486 21487 21488 21489 21490 21491 21492 21493 21494 21495 21496 21497 21498 21499 21500 21501 21502 21503 21504 21505 21506 21507 21508 21509 21510 21511 21512 21513 21514 21515 21516 21517 21518 21519 21520 21521 21522 21523 21524 21525 21526 21527 21528 21529 21530 21531 21532 21533 21534 21535 21536 21537 21538 21539 21540 21541 21542 21543 21544 21545 21546 21547 21548 21549 21550 21551 21552 21553 21554 21555 21556 21557 21558 21559 21560 21561 21562 21563 21564 21565 21566 21567 21568 21569 21570 21571 21572 21573 21574 21575 21576 21577 21578 21579 21580 21581 21582 21583 21584 21585 21586 21587 21588 21589 21590 21591 21592 21593 21594 21595 21596 21597 21598 21599 21600 21601 21602 21603 21604 21605 21606 21607 21608 21609 21610 21611 21612 21613 21614 21615 21616 21617 21618 21619 21620 21621 21622 21623 21624 21625 21626 21627 21628 21629 21630 21631 21632 21633 21634 21635 21636 21637 21638 21639 21640 21641 21642 21643 21644 21645 21646 21647 21648 21649 21650 21651 21652 21653 21654 21655 21656 21657 21658 21659 21660 21661 21662 21663 21664 21665 21666 21667 21668 21669 21670 21671 21672 21673 21674 21675 21676 21677 21678 21679 21680 21681 21682 21683 21684 21685 21686 21687 21688 21689 21690 21691 21692 21693 21694 21695 21696 21697 21698 21699 21700 21701 21702 21703 21704 21705 21706 21707 21708 21709 21710 21711 21712 21713 21714 21715 21716 21717 21718 21719 21720 21721 21722 21723 21724 21725 21726 21727 21728 21729 21730 21731 21732 21733 21734 21735 21736 21737 21738 21739 21740 21741 21742 21743 21744 21745 21746 21747 21748 21749 21750 21751 21752 21753 21754 21755 21756 21757 21758 21759 21760 21761 21762 21763 21764 21765 21766 21767 21768 21769 21770 21771 21772 21773 21774 21775 21776 21777 21778 21779 21780 21781 21782 21783 21784 21785 21786 21787 21788 21789 21790 21791 21792 21793 21794 21795 21796 21797 21798 21799 21800 21801 21802 21803 21804 21805 21806 21807 21808 21809 21810 21811 21812 21813 21814 21815 21816 21817 21818 21819 21820 21821 21822 21823 21824 21825 21826 21827 21828 21829 21830 21831 21832 21833 21834 21835 21836 21837 21838 21839 21840 21841 21842 21843 21844 21845 21846 21847 21848 21849 21850 21851 21852 21853 21854 21855 21856 21857 21858 21859 21860 21861 21862 21863 21864 21865 21866 21867 21868 21869 21870 21871 21872 21873 21874 21875 21876 21877 21878 21879 21880 21881 21882 21883 21884 21885 21886 21887 21888 21889 21890 21891 21892 21893 21894 21895 21896 21897 21898 21899 21900 21901 21902 21903 21904 21905 21906 21907 21908 21909 21910 21911 21912 21913 21914 21915 21916 21917 21918 21919 21920 21921 21922 21923 21924 21925 21926 21927 21928 21929 21930 21931 21932 21933 21934 21935 21936 21937 21938 21939 21940 21941 21942 21943 21944 21945 21946 21947 21948 21949 21950 21951 21952 21953 21954 21955 21956 21957 21958 21959 21960 21961 21962 21963 21964 21965 21966 21967 21968 21969 21970 21971 21972 21973 21974 21975 21976 21977 21978 21979 21980 21981 21982 21983 21984 21985 21986 21987 21988 21989 21990 21991 21992 21993 21994 21995 21996 21997 21998 21999 22000 22001 22002 22003 22004 22005 22006 22007 22008 22009 22010 22011 22012 22013 22014 22015 22016 22017 22018 22019 22020 22021 22022 22023 22024 22025 22026 22027 22028 22029 22030 22031 22032 22033 22034 22035 22036 22037 22038 22039 22040 22041 22042 22043 22044 22045 22046 22047 22048 22049 22050 22051 22052 22053 22054 22055 22056 22057 22058 22059 22060 22061 22062 22063 22064 22065 22066 22067 22068 22069 22070 22071 22072 22073 22074 22075 22076 22077 22078 22079 22080 22081 22082 22083 22084 22085 22086 22087 22088 22089 22090 22091 22092 22093 22094 22095 22096 22097 22098 22099 22100 22101 22102 22103 22104 22105 22106 22107 22108 22109 22110 22111 22112 22113 22114 22115 22116 22117 22118 22119 22120 22121 22122 22123 22124 22125 22126 22127 22128 22129 22130 22131 22132 22133 22134 22135 22136 22137 22138 22139 22140 22141 22142 22143 22144 22145 22146 22147 22148 22149 22150 22151 22152 22153 22154 22155 22156 22157 22158 22159 22160 22161 22162 22163 22164 22165 22166 22167 22168 22169 22170 22171 22172 22173 22174 22175 22176 22177 22178 22179 22180 22181 22182 22183 22184 22185 22186 22187 22188 22189 22190 22191 22192 22193 22194 22195 22196 22197 22198 22199 22200 22201 22202 22203 22204 22205 22206 22207 22208 22209 22210 22211 22212 22213 22214 22215 22216 22217 22218 22219 22220 22221 22222 22223 22224 22225 22226 22227 22228 22229 22230 22231 22232 22233 22234 22235 22236 22237 22238 22239 22240 22241 22242 22243 22244 22245 22246 22247 22248 22249 22250 22251 22252 22253 22254 22255 22256 22257 22258 22259 22260 22261 22262 22263 22264 22265 22266 22267 22268 22269 22270 22271 22272 22273 22274 22275 22276 22277 22278 22279 22280 22281 22282 22283 22284 22285 22286 22287 22288 22289 22290 22291 22292 22293 22294 22295 22296 22297 22298 22299 22300 22301 22302 22303 22304 22305 22306 22307 22308 22309 22310 22311 22312 22313 22314 22315 22316 22317 22318 22319 22320 22321 22322 22323 22324 22325 22326 22327 22328 22329 22330 22331 22332 22333 22334 22335 22336 22337 22338 22339 22340 22341 22342 22343 22344 22345 22346 22347 22348 22349 22350 22351 22352 22353 22354 22355 22356 22357 22358 22359 22360 22361 22362 22363 22364 22365 22366 22367 22368 22369 22370 22371 22372 22373 22374 22375 22376 22377 22378 22379 22380 22381 22382 22383 22384 22385 22386 22387 22388 22389 22390 22391 22392 22393 22394 22395 22396 22397 22398 22399 22400 22401 22402 22403 22404 22405 22406 22407 22408 22409 22410 22411 22412 22413 22414 22415 22416 22417 22418 22419 22420 22421 22422 22423 22424 22425 22426 22427 22428 22429 22430 22431 22432 22433 22434 22435 22436 22437 22438 22439 22440 22441 22442 22443 22444 22445 22446 22447 22448 22449 22450 22451 22452 22453 22454 22455 22456 22457 22458 22459 22460 22461 22462 22463 22464 22465 22466 22467 22468 22469 22470 22471 22472 22473 22474 22475 22476 22477 22478 22479 22480 22481 22482 22483 22484 22485 22486 22487 22488 22489 22490 22491 22492 22493 22494 22495 22496 22497 22498 22499 22500 22501 22502 22503 22504 22505 22506 22507 22508 22509 22510 22511 22512 22513 22514 22515 22516 22517 22518 22519 22520 22521 22522 22523 22524 22525 22526 22527 22528 22529 22530 22531 22532 22533 22534 22535 22536 22537 22538 22539 22540 22541 22542 22543 22544 22545 22546 22547 22548 22549 22550 22551 22552 22553 22554 22555 22556 22557 22558 22559 22560 22561 22562 22563 22564 22565 22566 22567 22568 22569 22570 22571 22572 22573 22574 22575 22576 22577 22578 22579 22580 22581 22582 22583 22584 22585 22586 22587 22588 22589 22590 22591 22592 22593 22594 22595 22596 22597 22598 22599 22600 22601 22602 22603 22604 22605 22606 22607 22608 22609 22610 22611 22612 22613 22614 22615 22616 22617 22618 22619 22620 22621 22622 22623 22624 22625 22626 22627 22628 22629 22630 22631 22632 22633 22634 22635 22636 22637 22638 22639 22640 22641 22642 22643 22644 22645 22646 22647 22648 22649 22650 22651 22652 22653 22654 22655 22656 22657 22658 22659 22660 22661 22662 22663 22664 22665 22666 22667 22668 22669 22670 22671 22672 22673 22674 22675 22676 22677 22678 22679 22680 22681 22682 22683 22684 22685 22686 22687 22688 22689 22690 22691 22692 22693 22694 22695 22696 22697 22698 22699 22700 22701 22702 22703 22704 22705 22706 22707 22708 22709 22710 22711 22712 22713 22714 22715 22716 22717 22718 22719 22720 22721 22722 22723 22724 22725 22726 22727 22728 22729 22730 22731 22732 22733 22734 22735 22736 22737 22738 22739 22740 22741 22742 22743 22744 22745 22746 22747 22748 22749 22750 22751 22752 22753 22754 22755 22756 22757 22758 22759 22760 22761 22762 22763 22764 22765 22766 22767 22768 22769 22770 22771 22772 22773 22774 22775 22776 22777 22778 22779 22780 22781 22782 22783 22784 22785 22786 22787 22788 22789 22790 22791 22792 22793 22794 22795 22796 22797 22798 22799 22800 22801 22802 22803 22804 22805 22806 22807 22808 22809 22810 22811 22812 22813 22814 22815 22816 22817 22818 22819 22820 22821 22822 22823 22824 22825 22826 22827 22828 22829 22830 22831 22832 22833 22834 22835 22836 22837 22838 22839 22840 22841 22842 22843 22844 22845 22846 22847 22848 22849 22850 22851 22852 22853 22854 22855 22856 22857 22858 22859 22860 22861 22862 22863 22864 22865 22866 22867 22868 22869 22870 22871 22872 22873 22874 22875 22876 22877 22878 22879 22880 22881 22882 22883 22884 22885 22886 22887 22888 22889 22890 22891 22892 22893 22894 22895 22896 22897 22898 22899 22900 22901 22902 22903 22904 22905 22906 22907 22908 22909 22910 22911 22912 22913 22914 22915 22916 22917 22918 22919 22920 22921 22922 22923 22924 22925 22926 22927 22928 22929 22930 22931 22932 22933 22934 22935 22936 22937 22938 22939 22940 22941 22942 22943 22944 22945 22946 22947 22948 22949 22950 22951 22952 22953 22954 22955 22956 22957 22958 22959 22960 22961 22962 22963 22964 22965 22966 22967 22968 22969 22970 22971 22972 22973 22974 22975 22976 22977 22978 22979 22980 22981 22982 22983 22984 22985 22986 22987 22988 22989 22990 22991 22992 22993 22994 22995 22996 22997 22998 22999 23000 23001 23002 23003 23004 23005 23006 23007 23008 23009 23010 23011 23012 23013 23014 23015 23016 23017 23018 23019 23020 23021 23022 23023 23024 23025 23026 23027 23028 23029 23030 23031 23032 23033 23034 23035 23036 23037 23038 23039 23040 23041 23042 23043 23044 23045 23046 23047 23048 23049 23050 23051 23052 23053 23054 23055 23056 23057 23058 23059 23060 23061 23062 23063 23064 23065 23066 23067 23068 23069 23070 23071 23072 23073 23074 23075 23076 23077 23078 23079 23080 23081 23082 23083 23084 23085 23086 23087 23088 23089 23090 23091 23092 23093 23094 23095 23096 23097 23098 23099 23100 23101 23102 23103 23104 23105 23106 23107 23108 23109 23110 23111 23112 23113 23114 23115 23116 23117 23118 23119 23120 23121 23122 23123 23124 23125 23126 23127 23128 23129 23130 23131 23132 23133 23134 23135 23136 23137 23138 23139 23140 23141 23142 23143 23144 23145 23146 23147 23148 23149 23150 23151 23152 23153 23154 23155 23156 23157 23158 23159 23160 23161 23162 23163 23164 23165 23166 23167 23168 23169 23170 23171 23172 23173 23174 23175 23176 23177 23178 23179 23180 23181 23182 23183 23184 23185 23186 23187 23188 23189 23190 23191 23192 23193 23194 23195 23196 23197 23198 23199 23200 23201 23202 23203 23204 23205 23206 23207 23208 23209 23210 23211 23212 23213 23214 23215 23216 23217 23218 23219 23220 23221 23222 23223 23224 23225 23226 23227 23228 23229 23230 23231 23232 23233 23234 23235 23236 23237 23238 23239 23240 23241 23242 23243 23244 23245 23246 23247 23248 23249 23250 23251 23252 23253 23254 23255 23256 23257 23258 23259 23260 23261 23262 23263 23264 23265 23266 23267 23268 23269 23270 23271 23272 23273 23274 23275 23276 23277 23278 23279 23280 23281 23282 23283 23284 23285 23286 23287 23288 23289 23290 23291 23292 23293 23294 23295 23296 23297 23298 23299 23300 23301 23302 23303 23304 23305 23306 23307 23308 23309 23310 23311 23312 23313 23314 23315 23316 23317 23318 23319 23320 23321 23322 23323 23324 23325 23326 23327 23328 23329 23330 23331 23332 23333 23334 23335 23336 23337 23338 23339 23340 23341 23342 23343 23344 23345 23346 23347 23348 23349 23350 23351 23352 23353 23354 23355 23356 23357 23358 23359 23360 23361 23362 23363 23364 23365 23366 23367 23368 23369 23370 23371 23372 23373 23374 23375 23376 23377 23378 23379 23380 23381 23382 23383 23384 23385 23386 23387 23388 23389 23390 23391 23392 23393 23394 23395 23396 23397 23398 23399 23400 23401 23402 23403 23404 23405 23406 23407 23408 23409 23410 23411 23412 23413 23414 23415 23416 23417 23418 23419 23420 23421 23422 23423 23424 23425 23426 23427 23428 23429 23430 23431 23432 23433 23434 23435 23436 23437 23438 23439 23440 23441 23442 23443 23444 23445 23446 23447 23448 23449 23450 23451 23452 23453 23454 23455 23456 23457 23458 23459 23460 23461 23462 23463 23464 23465 23466 23467 23468 23469 23470 23471 23472 23473 23474 23475 23476 23477 23478 23479 23480 23481 23482 23483 23484 23485 23486 23487 23488 23489 23490 23491 23492 23493 23494 23495 23496 23497 23498 23499 23500 23501 23502 23503 23504 23505 23506 23507 23508 23509 23510 23511 23512 23513 23514 23515 23516 23517 23518 23519 23520 23521 23522 23523 23524 23525 23526 23527 23528 23529 23530 23531 23532 23533 23534 23535 23536 23537 23538 23539 23540 23541 23542 23543 23544 23545 23546 23547 23548 23549 23550 23551 23552 23553 23554 23555 23556 23557 23558 23559 23560 23561 23562 23563 23564 23565 23566 23567 23568 23569 23570 23571 23572 23573 23574 23575 23576 23577 23578 23579 23580 23581 23582 23583 23584 23585 23586 23587 23588 23589 23590 23591 23592 23593 23594 23595 23596 23597 23598 23599 23600 23601 23602 23603 23604 23605 23606 23607 23608 23609 23610 23611 23612 23613 23614 23615 23616 23617 23618 23619 23620 23621 23622 23623 23624 23625 23626 23627 23628 23629 23630 23631 23632 23633 23634 23635 23636 23637 23638 23639 23640 23641 23642 23643 23644 23645 23646 23647 23648 23649 23650 23651 23652 23653 23654 23655 23656 23657 23658 23659 23660 23661 23662 23663 23664 23665 23666 23667 23668 23669 23670 23671 23672 23673 23674 23675 23676 23677 23678 23679 23680 23681 23682 23683 23684 23685 23686 23687 23688 23689 23690 23691 23692 23693 23694 23695 23696 23697 23698 23699 23700 23701 23702 23703 23704 23705 23706 23707 23708 23709 23710 23711 23712 23713 23714 23715 23716 23717 23718 23719 23720 23721 23722 23723 23724 23725 23726 23727 23728 23729 23730 23731 23732 23733 23734 23735 23736 23737 23738 23739 23740 23741 23742 23743 23744 23745 23746 23747 23748 23749 23750 23751 23752 23753 23754 23755 23756 23757 23758 23759 23760 23761 23762 23763 23764 23765 23766 23767 23768 23769 23770 23771 23772 23773 23774 23775 23776 23777 23778 23779 23780 23781 23782 23783 23784 23785 23786 23787 23788 23789 23790 23791 23792 23793 23794 23795 23796 23797 23798 23799 23800 23801 23802 23803 23804 23805 23806 23807 23808 23809 23810 23811 23812 23813 23814 23815 23816 23817 23818 23819 23820 23821 23822 23823 23824 23825 23826 23827 23828 23829 23830 23831 23832 23833 23834 23835 23836 23837 23838 23839 23840 23841 23842 23843 23844 23845 23846 23847 23848 23849 23850 23851 23852 23853 23854 23855 23856 23857 23858 23859 23860 23861 23862 23863 23864 23865 23866 23867 23868 23869 23870 23871 23872 23873 23874 23875 23876 23877 23878 23879 23880 23881 23882 23883 23884 23885 23886 23887 23888 23889 23890 23891 23892 23893 23894 23895 23896 23897 23898 23899 23900 23901 23902 23903 23904 23905 23906 23907 23908 23909 23910 23911 23912 23913 23914 23915 23916 23917 23918 23919 23920 23921 23922 23923 23924 23925 23926 23927 23928 23929 23930 23931 23932 23933 23934 23935 23936 23937 23938 23939 23940 23941 23942 23943 23944 23945 23946 23947 23948 23949 23950 23951 23952 23953 23954 23955 23956 23957 23958 23959 23960 23961 23962 23963 23964 23965 23966 23967 23968 23969 23970 23971 23972 23973 23974 23975 23976 23977 23978 23979 23980 23981 23982 23983 23984 23985 23986 23987 23988 23989 23990 23991 23992 23993 23994 23995 23996 23997 23998 23999 24000 24001 24002 24003 24004 24005 24006 24007 24008 24009 24010 24011 24012 24013 24014 24015 24016 24017 24018 24019 24020 24021 24022 24023 24024 24025 24026 24027 24028 24029 24030 24031 24032 24033 24034 24035 24036 24037 24038 24039 24040 24041 24042 24043 24044 24045 24046 24047 24048 24049 24050 24051 24052 24053 24054 24055 24056 24057 24058 24059 24060 24061 24062 24063 24064 24065 24066 24067 24068 24069 24070 24071 24072 24073 24074 24075 24076 24077 24078 24079 24080 24081 24082 24083 24084 24085 24086 24087 24088 24089 24090 24091 24092 24093 24094 24095 24096 24097 24098 24099 24100 24101 24102 24103 24104 24105 24106 24107 24108 24109 24110 24111 24112 24113 24114 24115 24116 24117 24118 24119 24120 24121 24122 24123 24124 24125 24126 24127 24128 24129 24130 24131 24132 24133 24134 24135 24136 24137 24138 24139 24140 24141 24142 24143 24144 24145 24146 24147 24148 24149 24150 24151 24152 24153 24154 24155 24156 24157 24158 24159 24160 24161 24162 24163 24164 24165 24166 24167 24168 24169 24170 24171 24172 24173 24174 24175 24176 24177 24178 24179 24180 24181 24182 24183 24184 24185 24186 24187 24188 24189 24190 24191 24192 24193 24194 24195 24196 24197 24198 24199 24200 24201 24202 24203 24204 24205 24206 24207 24208 24209 24210 24211 24212 24213 24214 24215 24216 24217 24218 24219 24220 24221 24222 24223 24224 24225 24226 24227 24228 24229 24230 24231 24232 24233 24234 24235 24236 24237 24238 24239 24240 24241 24242 24243 24244 24245 24246 24247 24248 24249 24250 24251 24252 24253 24254 24255 24256 24257 24258 24259 24260 24261 24262 24263 24264 24265 24266 24267 24268 24269 24270 24271 24272 24273 24274 24275 24276 24277 24278 24279 24280 24281 24282 24283 24284 24285 24286 24287 24288 24289 24290 24291 24292 24293 24294 24295 24296 24297 24298 24299 24300 24301 24302 24303 24304 24305 24306 24307 24308 24309 24310 24311 24312 24313 24314 24315 24316 24317 24318 24319 24320 24321 24322 24323 24324 24325 24326 24327 24328 24329 24330 24331 24332 24333 24334 24335 24336 24337 24338 24339 24340 24341 24342 24343 24344 24345 24346 24347 24348 24349 24350 24351 24352 24353 24354 24355 24356 24357 24358 24359 24360 24361 24362 24363 24364 24365 24366 24367 24368 24369 24370 24371 24372 24373 24374 24375 24376 24377 24378 24379 24380 24381 24382 24383 24384 24385 24386 24387 24388 24389 24390 24391 24392 24393 24394 24395 24396 24397 24398 24399 24400 24401 24402 24403 24404 24405 24406 24407 24408 24409 24410 24411 24412 24413 24414 24415 24416 24417 24418 24419 24420 24421 24422 24423 24424 24425 24426 24427 24428 24429 24430 24431 24432 24433 24434 24435 24436 24437 24438 24439 24440 24441 24442 24443 24444 24445 24446 24447 24448 24449 24450 24451 24452 24453 24454 24455 24456 24457 24458 24459 24460 24461 24462 24463 24464 24465 24466 24467 24468 24469 24470 24471 24472 24473 24474 24475 24476 24477 24478 24479 24480 24481 24482 24483 24484 24485 24486 24487 24488 24489 24490 24491 24492 24493 24494 24495 24496 24497 24498 24499 24500 24501 24502 24503 24504 24505 24506 24507 24508 24509 24510 24511 24512 24513 24514 24515 24516 24517 24518 24519 24520 24521 24522 24523 24524 24525 24526 24527 24528 24529 24530 24531 24532 24533 24534 24535 24536 24537 24538 24539 24540 24541 24542 24543 24544 24545 24546 24547 24548 24549 24550 24551 24552 24553 24554 24555 24556 24557 24558 24559 24560 24561 24562 24563 24564 24565 24566 24567 24568 24569 24570 24571 24572 24573 24574 24575 24576 24577 24578 24579 24580 24581 24582 24583 24584 24585 24586 24587 24588 24589 24590 24591 24592 24593 24594 24595 24596 24597 24598 24599 24600 24601 24602 24603 24604 24605 24606 24607 24608 24609 24610 24611 24612 24613 24614 24615 24616 24617 24618 24619 24620 24621 24622 24623 24624 24625 24626 24627 24628 24629 24630 24631 24632 24633 24634 24635 24636 24637 24638 24639 24640 24641 24642 24643 24644 24645 24646 24647 24648 24649 24650 24651 24652 24653 24654 24655 24656 24657 24658 24659 24660 24661 24662 24663 24664 24665 24666 24667 24668 24669 24670 24671 24672 24673 24674 24675 24676 24677 24678 24679 24680 24681 24682 24683 24684 24685 24686 24687 24688 24689 24690 24691 24692 24693 24694 24695 24696 24697 24698 24699 24700 24701 24702 24703 24704 24705 24706 24707 24708 24709 24710 24711 24712 24713 24714 24715 24716 24717 24718 24719 24720 24721 24722 24723 24724 24725 24726 24727 24728 24729 24730 24731 24732 24733 24734 24735 24736 24737 24738 24739 24740 24741 24742 24743 24744 24745 24746 24747 24748 24749 24750 24751 24752 24753 24754 24755 24756 24757 24758 24759 24760 24761 24762 24763 24764 24765 24766 24767 24768 24769 24770 24771 24772 24773 24774 24775 24776 24777 24778 24779 24780 24781 24782 24783 24784 24785 24786 24787 24788 24789 24790 24791 24792 24793 24794 24795 24796 24797 24798 24799 24800 24801 24802 24803 24804 24805 24806 24807 24808 24809 24810 24811 24812 24813 24814 24815 24816 24817 24818 24819 24820 24821 24822 24823 24824 24825 24826 24827 24828 24829 24830 24831 24832 24833 24834 24835 24836 24837 24838 24839 24840 24841 24842 24843 24844 24845 24846 24847 24848 24849 24850 24851 24852 24853 24854 24855 24856 24857 24858 24859 24860 24861 24862 24863 24864 24865 24866 24867 24868 24869 24870 24871 24872 24873 24874 24875 24876 24877 24878 24879 24880 24881 24882 24883 24884 24885 24886 24887 24888 24889 24890 24891 24892 24893 24894 24895 24896 24897 24898 24899 24900 24901 24902 24903 24904 24905 24906 24907 24908 24909 24910 24911 24912 24913 24914 24915 24916 24917 24918 24919 24920 24921 24922 24923 24924 24925 24926 24927 24928 24929 24930 24931 24932 24933 24934 24935 24936 24937 24938 24939 24940 24941 24942 24943 24944 24945 24946 24947 24948 24949 24950 24951 24952 24953 24954 24955 24956 24957 24958 24959 24960 24961 24962 24963 24964 24965 24966 24967 24968 24969 24970 24971 24972 24973 24974 24975 24976 24977 24978 24979 24980 24981 24982 24983 24984 24985 24986 24987 24988 24989 24990 24991 24992 24993 24994 24995 24996 24997 24998 24999 25000 25001 25002 25003 25004 25005 25006 25007 25008 25009 25010 25011 25012 25013 25014 25015 25016 25017 25018 25019 25020 25021 25022 25023 25024 25025 25026 25027 25028 25029 25030 25031 25032 25033 25034 25035 25036 25037 25038 25039 25040 25041 25042 25043 25044 25045 25046 25047 25048 25049 25050 25051 25052 25053 25054 25055 25056 25057 25058 25059 25060 25061 25062 25063 25064 25065 25066 25067 25068 25069 25070 25071 25072 25073 25074 25075 25076 25077 25078 25079 25080 25081 25082 25083 25084 25085 25086 25087 25088 25089 25090 25091 25092 25093 25094 25095 25096 25097 25098 25099 25100 25101 25102 25103 25104 25105 25106 25107 25108 25109 25110 25111 25112 25113 25114 25115 25116 25117 25118 25119 25120 25121 25122 25123 25124 25125 25126 25127 25128 25129 25130 25131 25132 25133 25134 25135 25136 25137 25138 25139 25140 25141 25142 25143 25144 25145 25146 25147 25148 25149 25150 25151 25152 25153 25154 25155 25156 25157 25158 25159 25160 25161 25162 25163 25164 25165 25166 25167 25168 25169 25170 25171 25172 25173 25174 25175 25176 25177 25178 25179 25180 25181 25182 25183 25184 25185 25186 25187 25188 25189 25190 25191 25192 25193 25194 25195 25196 25197 25198 25199 25200 25201 25202 25203 25204 25205 25206 25207 25208 25209 25210 25211 25212 25213 25214 25215 25216 25217 25218 25219 25220 25221 25222 25223 25224 25225 25226 25227 25228 25229 25230 25231 25232 25233 25234 25235 25236 25237 25238 25239 25240 25241 25242 25243 25244 25245 25246 25247 25248 25249 25250 25251 25252 25253 25254 25255 25256 25257 25258 25259 25260 25261 25262 25263 25264 25265 25266 25267 25268 25269 25270 25271 25272 25273 25274 25275 25276 25277 25278 25279 25280 25281 25282 25283 25284 25285 25286 25287 25288 25289 25290 25291 25292 25293 25294 25295 25296 25297 25298 25299 25300 25301 25302 25303 25304 25305 25306 25307 25308 25309 25310 25311 25312 25313 25314 25315 25316 25317 25318 25319 25320 25321 25322 25323 25324 25325 25326 25327 25328 25329 25330 25331 25332 25333 25334 25335 25336 25337 25338 25339 25340 25341 25342 25343 25344 25345 25346 25347 25348 25349 25350 25351 25352 25353 25354 25355 25356 25357 25358 25359 25360 25361 25362 25363 25364 25365 25366 25367 25368 25369 25370 25371 25372 25373 25374 25375 25376 25377 25378 25379 25380 25381 25382 25383 25384 25385 25386 25387 25388 25389 25390 25391 25392 25393 25394 25395 25396 25397 25398 25399 25400 25401 25402 25403 25404 25405 25406 25407 25408 25409 25410 25411 25412 25413 25414 25415 25416 25417 25418 25419 25420 25421 25422 25423 25424 25425 25426 25427 25428 25429 25430 25431 25432 25433 25434 25435 25436 25437 25438 25439 25440 25441 25442 25443 25444 25445 25446 25447 25448 25449 25450 25451 25452 25453 25454 25455 25456 25457 25458 25459 25460 25461 25462 25463 25464 25465 25466 25467 25468 25469 25470 25471 25472 25473 25474 25475 25476 25477 25478 25479 25480 25481 25482 25483 25484 25485 25486 25487 25488 25489 25490 25491 25492 25493 25494 25495 25496 25497 25498 25499 25500 25501 25502 25503 25504 25505 25506 25507 25508 25509 25510 25511 25512 25513 25514 25515 25516 25517 25518 25519 25520 25521 25522 25523 25524 25525 25526 25527 25528 25529 25530 25531 25532 25533 25534 25535 25536 25537 25538 25539 25540 25541 25542 25543 25544 25545 25546 25547 25548 25549 25550 25551 25552 25553 25554 25555 25556 25557 25558 25559 25560 25561 25562 25563 25564 25565 25566 25567 25568 25569 25570 25571 25572 25573 25574 25575 25576 25577 25578 25579 25580 25581 25582 25583 25584 25585 25586 25587 25588 25589 25590 25591 25592 25593 25594 25595 25596 25597 25598 25599 25600 25601 25602 25603 25604 25605 25606 25607 25608 25609 25610 25611 25612 25613 25614 25615 25616 25617 25618 25619 25620 25621 25622 25623 25624 25625 25626 25627 25628 25629 25630 25631 25632 25633 25634 25635 25636 25637 25638 25639 25640 25641 25642 25643 25644 25645 25646 25647 25648 25649 25650 25651 25652 25653 25654 25655 25656 25657 25658 25659 25660 25661 25662 25663 25664 25665 25666 25667 25668 25669 25670 25671 25672 25673 25674 25675 25676 25677 25678 25679 25680 25681 25682 25683 25684 25685 25686 25687 25688 25689 25690 25691 25692 25693 25694 25695 25696 25697 25698 25699 25700 25701 25702 25703 25704 25705 25706 25707 25708 25709 25710 25711 25712 25713 25714 25715 25716 25717 25718 25719 25720 25721 25722 25723 25724 25725 25726 25727 25728 25729 25730 25731 25732 25733 25734 25735 25736 25737 25738 25739 25740 25741 25742 25743 25744 25745 25746 25747 25748 25749 25750 25751 25752 25753 25754 25755 25756 25757 25758 25759 25760 25761 25762 25763 25764 25765 25766 25767 25768 25769 25770 25771 25772 25773 25774 25775 25776 25777 25778 25779 25780 25781 25782 25783 25784 25785 25786 25787 25788 25789 25790 25791 25792 25793 25794 25795 25796 25797 25798 25799 25800 25801 25802 25803 25804 25805 25806 25807 25808 25809 25810 25811 25812 25813 25814 25815 25816 25817 25818 25819 25820 25821 25822 25823 25824 25825 25826 25827 25828 25829 25830 25831 25832 25833 25834 25835 25836 25837 25838 25839 25840 25841 25842 25843 25844 25845 25846 25847 25848 25849 25850 25851 25852 25853 25854 25855 25856 25857 25858 25859 25860 25861 25862 25863 25864 25865 25866 25867 25868 25869 25870 25871 25872 25873 25874 25875 25876 25877 25878 25879 25880 25881 25882 25883 25884 25885 25886 25887 25888 25889 25890 25891 25892 25893 25894 25895 25896 25897 25898 25899 25900 25901 25902 25903 25904 25905 25906 25907 25908 25909 25910 25911 25912 25913 25914 25915 25916 25917 25918 25919 25920 25921 25922 25923 25924 25925 25926 25927 25928 25929 25930 25931 25932 25933 25934 25935 25936 25937 25938 25939 25940 25941 25942 25943 25944 25945 25946 25947 25948 25949 25950 25951 25952 25953 25954 25955 25956 25957 25958 25959 25960 25961 25962 25963 25964 25965 25966 25967 25968 25969 25970 25971 25972 25973 25974 25975 25976 25977 25978 25979 25980 25981 25982 25983 25984 25985 25986 25987 25988 25989 25990 25991 25992 25993 25994 25995 25996 25997 25998 25999 26000 26001 26002 26003 26004 26005 26006 26007 26008 26009 26010 26011 26012 26013 26014 26015 26016 26017 26018 26019 26020 26021 26022 26023 26024 26025 26026 26027 26028 26029 26030 26031 26032 26033 26034 26035 26036 26037 26038 26039 26040 26041 26042 26043 26044 26045 26046 26047 26048 26049 26050 26051 26052 26053 26054 26055 26056 26057 26058 26059 26060 26061 26062 26063 26064 26065 26066 26067 26068 26069 26070 26071 26072 26073 26074 26075 26076 26077 26078 26079 26080 26081 26082 26083 26084 26085 26086 26087 26088 26089 26090 26091 26092 26093 26094 26095 26096 26097 26098 26099 26100 26101 26102 26103 26104 26105 26106 26107 26108 26109 26110 26111 26112 26113 26114 26115 26116 26117 26118 26119 26120 26121 26122 26123 26124 26125 26126 26127 26128 26129 26130 26131 26132 26133 26134 26135 26136 26137 26138 26139 26140 26141 26142 26143 26144 26145 26146 26147 26148 26149 26150 26151 26152 26153 26154 26155 26156 26157 26158 26159 26160 26161 26162 26163 26164 26165 26166 26167 26168 26169 26170 26171 26172 26173 26174 26175 26176 26177 26178 26179 26180 26181 26182 26183 26184 26185 26186 26187 26188 26189 26190 26191 26192 26193 26194 26195 26196 26197 26198 26199 26200 26201 26202 26203 26204 26205 26206 26207 26208 26209 26210 26211 26212 26213 26214 26215 26216 26217 26218 26219 26220 26221 26222 26223 26224 26225 26226 26227 26228 26229 26230 26231 26232 26233 26234 26235 26236 26237 26238 26239 26240 26241 26242 26243 26244 26245 26246 26247 26248 26249 26250 26251 26252 26253 26254 26255 26256 26257 26258 26259 26260 26261 26262 26263 26264 26265 26266 26267 26268 26269 26270 26271 26272 26273 26274 26275 26276 26277 26278 26279 26280 26281 26282 26283 26284 26285 26286 26287 26288 26289 26290 26291 26292 26293 26294 26295 26296 26297 26298 26299 26300 26301 26302 26303 26304 26305 26306 26307 26308 26309 26310 26311 26312 26313 26314 26315 26316 26317 26318 26319 26320 26321 26322 26323 26324 26325 26326 26327 26328 26329 26330 26331 26332 26333 26334 26335 26336 26337 26338 26339 26340 26341 26342 26343 26344 26345 26346 26347 26348 26349 26350 26351 26352 26353 26354 26355 26356 26357 26358 26359 26360 26361 26362 26363 26364 26365 26366 26367 26368 26369 26370 26371 26372 26373 26374 26375 26376 26377 26378 26379 26380 26381 26382 26383 26384 26385 26386 26387 26388 26389 26390 26391 26392 26393 26394 26395 26396 26397 26398 26399 26400 26401 26402 26403 26404 26405 26406 26407 26408 26409 26410 26411 26412 26413 26414 26415 26416 26417 26418 26419 26420 26421 26422 26423 26424 26425 26426 26427 26428 26429 26430 26431 26432 26433 26434 26435 26436 26437 26438 26439 26440 26441 26442 26443 26444 26445 26446 26447 26448 26449 26450 26451 26452 26453 26454 26455 26456 26457 26458 26459 26460 26461 26462 26463 26464 26465 26466 26467 26468 26469 26470 26471 26472 26473 26474 26475 26476 26477 26478 26479 26480 26481 26482 26483 26484 26485 26486 26487 26488 26489 26490 26491 26492 26493 26494 26495 26496 26497 26498 26499 26500 26501 26502 26503 26504 26505 26506 26507 26508 26509 26510 26511 26512 26513 26514 26515 26516 26517 26518 26519 26520 26521 26522 26523 26524 26525 26526 26527 26528 26529 26530 26531 26532 26533 26534 26535 26536 26537 26538 26539 26540 26541 26542 26543 26544 26545 26546 26547 26548 26549 26550 26551 26552 26553 26554 26555 26556 26557 26558 26559 26560 26561 26562 26563 26564 26565 26566 26567 26568 26569 26570 26571 26572 26573 26574 26575 26576 26577 26578 26579 26580 26581 26582 26583 26584 26585 26586 26587 26588 26589 26590 26591 26592 26593 26594 26595 26596 26597 26598 26599 26600 26601 26602 26603 26604 26605 26606 26607 26608 26609 26610 26611 26612 26613 26614 26615 26616 26617 26618 26619 26620 26621 26622 26623 26624 26625 26626 26627 26628 26629 26630 26631 26632 26633 26634 26635 26636 26637 26638 26639 26640 26641 26642 26643 26644 26645 26646 26647 26648 26649 26650 26651 26652 26653 26654 26655 26656 26657 26658 26659 26660 26661 26662 26663 26664 26665 26666 26667 26668 26669 26670 26671 26672 26673 26674 26675 26676 26677 26678 26679 26680 26681 26682 26683 26684 26685 26686 26687 26688 26689 26690 26691 26692 26693 26694 26695 26696 26697 26698 26699 26700 26701 26702 26703 26704 26705 26706 26707 26708 26709 26710 26711 26712 26713 26714 26715 26716 26717 26718 26719 26720 26721 26722 26723 26724 26725 26726 26727 26728 26729 26730 26731 26732 26733 26734 26735 26736 26737 26738 26739 26740 26741 26742 26743 26744 26745 26746 26747 26748 26749 26750 26751 26752 26753 26754 26755 26756 26757 26758 26759 26760 26761 26762 26763 26764 26765 26766 26767 26768 26769 26770 26771 26772 26773 26774 26775 26776 26777 26778 26779 26780 26781 26782 26783 26784 26785 26786 26787 26788 26789 26790 26791 26792 26793 26794 26795 26796 26797 26798 26799 26800 26801 26802 26803 26804 26805 26806 26807 26808 26809 26810 26811 26812 26813 26814 26815 26816 26817 26818 26819 26820 26821 26822 26823 26824 26825 26826 26827 26828 26829 26830 26831 26832 26833 26834 26835 26836 26837 26838 26839 26840 26841 26842 26843 26844 26845 26846 26847 26848 26849 26850 26851 26852 26853 26854 26855 26856 26857 26858 26859 26860 26861 26862 26863 26864 26865 26866 26867 26868 26869 26870 26871 26872 26873 26874 26875 26876 26877 26878 26879 26880 26881 26882 26883 26884 26885 26886 26887 26888 26889 26890 26891 26892 26893 26894 26895 26896 26897 26898 26899 26900 26901 26902 26903 26904 26905 26906 26907 26908 26909 26910 26911 26912 26913 26914 26915 26916 26917 26918 26919 26920 26921 26922 26923 26924 26925 26926 26927 26928 26929 26930 26931 26932 26933 26934 26935 26936 26937 26938 26939 26940 26941 26942 26943 26944 26945 26946 26947 26948 26949 26950 26951 26952 26953 26954 26955 26956 26957 26958 26959 26960 26961 26962 26963 26964 26965 26966 26967 26968 26969 26970 26971 26972 26973 26974 26975 26976 26977 26978 26979 26980 26981 26982 26983 26984 26985 26986 26987 26988 26989 26990 26991 26992 26993 26994 26995 26996 26997 26998 26999 27000 27001 27002 27003 27004 27005 27006 27007 27008 27009 27010 27011 27012 27013 27014 27015 27016 27017 27018 27019 27020 27021 27022 27023 27024 27025 27026 27027 27028 27029 27030 27031 27032 27033 27034 27035 27036 27037 27038 27039 27040 27041 27042 27043 27044 27045 27046 27047 27048 27049 27050 27051 27052 27053 27054 27055 27056 27057 27058 27059 27060 27061 27062 27063 27064 27065 27066 27067 27068 27069 27070 27071 27072 27073 27074 27075 27076 27077 27078 27079 27080 27081 27082 27083 27084 27085 27086 27087 27088 27089 27090 27091 27092 27093 27094 27095 27096 27097 27098 27099 27100 27101 27102 27103 27104 27105 27106 27107 27108 27109 27110 27111 27112 27113 27114 27115 27116 27117 27118 27119 27120 27121 27122 27123 27124 27125 27126 27127 27128 27129 27130 27131 27132 27133 27134 27135 27136 27137 27138 27139 27140 27141 27142 27143 27144 27145 27146 27147 27148 27149 27150 27151 27152 27153 27154 27155 27156 27157 27158 27159 27160 27161 27162 27163 27164 27165 27166 27167 27168 27169 27170 27171 27172 27173 27174 27175 27176 27177 27178 27179 27180 27181 27182 27183 27184 27185 27186 27187 27188 27189 27190 27191 27192 27193 27194 27195 27196 27197 27198 27199 27200 27201 27202 27203 27204 27205 27206 27207 27208 27209 27210 27211 27212 27213 27214 27215 27216 27217 27218 27219 27220 27221 27222 27223 27224 27225 27226 27227 27228 27229 27230 27231 27232 27233 27234 27235 27236 27237 27238 27239 27240 27241 27242 27243 27244 27245 27246 27247 27248 27249 27250 27251 27252 27253 27254 27255 27256 27257 27258 27259 27260 27261 27262 27263 27264 27265 27266 27267 27268 27269 27270 27271 27272 27273 27274 27275 27276 27277 27278 27279 27280 27281 27282 27283 27284 27285 27286 27287 27288 27289 27290 27291 27292 27293 27294 27295 27296 27297 27298 27299 27300 27301 27302 27303 27304 27305 27306 27307 27308 27309 27310 27311 27312 27313 27314 27315 27316 27317 27318 27319 27320 27321 27322 27323 27324 27325 27326 27327 27328 27329 27330 27331 27332 27333 27334 27335 27336 27337 27338 27339 27340 27341 27342 27343 27344 27345 27346 27347 27348 27349 27350 27351 27352 27353 27354 27355 27356 27357 27358 27359 27360 27361 27362 27363 27364 27365 27366 27367 27368 27369 27370 27371 27372 27373 27374 27375 27376 27377 27378 27379 27380 27381 27382 27383 27384 27385 27386 27387 27388 27389 27390 27391 27392 27393 27394 27395 27396 27397 27398 27399 27400 27401 27402 27403 27404 27405 27406 27407 27408 27409 27410 27411 27412 27413 27414 27415 27416 27417 27418 27419 27420 27421 27422 27423 27424 27425 27426 27427 27428 27429 27430 27431 27432 27433 27434 27435 27436 27437 27438 27439 27440 27441 27442 27443 27444 27445 27446 27447 27448 27449 27450 27451 27452 27453 27454 27455 27456 27457 27458 27459 27460 27461 27462 27463 27464 27465 27466 27467 27468 27469 27470 27471 27472 27473 27474 27475 27476 27477 27478 27479 27480 27481 27482 27483 27484 27485 27486 27487 27488 27489 27490 27491 27492 27493 27494 27495 27496 27497 27498 27499 27500 27501 27502 27503 27504 27505 27506 27507 27508 27509 27510 27511 27512 27513 27514 27515 27516 27517 27518 27519 27520 27521 27522 27523 27524 27525 27526 27527 27528 27529 27530 27531 27532 27533 27534 27535 27536 27537 27538 27539 27540 27541 27542 27543 27544 27545 27546 27547 27548 27549 27550 27551 27552 27553 27554 27555 27556 27557 27558 27559 27560 27561 27562 27563 27564 27565 27566 27567 27568 27569 27570 27571 27572 27573 27574 27575 27576 27577 27578 27579 27580 27581 27582 27583 27584 27585 27586 27587 27588 27589 27590 27591 27592 27593 27594 27595 27596 27597 27598 27599 27600 27601 27602 27603 27604 27605 27606 27607 27608 27609 27610 27611 27612 27613 27614 27615 27616 27617 27618 27619 27620 27621 27622 27623 27624 27625 27626 27627 27628 27629 27630 27631 27632 27633 27634 27635 27636 27637 27638 27639 27640 27641 27642 27643 27644 27645 27646 27647 27648 27649 27650 27651 27652 27653 27654 27655 27656 27657 27658 27659 27660 27661 27662 27663 27664 27665 27666 27667 27668 27669 27670 27671 27672 27673 27674 27675 27676 27677 27678 27679 27680 27681 27682 27683 27684 27685 27686 27687 27688 27689 27690 27691 27692 27693 27694 27695 27696 27697 27698 27699 27700 27701 27702 27703 27704 27705 27706 27707 27708 27709 27710 27711 27712 27713 27714 27715 27716 27717 27718 27719 27720 27721 27722 27723 27724 27725 27726 27727 27728 27729 27730 27731 27732 27733 27734 27735 27736 27737 27738 27739 27740 27741 27742 27743 27744 27745 27746 27747 27748 27749 27750 27751 27752 27753 27754 27755 27756 27757 27758 27759 27760 27761 27762 27763 27764 27765 27766 27767 27768 27769 27770 27771 27772 27773 27774 27775 27776 27777 27778 27779 27780 27781 27782 27783 27784 27785 27786 27787 27788 27789 27790 27791 27792 27793 27794 27795 27796 27797 27798 27799 27800 27801 27802 27803 27804 27805 27806 27807 27808 27809 27810 27811 27812 27813 27814 27815 27816 27817 27818 27819 27820 27821 27822 27823 27824 27825 27826 27827 27828 27829 27830 27831 27832 27833 27834 27835 27836 27837 27838 27839 27840 27841 27842 27843 27844 27845 27846 27847 27848 27849 27850 27851 27852 27853 27854 27855 27856 27857 27858 27859 27860 27861 27862 27863 27864 27865 27866 27867 27868 27869 27870 27871 27872 27873 27874 27875 27876 27877 27878 27879 27880 27881 27882 27883 27884 27885 27886 27887 27888 27889 27890 27891 27892 27893 27894 27895 27896 27897 27898 27899 27900 27901 27902 27903 27904 27905 27906 27907 27908 27909 27910 27911 27912 27913 27914 27915 27916 27917 27918 27919 27920 27921 27922 27923 27924 27925 27926 27927 27928 27929 27930 27931 27932 27933 27934 27935 27936 27937 27938 27939 27940 27941 27942 27943 27944 27945 27946 27947 27948 27949 27950 27951 27952 27953 27954 27955 27956 27957 27958 27959 27960 27961 27962 27963 27964 27965 27966 27967 27968 27969 27970 27971 27972 27973 27974 27975 27976 27977 27978 27979 27980 27981 27982 27983 27984 27985 27986 27987 27988 27989 27990 27991 27992 27993 27994 27995 27996 27997 27998 27999 28000 28001 28002 28003 28004 28005 28006 28007 28008 28009 28010 28011 28012 28013 28014 28015 28016 28017 28018 28019 28020 28021 28022 28023 28024 28025 28026 28027 28028 28029 28030 28031 28032 28033 28034 28035 28036 28037 28038 28039 28040 28041 28042 28043 28044 28045 28046 28047 28048 28049 28050 28051 28052 28053 28054 28055 28056 28057 28058 28059 28060 28061 28062 28063 28064 28065 28066 28067 28068 28069 28070 28071 28072 28073 28074 28075 28076 28077 28078 28079 28080 28081 28082 28083 28084 28085 28086 28087 28088 28089 28090 28091 28092 28093 28094 28095 28096 28097 28098 28099 28100 28101 28102 28103 28104 28105 28106 28107 28108 28109 28110 28111 28112 28113 28114 28115 28116 28117 28118 28119 28120 28121 28122 28123 28124 28125 28126 28127 28128 28129 28130 28131 28132 28133 28134 28135 28136 28137 28138 28139 28140 28141 28142 28143 28144 28145 28146 28147 28148 28149 28150 28151 28152 28153 28154 28155 28156 28157 28158 28159 28160 28161 28162 28163 28164 28165 28166 28167 28168 28169 28170 28171 28172 28173 28174 28175 28176 28177 28178 28179 28180 28181 28182 28183 28184 28185 28186 28187 28188 28189 28190 28191 28192 28193 28194 28195 28196 28197 28198 28199 28200 28201 28202 28203 28204 28205 28206 28207 28208 28209 28210 28211 28212 28213 28214 28215 28216 28217 28218 28219 28220 28221 28222 28223 28224 28225 28226 28227 28228 28229 28230 28231 28232 28233 28234 28235 28236 28237 28238 28239 28240 28241 28242 28243 28244 28245 28246 28247 28248 28249 28250 28251 28252 28253 28254 28255 28256 28257 28258 28259 28260 28261 28262 28263 28264 28265 28266 28267 28268 28269 28270 28271 28272 28273 28274 28275 28276 28277 28278 28279 28280 28281 28282 28283 28284 28285 28286 28287 28288 28289 28290 28291 28292 28293 28294 28295 28296 28297 28298 28299 28300 28301 28302 28303 28304 28305 28306 28307 28308 28309 28310 28311 28312 28313 28314 28315 28316 28317 28318 28319 28320 28321 28322 28323 28324 28325 28326 28327 28328 28329 28330 28331 28332 28333 28334 28335 28336 28337 28338 28339 28340 28341 28342 28343 28344 28345 28346 28347 28348 28349 28350 28351 28352 28353 28354 28355 28356 28357 28358 28359 28360 28361 28362 28363 28364 28365 28366 28367 28368 28369 28370 28371 28372 28373 28374 28375 28376 28377 28378 28379 28380 28381 28382 28383 28384 28385 28386 28387 28388 28389 28390 28391 28392 28393 28394 28395 28396 28397 28398 28399 28400 28401 28402 28403 28404 28405 28406 28407 28408 28409 28410 28411 28412 28413 28414 28415 28416 28417 28418 28419 28420 28421 28422 28423 28424 28425 28426 28427 28428 28429 28430 28431 28432 28433 28434 28435 28436 28437 28438 28439 28440 28441 28442 28443 28444 28445 28446 28447 28448 28449 28450 28451 28452 28453 28454 28455 28456 28457 28458 28459 28460 28461 28462 28463 28464 28465 28466 28467 28468 28469 28470 28471 28472 28473 28474 28475 28476 28477 28478 28479 28480 28481 28482 28483 28484 28485 28486 28487 28488 28489 28490 28491 28492 28493 28494 28495 28496 28497 28498 28499 28500 28501 28502 28503 28504 28505 28506 28507 28508 28509 28510 28511 28512 28513 28514 28515 28516 28517 28518 28519 28520 28521 28522 28523 28524 28525 28526 28527 28528 28529 28530 28531 28532 28533 28534 28535 28536 28537 28538 28539 28540 28541 28542 28543 28544 28545 28546 28547 28548 28549 28550 28551 28552 28553 28554 28555 28556 28557 28558 28559 28560 28561 28562 28563 28564 28565 28566 28567 28568 28569 28570 28571 28572 28573 28574 28575 28576 28577 28578 28579 28580 28581 28582 28583 28584 28585 28586 28587 28588 28589 28590 28591 28592 28593 28594 28595 28596 28597 28598 28599 28600 28601 28602 28603 28604 28605 28606 28607 28608 28609 28610 28611 28612 28613 28614 28615 28616 28617 28618 28619 28620 28621 28622 28623 28624 28625 28626 28627 28628 28629 28630 28631 28632 28633 28634 28635 28636 28637 28638 28639 28640 28641 28642 28643 28644 28645 28646 28647 28648 28649 28650 28651 28652 28653 28654 28655 28656 28657 28658 28659 28660 28661 28662 28663 28664 28665 28666 28667 28668 28669 28670 28671 28672 28673 28674 28675 28676 28677 28678 28679 28680 28681 28682 28683 28684 28685 28686 28687 28688 28689 28690 28691 28692 28693 28694 28695 28696 28697 28698 28699 28700 28701 28702 28703 28704 28705 28706 28707 28708 28709 28710 28711 28712 28713 28714 28715 28716 28717 28718 28719 28720 28721 28722 28723 28724 28725 28726 28727 28728 28729 28730 28731 28732 28733 28734 28735 28736 28737 28738 28739 28740 28741 28742 28743 28744 28745 28746 28747 28748 28749 28750 28751 28752 28753 28754 28755 28756 28757 28758 28759 28760 28761 28762 28763 28764 28765 28766 28767 28768 28769 28770 28771 28772 28773 28774 28775 28776 28777 28778 28779 28780 28781 28782 28783 28784 28785 28786 28787 28788 28789 28790 28791 28792 28793 28794 28795 28796 28797 28798 28799 28800 28801 28802 28803 28804 28805 28806 28807 28808 28809 28810 28811 28812 28813 28814 28815 28816 28817 28818 28819 28820 28821 28822 28823 28824 28825 28826 28827 28828 28829 28830 28831 28832 28833 28834 28835 28836 28837 28838 28839 28840 28841 28842 28843 28844 28845 28846 28847 28848 28849 28850 28851 28852 28853 28854 28855 28856 28857 28858 28859 28860 28861 28862 28863 28864 28865 28866 28867 28868 28869 28870 28871 28872 28873 28874 28875 28876 28877 28878 28879 28880 28881 28882 28883 28884 28885 28886 28887 28888 28889 28890 28891 28892 28893 28894 28895 28896 28897 28898 28899 28900 28901 28902 28903 28904 28905 28906 28907 28908 28909 28910 28911 28912 28913 28914 28915 28916 28917 28918 28919 28920 28921 28922 28923 28924 28925 28926 28927 28928 28929 28930 28931 28932 28933 28934 28935 28936 28937 28938 28939 28940 28941 28942 28943 28944 28945 28946 28947 28948 28949 28950 28951 28952 28953 28954 28955 28956 28957 28958 28959 28960 28961 28962 28963 28964 28965 28966 28967 28968 28969 28970 28971 28972 28973 28974 28975 28976 28977 28978 28979 28980 28981 28982 28983 28984 28985 28986 28987 28988 28989 28990 28991 28992 28993 28994 28995 28996 28997 28998 28999 29000 29001 29002 29003 29004 29005 29006 29007 29008 29009 29010 29011 29012 29013 29014 29015 29016 29017 29018 29019 29020 29021 29022 29023 29024 29025 29026 29027 29028 29029 29030 29031 29032 29033 29034 29035 29036 29037 29038 29039 29040 29041 29042 29043 29044 29045 29046 29047 29048 29049 29050 29051 29052 29053 29054 29055 29056 29057 29058 29059 29060 29061 29062 29063 29064 29065 29066 29067 29068 29069 29070 29071 29072 29073 29074 29075 29076 29077 29078 29079 29080 29081 29082 29083 29084 29085 29086 29087 29088 29089 29090 29091 29092 29093 29094 29095 29096 29097 29098 29099 29100 29101 29102 29103 29104 29105 29106 29107 29108 29109 29110 29111 29112 29113 29114 29115 29116 29117 29118 29119 29120 29121 29122 29123 29124 29125 29126 29127 29128 29129 29130 29131 29132 29133 29134 29135 29136 29137 29138 29139 29140 29141 29142 29143 29144 29145 29146 29147 29148 29149 29150 29151 29152 29153 29154 29155 29156 29157 29158 29159 29160 29161 29162 29163 29164 29165 29166 29167 29168 29169 29170 29171 29172 29173 29174 29175 29176 29177 29178 29179 29180 29181 29182 29183 29184 29185 29186 29187 29188 29189 29190 29191 29192 29193 29194 29195 29196 29197 29198 29199 29200 29201 29202 29203 29204 29205 29206 29207 29208 29209 29210 29211 29212 29213 29214 29215 29216 29217 29218 29219 29220 29221 29222 29223 29224 29225 29226 29227 29228 29229 29230 29231 29232 29233 29234 29235 29236 29237 29238 29239 29240 29241 29242 29243 29244 29245 29246 29247 29248 29249 29250 29251 29252 29253 29254 29255 29256 29257 29258 29259 29260 29261 29262 29263 29264 29265 29266 29267 29268 29269 29270 29271 29272 29273 29274 29275 29276 29277 29278 29279 29280 29281 29282 29283 29284 29285 29286 29287 29288 29289 29290 29291 29292 29293 29294 29295 29296 29297 29298 29299 29300 29301 29302 29303 29304 29305 29306 29307 29308 29309 29310 29311 29312 29313 29314 29315 29316 29317 29318 29319 29320 29321 29322 29323 29324 29325 29326 29327 29328 29329 29330 29331 29332 29333 29334 29335 29336 29337 29338 29339 29340 29341 29342 29343 29344 29345 29346 29347 29348 29349 29350 29351 29352 29353 29354 29355 29356 29357 29358 29359 29360 29361 29362 29363 29364 29365 29366 29367 29368 29369 29370 29371 29372 29373 29374 29375 29376 29377 29378 29379 29380 29381 29382 29383 29384 29385 29386 29387 29388 29389 29390 29391 29392 29393 29394 29395 29396 29397 29398 29399 29400 29401 29402 29403 29404 29405 29406 29407 29408 29409 29410 29411 29412 29413 29414 29415 29416 29417 29418 29419 29420 29421 29422 29423 29424 29425 29426 29427 29428 29429 29430 29431 29432 29433 29434 29435 29436 29437 29438 29439 29440 29441 29442 29443 29444 29445 29446 29447 29448 29449 29450 29451 29452 29453 29454 29455 29456 29457 29458 29459 29460 29461 29462 29463 29464 29465 29466 29467 29468 29469 29470 29471 29472 29473 29474 29475 29476 29477 29478 29479 29480 29481 29482 29483 29484 29485 29486 29487 29488 29489 29490 29491 29492 29493 29494 29495 29496 29497 29498 29499 29500 29501 29502 29503 29504 29505 29506 29507 29508 29509 29510 29511 29512 29513 29514 29515 29516 29517 29518 29519 29520 29521 29522 29523 29524 29525 29526 29527 29528 29529 29530 29531 29532 29533 29534 29535 29536 29537 29538 29539 29540 29541 29542 29543 29544 29545 29546 29547 29548 29549 29550 29551 29552 29553 29554 29555 29556 29557 29558 29559 29560 29561 29562 29563 29564 29565 29566 29567 29568 29569 29570 29571 29572 29573 29574 29575 29576 29577 29578 29579 29580 29581 29582 29583 29584 29585 29586 29587 29588 29589 29590 29591 29592 29593 29594 29595 29596 29597 29598 29599 29600 29601 29602 29603 29604 29605 29606 29607 29608 29609 29610 29611 29612 29613 29614 29615 29616 29617 29618 29619 29620 29621 29622 29623 29624 29625 29626 29627 29628 29629 29630 29631 29632 29633 29634 29635 29636 29637 29638 29639 29640 29641 29642 29643 29644 29645 29646 29647 29648 29649 29650 29651 29652 29653 29654 29655 29656 29657 29658 29659 29660 29661 29662 29663 29664 29665 29666 29667 29668 29669 29670 29671 29672 29673 29674 29675 29676 29677 29678 29679 29680 29681 29682 29683 29684 29685 29686 29687 29688 29689 29690 29691 29692 29693 29694 29695 29696 29697 29698 29699 29700 29701 29702 29703 29704 29705 29706 29707 29708 29709 29710 29711 29712 29713 29714 29715 29716 29717 29718 29719 29720 29721 29722 29723 29724 29725 29726 29727 29728 29729 29730 29731 29732 29733 29734 29735 29736 29737 29738 29739 29740 29741 29742 29743 29744 29745 29746 29747 29748 29749 29750 29751 29752 29753 29754 29755 29756 29757 29758 29759 29760 29761 29762 29763 29764 29765 29766 29767 29768 29769 29770 29771 29772 29773 29774 29775 29776 29777 29778 29779 29780 29781 29782 29783 29784 29785 29786 29787 29788 29789 29790 29791 29792 29793 29794 29795 29796 29797 29798 29799 29800 29801 29802 29803 29804 29805 29806 29807 29808 29809 29810 29811 29812 29813 29814 29815 29816 29817 29818 29819 29820 29821 29822 29823 29824 29825 29826 29827 29828 29829 29830 29831 29832 29833 29834 29835 29836 29837 29838 29839 29840 29841 29842 29843 29844 29845 29846 29847 29848 29849 29850 29851 29852 29853 29854 29855 29856 29857 29858 29859 29860 29861 29862 29863 29864 29865 29866 29867 29868 29869 29870 29871 29872 29873 29874 29875 29876 29877 29878 29879 29880 29881 29882 29883 29884 29885 29886 29887 29888 29889 29890 29891 29892 29893 29894 29895 29896 29897 29898 29899 29900 29901 29902 29903 29904 29905 29906 29907 29908 29909 29910 29911 29912 29913 29914 29915 29916 29917 29918 29919 29920 29921 29922 29923 29924 29925 29926 29927 29928 29929 29930 29931 29932 29933 29934 29935 29936 29937 29938 29939 29940 29941 29942 29943 29944 29945 29946 29947 29948 29949 29950 29951 29952 29953 29954 29955 29956 29957 29958 29959 29960 29961 29962 29963 29964 29965 29966 29967 29968 29969 29970 29971 29972 29973 29974 29975 29976 29977 29978 29979 29980 29981 29982 29983 29984 29985 29986 29987 29988 29989 29990 29991 29992 29993 29994 29995 29996 29997 29998 29999 30000 30001 30002 30003 30004 30005 30006 30007 30008 30009 30010 30011 30012 30013 30014 30015 30016 30017 30018 30019 30020 30021 30022 30023 30024 30025 30026 30027 30028 30029 30030 30031 30032 30033 30034 30035 30036 30037 30038 30039 30040 30041 30042 30043 30044 30045 30046 30047 30048 30049 30050 30051 30052 30053 30054 30055 30056 30057 30058 30059 30060 30061 30062 30063 30064 30065 30066 30067 30068 30069 30070 30071 30072 30073 30074 30075 30076 30077 30078 30079 30080 30081 30082 30083 30084 30085 30086 30087 30088 30089 30090 30091 30092 30093 30094 30095 30096 30097 30098 30099 30100 30101 30102 30103 30104 30105 30106 30107 30108 30109 30110 30111 30112 30113 30114 30115 30116 30117 30118 30119 30120 30121 30122 30123 30124 30125 30126 30127 30128 30129 30130 30131 30132 30133 30134 30135 30136 30137 30138 30139 30140 30141 30142 30143 30144 30145 30146 30147 30148 30149 30150 30151 30152 30153 30154 30155 30156 30157 30158 30159 30160 30161 30162 30163 30164 30165 30166 30167 30168 30169 30170 30171 30172 30173 30174 30175 30176 30177 30178 30179 30180 30181 30182 30183 30184 30185 30186 30187 30188 30189 30190 30191 30192 30193 30194 30195 30196 30197 30198 30199 30200 30201 30202 30203 30204 30205 30206 30207 30208 30209 30210 30211 30212 30213 30214 30215 30216 30217 30218 30219 30220 30221 30222 30223 30224 30225 30226 30227 30228 30229 30230 30231 30232 30233 30234 30235 30236 30237 30238 30239 30240 30241 30242 30243 30244 30245 30246 30247 30248 30249 30250 30251 30252 30253 30254 30255 30256 30257 30258 30259 30260 30261 30262 30263 30264 30265 30266 30267 30268 30269 30270 30271 30272 30273 30274 30275 30276 30277 30278 30279 30280 30281 30282 30283 30284 30285 30286 30287 30288 30289 30290 30291 30292 30293 30294 30295 30296 30297 30298 30299 30300 30301 30302 30303 30304 30305 30306 30307 30308 30309 30310 30311 30312 30313 30314 30315 30316 30317 30318 30319 30320 30321 30322 30323 30324 30325 30326 30327 30328 30329 30330 30331 30332 30333 30334 30335 30336 30337 30338 30339 30340 30341 30342 30343 30344 30345 30346 30347 30348 30349 30350 30351 30352 30353 30354 30355 30356 30357 30358 30359 30360 30361 30362 30363 30364 30365 30366 30367 30368 30369 30370 30371 30372 30373 30374 30375 30376 30377 30378 30379 30380 30381 30382 30383 30384 30385 30386 30387 30388 30389 30390 30391 30392 30393 30394 30395 30396 30397 30398 30399 30400 30401 30402 30403 30404 30405 30406 30407 30408 30409 30410 30411 30412 30413 30414 30415 30416 30417 30418 30419 30420 30421 30422 30423 30424 30425 30426 30427 30428 30429 30430 30431 30432 30433 30434 30435 30436 30437 30438 30439 30440 30441 30442 30443 30444 30445 30446 30447 30448 30449 30450 30451 30452 30453 30454 30455 30456 30457 30458 30459 30460 30461 30462 30463 30464 30465 30466 30467 30468 30469 30470 30471 30472 30473 30474 30475 30476 30477 30478 30479 30480 30481 30482 30483 30484 30485 30486 30487 30488 30489 30490 30491 30492 30493 30494 30495 30496 30497 30498 30499 30500 30501 30502 30503 30504 30505 30506 30507 30508 30509 30510 30511 30512 30513 30514 30515 30516 30517 30518 30519 30520 30521 30522 30523 30524 30525 30526 30527 30528 30529 30530 30531 30532 30533 30534 30535 30536 30537 30538 30539 30540 30541 30542 30543 30544 30545 30546 30547 30548 30549 30550 30551 30552 30553 30554 30555 30556 30557 30558 30559 30560 30561 30562 30563 30564 30565 30566 30567 30568 30569 30570 30571 30572 30573 30574 30575 30576 30577 30578 30579 30580 30581 30582 30583 30584 30585 30586 30587 30588 30589 30590 30591 30592 30593 30594 30595 30596 30597 30598 30599 30600 30601 30602 30603 30604 30605 30606 30607 30608 30609 30610 30611 30612 30613 30614 30615 30616 30617 
</DataArray>
<DataArray type="UInt32" Name="offsets" format="ascii">
2 5 8 11 14 17 20 23 26 28 31 34 37 39 42 45 48 51 54 57 60 63 66 69 72 75 78 81 84 86 89 92 94 97 100 103 105 108 111 114 116 119 122 125 128 131 134 137 140 142 145 148 151 154 157 160 162 165 168 171 174 177 180 183 186 189 191 194 197 199 202 205 208 210 213 215 218 220 222 225 228 231 234 237 240 243 246 249 251 254 256 259 262 264 267 270 273 276 279 282 285 288 291 294 297 300 303 306 309 311 314 317 320 323 325 328 331 333 335 338 341 343 346 349 352 354 356 358 361 363 366 369 372 375 378 381 384 387 390 392 394 397 400 403 406 409 412 414 417 420 423 426 429 431 433 436 439 441 444 447 449 451 454 456 458 461 464 467 470 473 476 479 482 485 488 491 494 496 499 502 504 507 510 513 516 519 522 525 528 531 534 537 540 543 546 549 552 555 558 561 564 566 569 572 575 578 581 584 587 590 593 596 599 602 605 608 611 613 616 619 621 624 627 630 633 635 637 640 643 646 649 652 655 658 661 664 667 670 673 676 679 682 684 687 690 693 695 698 701 704 707 710 713 716 719 721 723 726 729 732 735 738 741 744 747 750 752 755 758 761 764 767 769 772 774 777 780 783 786 789 791 793 796 799 802 804 807 809 812 815 818 820 823 825 828 831 833 836 839 842 844 847 850 853 856 859 861 863 866 869 871 874 876 878 881 884 886 889 891 894 897 900 903 905 908 910 913 916 918 920 922 925 927 930 932 934 937 940 943 946 949 952 955 958 961 963 966 969 972 975 978 981 984 987 990 993 996 999 1002 1005 1008 1011 1014 1017 1020 1023 1026 1029 1032 1035 1037 1040 1042 1045 1048 1051 1054 1057 1059 1062 1064 1067 1070 1072 1075 1078 1081 1084 1086 1089 1091 1094 1097 1100 1103 1106 1109 1112 1115 1118 1121 1124 1127 1130 1132 1135 1138 1140 1143 1146 1149 1152 1155 1158 1161 1164 1167 1170 1173 1176 1179 1182 1185 1188 1191 1193 1196 1199 1202 1205 1208 1211 1214 1217 1220 1223 1225 1228 1231 1234 1236 1238 1241 1244 1247 1250 1253 1256 1259 1262 1265 1268 1271 1274 1277 1280 1283 1286 1289 1292 1295 1298 1301 1304 1307 1309 1312 1315 1317 1320 1323 1325 1328 1330 1333 1336 1339 1341 1344 1346 1348 1351 1354 1357 1360 1363 1366 1369 1372 1375 1378 1380 1383 1386 1389 1392 1395 1398 1401 1404 1407 1410 1413 1416 1419 1422 1425 1428 1431 1434 1437 1440 1443 1446 1449 1452 1455 1458 1461 1464 1467 1470 1473 1476 1478 1481 1484 1487 1490 1492 1495 1498 1501 1504 1507 1510 1513 1515 1518 1521 1524 1527 1530 1533 1536 1539 1542 1544 1547 1549 1551 1554 1557 1559 1562 1564 1567 1570 1573 1576 1579 1582 1585 1588 1590 1593 1596 1599 1602 1605 1607 1610 1613 1616 1619 1622 1625 1627 1630 1633 1636 1639 1642 1645 1648 1651 1653 1656 1658 1661 1664 1667 1670 1673 1675 1678 1680 1683 1686 1689 1692 1695 1698 1700 1703 1706 1709 1712 1715 1718 1721 1724 1727 1730 1732 1734 1737 1740 1743 1746 1748 1751 1754 1757 1760 1763 1766 1769 1772 1775 1778 1781 1784 1786 1789 1792 1794 1797 1800 1803 1806 1809 1812 1815 1818 1821 1824 1826 1828 1831 1834 1837 1840 1843 1846 1849 1852 1855 1858 1860 1863 1865 1868 1871 1874 1877 1880 1883 1886 1889 1892 1895 1898 1901 1904 1907 1910 1913 1916 1919 1922 1925 1928 1931 1934 1937 1940 1943 1946 1949 1952 1955 1958 1961 1964 1967 1970 1973 1976 1979 1982 1984 1987 1990 1993 1995 1998 2000 2003 2005 2008 2011 2013 2016 2018 2021 2023 2026 2029 2031 2034 2037 2040 2043 2046 2049 2052 2055 2057 2060 2063 2065 2068 2071 2074 2077 2079 2082 2085 2088 2091 2094 2097 2100 2103 2106 2109 2111 2114 2116 2119 2121 2124 2126 2129 2131 2134 2137 2140 2142 2145 2147 2150 2153 2156 2159 2162 2165 2168 2171 2174 2177 2180 2183 2185 2188 2191 2193 2195 2198 2201 2204 2206 2209 2212 2214 2217 2220 2222 2225 2228 2231 2233 2236 2239 2242 2245 2248 2250 2253 2256 2258 2260 2263 2266 2269 2271 2273 2275 2278 2281 2283 2286 2289 2291 2294 2297 2300 2303 2306 2309 2311 2314 2317 2319 2322 2325 2327 2330 2333 2336 2339 2342 2345 2348 2351 2353 2356 2359 2362 2365 2368 2370 2372 2374 2377 2380 2383 2386 2389 2392 2395 2398 2401 2404 2407 2409 2412 2415 2418 2421 2423 2426 2429 2432 2435 2438 2441 2444 2446 2449 2452 2455 2457 2460 2462 2465 2467 2470 2472 2475 2478 2481 2484 2487 2490 2493 2496 2499 2502 2504 2507 2510 2513 2516 2519 2522 2525 2528 2530 2533 2536 2538 2541 2544 2547 2550 2552 2555 2558 2561 2564 2567 2570 2572 2575 2577 2580 2583 2586 2589 2592 2595 2597 2599 2602 2605 2608 2611 2613 2616 2618 2621 2624 2627 2629 2632 2635 2638 2641 2644 2647 2650 2652 2654 2657 2660 2662 2665 2667 2669 2671 2674 2677 2680 2683 2686 2689 2692 2694 2697 2700 2703 2706 2709 2712 2715 2718 2721 2724 2727 2730 2733 2735 2738 2741 2744 2747 2750 2753 2756 2759 2762 2765 2767 2770 2773 2775 2778 2781 2784 2787 2790 2792 2795 2798 2801 2804 2807 2810 2813 2816 2818 2821 2823 2826 2829 2831 2834 2837 2839 2842 2845 2848 2851 2853 2856 2859 2862 2865 2868 2870 2873 2876 2879 2882 2885 2888 2891 2894 2897 2899 2902 2905 2907 2909 2912 2915 2918 2921 2923 2926 2928 2931 2934 2936 2938 2941 2943 2946 2948 2951 2954 2957 2960 2963 2965 2968 2971 2974 2976 2979 2982 2985 2987 2990 2993 2996 2999 3002 3005 3008 3011 3014 3017 3019 3022 3025 3028 3031 3034 3037 3040 3043 3046 3049 3052 3055 3058 3061 3064 3067 3070 3073 3075 3078 3081 3083 3086 3089 3092 3095 3097 3100 3103 3106 3109 3112 3115 3118 3121 3124 3127 3130 3133 3136 3139 3142 3145 3148 3151 3154 3157 3160 3163 3166 3169 3172 3175 3178 3181 3184 3187 3190 3193 3196 3199 3202 3205 3208 3211 3214 3217 3220 3223 3226 3229 3232 3235 3238 3241 3244 3247 3250 3253 3256 3259 3262 3265 3268 3271 3273 3276 3279 3282 3285 3288 3291 3294 3297 3300 3303 3306 3309 3312 3315 3318 3321 3324 3327 3330 3332 3335 3338 3341 3344 3346 3349 3352 3355 3358 3361 3364 3367 3370 3373 3376 3379 3382 3385 3388 3391 3394 3397 3400 3402 3405 3408 3411 3414 3416 3419 3422 3425 3428 3431 3433 3435 3438 3441 3444 3447 3450 3453 3456 3459 3462 3465 3468 3471 3474 3477 3480 3483 3486 3489 3491 3494 3497 3500 3502 3505 3507 3510 3513 3516 3519 3522 3525 3528 3531 3534 3536 3539 3542 3545 3548 3550 3552 3555 3558 3561 3564 3567 3570 3573 3576 3579 3582 3585 3588 3591 3594 3597 3600 3603 3606 3609 3611 3614 3617 3620 3623 3626 3629 3632 3635 3638 3641 3644 3647 3650 3652 3655 3658 3661 3664 3667 3670 3673 3676 3679 3682 3685 3688 3691 3694 3697 3700 3703 3706 3709 3712 3715 3718 3720 3723 3726 3729 3732 3735 3738 3741 3743 3746 3749 3752 3754 3757 3760 3763 3766 3769 3772 3775 3778 3781 3784 3787 3790 3793 3796 3799 3802 3805 3808 3811 3814 3817 3820 3823 3826 3828 3831 3833 3836 3839 3842 3845 3847 3850 3852 3855 3858 3861 3864 3867 3870 3873 3875 3878 3881 3884 3887 3889 3892 3895 3898 3901 3904 3907 3910 3913 3916 3919 3922 3924 3927 3930 3933 3936 3939 3942 3944 3947 3949 3952 3955 3958 3961 3964 3966 3969 3972 3974 3977 3980 3982 3985 3988 3991 3994 3997 4000 4003 4006 4009 4012 4015 4018 4021 4024 4027 4030 4033 4036 4039 4042 4045 4048 4051 4054 4057 4060 4063 4065 4068 4071 4074 4076 4079 4081 4084 4087 4089 4091 4094 4097 4100 4102 4105 4108 4111 4114 4116 4119 4121 4124 4127 4129 4132 4135 4138 4141 4144 4146 4149 4152 4155 4158 4161 4163 4166 4169 4172 4175 4178 4181 4184 4187 4190 4193 4196 4199 4202 4205 4208 4211 4214 4217 4220 4223 4226 4229 4232 4235 4238 4241 4244 4247 4250 4253 4256 4259 4262 4265 4268 4271 4274 4277 4280 4283 4286 4289 4292 4294 4296 4299 4302 4305 4308 4311 4314 4317 4320 4323 4326 4329 4332 4335 4338 4341 4344 4347 4350 4353 4356 4359 4362 4365 4368 4371 4374 4377 4380 4382 4385 4388 4391 4394 4396 4399 4402 4405 4408 4410 4413 4416 4419 4422 4425 4428 4431 4433 4436 4438 4441 4444 4447 4450 4453 4455 4458 4461 4464 4467 4470 4473 4476 4479 4482 4485 4487 4490 4493 4496 4499 4502 4505 4508 4511 4514 4517 4520 4523 4526 4529 4532 4535 4538 4541 4544 4547 4550 4553 4556 4559 4562 4564 4567 4570 4573 4576 4578 4581 4583 4586 4589 4591 4594 4596 4599 4602 4605 4608 4611 4614 4616 4619 4622 4625 4627 4630 4633 4636 4639 4642 4645 4648 4651 4654 4657 4660 4663 4666 4669 4672 4675 4678 4680 4683 4685 4688 4691 4694 4697 4700 4702 4705 4707 4710 4713 4716 4719 4722 4725 4728 4731 4733 4736 4739 4742 4745 4748 4751 4754 4757 4760 4763 4766 4769 4772 4775 4778 4781 4784 4787 4790 4793 4796 4799 4802 4804 4807 4809 4812 4815 4818 4821 4824 4827 4830 4833 4836 4839 4842 4845 4847 4850 4853 4856 4859 4862 4865 4868 4871 4874 4877 4880 4883 4886 4889 4892 4895 4898 4901 4904 4907 4910 4913 4916 4919 4922 4925 4928 4930 4933 4936 4939 4941 4944 4946 4948 4951 4954 4957 4960 4963 4965 4968 4971 4974 4977 4980 4983 4986 4989 4992 4995 4998 5001 5004 5007 5010 5013 5016 5019 5022 5025 5028 5031 5034 5037 5039 5042 5045 5047 5050 5053 5056 5059 5062 5065 5068 5071 5073 5075 5078 5081 5084 5087 5090 5093 5096 5099 5102 5105 5107 5110 5113 5115 5117 5120 5122 5125 5128 5131 5134 5137 5139 5142 5144 5146 5148 5151 5154 5157 5160 5163 5166 5168 5171 5174 5177 5180 5183 5186 5189 5192 5195 5197 5200 5202 5205 5208 5210 5213 5216 5219 5222 5225 5228 5231 5234 5237 5240 5243 5246 5249 5252 5255 5258 5261 5264 5267 5270 5273 5276 5279 5282 5285 5288 5290 5292 5295 5298 5301 5304 5307 5310 5313 5316 5319 5322 5325 5328 5331 5334 5337 5340 5343 5346 5349 5352 5355 5358 5361 5364 5367 5370 5373 5376 5379 5382 5385 5388 5391 5394 5397 5400 5403 5406 5409 5412 5415 5418 5421 5424 5427 5430 5433 5436 5439 5442 5445 5448 5451 5454 5457 5460 5462 5465 5468 5471 5474 5477 5480 5483 5486 5489 5491 5493 5496 5499 5502 5504 5507 5510 5513 5516 5519 5522 5525 5528 5531 5534 5537 5540 5543 5546 5549 5552 5555 5558 5561 5564 5567 5570 5573 5576 5579 5582 5585 5588 5591 5594 5596 5599 5602 5605 5608 5611 5614 5617 5619 5622 5625 5628 5631 5634 5637 5640 5642 5645 5648 5650 5653 5656 5659 5662 5665 5668 5671 5674 5677 5679 5682 5685 5687 5689 5692 5695 5698 5700 5703 5706 5709 5712 5715 5718 5721 5724 5727 5730 5733 5735 5738 5741 5744 5747 5749 5752 5754 5757 5760 5762 5765 5768 5770 5772 5775 5778 5781 5784 5787 5790 5793 5796 5799 5802 5804 5806 5809 5812 5815 5818 5821 5824 5826 5829 5832 5835 5838 5841 5844 5846 5849 5851 5854 5857 5860 5863 5866 5868 5870 5873 5876 5879 5882 5885 5888 5891 5894 5897 5900 5903 5906 5909 5912 5915 5918 5921 5924 5927 5929 5931 5934 5937 5939 5942 5945 5948 5951 5954 5957 5960 5963 5966 5969 5972 5974 5977 5980 5983 5986 5989 5992 5995 5998 6001 6004 6007 6010 6013 6016 6019 6022 6025 6028 6031 6034 6037 6040 6043 6046 6049 6052 6055 6058 6060 6063 6066 6069 6072 6074 6076 6079 6082 6085 6088 6091 6094 6097 6099 6102 6104 6107 6110 6113 6116 6119 6122 6125 6128 6131 6134 6137 6140 6143 6146 6149 6152 6155 6158 6161 6164 6166 6168 6171 6173 6176 6179 6182 6185 6188 6190 6193 6196 6199 6202 6205 6208 6211 6214 6217 6220 6223 6226 6229 6232 6235 6238 6241 6243 6246 6249 6252 6255 6258 6261 6264 6267 6270 6273 6276 6278 6281 6284 6287 6290 6293 6296 6299 6302 6305 6308 6310 6313 6316 6319 6322 6325 6328 6331 6334 6337 6339 6342 6345 6348 6351 6353 6356 6359 6362 6364 6367 6370 6373 6376 6378 6381 6384 6387 6390 6393 6396 6399 6402 6405 6407 6410 6413 6416 6419 6421 6424 6427 6430 6433 6436 6439 6442 6445 6447 6450 6452 6454 6457 6459 6461 6464 6467 6470 6472 6475 6478 6481 6483 6486 6488 6491 6494 6497 6500 6503 6505 6508 6511 6514 6516 6519 6522 6525 6528 6531 6534 6536 6538 6541 6544 6547 6550 6553 6556 6559 6562 6565 6568 6571 6573 6576 6578 6580 6583 6586 6589 6592 6595 6597 6599 6602 6605 6607 6610 6613 6616 6619 6621 6624 6627 6630 6633 6636 6638 6641 6644 6647 6650 6652 6654 6657 6660 6662 6665 6667 6669 6672 6675 6678 6681 6684 6687 6690 6693 6696 6699 6702 6705 6708 6711 6714 6717 6720 6723 6726 6729 6732 6734 6737 6740 6742 6745 6747 6750 6753 6756 6758 6761 6764 6767 6770 6773 6776 6778 6780 6783 6786 6789 6792 6795 6798 6800 6803 6806 6808 6811 6814 6817 6820 6823 6826 6828 6831 6834 6837 6839 6842 6845 6848 6851 6854 6857 6859 6862 6865 6868 6871 6874 6877 6880 6883 6886 6889 6892 6895 6898 6900 6903 6905 6908 6911 6914 6917 6920 6923 6926 6929 6932 6934 6937 6940 6943 6945 6948 6951 6954 6957 6960 6963 6966 6969 6972 6975 6977 6980 6983 6986 6989 6992 6995 6998 7001 7004 7007 7010 7013 7016 7019 7022 7025 7028 7031 7034 7037 7040 7043 7046 7049 7052 7054 7057 7060 7063 7065 7068 7071 7073 7076 7079 7082 7085 7088 7090 7093 7096 7099 7101 7104 7107 7110 7113 7116 7119 7122 7124 7127 7130 7133 7136 7139 7142 7145 7148 7151 7154 7157 7160 7163 7166 7169 7172 7175 7177 7180 7182 7185 7188 7191 7194 7197 7200 7203 7206 7209 7211 7214 7216 7219 7221 7224 7226 7228 7231 7234 7237 7240 7242 7245 7248 7251 7254 7256 7259 7262 7265 7268 7271 7273 7276 7278 7281 7284 7286 7289 7292 7295 7298 7301 7304 7307 7310 7313 7316 7319 7322 7325 7328 7331 7334 7337 7339 7342 7345 7348 7351 7354 7357 7359 7362 7365 7368 7371 7374 7376 7379 7382 7385 7388 7391 7394 7397 7399 7402 7405 7407 7410 7413 7416 7419 7422 7425 7427 7430 7433 7436 7438 7441 7444 7447 7450 7453 7456 7459 7462 7465 7468 7471 7474 7477 7480 7483 7486 7489 7491 7494 7497 7500 7503 7506 7508 7510 7513 7516 7519 7522 7525 7527 7530 7532 7535 7537 7540 7542 7544 7547 7550 7553 7555 7557 7560 7563 7566 7569 7572 7575 7578 7581 7584 7587 7590 7593 7596 7599 7602 7605 7608 7611 7614 7617 7620 7623 7626 7629 7632 7635 7638 7641 7644 7647 7650 7653 7656 7659 7662 7665 7668 7671 7673 7676 7679 7682 7685 7688 7691 7694 7696 7699 7701 7704 7707 7710 7713 7716 7719 7721 7724 7727 7730 7732 7735 7738 7741 7743 7745 7748 7750 7753 7756 7759 7762 7765 7768 7770 7773 7776 7778 7781 7784 7787 7790 7793 7796 7799 7802 7805 7808 7811 7814 7816 7818 7820 7823 7826 7829 7831 7834 7837 7840 7843 7846 7849 7852 7855 7858 7861 7864 7867 7870 7873 7876 7879 7882 7885 7888 7891 7894 7897 7899 7902 7905 7908 7911 7913 7916 7919 7922 7925 7928 7931 7934 7936 7939 7942 7945 7948 7951 7953 7956 7959 7962 7965 7968 7970 7973 7976 7979 7982 7985 7988 7991 7994 7997 7999 8002 8005 8008 8011 8013 8016 8019 8022 8025 8028 8031 8034 8037 8040 8043 8045 8048 8051 8053 8056 8059 8062 8065 8068 8071 8074 8077 8080 8083 8086 8089 8092 8095 8098 8101 8104 8107 8110 8113 8115 8118 8121 8124 8127 8129 8132 8135 8138 8141 8144 8147 8150 8153 8155 8158 8161 8164 8167 8170 8172 8175 8178 8180 8183 8186 8189 8192 8195 8198 8201 8204 8207 8210 8213 8216 8218 8221 8224 8227 8230 8233 8236 8239 8242 8245 8248 8251 8254 8257 8260 8263 8266 8269 8272 8275 8278 8281 8284 8287 8290 8293 8296 8299 8302 8304 8307 8310 8313 8316 8319 8322 8325 8328 8331 8334 8337 8340 8343 8346 8348 8351 8354 8357 8360 8363 8366 8369 8372 8375 8378 8381 8384 8387 8390 8393 8396 8399 8402 8405 8407 8410 8413 8416 8419 8422 8425 8428 8430 8433 8436 8439 8442 8445 8448 8451 8454 8457 8460 8463 8466 8469 8472 8475 8478 8481 8484 8487 8490 8493 8496 8499 8502 8504 8507 8510 8513 8516 8519 8521 8524 8527 8530 8533 8536 8539 8542 8545 8548 8551 8553 8556 8559 8561 8564 8566 8569 8572 8575 8578 8581 8584 8587 8589 8592 8594 8597 8599 8602 8605 8608 8611 8614 8617 8620 8623 8626 8629 8632 8635 8638 8641 8644 8647 8650 8653 8656 8659 8662 8665 8668 8671 8674 8677 8680 8683 8686 8689 8692 8695 8698 8701 8704 8707 8709 8712 8715 8718 8721 8724 8727 8730 8733 8736 8739 8742 8745 8748 8751 8754 8757 8760 8763 8766 8769 8772 8775 8778 8781 8784 8787 8790 8793 8796 8799 8802 8804 8807 8810 8813 8816 8819 8822 8824 8826 8829 8832 8835 8838 8841 8844 8847 8850 8853 8856 8859 8862 8865 8867 8870 8873 8876 8879 8882 8885 8888 8891 8894 8897 8899 8901 8904 8906 8909 8912 8915 8917 8920 8922 8924 8927 8929 8932 8935 8938 8941 8944 8947 8950 8952 8954 8957 8960 8963 8966 8968 8971 8974 8977 8980 8982 8985 8987 8990 8992 8994 8997 8999 9002 9005 9008 9011 9014 9016 9019 9021 9023 9025 9027 9030 9033 9036 9039 9042 9044 9047 9050 9052 9054 9057 9060 9063 9065 9068 9071 9073 9076 9079 9082 9085 9087 9090 9093 9095 9098 9101 9103 9106 9109 9112 9115 9118 9121 9124 9127 9130 9133 9136 9139 9142 9145 9147 9150 9152 9155 9158 9161 9164 9167 9169 9172 9175 9177 9180 9183 9186 9189 9192 9194 9197 9200 9203 9206 9209 9212 9215 9218 9221 9224 9226 9229 9232 9235 9238 9241 9244 9247 9250 9253 9256 9259 9261 9264 9267 9270 9273 9276 9279 9281 9284 9287 9290 9293 9296 9299 9302 9305 9308 9311 9314 9317 9320 9323 9325 9328 9331 9334 9336 9339 9342 9345 9348 9351 9354 9357 9359 9362 9364 9367 9370 9373 9376 9379 9382 9385 9388 9391 9394 9397 9400 9403 9406 9409 9412 9415 9418 9421 9424 9427 9430 9433 9436 9439 9442 9445 9448 9451 9454 9457 9460 9463 9466 9469 9472 9474 9477 9479 9482 9485 9487 9490 9492 9495 9498 9501 9504 9507 9510 9512 9515 9518 9520 9522 9525 9528 9531 9534 9537 9540 9542 9545 9548 9551 9554 9557 9560 9563 9565 9568 9571 9574 9577 9580 9583 9586 9589 9592 9595 9598 9601 9604 9607 9610 9613 9616 9619 9622 9624 9627 9630 9633 9635 9638 9640 9643 9645 9648 9651 9654 9657 9659 9662 9665 9668 9671 9674 9677 9679 9682 9685 9688 9691 9694 9697 9699 9702 9705 9707 9710 9713 9716 9719 9722 9725 9727 9730 9733 9736 9739 9742 9745 9748 9751 9754 9756 9759 9761 9764 9767 9770 9773 9776 9778 9780 9783 9786 9789 9791 9793 9796 9799 9802 9805 9808 9811 9813 9816 9819 9821 9823 9826 9829 9831 9834 9837 9839 9842 9845 9848 9851 9853 9856 9859 9862 9865 9868 9871 9873 9876 9879 9882 9885 9888 9891 9894 9897 9900 9903 9905 9908 9911 9914 9916 9918 9921 9924 9927 9930 9933 9936 9939 9942 9945 9947 9950 9953 9956 9959 9962 9965 9968 9971 9974 9977 9980 9982 9984 9987 9990 9993 9996 9998 10001 10004 10007 10010 10012 10015 10018 10021 10024 10026 10029 10032 10035 10037 10040 10043 10046 10049 10051 10054 10057 10060 10063 10066 10068 10071 10074 10077 10080 10082 10085 10088 10091 10094 10097 10100 10103 10106 10109 10112 10115 10118 10121 10124 10127 10130 10133 10136 10139 10142 10145 10148 10151 10154 10157 10160 10163 10166 10169 10172 10175 10178 10180 10183 10186 10189 10192 10194 10197 10200 10203 10206 10209 10212 10214 10217 10220 10223 10225 10228 10230 10233 10236 10239 10242 10245 10248 10251 10254 10257 10260 10263 10266 10269 10272 10275 10278 10281 10284 10287 10290 10293 10296 10299 10301 10304 10306 10309 10312 10315 10317 10320 10323 10326 10329 10332 10335 10338 10341 10344 10347 10350 10353 10356 10358 10361 10364 10366 10369 10372 10374 10376 10379 10381 10384 10387 10390 10393 10396 10399 10402 10405 10408 10411 10414 10417 10420 10423 10426 10429 10432 10434 10437 10440 10443 10446 10449 10451 10454 10457 10460 10463 10466 10469 10472 10474 10477 10480 10483 10486 10489 10492 10495 10497 10500 10503 10506 10509 10512 10515 10518 10521 10524 10527 10530 10533 10536 10539 10542 10544 10547 10550 10553 10555 10558 10561 10564 10567 10570 10573 10576 10579 10582 10585 10588 10590 10593 10596 10599 10602 10605 10608 10610 10613 10616 10618 10621 10623 10626 10629 10632 10634 10637 10640 10643 10646 10649 10652 10655 10658 10661 10664 10667 10669 10672 10675 10678 10681 10684 10686 10689 10692 10695 10697 10700 10703 10706 10708 10711 10714 10717 10720 10723 10725 10728 10730 10733 10736 10739 10742 10745 10748 10751 10754 10756 10759 10761 10764 10767 10769 10772 10774 10777 10779 10782 10785 10788 10791 10794 10797 10800 10803 10806 10809 10811 10814 10816 10819 10822 10825 10828 10830 10833 10836 10839 10841 10843 10846 10849 10852 10854 10857 10859 10861 10864 10867 10869 10871 10874 10876 10878 10881 10884 10886 10888 10891 10894 10896 10899 10902 10904 10907 10909 10912 10915 10917 10920 10923 10925 10928 10930 10933 10936 10939 10941 10944 10946 10949 10952 10954 10956 10959 10962 10965 10967 10969 10972 10974 10977 10980 10983 10986 10989 10992 10995 10998 11000 11003 11006 11008 11010 11013 11015 11018 11020 11022 11025 11028 11031 11033 11036 11039 11041 11044 11047 11050 11053 11056 11059 11061 11063 11066 11069 11072 11075 11078 11081 11084 11086 11088 11091 11094 11097 11100 11102 11105 11108 11111 11113 11116 11119 11121 11124 11127 11130 11133 11136 11138 11141 11144 11146 11149 11152 11155 11157 11159 11162 11165 11167 11170 11173 11176 11178 11181 11184 11187 11189 11191 11194 11197 11199 11202 11205 11208 11211 11213 11215 11218 11221 11223 11225 11228 11230 11232 11235 11238 11241 11244 11247 11250 11252 11255 11258 11261 11264 11267 11270 11273 11276 11279 11282 11284 11286 11289 11292 11295 11298 11301 11304 11307 11309 11312 11315 11318 11321 11324 11327 11330 11333 11336 11338 11341 11344 11346 11349 11352 11354 11357 11360 11363 11366 11369 11372 11375 11378 11381 11384 11387 11390 11393 11396 11399 11402 11405 11408 11410 11412 11415 11418 11421 11424 11426 11429 11432 11434 11437 11440 11443 11446 11449 11452 11455 11458 11461 11463 11466 11469 11471 11474 11477 11480 11483 11486 11489 11492 11495 11498 11501 11504 11506 11509 11511 11514 11517 11520 11523 11526 11529 11532 11535 11538 11541 11543 11546 11549 11552 11555 11558 11561 11564 11567 11570 11573 11576 11579 11582 11585 11588 11591 11594 11597 11600 11603 11606 11609 11612 11615 11618 11621 11624 11627 11630 11633 11636 11639 11642 11645 11648 11651 11654 11657 11660 11662 11665 11668 11671 11674 11677 11680 11683 11686 11689 11691 11694 11697 11699 11702 11705 11708 11711 11714 11717 11720 11723 11726 11729 11732 11735 11738 11741 11744 11747 11749 11752 11754 11757 11760 11762 11765 11768 11771 11773 11775 11778 11780 11782 11785 11787 11790 11793 11795 11798 11801 11803 11806 11809 11812 11815 11818 11821 11824 11827 11830 11833 11836 11839 11842 11845 11848 11851 11854 11857 11860 11863 11866 11868 11871 11874 11877 11880 11883 11886 11889 11892 11895 11898 11901 11904 11907 11910 11913 11916 11919 11922 11925 11927 11930 11933 11936 11939 11942 11944 11947 11950 11953 11956 11959 11962 11965 11968 11971 11974 11977 11980 11983 11986 11989 11992 11995 11998 12001 12004 12007 12010 12013 12016 12018 12021 12024 12027 12030 12033 12036 12038 12041 12044 12047 12050 12053 12056 12059 12062 12065 12068 12071 12074 12077 12080 12083 12085 12088 12091 12094 12096 12098 12101 12104 12107 12109 12112 12115 12118 12121 12124 12127 12130 12133 12135 12138 12141 12144 12147 12149 12152 12155 12158 12161 12164 12167 12170 12173 12176 12179 12182 12185 12188 12190 12193 12196 12199 12202 12205 12208 12211 12214 12217 12220 12223 12226 12229 12232 12235 12238 12241 12244 12247 12250 12253 12256 12259 12262 12265 12268 12271 12273 12276 12279 12282 12285 12288 12291 12294 12297 12300 12303 12306 12309 12312 12315 12318 12320 12322 12325 12328 12331 12333 12336 12339 12342 12345 12348 12351 12354 12357 12360 12363 12366 12369 12372 12375 12378 12381 12384 12387 12390 12393 12396 12399 12402 12405 12408 12411 12414 12417 12420 12423 12425 12428 12431 12434 12437 12440 12443 12446 12449 12452 12455 12458 12461 12464 12467 12470 12473 12476 12479 12482 12485 12488 12491 12494 12497 12500 12502 12505 12508 12511 12514 12517 12520 12523 12525 12528 12531 12534 12536 12539 12542 12544 12547 12550 12553 12556 12559 12562 12565 12568 12570 12572 12575 12578 12581 12584 12587 12589 12592 12595 12598 12601 12604 12607 12610 12613 12616 12619 12622 12625 12628 12631 12634 12637 12640 12643 12646 12648 12651 12653 12656 12658 12661 12664 12667 12669 12672 12674 12677 12680 12683 12686 12689 12692 12695 12698 12701 12704 12707 12710 12712 12715 12718 12721 12724 12726 12729 12732 12734 12737 12739 12742 12745 12747 12750 12753 12756 12758 12761 12764 12767 12770 12773 12776 12779 12782 12785 12787 12790 12793 12796 12799 12801 12804 12807 12810 12813 12815 12818 12821 12824 12827 12830 12833 12835 12838 12840 12843 12845 12848 12851 12854 12856 12859 12862 12865 12868 12871 12874 12876 12878 12881 12884 12887 12890 12893 12895 12898 12901 12904 12907 12910 12913 12916 12919 12922 12925 12928 12931 12934 12937 12940 12943 12946 12949 12952 12954 12957 12960 12963 12966 12969 12972 12975 12978 12981 12983 12986 12988 12991 12993 12996 12999 13002 13005 13008 13011 13014 13017 13020 13023 13026 13029 13031 13034 13037 13039 13042 13045 13048 13051 13054 13057 13060 13063 13066 13068 13071 13073 13076 13079 13082 13085 13088 13091 13093 13096 13099 13102 13105 13108 13111 13114 13117 13120 13123 13126 13129 13132 13135 13138 13141 13144 13147 13150 13153 13156 13159 13162 13165 13168 13171 13174 13177 13180 13183 13186 13189 13192 13195 13198 13201 13204 13207 13210 13213 13216 13218 13221 13224 13226 13229 13231 13234 13237 13240 13242 13244 13247 13250 13252 13255 13258 13261 13264 13267 13270 13273 13276 13279 13282 13285 13288 13290 13293 13296 13299 13302 13305 13308 13311 13314 13317 13320 13323 13326 13328 13331 13334 13337 13340 13343 13346 13349 13352 13355 13358 13361 13364 13367 13370 13373 13375 13378 13381 13384 13387 13390 13392 13395 13398 13401 13404 13407 13410 13413 13416 13419 13421 13424 13427 13430 13433 13435 13438 13441 13444 13447 13450 13453 13456 13459 13462 13465 13468 13470 13473 13475 13478 13480 13483 13486 13489 13491 13494 13497 13500 13503 13506 13509 13512 13515 13518 13521 13524 13527 13530 13533 13536 13539 13542 13545 13548 13551 13553 13556 13559 13562 13565 13568 13571 13574 13577 13580 13583 13586 13589 13592 13595 13598 13601 13604 13607 13609 13612 13615 13618 13621 13624 13626 13629 13632 13635 13638 13641 13644 13647 13650 13652 13655 13658 13660 13663 13666 13669 13672 13675 13678 13681 13683 13686 13689 13692 13695 13698 13701 13704 13707 13710 13712 13715 13718 13721 13724 13727 13730 13733 13736 13739 13742 13745 13748 13751 13754 13757 13760 13763 13766 13769 13772 13775 13778 13781 13784 13786 13789 13791 13794 13797 13799 13802 13805 13808 13811 13814 13817 13820 13823 13825 13828 13831 13834 13837 13840 13843 13845 13848 13851 13854 13857 13860 13863 13866 13869 13872 13875 13878 13881 13883 13886 13889 13892 13895 13898 13901 13904 13907 13910 13913 13916 13919 13922 13925 13927 13930 13933 13936 13938 13941 13944 13947 13950 13952 13955 13958 13961 13964 13967 13970 13973 13976 13979 13982 13985 13988 13991 13994 13997 14000 14003 14006 14009 14012 14015 14018 14021 14024 14027 14030 14032 14035 14038 14040 14043 14046 14049 14052 14055 14058 14061 14064 14067 14069 14072 14075 14077 14080 14083 14085 14088 14091 14094 14097 14100 14103 14106 14109 14112 14115 14118 14121 14124 14127 14130 14133 14136 14139 14142 14145 14148 14151 14154 14157 14160 14163 14166 14169 14172 14175 14178 14181 14184 14187 14190 14193 14196 14199 14202 14205 14208 14211 14214 14217 14220 14223 14226 14229 14232 14235 14238 14241 14244 14247 14250 14253 14256 14259 14262 14265 14268 14271 14274 14276 14279 14282 14285 14288 14291 14294 14296 14299 14302 14305 14308 14311 14314 14317 14320 14323 14326 14329 14331 14333 14336 14339 14341 14344 14346 14349 14352 14354 14357 14360 14362 14365 14368 14371 14374 14377 14380 14383 14386 14388 14391 14394 14397 14400 14403 14406 14409 14412 14415 14417 14420 14423 14426 14429 14431 14434 14437 14440 14443 14446 14449 14452 14455 14458 14461 14464 14467 14470 14473 14476 14478 14481 14484 14487 14490 14492 14495 14497 14500 14503 14506 14508 14511 14514 14516 14519 14522 14525 14528 14531 14534 14537 14540 14543 14546 14549 14551 14554 14557 14559 14562 14565 14568 14570 14573 14576 14578 14580 14583 14586 14588 14591 14594 14597 14600 14603 14606 14609 14612 14614 14617 14620 14623 14626 14628 14631 14633 14636 14638 14641 14644 14647 14650 14652 14655 14658 14661 14663 14666 14669 14672 14675 14678 14681 14684 14687 14690 14693 14696 14699 14702 14705 14708 14711 14714 14717 14719 14722 14725 14728 14731 14734 14737 14740 14743 14746 14749 14752 14755 14758 14761 14764 14767 14770 14773 14776 14779 14782 14785 14788 14791 14794 14797 14800 14803 14806 14809 14812 14815 14818 14821 14824 14827 14830 14833 14836 14839 14841 14844 14847 14850 14853 14856 14858 14861 14864 14867 14870 14873 14876 14879 14882 14885 14888 14891 14894 14897 14899 14902 14905 14907 14910 14913 14916 14918 14921 14923 14926 14929 14932 14935 14937 14940 14943 14946 14949 14952 14955 14958 14961 14964 14966 14969 14972 14974 14976 14979 14981 14984 14987 14990 14993 14996 14999 15002 15005 15008 15011 15014 15017 15020 15023 15026 15029 15032 15035 15038 15041 15044 15047 15050 15052 15055 15058 15061 15063 15066 15069 15072 15075 15078 15081 15084 15086 15089 15092 15095 15098 15101 15104 15107 15110 15113 15116 15119 15122 15125 15128 15131 15134 15137 15140 15143 15146 15149 15152 15155 15157 15160 15163 15166 15169 15172 15174 15177 15179 15181 15184 15187 15190 15192 15195 15198 15200 15203 15206 15209 15212 15215 15218 15221 15224 15227 15230 15233 15235 15238 15241 15244 15246 15249 15251 15254 15257 15260 15263 15266 15268 15271 15273 15276 15278 15281 15284 15287 15290 15293 15296 15299 15302 15304 15306 15308 15311 15314 15316 15319 15322 15325 15328 15331 15334 15337 15340 15343 15346 15349 15352 15355 15358 15361 15364 15367 15370 15373 15376 15379 15382 15385 15388 15391 15394 15397 15400 15403 15406 15409 15412 15415 15418 15421 15424 15427 15429 15432 15435 15438 15441 15444 15447 15450 15452 15455 15458 15460 15463 15466 15469 15472 15475 15478 15481 15484 15487 15490 15493 15496 15499 15502 15505 15508 15511 15514 15517 15520 15523 15526 15529 15531 15534 15537 15540 15543 15546 15549 15552 15555 15558 15561 15563 15566 15569 15572 15575 15577 15580 15583 15586 15589 15591 15594 15596 15598 15601 15604 15607 15610 15612 15615 15618 15620 15623 15626 15628 15630 15633 15636 15639 15642 15645 15648 15651 15653 15656 15659 15662 15665 15668 15671 15674 15677 15680 15683 15686 15689 15692 15694 15697 15700 15703 15706 15709 15712 15715 15717 15719 15722 15724 15727 15729 15732 15735 15738 15740 15743 15746 15749 15752 15755 15757 15760 15763 15765 15768 15771 15774 15777 15780 15783 15786 15788 15791 15794 15797 15800 15803 15806 15809 15812 15814 15817 15820 15823 15825 15828 15831 15834 15837 15840 15842 15844 15847 15850 15852 15855 15858 15861 15864 15867 15870 15873 15876 15879 15882 15885 15888 15891 15894 15896 15899 15902 15904 15907 15909 15912 15915 15918 15921 15923 15926 15929 15932 15935 15938 15940 15943 15946 15948 15950 15953 15956 15959 15962 15964 15967 15970 15973 15976 15979 15982 15985 15988 15990 15993 15995 15998 16001 16004 16007 16010 16013 16016 16019 16021 16024 16027 16030 16033 16035 16038 16041 16044 16047 16050 16053 16056 16059 16062 16065 16068 16071 16074 16077 16080 16083 16086 16089 16092 16095 16098 16101 16104 16107 16110 16113 16116 16119 16122 16125 16128 16131 16134 16136 16139 16142 16145 16148 16151 16154 16157 16159 16162 16165 16168 16171 16174 16177 16180 16183 16186 16189 16192 16195 16197 16200 16203 16206 16209 16211 16214 16217 16220 16223 16226 16229 16232 16235 16238 16241 16244 16247 16250 16252 16255 16258 16260 16263 16266 16269 16272 16274 16277 16280 16283 16286 16289 16292 16295 16298 16301 16304 16307 16309 16312 16314 16317 16320 16322 16325 16328 16331 16334 16336 16339 16342 16345 16348 16351 16354 16357 16360 16363 16366 16369 16372 16375 16378 16381 16384 16387 16390 16393 16396 16399 16402 16405 16408 16411 16414 16417 16420 16422 16425 16428 16431 16434 16436 16439 16442 16445 16448 16451 16454 16457 16460 16463 16465 16468 16471 16474 16476 16479 16482 16485 16488 16491 16494 16496 16499 16501 16504 16506 16509 16512 16515 16518 16521 16524 16527 16530 16533 16536 16539 16542 16545 16548 16551 16554 16557 16560 16563 16566 16569 16572 16575 16578 16581 16584 16587 16590 16593 16596 16599 16602 16605 16608 16611 16613 16616 16618 16621 16624 16627 16630 16633 16636 16639 16642 16644 16647 16650 16653 16656 16659 16662 16665 16668 16671 16674 16677 16680 16682 16685 16688 16691 16694 16697 16700 16703 16706 16709 16712 16715 16718 16721 16723 16726 16729 16731 16734 16737 16740 16743 16745 16748 16751 16754 16757 16759 16762 16765 16768 16771 16774 16776 16778 16781 16783 16786 16789 16791 16794 16797 16800 16803 16805 16808 16810 16813 16816 16819 16822 16825 16828 16831 16834 16836 16839 16842 16845 16848 16850 16853 16856 16859 16862 16865 16868 16871 16874 16877 16880 16883 16886 16889 16892 16895 16898 16901 16904 16907 16910 16913 16916 16918 16921 16924 16927 16930 16933 16936 16939 16942 16945 16948 16951 16954 16957 16960 16963 16966 16969 16972 16975 16978 16981 16983 16986 16989 16992 16995 16998 17001 17004 17006 17009 17011 17014 17017 17020 17023 17026 17029 17032 17035 17038 17041 17044 17047 17050 17053 17056 17059 17062 17065 17068 17071 17074 17077 17080 17083 17086 17089 17091 17094 17097 17100 17103 17106 17108 17111 17113 17116 17119 17122 17125 17127 17129 17131 17134 17136 17139 17142 17145 17147 17150 17153 17156 17159 17161 17164 17166 17169 17172 17175 17178 17180 17183 17186 17189 17191 17193 17195 17198 17200 17203 17205 17208 17211 17213 17216 17219 17222 17225 17228 17231 17234 17237 17240 17243 17245 17248 17250 17253 17255 17258 17261 17264 17267 17269 17272 17275 17278 17281 17283 17286 17289 17292 17295 17298 17301 17304 17307 17310 17313 17315 17318 17320 17323 17326 17328 17331 17334 17336 17339 17342 17345 17348 17351 17353 17356 17359 17362 17365 17368 17371 17374 17377 17380 17383 17386 17389 17391 17394 17397 17400 17402 17405 17408 17411 17414 17417 17419 17422 17425 17428 17431 17434 17437 17440 17443 17446 17449 17452 17455 17458 17461 17464 17467 17470 17473 17476 17479 17482 17484 17487 17490 17493 17496 17498 17501 17504 17507 17509 17512 17514 17517 17520 17522 17525 17527 17530 17533 17536 17539 17542 17545 17547 17550 17553 17556 17559 17561 17564 17566 17569 17572 17575 17578 17581 17584 17587 17589 17592 17595 17598 17601 17604 17607 17610 17612 17615 17618 17621 17624 17627 17630 17633 17636 17639 17642 17645 17648 17651 17654 17657 17660 17663 17665 17668 17671 17674 17676 17679 17682 17685 17688 17691 17694 17697 17700 17703 17706 17709 17712 17715 17718 17720 17723 17726 17729 17732 17735 17738 17741 17744 17747 17750 17753 17756 17759 17762 17765 17768 17771 17774 17777 17780 17783 17786 17789 17792 17795 17798 17801 17803 17806 17808 17811 17814 17817 17819 17822 17825 17828 17830 17833 17836 17838 17840 17843 17846 17849 17852 17855 17858 17861 17864 17866 17869 17872 17874 17877 17880 17883 17886 17888 17891 17893 17896 17899 17902 17904 17907 17910 17913 17916 17919 17922 17925 17928 17931 17934 17936 17939 17942 17944 17947 17950 17952 17955 17958 17961 17964 17967 17970 17973 17975 17978 17981 17983 17985 17988 17991 17994 17996 17999 18002 18005 18008 18011 18014 18016 18019 18022 18025 18028 18030 18033 18036 18039 18041 18044 18047 18050 18053 18055 18058 18061 18063 18066 18069 18072 18075 18078 18081 18084 18087 18090 18093 18096 18098 18101 18104 18107 18110 18112 18115 18117 18120 18122 18125 18127 18130 18133 18136 18139 18142 18145 18148 18151 18154 18157 18160 18162 18164 18167 18170 18173 18176 18179 18182 18184 18187 18190 18192 18195 18198 18201 18204 18207 18210 18212 18215 18218 18221 18223 18226 18228 18231 18234 18237 18239 18242 18245 18248 18251 18254 18257 18259 18262 18265 18268 18271 18274 18277 18279 18282 18284 18287 18290 18293 18295 18298 18301 18304 18307 18309 18312 18315 18318 18321 18324 18327 18330 18332 18335 18337 18340 18342 18345 18348 18351 18353 18355 18358 18361 18363 18366 18369 18372 18375 18378 18380 18383 18385 18387 18389 18391 18394 18397 18400 18403 18406 18408 18410 18413 18416 18418 18421 18424 18427 18429 18432 18435 18438 18441 18444 18447 18450 18453 18456 18458 18461 18464 18467 18469 18472 18475 18478 18481 18484 18487 18490 18492 18495 18497 18500 18503 18506 18509 18511 18514 18516 18519 18522 18525 18528 18530 18533 18536 18539 18542 18545 18548 18551 18554 18557 18559 18562 18565 18568 18571 18574 18577 18580 18583 18586 18589 18592 18595 18598 18601 18604 18607 18610 18613 18616 18619 18622 18624 18627 18630 18633 18636 18638 18641 18644 18647 18650 18653 18655 18658 18660 18663 18666 18669 18672 18675 18678 18681 18684 18687 18690 18693 18695 18698 18700 18703 18705 18707 18710 18712 18715 18717 18720 18723 18726 18728 18731 18734 18737 18739 18742 18745 18748 18751 18753 18756 18758 18761 18764 18767 18770 18773 18776 18779 18782 18784 18787 18790 18793 18796 18799 18802 18805 18808 18810 18813 18816 18819 18822 18825 18828 18831 18834 18837 18839 18842 18845 18847 18850 18853 18856 18858 18861 18864 18867 18870 18873 18876 18879 18882 18885 18888 18891 18894 18896 18899 18902 18905 18908 18910 18913 18916 18919 18922 18925 18928 18930 18933 18936 18939 18942 18944 18947 18949 18952 18955 18958 18961 18964 18967 18970 18972 18975 18978 18981 18983 18985 18988 18991 18994 18997 18999 19002 19004 19007 19010 19012 19015 19018 19021 19024 19027 19030 19033 19036 19039 19042 19045 19048 19051 19054 19057 19060 19063 19066 19069 19072 19075 19078 19081 19084 19087 19090 19093 19096 19099 19102 19105 19108 19111 19114 19117 19119 19122 19125 19128 19130 19133 19136 19139 19142 19145 19148 19151 19154 19157 19160 19163 19166 19169 19171 19174 19176 19179 19182 19185 19188 19191 19194 19197 19200 19203 19206 19209 19212 19215 19217 19220 19223 19225 19228 19231 19234 19237 19240 19242 19245 19248 19251 19254 19257 19260 19263 19266 19269 19272 19275 19278 19281 19284 19287 19290 19293 19296 19299 19301 19303 19306 19309 19311 19314 19317 19319 19322 19325 19328 19331 19334 19337 19340 19342 19345 19348 19351 19354 19356 19359 19362 19365 19368 19371 19374 19377 19380 19383 19386 19389 19392 19395 19398 19400 19403 19406 19408 19411 19414 19417 19420 19423 19426 19429 19431 19433 19436 19439 19442 19445 19448 19451 19454 19457 19460 19463 19466 19469 19472 19475 19478 19481 19483 19486 19489 19492 19495 19497 19500 19503 19505 19508 19511 19513 19516 19519 19522 19525 19528 19531 19534 19537 19540 19543 19546 19549 19551 19554 19557 19560 19563 19565 19568 19571 19574 19577 19580 19583 19586 19589 19592 19594 19596 19598 19601 19604 19607 19609 19612 19615 19617 19619 19622 19624 19627 19630 19633 19635 19638 19641 19644 19647 19650 19653 19656 19659 19662 19665 19668 19671 19674 19677 19680 19683 19686 19689 19692 19695 19698 19701 19704 19707 19710 19713 19716 19719 19722 19725 19728 19731 19734 19737 19740 19743 19746 19749 19752 19755 19758 19761 19764 19767 19770 19773 19776 19779 19781 19784 19786 19789 19792 19795 19798 19801 19804 19807 19810 19813 19815 19818 19821 19824 19827 19830 19833 19835 19838 19841 19844 19847 19850 19852 19855 19858 19861 19864 19867 19870 19873 19876 19879 19882 19885 19888 19891 19894 19897 19899 19902 19905 19908 19911 19914 19917 19920 19922 19925 19928 19931 19934 19937 19939 19941 19944 19947 19950 19953 19955 19958 19961 19964 19967 19970 19973 19976 19979 19982 19985 19988 19991 19994 19997 20000 20003 20006 20009 20012 20015 20018 20020 20023 20026 20029 20032 20035 20038 20040 20043 20046 20049 20051 20054 20057 20060 20063 20066 20069 20072 20075 20078 20081 20084 20087 20090 20093 20096 20099 20102 20105 20107 20110 20112 20115 20118 20121 20124 20127 20129 20131 20134 20137 20140 20142 20145 20148 20151 20154 20157 20160 20162 20165 20168 20171 20174 20177 20179 20182 20184 20187 20190 20192 20195 20198 20201 20204 20206 20209 20212 20215 20218 20220 20223 20226 20229 20232 20234 20237 20240 20243 20246 20249 20252 20255 20258 20261 20264 20267 20270 20273 20275 20278 20281 20284 20287 20290 20293 20296 20299 20302 20305 20308 20311 20314 20317 20320 20323 20325 20328 20331 20334 20337 20339 20342 20345 20348 20351 20353 20356 20359 20362 20365 20368 20371 20374 20377 20380 20383 20385 20388 20391 20394 20397 20399 20402 20405 20408 20411 20414 20417 20420 20423 20426 20429 20432 20435 20438 20441 20444 20446 20449 20452 20455 20457 20460 20463 20466 20469 20472 20475 20478 20481 20484 20487 20490 20493 20496 20499 20501 20504 20507 20510 20513 20516 20519 20522 20525 20528 20531 20534 20536 20539 20542 20544 20547 20550 20553 20556 20559 20562 20564 20566 20569 20572 20575 20578 20580 20583 20585 20588 20591 20594 20596 20599 20602 20604 20607 20610 20613 20616 20619 20622 20625 20628 20631 20634 20637 20640 20643 20646 20649 20652 20654 20657 20660 20663 20666 20669 20672 20675 20678 20680 20682 20685 20688 20691 20693 20695 20698 20700 20703 20705 20708 20711 20714 20717 20719 20722 20725 20728 20731 20734 20737 20740 20743 20746 20749 20752 20755 20758 20760 20763 20765 20768 20771 20774 20777 20780 20783 20786 20789 20791 20793 20796 20799 20801 20803 20805 20808 20811 20814 20817 20820 20823 20825 20828 20831 20833 20836 20839 20841 20843 20845 20847 20850 20853 20856 20859 20862 20865 20868 20871 20874 20877 20880 20883 20886 20888 20891 20894 20896 20899 20901 20904 20907 20910 20913 20916 20919 20922 20924 20926 20929 20932 20934 20937 20940 20942 20945 20948 20951 20954 20956 20958 20960 20962 20965 20968 20971 20974 20977 20980 20983 20986 20989 20992 20995 20998 21001 21004 21006 21009 21012 21014 21017 21020 21023 21026 21028 21031 21034 21037 21039 21042 21045 21047 21050 21053 21055 21058 21061 21063 21065 21068 21070 21073 21076 21079 21082 21085 21088 21090 21093 21096 21099 21102 21104 21107 21110 21113 21116 21119 21121 21124 21127 21129 21132 21134 21136 21139 21142 21145 21147 21150 21153 21156 21159 21162 21164 21167 21170 21173 21175 21178 21181 21184 21186 21189 21192 21195 21198 21201 21204 21207 21209 21212 21215 21218 21221 21224 21226 21229 21232 21235 21238 21241 21244 21247 21249 21252 21254 21256 21259 21262 21264 21267 21270 21273 21276 21279 21282 21284 21287 21290 21293 21296 21299 21302 21304 21307 21310 21313 21316 21319 21322 21324 21327 21329 21332 21334 21337 21340 21342 21345 21348 21351 21354 21356 21358 21360 21362 21365 21368 21371 21374 21377 21380 21383 21386 21388 21391 21394 21397 21399 21402 21404 21407 21410 21413 21416 21419 21422 21425 21428 21431 21434 21437 21440 21443 21446 21449 21452 21454 21457 21459 21462 21465 21468 21471 21474 21477 21480 21483 21485 21488 21491 21494 21497 21500 21502 21505 21508 21510 21513 21516 21519 21522 21525 21528 21530 21532 21535 21538 21540 21543 21546 21549 21552 21555 21558 21561 21564 21567 21570 21573 21575 21577 21580 21583 21586 21589 21591 21594 21597 21600 21603 21606 21609 21612 21615 21617 21620 21623 21626 21629 21631 21634 21637 21640 21643 21646 21649 21651 21654 21656 21659 21661 21664 21667 21670 21673 21676 21679 21682 21685 21688 21691 21694 21697 21700 21703 21706 21709 21712 21715 21717 21720 21723 21726 21729 21732 21735 21738 21741 21744 21747 21750 21753 21756 21759 21762 21765 21768 21770 21772 21775 21778 21781 21784 21787 21790 21793 21796 21799 21802 21805 21808 21811 21814 21817 21820 21823 21826 21829 21832 21835 21838 21841 21844 21847 21850 21853 21856 21859 21862 21865 21868 21871 21874 21877 21880 21883 21886 21889 21892 21895 21898 21901 21904 21907 21909 21912 21914 21917 21920 21923 21926 21929 21932 21935 21937 21940 21943 21946 21948 21951 21953 21955 21957 21960 21962 21964 21967 21970 21972 21974 21976 21979 21982 21985 21988 21991 21993 21996 21998 22000 22003 22006 22009 22012 22015 22018 22021 22023 22026 22029 22031 22034 22037 22039 22041 22044 22047 22050 22053 22056 22059 22061 22064 22067 22069 22071 22074 22077 22079 22082 22085 22088 22090 22093 22096 22099 22102 22104 22107 22110 22113 22115 22118 22121 22123 22126 22129 22132 22135 22138 22141 22144 22147 22150 22153 22156 22159 22162 22165 22168 22171 22174 22177 22180 22182 22184 22187 22190 22193 22195 22198 22201 22204 22207 22209 22212 22215 22218 22221 22224 22226 22228 22231 22234 22237 22240 22243 22246 22249 22252 22255 22257 22260 22263 22266 22269 22272 22275 22278 22281 22284 22287 22290 22293 22296 22299 22302 22305 22308 22311 22314 22317 22320 22323 22326 22329 22332 22335 22338 22340 22343 22345 22347 22350 22353 22356 22359 22362 22365 22368 22371 22374 22377 22380 22383 22386 22389 22392 22395 22398 22401 22404 22407 22410 22413 22416 22419 22422 22425 22428 22430 22433 22436 22438 22441 22444 22446 22449 22452 22454 22457 22459 22462 22465 22468 22471 22474 22477 22480 22482 22485 22488 22491 22494 22497 22500 22503 22506 22509 22512 22515 22518 22520 22523 22525 22528 22530 22533 22536 22539 22542 22545 22547 22550 22553 22556 22559 22561 22564 22567 22569 22572 22575 22578 22581 22584 22587 22590 22593 22595 22598 22601 22604 22607 22610 22613 22615 22618 22621 22624 22627 22629 22632 22635 22638 22640 22643 22646 22649 22652 22655 22658 22661 22664 22667 22670 22673 22676 22679 22682 22685 22688 22691 22694 22696 22699 22701 22704 22707 22710 22712 22715 22718 22721 22724 22727 22730 22733 22736 22739 22742 22745 22748 22751 22754 22757 22760 22763 22766 22769 22771 22774 22777 22780 22782 22785 22788 22791 22793 22796 22799 22802 22805 22808 22811 22814 22817 22820 22823 22826 22829 22832 22835 22838 22840 22843 22846 22849 22852 22854 22857 22860 22862 22865 22868 22871 22874 22877 22880 22882 22885 22887 22890 22892 22894 22896 22899 22902 22905 22907 22909 22912 22915 22918 22921 22924 22927 22930 22932 22935 22938 22941 22943 22946 22948 22951 22954 22957 22960 22963 22966 22969 22972 22975 22977 22980 22983 22986 22989 22992 22995 22998 23001 23003 23006 23009 23012 23015 23017 23020 23023 23026 23029 23032 23035 23038 23041 23044 23047 23050 23053 23056 23059 23062 23065 23068 23071 23074 23077 23080 23082 23084 23087 23090 23093 23096 23099 23102 23105 23108 23110 23113 23116 23119 23122 23125 23128 23131 23134 23137 23140 23142 23145 23148 23151 23154 23157 23160 23162 23165 23168 23171 23174 23177 23179 23182 23184 23187 23190 23192 23194 23197 23200 23203 23206 23209 23212 23215 23218 23221 23224 23227 23230 23233 23236 23239 23242 23245 23248 23251 23254 23257 23260 23263 23266 23269 23272 23275 23278 23281 23284 23287 23290 23293 23296 23299 23302 23305 23308 23311 23314 23317 23320 23323 23326 23329 23332 23335 23338 23340 23342 23345 23348 23350 23353 23356 23359 23362 23365 23367 23369 23372 23375 23377 23379 23382 23385 23388 23391 23394 23397 23400 23403 23406 23409 23411 23414 23417 23420 23423 23426 23429 23432 23435 23438 23441 23444 23447 23450 23453 23456 23458 23461 23464 23467 23470 23473 23476 23479 23482 23485 23488 23491 23494 23497 23499 23502 23504 23506 23508 23511 23514 23517 23520 23523 23526 23529 23532 23534 23536 23539 23542 23545 23548 23550 23553 23556 23559 23562 23565 23568 23571 23574 23576 23579 23582 23585 23588 23591 23594 23597 23600 23603 23606 23609 23612 23615 23618 23621 23624 23627 23629 23632 23635 23638 23641 23644 23647 23649 23652 23655 23657 23660 23663 23666 23669 23672 23675 23678 23681 23684 23687 23690 23693 23696 23699 23702 23705 23708 23711 23713 23716 23719 23722 23724 23727 23730 23732 23735 23737 23739 23742 23745 23747 23750 23753 23756 23758 23761 23764 23766 23769 23771 23773 23776 23779 23782 23785 23787 23790 23793 23796 23799 23802 23805 23807 23810 23812 23815 23818 23821 23823 23826 23829 23832 23835 23837 23840 23842 23844 23847 23850 23853 23856 23859 23861 23864 23866 23869 23871 23874 23876 23878 23881 23884 23887 23890 23893 23896 23899 23901 23904 23906 23909 23912 23914 23917 23920 23922 23925 23928 23931 23934 23937 23940 23943 23946 23949 23952 23955 23958 23961 23964 23967 23970 23973 23976 23979 23982 23985 23988 23991 23994 23997 24000 24003 24006 24009 24012 24015 24017 24020 24023 24026 24029 24032 24035 24038 24041 24044 24047 24050 24053 24056 24059 24062 24065 24068 24071 24074 24077 24080 24083 24086 24088 24091 24094 24097 24100 24103 24105 24107 24110 24113 24116 24119 24122 24125 24128 24131 24134 24137 24140 24143 24146 24149 24152 24155 24158 24161 24164 24167 24170 24172 24175 24178 24181 24184 24187 24190 24193 24196 24199 24202 24205 24208 24211 24213 24216 24218 24221 24224 24227 24229 24232 24235 24238 24241 24244 24247 24250 24253 24255 24258 24260 24263 24266 24269 24272 24275 24277 24280 24283 24286 24289 24292 24295 24298 24301 24304 24307 24310 24312 24315 24318 24321 24324 24327 24330 24333 24336 24339 24342 24345 24347 24350 24353 24356 24359 24362 24365 24368 24371 24373 24376 24379 24382 24385 24388 24391 24394 24397 24400 24403 24406 24409 24412 24415 24418 24421 24424 24427 24430 24433 24436 24439 24442 24445 24448 24451 24453 24456 24459 24461 24464 24467 24470 24473 24476 24479 24482 24485 24488 24491 24494 24497 24500 24503 24506 24509 24512 24515 24518 24521 24524 24527 24530 24533 24536 24539 24542 24545 24547 24550 24552 24555 24557 24560 24563 24566 24569 24572 24574 24577 24580 24583 24586 24588 24591 24594 24597 24599 24602 24605 24608 24611 24614 24617 24620 24623 24626 24629 24632 24635 24638 24641 24644 24647 24650 24653 24655 24657 24659 24662 24665 24668 24671 24674 24677 24680 24683 24686 24689 24692 24695 24698 24700 24703 24706 24709 24712 24715 24718 24721 24724 24727 24730 24733 24736 24738 24741 24744 24746 24749 24752 24755 24758 24761 24764 24767 24770 24773 24776 24779 24782 24785 24788 24791 24794 24797 24800 24803 24806 24809 24811 24813 24816 24819 24822 24825 24828 24831 24834 24837 24840 24843 24846 24849 24852 24855 24857 24860 24863 24865 24868 24871 24874 24877 24879 24882 24885 24888 24891 24894 24897 24899 24902 24905 24908 24911 24914 24917 24920 24923 24926 24929 24932 24935 24938 24941 24944 24947 24950 24953 24955 24958 24961 24964 24967 24970 24972 24975 24978 24981 24984 24987 24990 24993 24996 24999 25002 25005 25008 25011 25014 25017 25020 25023 25026 25029 25032 25035 25038 25041 25044 25047 25050 25053 25056 25058 25061 25063 25066 25069 25072 25075 25077 25079 25082 25085 25088 25091 25094 25097 25100 25103 25106 25109 25112 25115 25118 25121 25124 25127 25130 25133 25136 25139 25142 25145 25148 25151 25154 25157 25160 25163 25166 25169 25172 25175 25178 25181 25184 25186 25189 25192 25195 25198 25200 25203 25206 25209 25212 25215 25218 25221 25224 25227 25230 25233 25235 25238 25241 25244 25247 25250 25253 25256 25259 25262 25265 25268 25271 25274 25277 25280 25283 25286 25288 25290 25293 25295 25298 25301 25304 25307 25310 25313 25316 25319 25322 25325 25327 25330 25333 25336 25339 25342 25345 25348 25351 25354 25357 25360 25363 25366 25369 25372 25375 25378 25380 25383 25386 25389 25392 25394 25397 25400 25403 25406 25409 25412 25415 25418 25421 25424 25427 25430 25433 25436 25439 25442 25445 25448 25451 25454 25457 25460 25463 25466 25469 25472 25475 25478 25481 25484 25487 25490 25493 25496 25499 25502 25505 25508 25511 25514 25517 25520 25523 25526 25529 25532 25535 25538 25541 25544 25547 25550 25553 25556 25559 25562 25565 25568 25571 25574 25577 25580 25583 25586 25589 25592 25595 25598 25601 25604 25607 25610 25613 25616 25619 25622 25625 25628 25631 25634 25637 25639 25642 25645 25648 25651 25654 25657 25660 25662 25665 25668 25670 25673 25676 25679 25682 25685 25688 25691 25694 25697 25700 25703 25706 25708 25711 25713 25716 25718 25721 25724 25727 25730 25733 25736 25739 25742 25744 25747 25750 25753 25756 25759 25762 25765 25768 25771 25773 25776 25779 25782 25785 25788 25791 25794 25797 25800 25803 25806 25809 25812 25815 25818 25821 25824 25827 25830 25833 25836 25838 25841 25844 25847 25850 25853 25856 25859 25862 25865 25868 25871 25874 25876 25879 25882 25885 25888 25891 25893 25896 25899 25901 25904 25907 25910 25913 25915 25917 25920 25923 25925 25928 25931 25934 25937 25940 25943 25946 25948 25950 25953 25956 25959 25962 25965 25968 25971 25974 25977 25980 25983 25986 25988 25991 25994 25997 26000 26002 26005 26008 26011 26014 26017 26020 26023 26026 26028 26031 26034 26037 26040 26042 26045 26048 26051 26054 26056 26059 26062 26065 26068 26071 26074 26077 26079 26082 26085 26088 26091 26094 26096 26099 26102 26105 26107 26110 26113 26116 26119 26122 26124 26127 26130 26133 26136 26139 26142 26145 26148 26151 26154 26157 26160 26163 26166 26168 26171 26174 26176 26179 26182 26185 26188 26191 26194 26197 26200 26203 26206 26209 26212 26215 26218 26221 26224 26227 26230 26233 26236 26239 26241 26244 26247 26249 26252 26255 26257 26260 26263 26266 26269 26272 26275 26278 26281 26284 26287 26290 26293 26296 26299 26302 26305 26308 26311 26314 26317 26320 26323 26326 26329 26332 26335 26338 26341 26344 26347 26349 26352 26355 26358 26361 26363 26366 26369 26371 26374 26376 26379 26382 26385 26388 26390 26393 26395 26398 26401 26403 26406 26408 26411 26413 26415 26418 26421 26423 26426 26428 26431 26433 26436 26439 26441 26444 26447 26450 26453 26456 26459 26461 26464 26466 26469 26472 26474 26476 26479 26482 26484 26487 26489 26492 26495 26497 26500 26503 26505 26508 26511 26513 26515 26517 26520 26522 26525 26528 26531 26534 26537 26540 26543 26546 26548 26551 26554 26557 26560 26563 26566 26569 26571 26574 26577 26580 26583 26586 26589 26592 26595 26598 26601 26604 26607 26610 26613 26615 26618 26621 26624 26627 26630 26633 26636 26639 26642 26645 26648 26651 26654 26657 26660 26663 26666 26669 26672 26674 26677 26680 26683 26686 26689 26692 26695 26698 26701 26704 26707 26710 26713 26716 26719 26722 26725 26728 26731 26734 26737 26740 26743 26746 26749 26752 26755 26758 26761 26764 26767 26769 26772 26775 26778 26780 26783 26785 26787 26790 26792 26795 26798 26801 26803 26806 26809 26812 26815 26817 26819 26821 26824 26827 26830 26833 26836 26839 26842 26845 26848 26851 26854 26857 26860 26863 26866 26869 26872 26874 26877 26880 26883 26886 26889 26892 26895 26898 26901 26903 26906 26909 26912 26914 26917 26920 26923 26926 26929 26932 26935 26938 26941 26944 26947 26950 26952 26955 26958 26960 26963 26966 26969 26972 26975 26978 26981 26984 26987 26990 26993 26996 26999 27002 27005 27008 27011 27014 27017 27020 27023 27026 27028 27031 27034 27037 27040 27043 27046 27049 27052 27055 27058 27061 27064 27067 27070 27073 27076 27079 27082 27084 27087 27090 27093 27096 27099 27102 27105 27107 27110 27113 27116 27119 27121 27124 27127 27130 27133 27136 27139 27142 27145 27148 27151 27154 27157 27160 27163 27166 27169 27172 27175 27178 27181 27184 27187 27190 27193 27196 27199 27202 27205 27208 27211 27214 27217 27220 27223 27226 27228 27230 27233 27236 27239 27242 27244 27247 27249 27252 27255 27258 27261 27264 27266 27269 27272 27275 27278 27281 27284 27287 27290 27292 27294 27297 27300 27303 27306 27308 27311 27314 27317 27320 27323 27326 27329 27332 27335 27338 27341 27344 27347 27350 27353 27356 27359 27362 27365 27368 27371 27373 27376 27379 27382 27385 27388 27391 27393 27396 27399 27401 27404 27407 27410 27413 27416 27419 27422 27425 27428 27430 27433 27436 27439 27442 27445 27448 27451 27454 27456 27459 27462 27465 27468 27471 27474 27477 27480 27483 27486 27489 27492 27495 27498 27501 27504 27507 27509 27512 27515 27517 27520 27523 27526 27529 27532 27535 27538 27541 27544 27547 27550 27553 27556 27559 27562 27565 27568 27571 27574 27577 27580 27583 27586 27589 27592 27595 27598 27601 27604 27606 27609 27611 27614 27617 27620 27623 27626 27629 27632 27635 27638 27641 27644 27647 27650 27653 27656 27659 27662 27665 27668 27671 27674 27677 27679 27682 27685 27688 27690 27693 27696 27699 27702 27705 27708 27711 27714 27717 27720 27723 27726 27728 27731 27734 27737 27739 27741 27744 27747 27749 27752 27755 27758 27761 27764 27767 27770 27773 27776 27778 27781 27784 27787 27790 27793 27796 27799 27802 27805 27808 27811 27814 27817 27819 27822 27824 27827 27830 27833 27836 27839 27842 27845 27848 27851 27854 27857 27860 27863 27866 27869 27872 27875 27878 27881 27884 27887 27890 27893 27896 27899 27902 27905 27908 27911 27913 27916 27919 27922 27925 27928 27931 27933 27936 27939 27942 27945 27948 27951 27954 27957 27960 27963 27966 27969 27972 27975 27978 27981 27983 27986 27988 27991 27994 27997 28000 28003 28006 28009 28011 28014 28017 28020 28022 28025 28028 28031 28034 28036 28039 28042 28045 28048 28051 28054 28056 28059 28062 28065 28068 28070 28073 28075 28078 28081 28084 28087 28090 28093 28096 28099 28101 28103 28106 28109 28112 28114 28116 28119 28122 28125 28128 28131 28134 28137 28139 28141 28144 28146 28148 28151 28154 28157 28160 28162 28165 28167 28170 28173 28176 28179 28182 28185 28187 28190 28193 28196 28199 28201 28204 28207 28210 28213 28215 28218 28221 28224 28227 28230 28232 28235 28238 28240 28243 28246 28249 28252 28254 28257 28260 28263 28266 28269 28272 28275 28278 28281 28283 28285 28288 28291 28294 28297 28300 28303 28306 28309 28312 28315 28318 28321 28324 28326 28329 28331 28334 28337 28340 28343 28346 28349 28352 28355 28358 28361 28364 28367 28370 28373 28376 28379 28382 28385 28388 28391 28394 28396 28399 28402 28405 28408 28411 28414 28417 28420 28423 28426 28429 28432 28435 28438 28441 28444 28447 28450 28453 28456 28459 28462 28465 28468 28471 28474 28476 28479 28482 28485 28488 28491 28494 28497 28500 28502 28505 28507 28510 28513 28516 28519 28522 28525 28527 28530 28533 28536 28539 28542 28545 28548 28551 28554 28557 28560 28563 28566 28569 28572 28575 28578 28581 28584 28587 28590 28593 28596 28599 28602 28605 28607 28610 28613 28616 28619 28622 28625 28628 28631 28633 28636 28639 28641 28644 28647 28649 28652 28655 28658 28661 28664 28666 28669 28672 28675 28678 28681 28684 28687 28690 28693 28695 28698 28701 28704 28707 28710 28713 28716 28719 28722 28725 28728 28731 28734 28737 28740 28742 28745 28748 28751 28754 28757 28760 28763 28766 28768 28771 28774 28777 28780 28783 28786 28789 28792 28795 28798 28801 28804 28807 28810 28813 28816 28819 28822 28824 28827 28829 28832 28834 28837 28840 28842 28844 28847 28850 28853 28856 28859 28862 28865 28868 28871 28874 28877 28880 28883 28886 28888 28891 28894 28897 28900 28903 28906 28908 28911 28914 28917 28919 28922 28925 28928 28931 28934 28937 28940 28943 28946 28949 28952 28955 28957 28960 28963 28966 28969 28971 28973 28975 28978 28981 28984 28987 28990 28993 28996 28998 29001 29004 29006 29009 29011 29014 29016 29019 29022 29025 29028 29031 29033 29036 29039 29042 29045 29048 29051 29054 29057 29060 29063 29066 29069 29072 29075 29078 29081 29084 29087 29090 29093 29095 29098 29101 29104 29106 29109 29111 29113 29115 29118 29121 29124 29127 29130 29132 29135 29138 29141 29144 29147 29150 29153 29156 29159 29162 29165 29168 29171 29174 29177 29180 29183 29186 29189 29192 29195 29198 29201 29204 29207 29210 29212 29215 29218 29220 29223 29226 29229 29232 29235 29238 29241 29244 29246 29249 29251 29254 29257 29260 29263 29266 29269 29272 29275 29277 29280 29283 29286 29289 29291 29294 29297 29299 29302 29305 29307 29310 29313 29316 29318 29321 29324 29327 29330 29333 29336 29339 29342 29345 29348 29351 29354 29357 29360 29363 29366 29369 29372 29375 29378 29380 29383 29386 29389 29392 29395 29398 29400 29403 29406 29409 29412 29415 29417 29420 29423 29426 29429 29432 29434 29437 29439 29441 29444 29447 29450 29453 29456 29459 29462 29465 29468 29471 29474 29477 29479 29482 29485 29488 29491 29493 29496 29498 29500 29503 29506 29509 29511 29514 29517 29520 29523 29526 29529 29532 29535 29538 29541 29544 29547 29550 29553 29556 29559 29562 29565 29568 29571 29574 29577 29579 29582 29584 29587 29590 29592 29595 29598 29600 29603 29606 29608 29611 29614 29617 29619 29621 29624 29627 29630 29633 29636 29639 29642 29644 29647 29650 29653 29656 29659 29662 29665 29668 29670 29673 29676 29679 29682 29685 29688 29691 29693 29696 29699 29702 29704 29707 29709 29711 29714 29717 29720 29722 29725 29728 29731 29734 29737 29740 29743 29746 29749 29752 29755 29758 29761 29764 29767 29770 29773 29776 29779 29782 29785 29788 29790 29793 29796 29798 29801 29804 29807 29809 29812 29815 29818 29821 29824 29827 29830 29832 29834 29837 29840 29842 29845 29848 29851 29854 29857 29860 29863 29866 29869 29872 29875 29878 29881 29884 29887 29890 29893 29896 29899 29902 29905 29908 29911 29914 29917 29920 29923 29926 29929 29932 29935 29938 29941 29944 29947 29949 29952 29955 29958 29961 29964 29967 29970 29972 29975 29978 29980 29983 29986 29988 29991 29994 29997 30000 30003 30006 30009 30012 30015 30018 30021 30024 30027 30030 30033 30036 30039 30042 30045 30047 30050 30053 30056 30059 30061 30064 30067 30070 30073 30076 30079 30082 30085 30088 30091 30093 30096 30099 30102 30105 30107 30110 30113 30116 30119 30121 30123 30126 30128 30131 30134 30137 30140 30143 30146 30149 30152 30155 30158 30161 30164 30167 30170 30172 30175 30178 30181 30184 30187 30190 30193 30196 30199 30201 30204 30207 30210 30213 30216 30219 30222 30225 30228 30231 30234 30237 30240 30243 30246 30249 30252 30255 30258 30261 30264 30267 30270 30273 30276 30279 30282 30285 30288 30291 30294 30297 30300 30303 30306 30309 30312 30315 30318 30321 30324 30326 30329 30332 30335 30338 30340 30343 30346 30348 30351 30354 30357 30360 30363 30366 30368 30370 30373 30376 30379 30382 30384 30387 30390 30393 30396 30399 30402 30405 30408 30411 30414 30417 30420 30423 30426 30429 30432 30435 30438 30441 30444 30447 30450 30453 30456 30459 30462 30465 30468 30471 30474 30477 30480 30483 30486 30489 30492 30495 30498 30501 30504 30507 30510 30513 30516 30519 30522 30525 30528 30531 30534 30537 30540 30543 30546 30549 30552 30555 30558 30561 30564 30567 30569 30572 30575 30578 30581 30584 30586 30589 30591 30594 30597 30600 30603 30606 30609 30612 30615 30618 
</DataArray>
<DataArray type="UInt32" Name="types" format="ascii">
3 5 5 5 5 5 5 5 5 3 5 5 5 3 5 5 5 5 5 5 5 5 5 5 5 5 5 5 5 3 5 5 3 5 5 5 3 5 5 5 3 5 5 5 5 5 5 5 5 3 5 5 5 5 5 5 3 5 5 5 5 5 5 5 5 5 3 5 5 3 5 5 5 3 5 3 5 3 3 5 5 5 5 5 5 5 5 5 3 5 3 5 5 3 5 5 5 5 5 5 5 5 5 5 5 5 5 5 5 3 5 5 5 5 3 5 5 3 3 5 5 3 5 5 5 3 3 3 5 3 5 5 5 5 5 5 5 5 5 3 3 5 5 5 5 5 5 3 5 5 5 5 5 3 3 5 5 3 5 5 3 3 5 3 3 5 5 5 5 5 5 5 5 5 5 5 5 3 5 5 3 5 5 5 5 5 5 5 5 5 5 5 5 5 5 5 5 5 5 5 5 3 5 5 5 5 5 5 5 5 5 5 5 5 5 5 5 3 5 5 3 5 5 5 5 3 3 5 5 5 5 5 5 5 5 5 5 5 5 5 5 5 3 5 5 5 3 5 5 5 5 5 5 5 5 3 3 5 5 5 5 5 5 5 5 5 3 5 5 5 5 5 3 5 3 5 5 5 5 5 3 3 5 5 5 3 5 3 5 5 5 3 5 3 5 5 3 5 5 5 3 5 5 5 5 5 3 3 5 5 3 5 3 3 5 5 3 5 3 5 5 5 5 3 5 3 5 5 3 3 3 5 3 5 3 3 5 5 5 5 5 5 5 5 5 3 5 5 5 5 5 5 5 5 5 5 5 5 5 5 5 5 5 5 5 5 5 5 5 5 3 5 3 5 5 5 5 5 3 5 3 5 5 3 5 5 5 5 3 5 3 5 5 5 5 5 5 5 5 5 5 5 5 5 3 5 5 3 5 5 5 5 5 5 5 5 5 5 5 5 5 5 5 5 5 3 5 5 5 5 5 5 5 5 5 5 3 5 5 5 3 3 5 5 5 5 5 5 5 5 5 5 5 5 5 5 5 5 5 5 5 5 5 5 5 3 5 5 3 5 5 3 5 3 5 5 5 3 5 3 3 5 5 5 5 5 5 5 5 5 5 3 5 5 5 5 5 5 5 5 5 5 5 5 5 5 5 5 5 5 5 5 5 5 5 5 5 5 5 5 5 5 5 5 3 5 5 5 5 3 5 5 5 5 5 5 5 3 5 5 5 5 5 5 5 5 5 3 5 3 3 5 5 3 5 3 5 5 5 5 5 5 5 5 3 5 5 5 5 5 3 5 5 5 5 5 5 3 5 5 5 5 5 5 5 5 3 5 3 5 5 5 5 5 3 5 3 5 5 5 5 5 5 3 5 5 5 5 5 5 5 5 5 5 3 3 5 5 5 5 3 5 5 5 5 5 5 5 5 5 5 5 5 3 5 5 3 5 5 5 5 5 5 5 5 5 5 3 3 5 5 5 5 5 5 5 5 5 5 3 5 3 5 5 5 5 5 5 5 5 5 5 5 5 5 5 5 5 5 5 5 5 5 5 5 5 5 5 5 5 5 5 5 5 5 5 5 5 5 5 5 3 5 5 5 3 5 3 5 3 5 5 3 5 3 5 3 5 5 3 5 5 5 5 5 5 5 5 3 5 5 3 5 5 5 5 3 5 5 5 5 5 5 5 5 5 5 3 5 3 5 3 5 3 5 3 5 5 5 3 5 3 5 5 5 5 5 5 5 5 5 5 5 5 3 5 5 3 3 5 5 5 3 5 5 3 5 5 3 5 5 5 3 5 5 5 5 5 3 5 5 3 3 5 5 5 3 3 3 5 5 3 5 5 3 5 5 5 5 5 5 3 5 5 3 5 5 3 5 5 5 5 5 5 5 5 3 5 5 5 5 5 3 3 3 5 5 5 5 5 5 5 5 5 5 5 3 5 5 5 5 3 5 5 5 5 5 5 5 3 5 5 5 3 5 3 5 3 5 3 5 5 5 5 5 5 5 5 5 5 3 5 5 5 5 5 5 5 5 3 5 5 3 5 5 5 5 3 5 5 5 5 5 5 3 5 3 5 5 5 5 5 5 3 3 5 5 5 5 3 5 3 5 5 5 3 5 5 5 5 5 5 5 3 3 5 5 3 5 3 3 3 5 5 5 5 5 5 5 3 5 5 5 5 5 5 5 5 5 5 5 5 5 3 5 5 5 5 5 5 5 5 5 5 3 5 5 3 5 5 5 5 5 3 5 5 5 5 5 5 5 5 3 5 3 5 5 3 5 5 3 5 5 5 5 3 5 5 5 5 5 3 5 5 5 5 5 5 5 5 5 3 5 5 3 3 5 5 5 5 3 5 3 5 5 3 3 5 3 5 3 5 5 5 5 5 3 5 5 5 3 5 5 5 3 5 5 5 5 5 5 5 5 5 5 3 5 5 5 5 5 5 5 5 5 5 5 5 5 5 5 5 5 5 3 5 5 3 5 5 5 5 3 5 5 5 5 5 5 5 5 5 5 5 5 5 5 5 5 5 5 5 5 5 5 5 5 5 5 5 5 5 5 5 5 5 5 5 5 5 5 5 5 5 5 5 5 5 5 5 5 5 5 5 5 5 5 5 5 5 5 3 5 5 5 5 5 5 5 5 5 5 5 5 5 5 5 5 5 5 5 3 5 5 5 5 3 5 5 5 5 5 5 5 5 5 5 5 5 5 5 5 5 5 5 3 5 5 5 5 3 5 5 5 5 5 3 3 5 5 5 5 5 5 5 5 5 5 5 5 5 5 5 5 5 5 3 5 5 5 3 5 3 5 5 5 5 5 5 5 5 5 3 5 5 5 5 3 3 5 5 5 5 5 5 5 5 5 5 5 5 5 5 5 5 5 5 5 3 5 5 5 5 5 5 5 5 5 5 5 5 5 3 5 5 5 5 5 5 5 5 5 5 5 5 5 5 5 5 5 5 5 5 5 5 3 5 5 5 5 5 5 5 3 5 5 5 3 5 5 5 5 5 5 5 5 5 5 5 5 5 5 5 5 5 5 5 5 5 5 5 5 3 5 3 5 5 5 5 3 5 3 5 5 5 5 5 5 5 3 5 5 5 5 3 5 5 5 5 5 5 5 5 5 5 5 3 5 5 5 5 5 5 3 5 3 5 5 5 5 5 3 5 5 3 5 5 3 5 5 5 5 5 5 5 5 5 5 5 5 5 5 5 5 5 5 5 5 5 5 5 5 5 5 5 3 5 5 5 3 5 3 5 5 3 3 5 5 5 3 5 5 5 5 3 5 3 5 5 3 5 5 5 5 5 3 5 5 5 5 5 3 5 5 5 5 5 5 5 5 5 5 5 5 5 5 5 5 5 5 5 5 5 5 5 5 5 5 5 5 5 5 5 5 5 5 5 5 5 5 5 5 5 5 5 3 3 5 5 5 5 5 5 5 5 5 5 5 5 5 5 5 5 5 5 5 5 5 5 5 5 5 5 5 5 3 5 5 5 5 3 5 5 5 5 3 5 5 5 5 5 5 5 3 5 3 5 5 5 5 5 3 5 5 5 5 5 5 5 5 5 5 3 5 5 5 5 5 5 5 5 5 5 5 5 5 5 5 5 5 5 5 5 5 5 5 5 5 3 5 5 5 5 3 5 3 5 5 3 5 3 5 5 5 5 5 5 3 5 5 5 3 5 5 5 5 5 5 5 5 5 5 5 5 5 5 5 5 5 3 5 3 5 5 5 5 5 3 5 3 5 5 5 5 5 5 5 5 3 5 5 5 5 5 5 5 5 5 5 5 5 5 5 5 5 5 5 5 5 5 5 5 3 5 3 5 5 5 5 5 5 5 5 5 5 5 5 3 5 5 5 5 5 5 5 5 5 5 5 5 5 5 5 5 5 5 5 5 5 5 5 5 5 5 5 3 5 5 5 3 5 3 3 5 5 5 5 5 3 5 5 5 5 5 5 5 5 5 5 5 5 5 5 5 5 5 5 5 5 5 5 5 5 3 5 5 3 5 5 5 5 5 5 5 5 3 3 5 5 5 5 5 5 5 5 5 5 3 5 5 3 3 5 3 5 5 5 5 5 3 5 3 3 3 5 5 5 5 5 5 3 5 5 5 5 5 5 5 5 5 3 5 3 5 5 3 5 5 5 5 5 5 5 5 5 5 5 5 5 5 5 5 5 5 5 5 5 5 5 5 5 5 3 3 5 5 5 5 5 5 5 5 5 5 5 5 5 5 5 5 5 5 5 5 5 5 5 5 5 5 5 5 5 5 5 5 5 5 5 5 5 5 5 5 5 5 5 5 5 5 5 5 5 5 5 5 5 5 5 5 3 5 5 5 5 5 5 5 5 5 3 3 5 5 5 3 5 5 5 5 5 5 5 5 5 5 5 5 5 5 5 5 5 5 5 5 5 5 5 5 5 5 5 5 5 5 3 5 5 5 5 5 5 5 3 5 5 5 5 5 5 5 3 5 5 3 5 5 5 5 5 5 5 5 5 3 5 5 3 3 5 5 5 3 5 5 5 5 5 5 5 5 5 5 5 3 5 5 5 5 3 5 3 5 5 3 5 5 3 3 5 5 5 5 5 5 5 5 5 5 3 3 5 5 5 5 5 5 3 5 5 5 5 5 5 3 5 3 5 5 5 5 5 3 3 5 5 5 5 5 5 5 5 5 5 5 5 5 5 5 5 5 5 5 3 3 5 5 3 5 5 5 5 5 5 5 5 5 5 5 3 5 5 5 5 5 5 5 5 5 5 5 5 5 5 5 5 5 5 5 5 5 5 5 5 5 5 5 5 3 5 5 5 5 3 3 5 5 5 5 5 5 5 3 5 3 5 5 5 5 5 5 5 5 5 5 5 5 5 5 5 5 5 5 5 5 3 3 5 3 5 5 5 5 5 3 5 5 5 5 5 5 5 5 5 5 5 5 5 5 5 5 5 3 5 5 5 5 5 5 5 5 5 5 5 3 5 5 5 5 5 5 5 5 5 5 3 5 5 5 5 5 5 5 5 5 3 5 5 5 5 3 5 5 5 3 5 5 5 5 3 5 5 5 5 5 5 5 5 5 3 5 5 5 5 3 5 5 5 5 5 5 5 5 3 5 3 3 5 3 3 5 5 5 3 5 5 5 3 5 3 5 5 5 5 5 3 5 5 5 3 5 5 5 5 5 5 3 3 5 5 5 5 5 5 5 5 5 5 5 3 5 3 3 5 5 5 5 5 3 3 5 5 3 5 5 5 5 3 5 5 5 5 5 3 5 5 5 5 3 3 5 5 3 5 3 3 5 5 5 5 5 5 5 5 5 5 5 5 5 5 5 5 5 5 5 5 5 3 5 5 3 5 3 5 5 5 3 5 5 5 5 5 5 3 3 5 5 5 5 5 5 3 5 5 3 5 5 5 5 5 5 3 5 5 5 3 5 5 5 5 5 5 3 5 5 5 5 5 5 5 5 5 5 5 5 5 3 5 3 5 5 5 5 5 5 5 5 5 3 5 5 5 3 5 5 5 5 5 5 5 5 5 5 3 5 5 5 5 5 5 5 5 5 5 5 5 5 5 5 5 5 5 5 5 5 5 5 5 5 3 5 5 5 3 5 5 3 5 5 5 5 5 3 5 5 5 3 5 5 5 5 5 5 5 3 5 5 5 5 5 5 5 5 5 5 5 5 5 5 5 5 5 3 5 3 5 5 5 5 5 5 5 5 5 3 5 3 5 3 5 3 3 5 5 5 5 3 5 5 5 5 3 5 5 5 5 5 3 5 3 5 5 3 5 5 5 5 5 5 5 5 5 5 5 5 5 5 5 5 5 3 5 5 5 5 5 5 3 5 5 5 5 5 3 5 5 5 5 5 5 5 3 5 5 3 5 5 5 5 5 5 3 5 5 5 3 5 5 5 5 5 5 5 5 5 5 5 5 5 5 5 5 5 3 5 5 5 5 5 3 3 5 5 5 5 5 3 5 3 5 3 5 3 3 5 5 5 3 3 5 5 5 5 5 5 5 5 5 5 5 5 5 5 5 5 5 5 5 5 5 5 5 5 5 5 5 5 5 5 5 5 5 5 5 5 5 5 3 5 5 5 5 5 5 5 3 5 3 5 5 5 5 5 5 3 5 5 5 3 5 5 5 3 3 5 3 5 5 5 5 5 5 3 5 5 3 5 5 5 5 5 5 5 5 5 5 5 5 3 3 3 5 5 5 3 5 5 5 5 5 5 5 5 5 5 5 5 5 5 5 5 5 5 5 5 5 5 3 5 5 5 5 3 5 5 5 5 5 5 5 3 5 5 5 5 5 3 5 5 5 5 5 3 5 5 5 5 5 5 5 5 5 3 5 5 5 5 3 5 5 5 5 5 5 5 5 5 5 3 5 5 3 5 5 5 5 5 5 5 5 5 5 5 5 5 5 5 5 5 5 5 5 3 5 5 5 5 3 5 5 5 5 5 5 5 5 3 5 5 5 5 5 3 5 5 3 5 5 5 5 5 5 5 5 5 5 5 5 3 5 5 5 5 5 5 5 5 5 5 5 5 5 5 5 5 5 5 5 5 5 5 5 5 5 5 5 5 3 5 5 5 5 5 5 5 5 5 5 5 5 5 5 3 5 5 5 5 5 5 5 5 5 5 5 5 5 5 5 5 5 5 5 3 5 5 5 5 5 5 5 3 5 5 5 5 5 5 5 5 5 5 5 5 5 5 5 5 5 5 5 5 5 5 5 5 3 5 5 5 5 5 3 5 5 5 5 5 5 5 5 5 5 3 5 5 3 5 3 5 5 5 5 5 5 5 3 5 3 5 3 5 5 5 5 5 5 5 5 5 5 5 5 5 5 5 5 5 5 5 5 5 5 5 5 5 5 5 5 5 5 5 5 5 5 5 5 3 5 5 5 5 5 5 5 5 5 5 5 5 5 5 5 5 5 5 5 5 5 5 5 5 5 5 5 5 5 5 5 3 5 5 5 5 5 5 3 3 5 5 5 5 5 5 5 5 5 5 5 5 5 3 5 5 5 5 5 5 5 5 5 5 3 3 5 3 5 5 5 3 5 3 3 5 3 5 5 5 5 5 5 5 3 3 5 5 5 5 3 5 5 5 5 3 5 3 5 3 3 5 3 5 5 5 5 5 3 5 3 3 3 3 5 5 5 5 5 3 5 5 3 3 5 5 5 3 5 5 3 5 5 5 5 3 5 5 3 5 5 3 5 5 5 5 5 5 5 5 5 5 5 5 5 5 3 5 3 5 5 5 5 5 3 5 5 3 5 5 5 5 5 3 5 5 5 5 5 5 5 5 5 5 3 5 5 5 5 5 5 5 5 5 5 5 3 5 5 5 5 5 5 3 5 5 5 5 5 5 5 5 5 5 5 5 5 5 3 5 5 5 3 5 5 5 5 5 5 5 3 5 3 5 5 5 5 5 5 5 5 5 5 5 5 5 5 5 5 5 5 5 5 5 5 5 5 5 5 5 5 5 5 5 5 5 5 5 5 3 5 3 5 5 3 5 3 5 5 5 5 5 5 3 5 5 3 3 5 5 5 5 5 5 3 5 5 5 5 5 5 5 3 5 5 5 5 5 5 5 5 5 5 5 5 5 5 5 5 5 5 5 3 5 5 5 3 5 3 5 3 5 5 5 5 3 5 5 5 5 5 5 3 5 5 5 5 5 5 3 5 5 3 5 5 5 5 5 5 3 5 5 5 5 5 5 5 5 5 3 5 3 5 5 5 5 5 3 3 5 5 5 3 3 5 5 5 5 5 5 3 5 5 3 3 5 5 3 5 5 3 5 5 5 5 3 5 5 5 5 5 5 3 5 5 5 5 5 5 5 5 5 5 3 5 5 5 3 3 5 5 5 5 5 5 5 5 5 3 5 5 5 5 5 5 5 5 5 5 5 3 3 5 5 5 5 3 5 5 5 5 3 5 5 5 5 3 5 5 5 3 5 5 5 5 3 5 5 5 5 5 3 5 5 5 5 3 5 5 5 5 5 5 5 5 5 5 5 5 5 5 5 5 5 5 5 5 5 5 5 5 5 5 5 5 5 5 5 5 3 5 5 5 5 3 5 5 5 5 5 5 3 5 5 5 3 5 3 5 5 5 5 5 5 5 5 5 5 5 5 5 5 5 5 5 5 5 5 5 5 5 3 5 3 5 5 5 3 5 5 5 5 5 5 5 5 5 5 5 5 5 3 5 5 3 5 5 3 3 5 3 5 5 5 5 5 5 5 5 5 5 5 5 5 5 5 5 5 3 5 5 5 5 5 3 5 5 5 5 5 5 5 3 5 5 5 5 5 5 5 3 5 5 5 5 5 5 5 5 5 5 5 5 5 5 5 3 5 5 5 3 5 5 5 5 5 5 5 5 5 5 5 3 5 5 5 5 5 5 3 5 5 3 5 3 5 5 5 3 5 5 5 5 5 5 5 5 5 5 5 3 5 5 5 5 5 3 5 5 5 3 5 5 5 3 5 5 5 5 5 3 5 3 5 5 5 5 5 5 5 5 3 5 3 5 5 3 5 3 5 3 5 5 5 5 5 5 5 5 5 5 3 5 3 5 5 5 5 3 5 5 5 3 3 5 5 5 3 5 3 3 5 5 3 3 5 3 3 5 5 3 3 5 5 3 5 5 3 5 3 5 5 3 5 5 3 5 3 5 5 5 3 5 3 5 5 3 3 5 5 5 3 3 5 3 5 5 5 5 5 5 5 5 3 5 5 3 3 5 3 5 3 3 5 5 5 3 5 5 3 5 5 5 5 5 5 3 3 5 5 5 5 5 5 5 3 3 5 5 5 5 3 5 5 5 3 5 5 3 5 5 5 5 5 3 5 5 3 5 5 5 3 3 5 5 3 5 5 5 3 5 5 5 3 3 5 5 3 5 5 5 5 3 3 5 5 3 3 5 3 3 5 5 5 5 5 5 3 5 5 5 5 5 5 5 5 5 5 3 3 5 5 5 5 5 5 5 3 5 5 5 5 5 5 5 5 5 3 5 5 3 5 5 3 5 5 5 5 5 5 5 5 5 5 5 5 5 5 5 5 5 5 3 3 5 5 5 5 3 5 5 3 5 5 5 5 5 5 5 5 5 3 5 5 3 5 5 5 5 5 5 5 5 5 5 5 3 5 3 5 5 5 5 5 5 5 5 5 5 3 5 5 5 5 5 5 5 5 5 5 5 5 5 5 5 5 5 5 5 5 5 5 5 5 5 5 5 5 5 5 5 5 5 5 5 5 5 5 5 3 5 5 5 5 5 5 5 5 5 3 5 5 3 5 5 5 5 5 5 5 5 5 5 5 5 5 5 5 5 3 5 3 5 5 3 5 5 5 3 3 5 3 3 5 3 5 5 3 5 5 3 5 5 5 5 5 5 5 5 5 5 5 5 5 5 5 5 5 5 5 5 5 3 5 5 5 5 5 5 5 5 5 5 5 5 5 5 5 5 5 5 5 3 5 5 5 5 5 3 5 5 5 5 5 5 5 5 5 5 5 5 5 5 5 5 5 5 5 5 5 5 5 5 3 5 5 5 5 5 5 3 5 5 5 5 5 5 5 5 5 5 5 5 5 5 5 3 5 5 5 3 3 5 5 5 3 5 5 5 5 5 5 5 5 3 5 5 5 5 3 5 5 5 5 5 5 5 5 5 5 5 5 5 3 5 5 5 5 5 5 5 5 5 5 5 5 5 5 5 5 5 5 5 5 5 5 5 5 5 5 5 3 5 5 5 5 5 5 5 5 5 5 5 5 5 5 5 3 3 5 5 5 3 5 5 5 5 5 5 5 5 5 5 5 5 5 5 5 5 5 5 5 5 5 5 5 5 5 5 5 5 5 5 3 5 5 5 5 5 5 5 5 5 5 5 5 5 5 5 5 5 5 5 5 5 5 5 5 5 3 5 5 5 5 5 5 5 3 5 5 5 3 5 5 3 5 5 5 5 5 5 5 5 3 3 5 5 5 5 5 3 5 5 5 5 5 5 5 5 5 5 5 5 5 5 5 5 5 5 5 3 5 3 5 3 5 5 5 3 5 3 5 5 5 5 5 5 5 5 5 5 5 5 3 5 5 5 5 3 5 5 3 5 3 5 5 3 5 5 5 3 5 5 5 5 5 5 5 5 5 3 5 5 5 5 3 5 5 5 5 3 5 5 5 5 5 5 3 5 3 5 3 5 5 5 3 5 5 5 5 5 5 3 3 5 5 5 5 5 3 5 5 5 5 5 5 5 5 5 5 5 5 5 5 5 5 5 5 5 3 5 5 5 5 5 5 5 5 5 3 5 3 5 3 5 5 5 5 5 5 5 5 5 5 5 5 3 5 5 3 5 5 5 5 5 5 5 5 5 3 5 3 5 5 5 5 5 5 3 5 5 5 5 5 5 5 5 5 5 5 5 5 5 5 5 5 5 5 5 5 5 5 5 5 5 5 5 5 5 5 5 5 5 5 5 5 5 5 5 5 3 5 5 3 5 3 5 5 5 3 3 5 5 3 5 5 5 5 5 5 5 5 5 5 5 5 3 5 5 5 5 5 5 5 5 5 5 5 5 3 5 5 5 5 5 5 5 5 5 5 5 5 5 5 5 3 5 5 5 5 5 3 5 5 5 5 5 5 5 5 5 3 5 5 5 5 3 5 5 5 5 5 5 5 5 5 5 5 3 5 3 5 3 5 5 5 3 5 5 5 5 5 5 5 5 5 5 5 5 5 5 5 5 5 5 5 5 3 5 5 5 5 5 5 5 5 5 5 5 5 5 5 5 5 5 5 3 5 5 5 5 5 3 5 5 5 5 5 5 5 5 3 5 5 3 5 5 5 5 5 5 5 3 5 5 5 5 5 5 5 5 5 3 5 5 5 5 5 5 5 5 5 5 5 5 5 5 5 5 5 5 5 5 5 5 5 5 3 5 3 5 5 3 5 5 5 5 5 5 5 5 3 5 5 5 5 5 5 3 5 5 5 5 5 5 5 5 5 5 5 5 3 5 5 5 5 5 5 5 5 5 5 5 5 5 5 3 5 5 5 3 5 5 5 5 3 5 5 5 5 5 5 5 5 5 5 5 5 5 5 5 5 5 5 5 5 5 5 5 5 5 5 3 5 5 3 5 5 5 5 5 5 5 5 5 3 5 5 3 5 5 3 5 5 5 5 5 5 5 5 5 5 5 5 5 5 5 5 5 5 5 5 5 5 5 5 5 5 5 5 5 5 5 5 5 5 5 5 5 5 5 5 5 5 5 5 5 5 5 5 5 5 5 5 5 5 5 5 5 5 5 5 5 5 5 3 5 5 5 5 5 5 3 5 5 5 5 5 5 5 5 5 5 5 3 3 5 5 3 5 3 5 5 3 5 5 3 5 5 5 5 5 5 5 5 3 5 5 5 5 5 5 5 5 5 3 5 5 5 5 3 5 5 5 5 5 5 5 5 5 5 5 5 5 5 5 3 5 5 5 5 3 5 3 5 5 5 3 5 5 3 5 5 5 5 5 5 5 5 5 5 5 3 5 5 3 5 5 5 3 5 5 3 3 5 5 3 5 5 5 5 5 5 5 5 3 5 5 5 5 3 5 3 5 3 5 5 5 5 3 5 5 5 3 5 5 5 5 5 5 5 5 5 5 5 5 5 5 5 5 5 5 3 5 5 5 5 5 5 5 5 5 5 5 5 5 5 5 5 5 5 5 5 5 5 5 5 5 5 5 5 5 5 5 5 5 5 5 5 5 5 5 5 3 5 5 5 5 5 3 5 5 5 5 5 5 5 5 5 5 5 5 5 3 5 5 3 5 5 5 3 5 3 5 5 5 5 3 5 5 5 5 5 5 5 5 5 3 5 5 3 3 5 3 5 5 5 5 5 5 5 5 5 5 5 5 5 5 5 5 5 5 5 5 5 5 5 3 5 5 5 3 5 5 5 5 5 5 5 3 5 5 5 5 5 5 5 5 5 5 5 5 5 5 5 5 5 5 5 5 5 5 5 3 5 5 5 5 5 3 5 3 3 5 5 5 3 5 5 3 5 5 5 5 5 5 5 5 5 5 5 3 5 5 5 3 5 3 5 5 5 5 5 3 5 3 5 3 5 5 5 5 5 5 5 5 3 3 3 5 5 3 5 5 5 5 5 5 5 5 5 5 5 5 5 5 5 5 5 5 5 5 5 5 5 5 5 5 5 5 5 5 5 5 5 5 5 5 5 3 5 5 5 5 5 5 5 3 5 5 3 5 5 5 5 5 5 5 5 5 5 5 5 5 5 5 5 5 5 5 5 5 5 5 3 5 5 5 5 5 5 5 5 5 5 3 5 5 5 5 3 5 5 5 5 3 5 3 3 5 5 5 5 3 5 5 3 5 5 3 3 5 5 5 5 5 5 5 3 5 5 5 5 5 5 5 5 5 5 5 5 5 3 5 5 5 5 5 5 5 3 3 5 3 5 3 5 5 5 3 5 5 5 5 5 3 5 5 3 5 5 5 5 5 5 5 3 5 5 5 5 5 5 5 5 3 5 5 5 3 5 5 5 5 5 3 3 5 5 3 5 5 5 5 5 5 5 5 5 5 5 5 5 5 3 5 5 3 5 3 5 5 5 5 3 5 5 5 5 5 3 5 5 3 3 5 5 5 5 3 5 5 5 5 5 5 5 5 3 5 3 5 5 5 5 5 5 5 5 3 5 5 5 5 3 5 5 5 5 5 5 5 5 5 5 5 5 5 5 5 5 5 5 5 5 5 5 5 5 5 5 5 5 5 5 5 5 5 3 5 5 5 5 5 5 5 3 5 5 5 5 5 5 5 5 5 5 5 5 3 5 5 5 5 3 5 5 5 5 5 5 5 5 5 5 5 5 5 3 5 5 3 5 5 5 5 3 5 5 5 5 5 5 5 5 5 5 5 3 5 3 5 5 3 5 5 5 5 3 5 5 5 5 5 5 5 5 5 5 5 5 5 5 5 5 5 5 5 5 5 5 5 5 5 5 5 5 3 5 5 5 5 3 5 5 5 5 5 5 5 5 5 3 5 5 5 3 5 5 5 5 5 5 3 5 3 5 3 5 5 5 5 5 5 5 5 5 5 5 5 5 5 5 5 5 5 5 5 5 5 5 5 5 5 5 5 5 5 5 5 5 5 5 3 5 3 5 5 5 5 5 5 5 5 3 5 5 5 5 5 5 5 5 5 5 5 5 3 5 5 5 5 5 5 5 5 5 5 5 5 5 3 5 5 3 5 5 5 5 3 5 5 5 5 3 5 5 5 5 5 3 3 5 3 5 5 3 5 5 5 5 3 5 3 5 5 5 5 5 5 5 5 3 5 5 5 5 3 5 5 5 5 5 5 5 5 5 5 5 5 5 5 5 5 5 5 5 5 5 5 3 5 5 5 5 5 5 5 5 5 5 5 5 5 5 5 5 5 5 5 5 5 3 5 5 5 5 5 5 5 3 5 3 5 5 5 5 5 5 5 5 5 5 5 5 5 5 5 5 5 5 5 5 5 5 5 5 5 5 3 5 5 5 5 5 3 5 3 5 5 5 5 3 3 3 5 3 5 5 5 3 5 5 5 5 3 5 3 5 5 5 5 3 5 5 5 3 3 3 5 3 5 3 5 5 3 5 5 5 5 5 5 5 5 5 5 3 5 3 5 3 5 5 5 5 3 5 5 5 5 3 5 5 5 5 5 5 5 5 5 5 3 5 3 5 5 3 5 5 3 5 5 5 5 5 3 5 5 5 5 5 5 5 5 5 5 5 5 3 5 5 5 3 5 5 5 5 5 3 5 5 5 5 5 5 5 5 5 5 5 5 5 5 5 5 5 5 5 5 5 3 5 5 5 5 3 5 5 5 3 5 3 5 5 3 5 3 5 5 5 5 5 5 3 5 5 5 5 3 5 3 5 5 5 5 5 5 5 3 5 5 5 5 5 5 5 3 5 5 5 5 5 5 5 5 5 5 5 5 5 5 5 5 5 3 5 5 5 3 5 5 5 5 5 5 5 5 5 5 5 5 5 5 3 5 5 5 5 5 5 5 5 5 5 5 5 5 5 5 5 5 5 5 5 5 5 5 5 5 5 5 3 5 3 5 5 5 3 5 5 5 3 5 5 3 3 5 5 5 5 5 5 5 5 3 5 5 3 5 5 5 5 3 5 3 5 5 5 3 5 5 5 5 5 5 5 5 5 5 3 5 5 3 5 5 3 5 5 5 5 5 5 5 3 5 5 3 3 5 5 5 3 5 5 5 5 5 5 3 5 5 5 5 3 5 5 5 3 5 5 5 5 3 5 5 3 5 5 5 5 5 5 5 5 5 5 5 3 5 5 5 5 3 5 3 5 3 5 3 5 5 5 5 5 5 5 5 5 5 5 3 3 5 5 5 5 5 5 3 5 5 3 5 5 5 5 5 5 3 5 5 5 3 5 3 5 5 5 3 5 5 5 5 5 5 3 5 5 5 5 5 5 3 5 3 5 5 5 3 5 5 5 5 3 5 5 5 5 5 5 5 3 5 3 5 3 5 5 5 3 3 5 5 3 5 5 5 5 5 3 5 3 3 3 3 5 5 5 5 5 3 3 5 5 3 5 5 5 3 5 5 5 5 5 5 5 5 5 3 5 5 5 3 5 5 5 5 5 5 5 3 5 3 5 5 5 5 3 5 3 5 5 5 5 3 5 5 5 5 5 5 5 5 5 3 5 5 5 5 5 5 5 5 5 5 5 5 5 5 5 5 5 5 5 5 5 3 5 5 5 5 3 5 5 5 5 5 3 5 3 5 5 5 5 5 5 5 5 5 5 5 3 5 3 5 3 3 5 3 5 3 5 5 5 3 5 5 5 3 5 5 5 5 3 5 3 5 5 5 5 5 5 5 5 3 5 5 5 5 5 5 5 5 3 5 5 5 5 5 5 5 5 5 3 5 5 3 5 5 5 3 5 5 5 5 5 5 5 5 5 5 5 5 3 5 5 5 5 3 5 5 5 5 5 5 3 5 5 5 5 3 5 3 5 5 5 5 5 5 5 3 5 5 5 3 3 5 5 5 5 3 5 3 5 5 3 5 5 5 5 5 5 5 5 5 5 5 5 5 5 5 5 5 5 5 5 5 5 5 5 5 5 5 5 5 5 5 5 5 5 5 3 5 5 5 3 5 5 5 5 5 5 5 5 5 5 5 5 5 3 5 3 5 5 5 5 5 5 5 5 5 5 5 5 5 3 5 5 3 5 5 5 5 5 3 5 5 5 5 5 5 5 5 5 5 5 5 5 5 5 5 5 5 5 3 3 5 5 3 5 5 3 5 5 5 5 5 5 5 3 5 5 5 5 3 5 5 5 5 5 5 5 5 5 5 5 5 5 5 3 5 5 3 5 5 5 5 5 5 5 3 3 5 5 5 5 5 5 5 5 5 5 5 5 5 5 5 5 3 5 5 5 5 3 5 5 3 5 5 3 5 5 5 5 5 5 5 5 5 5 5 5 3 5 5 5 5 3 5 5 5 5 5 5 5 5 5 3 3 3 5 5 5 3 5 5 3 3 5 3 5 5 5 3 5 5 5 5 5 5 5 5 5 5 5 5 5 5 5 5 5 5 5 5 5 5 5 5 5 5 5 5 5 5 5 5 5 5 5 5 5 5 5 5 5 5 5 5 5 5 5 5 3 5 3 5 5 5 5 5 5 5 5 5 3 5 5 5 5 5 5 3 5 5 5 5 5 3 5 5 5 5 5 5 5 5 5 5 5 5 5 5 5 3 5 5 5 5 5 5 5 3 5 5 5 5 5 3 3 5 5 5 5 3 5 5 5 5 5 5 5 5 5 5 5 5 5 5 5 5 5 5 5 5 5 3 5 5 5 5 5 5 3 5 5 5 3 5 5 5 5 5 5 5 5 5 5 5 5 5 5 5 5 5 5 3 5 3 5 5 5 5 5 3 3 5 5 5 3 5 5 5 5 5 5 3 5 5 5 5 5 3 5 3 5 5 3 5 5 5 5 3 5 5 5 5 3 5 5 5 5 3 5 5 5 5 5 5 5 5 5 5 5 5 5 3 5 5 5 5 5 5 5 5 5 5 5 5 5 5 5 5 3 5 5 5 5 3 5 5 5 5 3 5 5 5 5 5 5 5 5 5 5 3 5 5 5 5 3 5 5 5 5 5 5 5 5 5 5 5 5 5 5 5 3 5 5 5 3 5 5 5 5 5 5 5 5 5 5 5 5 5 5 3 5 5 5 5 5 5 5 5 5 5 5 3 5 5 3 5 5 5 5 5 5 3 3 5 5 5 5 3 5 3 5 5 5 3 5 5 3 5 5 5 5 5 5 5 5 5 5 5 5 5 5 5 5 3 5 5 5 5 5 5 5 5 3 3 5 5 5 3 3 5 3 5 3 5 5 5 5 3 5 5 5 5 5 5 5 5 5 5 5 5 5 3 5 3 5 5 5 5 5 5 5 5 3 3 5 5 3 3 3 5 5 5 5 5 5 3 5 5 3 5 5 3 3 3 3 5 5 5 5 5 5 5 5 5 5 5 5 5 3 5 5 3 5 3 5 5 5 5 5 5 5 3 3 5 5 3 5 5 3 5 5 5 5 3 3 3 3 5 5 5 5 5 5 5 5 5 5 5 5 5 5 3 5 5 3 5 5 5 5 3 5 5 5 3 5 5 3 5 5 3 5 5 3 3 5 3 5 5 5 5 5 5 3 5 5 5 5 3 5 5 5 5 5 3 5 5 3 5 3 3 5 5 5 3 5 5 5 5 5 3 5 5 5 3 5 5 5 3 5 5 5 5 5 5 5 3 5 5 5 5 5 3 5 5 5 5 5 5 5 3 5 3 3 5 5 3 5 5 5 5 5 5 3 5 5 5 5 5 5 3 5 5 5 5 5 5 3 5 3 5 3 5 5 3 5 5 5 5 3 3 3 3 5 5 5 5 5 5 5 5 3 5 5 5 3 5 3 5 5 5 5 5 5 5 5 5 5 5 5 5 5 5 5 3 5 3 5 5 5 5 5 5 5 5 3 5 5 5 5 5 3 5 5 3 5 5 5 5 5 5 3 3 5 5 3 5 5 5 5 5 5 5 5 5 5 5 3 3 5 5 5 5 3 5 5 5 5 5 5 5 5 3 5 5 5 5 3 5 5 5 5 5 5 3 5 3 5 3 5 5 5 5 5 5 5 5 5 5 5 5 5 5 5 5 5 5 3 5 5 5 5 5 5 5 5 5 5 5 5 5 5 5 5 5 3 3 5 5 5 5 5 5 5 5 5 5 5 5 5 5 5 5 5 5 5 5 5 5 5 5 5 5 5 5 5 5 5 5 5 5 5 5 5 5 5 5 5 5 5 5 5 3 5 3 5 5 5 5 5 5 5 3 5 5 5 3 5 3 3 3 5 3 3 5 5 3 3 3 5 5 5 5 5 3 5 3 3 5 5 5 5 5 5 5 3 5 5 3 5 5 3 3 5 5 5 5 5 5 3 5 5 3 3 5 5 3 5 5 5 3 5 5 5 5 3 5 5 5 3 5 5 3 5 5 5 5 5 5 5 5 5 5 5 5 5 5 5 5 5 5 5 3 3 5 5 5 3 5 5 5 5 3 5 5 5 5 5 3 3 5 5 5 5 5 5 5 5 5 3 5 5 5 5 5 5 5 5 5 5 5 5 5 5 5 5 5 5 5 5 5 5 5 5 5 5 5 3 5 3 3 5 5 5 5 5 5 5 5 5 5 5 5 5 5 5 5 5 5 5 5 5 5 5 5 5 5 5 3 5 5 3 5 5 3 5 5 3 5 3 5 5 5 5 5 5 5 3 5 5 5 5 5 5 5 5 5 5 5 5 3 5 3 5 3 5 5 5 5 5 3 5 5 5 5 3 5 5 3 5 5 5 5 5 5 5 5 3 5 5 5 5 5 5 3 5 5 5 5 3 5 5 5 3 5 5 5 5 5 5 5 5 5 5 5 5 5 5 5 5 5 5 3 5 3 5 5 5 3 5 5 5 5 5 5 5 5 5 5 5 5 5 5 5 5 5 5 5 3 5 5 5 3 5 5 5 3 5 5 5 5 5 5 5 5 5 5 5 5 5 5 5 3 5 5 5 5 3 5 5 3 5 5 5 5 5 5 3 5 3 5 3 3 3 5 5 5 3 3 5 5 5 5 5 5 5 3 5 5 5 3 5 3 5 5 5 5 5 5 5 5 5 3 5 5 5 5 5 5 5 5 3 5 5 5 5 3 5 5 5 5 5 5 5 5 5 5 5 5 5 5 5 5 5 5 5 5 5 3 3 5 5 5 5 5 5 5 5 3 5 5 5 5 5 5 5 5 5 5 3 5 5 5 5 5 5 3 5 5 5 5 5 3 5 3 5 5 3 3 5 5 5 5 5 5 5 5 5 5 5 5 5 5 5 5 5 5 5 5 5 5 5 5 5 5 5 5 5 5 5 5 5 5 5 5 5 5 5 5 5 5 5 5 5 5 5 5 3 3 5 5 3 5 5 5 5 5 3 3 5 5 3 3 5 5 5 5 5 5 5 5 5 5 3 5 5 5 5 5 5 5 5 5 5 5 5 5 5 5 3 5 5 5 5 5 5 5 5 5 5 5 5 5 3 5 3 3 3 5 5 5 5 5 5 5 5 3 3 5 5 5 5 3 5 5 5 5 5 5 5 5 3 5 5 5 5 5 5 5 5 5 5 5 5 5 5 5 5 5 3 5 5 5 5 5 5 3 5 5 3 5 5 5 5 5 5 5 5 5 5 5 5 5 5 5 5 5 5 3 5 5 5 3 5 5 3 5 3 3 5 5 3 5 5 5 3 5 5 3 5 3 3 5 5 5 5 3 5 5 5 5 5 5 3 5 3 5 5 5 3 5 5 5 5 3 5 3 3 5 5 5 5 5 3 5 3 5 3 5 3 3 5 5 5 5 5 5 5 3 5 3 5 5 3 5 5 3 5 5 5 5 5 5 5 5 5 5 5 5 5 5 5 5 5 5 5 5 5 5 5 5 5 5 5 5 5 5 5 3 5 5 5 5 5 5 5 5 5 5 5 5 5 5 5 5 5 5 5 5 5 5 5 3 5 5 5 5 5 3 3 5 5 5 5 5 5 5 5 5 5 5 5 5 5 5 5 5 5 5 5 5 3 5 5 5 5 5 5 5 5 5 5 5 5 5 3 5 3 5 5 5 3 5 5 5 5 5 5 5 5 3 5 3 5 5 5 5 5 3 5 5 5 5 5 5 5 5 5 5 5 3 5 5 5 5 5 5 5 5 5 5 5 3 5 5 5 5 5 5 5 5 3 5 5 5 5 5 5 5 5 5 5 5 5 5 5 5 5 5 5 5 5 5 5 5 5 5 5 3 5 5 3 5 5 5 5 5 5 5 5 5 5 5 5 5 5 5 5 5 5 5 5 5 5 5 5 5 5 5 5 3 5 3 5 3 5 5 5 5 5 3 5 5 5 5 3 5 5 5 3 5 5 5 5 5 5 5 5 5 5 5 5 5 5 5 5 5 5 3 3 3 5 5 5 5 5 5 5 5 5 5 5 5 5 3 5 5 5 5 5 5 5 5 5 5 5 5 3 5 5 3 5 5 5 5 5 5 5 5 5 5 5 5 5 5 5 5 5 5 5 5 5 3 3 5 5 5 5 5 5 5 5 5 5 5 5 5 5 3 5 5 3 5 5 5 5 3 5 5 5 5 5 5 3 5 5 5 5 5 5 5 5 5 5 5 5 5 5 5 5 5 5 3 5 5 5 5 5 3 5 5 5 5 5 5 5 5 5 5 5 5 5 5 5 5 5 5 5 5 5 5 5 5 5 5 5 5 3 5 3 5 5 5 5 3 3 5 5 5 5 5 5 5 5 5 5 5 5 5 5 5 5 5 5 5 5 5 5 5 5 5 5 5 5 5 5 5 5 5 5 5 3 5 5 5 5 3 5 5 5 5 5 5 5 5 5 5 5 3 5 5 5 5 5 5 5 5 5 5 5 5 5 5 5 5 5 3 3 5 3 5 5 5 5 5 5 5 5 5 5 3 5 5 5 5 5 5 5 5 5 5 5 5 5 5 5 5 5 3 5 5 5 5 3 5 5 5 5 5 5 5 5 5 5 5 5 5 5 5 5 5 5 5 5 5 5 5 5 5 5 5 5 5 5 5 5 5 5 5 5 5 5 5 5 5 5 5 5 5 5 5 5 5 5 5 5 5 5 5 5 5 5 5 5 5 5 5 5 5 5 5 5 5 5 5 5 5 5 5 5 5 5 5 5 5 3 5 5 5 5 5 5 5 3 5 5 3 5 5 5 5 5 5 5 5 5 5 5 5 3 5 3 5 3 5 5 5 5 5 5 5 5 3 5 5 5 5 5 5 5 5 5 3 5 5 5 5 5 5 5 5 5 5 5 5 5 5 5 5 5 5 5 5 5 3 5 5 5 5 5 5 5 5 5 5 5 5 3 5 5 5 5 5 3 5 5 3 5 5 5 5 3 3 5 5 3 5 5 5 5 5 5 5 3 3 5 5 5 5 5 5 5 5 5 5 5 5 3 5 5 5 5 3 5 5 5 5 5 5 5 5 3 5 5 5 5 3 5 5 5 5 3 5 5 5 5 5 5 5 3 5 5 5 5 5 3 5 5 5 3 5 5 5 5 5 3 5 5 5 5 5 5 5 5 5 5 5 5 5 5 3 5 5 3 5 5 5 5 5 5 5 5 5 5 5 5 5 5 5 5 5 5 5 5 5 3 5 5 3 5 5 3 5 5 5 5 5 5 5 5 5 5 5 5 5 5 5 5 5 5 5 5 5 5 5 5 5 5 5 5 5 5 3 5 5 5 5 3 5 5 3 5 3 5 5 5 5 3 5 3 5 5 3 5 3 5 3 3 5 5 3 5 3 5 3 5 5 3 5 5 5 5 5 5 3 5 3 5 5 3 3 5 5 3 5 3 5 5 3 5 5 3 5 5 3 3 3 5 3 5 5 5 5 5 5 5 5 3 5 5 5 5 5 5 5 3 5 5 5 5 5 5 5 5 5 5 5 5 5 5 3 5 5 5 5 5 5 5 5 5 5 5 5 5 5 5 5 5 5 5 3 5 5 5 5 5 5 5 5 5 5 5 5 5 5 5 5 5 5 5 5 5 5 5 5 5 5 5 5 5 5 5 3 5 5 5 3 5 3 3 5 3 5 5 5 3 5 5 5 5 3 3 3 5 5 5 5 5 5 5 5 5 5 5 5 5 5 5 5 5 3 5 5 5 5 5 5 5 5 5 3 5 5 5 3 5 5 5 5 5 5 5 5 5 5 5 5 3 5 5 3 5 5 5 5 5 5 5 5 5 5 5 5 5 5 5 5 5 5 5 5 5 5 3 5 5 5 5 5 5 5 5 5 5 5 5 5 5 5 5 5 5 3 5 5 5 5 5 5 5 3 5 5 5 5 3 5 5 5 5 5 5 5 5 5 5 5 5 5 5 5 5 5 5 5 5 5 5 5 5 5 5 5 5 5 5 5 5 5 5 5 3 3 5 5 5 5 3 5 3 5 5 5 5 5 3 5 5 5 5 5 5 5 5 3 3 5 5 5 5 3 5 5 5 5 5 5 5 5 5 5 5 5 5 5 5 5 5 5 5 5 5 3 5 5 5 5 5 5 3 5 5 3 5 5 5 5 5 5 5 5 5 3 5 5 5 5 5 5 5 5 3 5 5 5 5 5 5 5 5 5 5 5 5 5 5 5 5 5 3 5 5 3 5 5 5 5 5 5 5 5 5 5 5 5 5 5 5 5 5 5 5 5 5 5 5 5 5 5 5 5 5 3 5 3 5 5 5 5 5 5 5 5 5 5 5 5 5 5 5 5 5 5 5 5 5 5 3 5 5 5 3 5 5 5 5 5 5 5 5 5 5 5 5 3 5 5 5 3 3 5 5 3 5 5 5 5 5 5 5 5 5 3 5 5 5 5 5 5 5 5 5 5 5 5 5 3 5 3 5 5 5 5 5 5 5 5 5 5 5 5 5 5 5 5 5 5 5 5 5 5 5 5 5 5 5 5 5 3 5 5 5 5 5 5 3 5 5 5 5 5 5 5 5 5 5 5 5 5 5 5 5 3 5 3 5 5 5 5 5 5 5 3 5 5 5 3 5 5 5 5 3 5 5 5 5 5 5 3 5 5 5 5 3 5 3 5 5 5 5 5 5 5 5 3 3 5 5 5 3 3 5 5 5 5 5 5 5 3 3 5 3 3 5 5 5 5 3 5 3 5 5 5 5 5 5 3 5 5 5 5 3 5 5 5 5 3 5 5 5 5 5 3 5 5 3 5 5 5 5 3 5 5 5 5 5 5 5 5 5 3 3 5 5 5 5 5 5 5 5 5 5 5 5 5 3 5 3 5 5 5 5 5 5 5 5 5 5 5 5 5 5 5 5 5 5 5 5 5 3 5 5 5 5 5 5 5 5 5 5 5 5 5 5 5 5 5 5 5 5 5 5 5 5 5 5 3 5 5 5 5 5 5 5 5 3 5 3 5 5 5 5 5 5 3 5 5 5 5 5 5 5 5 5 5 5 5 5 5 5 5 5 5 5 5 5 5 5 5 5 5 3 5 5 5 5 5 5 5 5 3 5 5 3 5 5 3 5 5 5 5 5 3 5 5 5 5 5 5 5 5 5 3 5 5 5 5 5 5 5 5 5 5 5 5 5 5 5 3 5 5 5 5 5 5 5 5 3 5 5 5 5 5 5 5 5 5 5 5 5 5 5 5 5 5 5 3 5 3 5 3 5 5 3 3 5 5 5 5 5 5 5 5 5 5 5 5 5 5 3 5 5 5 5 5 5 3 5 5 5 3 5 5 5 5 5 5 5 5 5 5 5 5 3 5 5 5 5 3 3 3 5 5 5 5 5 5 5 3 5 5 3 5 3 5 3 5 5 5 5 5 3 5 5 5 5 5 5 5 5 5 5 5 5 5 5 5 5 5 5 5 5 3 5 5 5 3 5 3 3 3 5 5 5 5 5 3 5 5 5 5 5 5 5 5 5 5 5 5 5 5 5 5 5 5 5 5 5 5 5 5 5 5 3 5 5 3 5 5 5 5 5 5 5 5 3 5 3 5 5 5 5 5 5 5 5 3 5 5 5 5 3 5 5 3 5 5 3 5 5 5 3 5 5 5 5 5 5 5 5 5 5 5 5 5 5 5 5 5 5 5 5 3 5 5 5 5 5 5 3 5 5 5 5 5 3 5 5 5 5 5 3 5 3 3 5 5 5 5 5 5 5 5 5 5 5 5 3 5 5 5 5 3 5 3 3 5 5 5 3 5 5 5 5 5 5 5 5 5 5 5 5 5 5 5 5 5 5 5 5 5 5 3 5 3 5 5 3 5 5 3 5 5 3 5 5 5 3 3 5 5 5 5 5 5 5 3 5 5 5 5 5 5 5 5 3 5 5 5 5 5 5 5 3 5 5 5 3 5 3 3 5 5 5 3 5 5 5 5 5 5 5 5 5 5 5 5 5 5 5 5 5 5 5 5 5 5 3 5 5 3 5 5 5 3 5 5 5 5 5 5 5 3 3 5 5 3 5 5 5 5 5 5 5 5 5 5 5 5 5 5 5 5 5 5 5 5 5 5 5 5 5 5 5 5 5 5 5 5 5 5 5 3 5 5 5 5 5 5 5 3 5 5 3 5 5 3 5 5 5 5 5 5 5 5 5 5 5 5 5 5 5 5 5 5 5 3 5 5 5 5 3 5 5 5 5 5 5 5 5 5 5 3 5 5 5 5 3 5 5 5 5 3 3 5 3 5 5 5 5 5 5 5 5 5 5 5 5 5 5 3 5 5 5 5 5 5 5 5 5 3 5 5 5 5 5 5 5 5 5 5 5 5 5 5 5 5 5 5 5 5 5 5 5 5 5 5 5 5 5 5 5 5 5 5 5 5 5 5 5 5 5 3 5 5 5 5 3 5 5 3 5 5 5 5 5 5 3 3 5 5 5 5 3 5 5 5 5 5 5 5 5 5 5 5 5 5 5 5 5 5 5 5 5 5 5 5 5 5 5 5 5 5 5 5 5 5 5 5 5 5 5 5 5 5 5 5 5 5 5 5 5 5 5 5 5 5 5 5 5 5 5 5 5 5 3 5 5 5 5 5 3 5 3 5 5 5 5 5 5 5 5 5 
</DataArray>
</Cells>
<PointData Scalars="" Vectors="displacement," Tensors="">
<DataArray type="Float64" Name="displacement" NumberOfComponents="3" format="ascii">
-9.8666645107683737e-08 -0.0249996074157031 0 -7.012522368879463e-05 -0.023938845129336958 0 1.6276348585305493e-10 -0.024999612947237529 0 -6.5957816111273575e-10 -0.024999938079919643 0 -1.6363279907275434e-07 -0.023677094486063009 0 -6.5957816111273575e-10 -0.024999938079919643 0 -1.6363279907275434e-07 -0.023677094486063009 0 -4.2782300291099011e-09 -0.0220749152045507 0 -6.7655017005234665e-08 -0.024999650879935352 0 -8.3506685317233555e-05 -0.024216695457760003 0 -5.2360755035949378e-05 -0.024667015291756529 0 -6.7655017005234665e-08 -0.024999650879935352 0 -7.9519674819127535e-08 -0.024999438470350216 0 -5.2360755035949378e-05 -0.024667015291756529 0 -8.3506685317233555e-05 -0.024216695457760003 0 -6.4868181935731932e-05 -0.024505001213331514 0 -5.2360755035949378e-05 -0.024667015291756529 0 -6.4868181935731932e-05 -0.024505001213331514 0 -7.9519674819127535e-08 -0.024999438470350216 0 -5.2360755035949378e-05 -0.024667015291756529 0 -0.00033132052282290158 -0.024004110393280712 0 -4.6403781907578276e-07 -0.024999385704537854 0 -0.00022091642099613003 -0.024536062418594174 0 -6.4868181935731932e-05 -0.024505001213331514 0 -7.9519674819127535e-08 -0.024999438470350216 0 2.7265248817607621e-08 -0.025000051996717853 0 -0.00019004331292453346 -0.02422867265886099 0 5.6344415637229201e-09 -0.024999696768378595 0 -0.00033132052282290158 -0.024004110393280712 0 -0.00022091642099613003 -0.024536062418594174 0 -0.00032304146031990495 -0.024062578243817179 0 -0.00032593728858002348 -0.024349929995916283 0 -0.00022091642099613003 -0.024536062418594174 0 -0.00032304146031990495 -0.024062578243817179 0 -0.00032593728858002348 -0.024349929995916283 0 -9.0720809237002774e-09 -0.02499912242126907 0 -0.00022091642099613003 -0.024536062418594174 0 -0.00022015876558266698 -0.02460382405727516 0 -1.3382806995533486e-07 -0.024999807475427759 0 -4.6403781907578276e-07 -0.024999385704537854 0 -9.0720809237002774e-09 -0.02499912242126907 0 -0.00022091642099613003 -0.024536062418594174 0 -0.00018796996794789533 -0.023773548834354351 0 -0.00021642278452168353 -0.024387777961760438 0 -5.6696269595110221e-05 -0.024124480419403543 0 -0.00018796996794789533 -0.023773548834354351 0 1.4323601643615494e-05 -0.023801754665158249 0 -5.6696269595110221e-05 -0.024124480419403543 0 -0.00018796996794789533 -0.023773548834354351 0 -0.00032304146031990495 -0.024062578243817179 0 -0.00025961627198628181 -0.023717153944739965 0 -0.00018796996794789533 -0.023773548834354351 0 -0.00032304146031990495 -0.024062578243817179 0 -0.00021642278452168353 -0.024387777961760438 0 -0.00032593728858002348 -0.024349929995916283 0 -0.00032304146031990495 -0.024062578243817179 0 -0.00021642278452168353 -0.024387777961760438 0 -0.00033132052282290158 -0.024004110393280712 0 -0.00032304146031990495 -0.024062578243817179 0 -0.00026091658249080557 -0.023615297595555824 0 -0.00032304146031990495 -0.024062578243817179 0 -0.00025961627198628181 -0.023717153944739965 0 -0.00026091658249080557 -0.023615297595555824 0 -0.00018796996794789533 -0.023773548834354351 0 -0.00023283976135289572 -0.023148955438095229 0 -6.8527814192392153e-05 -0.022965681682388637 0 -0.00018796996794789533 -0.023773548834354351 0 -0.00025961627198628181 -0.023717153944739965 0 -0.00023283976135289572 -0.023148955438095229 0 -0.00025961627198628181 -0.023717153944739965 0 -0.00026091658249080557 -0.023615297595555824 0 -0.00023283976135289572 -0.023148955438095229 0 -1.6363279907275434e-07 -0.023677094486063009 0 -4.2782300291099011e-09 -0.0220749152045507 0 6.7912650732091792e-07 -0.022351015870283673 0 -0.00023283976135289572 -0.023148955438095229 0 -0.00027225346811958679 -0.022920794808778688 0 -0.00027333383736285398 -0.02261381226048239 0 -0.00023283976135289572 -0.023148955438095229 0 -0.00021761556843631543 -0.023386558709052353 0 -0.00027225346811958679 -0.022920794808778688 0 -0.00026091658249080557 -0.023615297595555824 0 -0.00023283976135289572 -0.023148955438095229 0 -0.00021761556843631543 -0.023386558709052353 0 -0.00019004331292453346 -0.02422867265886099 0 -0.00021293352202046727 -0.023539187910794495 0 -8.3506685317233555e-05 -0.024216695457760003 0 -6.4868181935731932e-05 -0.024505001213331514 0 -0.00021761556843631543 -0.023386558709052353 0 -0.00033132052282290158 -0.024004110393280712 0 -0.00026091658249080557 -0.023615297595555824 0 -0.00021761556843631543 -0.023386558709052353 0 -7.012522368879463e-05 -0.023938845129336958 0 -0.00013526419863032203 -0.022782902194173893 0 -8.3506685317233555e-05 -0.024216695457760003 0 -0.00021761556843631543 -0.023386558709052353 0 -0.00024991903205201662 -0.023230555440991889 0 -0.00021761556843631543 -0.023386558709052353 0 -0.00027225346811958679 -0.022920794808778688 0 -0.00024991903205201662 -0.023230555440991889 0 -4.2782300291099011e-09 -0.0220749152045507 0 -1.4336448189802494e-05 -0.021025911925609278 0 -1.9587443137973104e-07 -0.019829432878661599 0 -0.00013526419863032203 -0.022782902194173893 0 -0.00013232328586560468 -0.021421359388810547 0 -0.00027225346811958679 -0.022920794808778688 0 -0.0003080835947977434 -0.02191258728220993 0 -0.00027333383736285398 -0.02261381226048239 0 -4.2782300291099011e-09 -0.0220749152045507 0 6.7912650732091792e-07 -0.022351015870283673 0 -1.4336448189802494e-05 -0.021025911925609278 0 -0.00027225346811958679 -0.022920794808778688 0 -0.00024991903205201662 -0.023230555440991889 0 -0.0003080835947977434 -0.02191258728220993 0 -0.00013232328586560468 -0.021421359388810547 0 5.3063788295071333e-05 -0.020239419111661348 0 -0.0003080835947977434 -0.02191258728220993 0 -0.00016334149458663622 -0.021364768757045644 0 1.3984952407992182e-05 -0.019963578459007106 0 -0.0003080835947977434 -0.02191258728220993 0 -0.00016334149458663622 -0.021364768757045644 0 -0.00022302230820457953 -0.022295339227817845 0 -0.00016334149458663622 -0.021364768757045644 0 -0.00022302230820457953 -0.022295339227817845 0 0.00014004893328873729 -0.021267013067110815 0 -0.00023283976135289572 -0.023148955438095229 0 -0.00022302230820457953 -0.022295339227817845 0 -0.00027333383736285398 -0.02261381226048239 0 -0.0003080835947977434 -0.02191258728220993 0 -0.00022302230820457953 -0.022295339227817845 0 -0.00027333383736285398 -0.02261381226048239 0 -1.9587443137973104e-07 -0.019829432878661599 0 1.3984952407992182e-05 -0.019963578459007106 0 0.00016242526872427781 -0.01924315649217519 0 -1.4336448189802494e-05 -0.021025911925609278 0 -1.9587443137973104e-07 -0.019829432878661599 0 1.3984952407992182e-05 -0.019963578459007106 0 -0.00016334149458663622 -0.021364768757045644 0 1.3984952407992182e-05 -0.019963578459007106 0 0.00014004893328873729 -0.021267013067110815 0 5.8898783349850187e-05 -0.021048327668317626 0 0.00071179093272313518 -0.020389974964902302 0 1.3984952407992182e-05 -0.019963578459007106 0 0.00014004893328873729 -0.021267013067110815 0 0.00016242526872427781 -0.01924315649217519 0 0.00014004893328873729 -0.021267013067110815 0 0.00094238332085878852 -0.021844677331241628 0 0.0014077288108244883 -0.020977975908590279 0 0.00094238332085878852 -0.021844677331241628 0 -6.1578962334418505e-05 -0.02237952620196082 0 0.00075557894735824862 -0.022688288310238537 0 0.00014004893328873729 -0.021267013067110815 0 0.00094238332085878852 -0.021844677331241628 0 -6.1578962334418505e-05 -0.02237952620196082 0 -6.1578962334418505e-05 -0.02237952620196082 0 2.7558315349658292e-05 -0.022863851185499304 0 0.00075557894735824862 -0.022688288310238537 0 -0.00059680546771436415 -0.019832136828743362 0 -7.9510494234000462e-05 -0.019657124404802946 0 -0.00049829026374917785 -0.01996094764144047 0 -0.00034039705610982868 -0.021247426525295071 0 0.00038200419490106493 -0.021445167198729454 0 -0.00023283976135289572 -0.023148955438095229 0 -0.00022302230820457953 -0.022295339227817845 0 -6.8527814192392153e-05 -0.022965681682388637 0 -0.00022302230820457953 -0.022295339227817845 0 0.00014004893328873729 -0.021267013067110815 0 -6.1578962334418505e-05 -0.02237952620196082 0 -0.00022302230820457953 -0.022295339227817845 0 -6.1578962334418505e-05 -0.02237952620196082 0 -6.8527814192392153e-05 -0.022965681682388637 0 -6.1578962334418505e-05 -0.02237952620196082 0 -6.8527814192392153e-05 -0.022965681682388637 0 -0.00012268343245454345 -0.022790044092176276 0 -6.1578962334418505e-05 -0.02237952620196082 0 2.7558315349658292e-05 -0.022863851185499304 0 -0.00012268343245454345 -0.022790044092176276 0 2.7558315349658292e-05 -0.022863851185499304 0 -0.00012268343245454345 -0.022790044092176276 0 -0.00012239454288066594 -0.022769837124774754 0 -0.00018796996794789533 -0.023773548834354351 0 -6.8527814192392153e-05 -0.022965681682388637 0 1.4323601643615494e-05 -0.023801754665158249 0 -6.8527814192392153e-05 -0.022965681682388637 0 1.4323601643615494e-05 -0.023801754665158249 0 0.00043398022665839598 -0.024308332591866297 0 -6.8527814192392153e-05 -0.022965681682388637 0 -0.00012268343245454345 -0.022790044092176276 0 -0.00011128147804649541 -0.022759454475741327 0 1.8124025825314121e-05 -0.023194706228627841 0 -4.0706649167726654e-05 -0.023154416287666992 0 1.4323601643615494e-05 -0.023801754665158249 0 0.000182746552619779 -0.024353520637784398 0 -5.6696269595110221e-05 -0.024124480419403543 0 1.4323601643615494e-05 -0.023801754665158249 0 0.000182746552619779 -0.024353520637784398 0 0.00043398022665839598 -0.024308332591866297 0 1.3151877445866892e-05 -0.023450190314091911 0 -4.0706649167726654e-05 -0.023154416287666992 0 0.000182746552619779 -0.024353520637784398 0 0.00027821953714786006 -0.024463207670698432 0 0.00011414472898581329 -0.024555412785406589 0 0.000182746552619779 -0.024353520637784398 0 0.00027821953714786006 -0.024463207670698432 0 0.0002865444727012492 -0.024323012092172455 0 -0.0012826147396251127 -0.020218246536508486 0 -0.0011993672475858769 -0.02001720690600995 0 -0.0010203706958759476 -0.020288005459092154 0 -0.00015164599013746947 -0.022780338249362417 0 -0.00011174536196716983 -0.022404024114719492 0 -0.00026105352960444713 -0.022792607787877877 0 -0.00022844469225189506 -0.022714886712753256 0 -0.00025959822199467854 -0.022723521581441624 0 -0.00015164599013746947 -0.022780338249362417 0 -4.0706649167726654e-05 -0.023154416287666992 0 -0.00012268343245454345 -0.022790044092176276 0 -0.00012239454288066594 -0.022769837124774754 0 -0.00011128147804649541 -0.022759454475741327 0 -0.00011174536196716983 -0.022404024114719492 0 -4.0706649167726654e-05 -0.023154416287666992 0 -0.00034039705610982868 -0.021247426525295071 0 -0.00011174536196716983 -0.022404024114719492 0 -0.00059680546771436415 -0.019832136828743362 0 -0.0011993672475858769 -0.02001720690600995 0 -0.00084334051392549801 -0.020135507445137542 0 -0.00059680546771436415 -0.019832136828743362 0 -0.00084334051392549801 -0.020135507445137542 0 -0.00062477275113997748 -0.020107563089095327 0 -0.00084334051392549801 -0.020135507445137542 0 -0.0010203706958759476 -0.020288005459092154 0 -0.00077722780024537205 -0.020439514302061767 0 -0.00084334051392549801 -0.020135507445137542 0 -0.00077722780024537205 -0.020439514302061767 0 -0.00062477275113997748 -0.020107563089095327 0 -0.0011993672475858769 -0.02001720690600995 0 -0.00084334051392549801 -0.020135507445137542 0 -0.0010203706958759476 -0.020288005459092154 0 -0.00077722780024537205 -0.020439514302061767 0 -0.0010490727881014991 -0.020540518177402843 0 -0.00085763074369621319 -0.020894161463945918 0 -0.00077722780024537205 -0.020439514302061767 0 -0.00055240587051992682 -0.020779089473068484 0 -0.00085763074369621319 -0.020894161463945918 0 -0.0010203706958759476 -0.020288005459092154 0 -0.00077722780024537205 -0.020439514302061767 0 -0.0010490727881014991 -0.020540518177402843 0 0.00027821953714786006 -0.024463207670698432 0 0.00011414472898581329 -0.024555412785406589 0 8.6811419341118273e-05 -0.024818590430154452 0 -0.00015164599013746947 -0.022780338249362417 0 6.8331081847171598e-05 -0.024676001868808781 0 0.00027467109128514507 -0.023540699006377511 0 5.7148851146526268e-05 -0.024125323161332927 0 0.00026534599661979044 -0.024172080274118025 0 -0.00015164599013746947 -0.022780338249362417 0 -0.00055164253100653906 -0.022317742862085276 0 -0.0012826147396251127 -0.020218246536508486 0 -0.0010490727881014991 -0.020540518177402843 0 -0.0013023764601815644 -0.02087005515301292 0 -0.0012826147396251127 -0.020218246536508486 0 -0.0010203706958759476 -0.020288005459092154 0 -0.0010490727881014991 -0.020540518177402843 0 -1.6122482214802921e-05 -0.020664791462520517 0 -0.00067266541964623294 -0.018122302915282516 0 -0.00049829026374917785 -0.01996094764144047 0 -0.00025837631014242931 -0.020371731415075117 0 0.00010220832939445236 -0.020331700323551836 0 -7.2981204770771247e-05 -0.019930441467007228 0 -0.00049829026374917785 -0.01996094764144047 0 4.5941901640892847e-05 -0.020228067353249921 0 -7.9510494234000462e-05 -0.019657124404802946 0 -7.2981204770771247e-05 -0.019930441467007228 0 -0.00049829026374917785 -0.01996094764144047 0 -7.2981204770771247e-05 -0.019930441467007228 0 4.5941901640892847e-05 -0.020228067353249921 0 0.0002391841843383022 -0.019870780871157723 0 -7.9510494234000462e-05 -0.019657124404802946 0 -7.2981204770771247e-05 -0.019930441467007228 0 0.0002391841843383022 -0.019870780871157723 0 -0.00049829026374917785 -0.01996094764144047 0 -0.00053312203878760499 -0.020280264949855461 0 -0.00025837631014242931 -0.020371731415075117 0 -0.00059680546771436415 -0.019832136828743362 0 -0.00049829026374917785 -0.01996094764144047 0 -0.00062477275113997748 -0.020107563089095327 0 -0.00049829026374917785 -0.01996094764144047 0 -0.00062477275113997748 -0.020107563089095327 0 -0.00053312203878760499 -0.020280264949855461 0 -0.00077722780024537205 -0.020439514302061767 0 -0.00062477275113997748 -0.020107563089095327 0 -0.00053312203878760499 -0.020280264949855461 0 -0.00036333576886150279 -0.020719017164413409 0 -0.00025837631014242931 -0.020371731415075117 0 -9.4225645299755037e-05 -0.020864780796017588 0 -0.00077722780024537205 -0.020439514302061767 0 -0.00053312203878760499 -0.020280264949855461 0 -0.00049704099913615079 -0.02051721836941045 0 -0.00077722780024537205 -0.020439514302061767 0 -0.00049704099913615079 -0.02051721836941045 0 -0.00055240587051992682 -0.020779089473068484 0 -0.00049704099913615079 -0.02051721836941045 0 -0.00036333576886150279 -0.020719017164413409 0 -0.00055240587051992682 -0.020779089473068484 0 -0.00049704099913615079 -0.02051721836941045 0 -0.00036333576886150279 -0.020719017164413409 0 -0.00025837631014242931 -0.020371731415075117 0 -0.00053312203878760499 -0.020280264949855461 0 -0.00049704099913615079 -0.02051721836941045 0 -0.00025837631014242931 -0.020371731415075117 0 -0.00017497133752231148 -0.020624375663873099 0 -0.00058426358464361652 -0.020277402332540828 0 -0.00025837631014242931 -0.020371731415075117 0 -2.3072206739690073e-05 -0.020545553605495422 0 -0.00012863922500727971 -0.020745978584076188 0 -0.00025837631014242931 -0.020371731415075117 0 -1.7628566902265224e-05 -0.02040936708911574 0 0.00010220832939445236 -0.020331700323551836 0 -0.00025837631014242931 -0.020371731415075117 0 -2.0643040137470809e-05 -0.020486257636757581 0 -1.7628566902265224e-05 -0.02040936708911574 0 -0.00025837631014242931 -0.020371731415075117 0 -2.0643040137470809e-05 -0.020486257636757581 0 -2.3072206739690073e-05 -0.020545553605495422 0 -0.00076695836818327639 -0.018979167754073892 0 -0.00079314281602490936 -0.019581333414077844 0 -2.0643040137470809e-05 -0.020486257636757581 0 2.4130658084588011e-05 -0.020453681571511211 0 -2.3456368532022563e-05 -0.020539559605660593 0 -0.0013716783738500153 -0.018830634980031988 0 -0.0013203441920143695 -0.018728977628765246 0 -0.0017134401686044918 -0.01850546671656254 0 -0.00074726952227413144 -0.019780397728897739 0 -0.00079314281602490936 -0.019581333414077844 0 -0.00076695836818327639 -0.018979167754073892 0 -0.00067266541964623294 -0.018122302915282516 0 3.2462360711249378e-05 -0.020454905828373823 0 -1.7628566902265224e-05 -0.02040936708911574 0 0.00010220832939445236 -0.020331700323551836 0 -2.0643040137470809e-05 -0.020486257636757581 0 2.4130658084588011e-05 -0.020453681571511211 0 -1.7628566902265224e-05 -0.02040936708911574 0 -0.00076695836818327639 -0.018979167754073892 0 -0.00050472062489968414 -0.01928035941203101 0 -0.0011041710398957702 -0.019849142028546211 0 -0.0011084263912154761 -0.019109228415531417 0 -0.00093220058412156416 -0.019505049498015577 0 -0.00088923096184312833 -0.019850569122767885 0 -0.00094903746527771524 -0.019710315234769845 0 -0.0010970411078283647 -0.019995020368135934 0 -0.0013203441920143695 -0.018728977628765246 0 -0.0013213429426709193 -0.018243520389828332 0 -0.0017134401686044918 -0.01850546671656254 0 -0.00079314281602490936 -0.019581333414077844 0 -0.0015625535080834316 -0.018745921203935305 0 -0.00079314281602490936 -0.019581333414077844 0 -0.00058426358464361652 -0.020277402332540828 0 -0.0015625535080834316 -0.018745921203935305 0 -0.00058426358464361652 -0.020277402332540828 0 -9.4225645299755037e-05 -0.020864780796017588 0 -0.0003971976231353007 -0.021050355263521635 0 -0.00038963639342909806 -0.02143156357175097 0 -0.00058426358464361652 -0.020277402332540828 0 -0.0010565852804256595 -0.020362756890738357 0 -0.00036333576886150279 -0.020719017164413409 0 -0.0003971976231353007 -0.021050355263521635 0 -0.00055240587051992682 -0.020779089473068484 0 -0.00036333576886150279 -0.020719017164413409 0 -9.4225645299755037e-05 -0.020864780796017588 0 -0.0003971976231353007 -0.021050355263521635 0 -0.0003971976231353007 -0.021050355263521635 0 -0.00055240587051992682 -0.020779089473068484 0 -0.00059179050050958671 -0.021010262366094781 0 -0.00055240587051992682 -0.020779089473068484 0 -0.00059179050050958671 -0.021010262366094781 0 -0.00085763074369621319 -0.020894161463945918 0 -0.00059179050050958671 -0.021010262366094781 0 -0.0005129816747560487 -0.021269511940335131 0 -0.000705879583351558 -0.021207289624298856 0 -0.0003971976231353007 -0.021050355263521635 0 -0.00059179050050958671 -0.021010262366094781 0 -0.0005129816747560487 -0.021269511940335131 0 -0.00066989371486123094 -0.021436446934823081 0 -0.00059327240687311197 -0.021427641707689758 0 -0.000705879583351558 -0.021207289624298856 0 -0.00059327240687311197 -0.021427641707689758 0 -0.00046940561948845185 -0.021471776225985374 0 -0.000705879583351558 -0.021207289624298856 0 -0.0005129816747560487 -0.021269511940335131 0 -0.00044379123235221686 -0.021466759377037174 0 -0.000705879583351558 -0.021207289624298856 0 -0.00096367435355850125 -0.020544359132617412 0 -0.00045609751081255277 -0.021395769576622675 0 -0.00096367435355850125 -0.020544359132617412 0 -0.001420979165594061 -0.020478581464475284 0 -0.00055921600874523096 -0.021563230778881129 0 -0.00047275474028366199 -0.021469974238331489 0 -0.00054796579967159368 -0.021663866566039056 0 -0.00066989371486123094 -0.021436446934823081 0 -0.00059327240687311197 -0.021427641707689758 0 -0.00060215527993597463 -0.021508752813220188 0 -0.00066989371486123094 -0.021436446934823081 0 -0.00066315421861598025 -0.02157146289745503 0 -0.00060215527993597463 -0.021508752813220188 0 -0.00066315421861598025 -0.02157146289745503 0 -0.00060215527993597463 -0.021508752813220188 0 -0.00055921600874523096 -0.021563230778881129 0 -0.00060215527993597463 -0.021508752813220188 0 -0.00055921600874523096 -0.021563230778881129 0 -0.00051978424483189979 -0.02150227011292986 0 -0.00055921600874523096 -0.021563230778881129 0 -0.00051978424483189979 -0.02150227011292986 0 -0.00047275474028366199 -0.021469974238331489 0 -0.00095696432715902473 -0.020604815333134994 0 -0.00096367435355850125 -0.020544359132617412 0 -0.00059327240687311197 -0.021427641707689758 0 -0.00051978424483189979 -0.02150227011292986 0 -0.00046940561948845185 -0.021471776225985374 0 -0.00059327240687311197 -0.021427641707689758 0 -0.00060215527993597463 -0.021508752813220188 0 -0.00051978424483189979 -0.02150227011292986 0 -0.0013094509670446965 -0.019982551208479575 0 -0.0011859003629855114 -0.020108772469751589 0 -0.0014002857689062349 -0.02023751768176716 0 -0.0018616350390996364 -0.019239728209692403 0 -0.0018070946482087768 -0.019389439437541373 0 -0.0014579785848112046 -0.019173466571056841 0 -0.0018616350390996364 -0.019239728209692403 0 -0.0019160143302538845 -0.019278507333132553 0 -0.0018070946482087768 -0.019389439437541373 0 -0.0010565852804256595 -0.020362756890738357 0 -0.00096367435355850125 -0.020544359132617412 0 -0.00096367435355850125 -0.020544359132617412 0 -0.0018400890364915809 -0.019533814097505736 0 -0.0003971976231353007 -0.021050355263521635 0 -0.0005129816747560487 -0.021269511940335131 0 -0.00038963639342909806 -0.02143156357175097 0 -0.0005129816747560487 -0.021269511940335131 0 -0.00038963639342909806 -0.02143156357175097 0 -0.00044379123235221686 -0.021466759377037174 0 -0.0015625535080834316 -0.018745921203935305 0 -0.0010565852804256595 -0.020362756890738357 0 -0.0018616350390996364 -0.019239728209692403 0 -0.0014579785848112046 -0.019173466571056841 0 -0.001456663071805009 -0.01905487489176471 0 -0.0014559408034195743 -0.018952178369246137 0 -0.0018616350390996364 -0.019239728209692403 0 -0.001456663071805009 -0.01905487489176471 0 -0.0018400890364915809 -0.019533814097505736 0 -0.0026885085624936129 -0.017560672565883711 0 -0.0026885085624936129 -0.017560672565883711 0 -0.0037352316504481236 -0.016337580325629632 0 -0.0041038090882223877 -0.015706738414794547 0 -0.0041053507700206035 -0.015707636474498455 0 -0.0041123270700129094 -0.015721060738841153 0 -0.0026885085624936129 -0.017560672565883711 0 -0.002074820970640487 -0.018225266995009426 0 -0.0015625535080834316 -0.018745921203935305 0 -0.002074820970640487 -0.018225266995009426 0 0.00010897474092460028 -0.024407999739831796 0 5.7148851146526268e-05 -0.024125323161332927 0 0.00026534599661979044 -0.024172080274118025 0 -0.0010490727881014991 -0.020540518177402843 0 -0.0013023764601815644 -0.02087005515301292 0 -0.00085763074369621319 -0.020894161463945918 0 -0.0013023764601815644 -0.02087005515301292 0 -0.00085763074369621319 -0.020894161463945918 0 -0.00099885228174084392 -0.02126719860941596 0 -0.00085763074369621319 -0.020894161463945918 0 -0.00099885228174084392 -0.02126719860941596 0 -0.000705879583351558 -0.021207289624298856 0 -0.00059179050050958671 -0.021010262366094781 0 -0.00085763074369621319 -0.020894161463945918 0 -0.000705879583351558 -0.021207289624298856 0 -0.00066989371486123094 -0.021436446934823081 0 -0.000705879583351558 -0.021207289624298856 0 -0.00079383782406201322 -0.021421248458068306 0 -0.00099885228174084392 -0.02126719860941596 0 -0.000705879583351558 -0.021207289624298856 0 -0.00079383782406201322 -0.021421248458068306 0 -0.00066989371486123094 -0.021436446934823081 0 -0.00066315421861598025 -0.02157146289745503 0 -0.00079383782406201322 -0.021421248458068306 0 -0.00099885228174084392 -0.02126719860941596 0 -0.00079383782406201322 -0.021421248458068306 0 -0.0010160758408234321 -0.021682678328527476 0 -0.00099885228174084392 -0.02126719860941596 0 -0.0013277704481401826 -0.021558077661193057 0 -0.0010160758408234321 -0.021682678328527476 0 0.00010897474092460028 -0.024407999739831796 0 0.00020881956208965779 -0.024646200293282468 0 -5.0035409136779053e-05 -0.024589691136102574 0 -0.0013023764601815644 -0.02087005515301292 0 -0.00099885228174084392 -0.02126719860941596 0 -0.0013277704481401826 -0.021558077661193057 0 -0.00055164253100653906 -0.022317742862085276 0 -0.00054702760043414138 -0.023200454162441743 0 0.00010897474092460028 -0.024407999739831796 0 0.00026534599661979044 -0.024172080274118025 0 0.00020881956208965779 -0.024646200293282468 0 0.00020881956208965779 -0.024646200293282468 0 -5.0035409136779053e-05 -0.024589691136102574 0 5.7410471403586679e-05 -0.024832794884834523 0 6.8331081847171598e-05 -0.024676001868808781 0 -1.5666811000986448e-05 -0.024709568573606452 0 8.6811419341118273e-05 -0.024818590430154452 0 -1.9955472116843752e-05 -0.024931713935734824 0 -2.0520899392655593e-05 -0.024849070281282564 0 -1.9955472116843752e-05 -0.024931713935734824 0 -2.0520899392655593e-05 -0.024849070281282564 0 -6.1841571208291854e-05 -0.024898557539944889 0 0.00010897474092460028 -0.024407999739831796 0 5.7148851146526268e-05 -0.024125323161332927 0 -5.0035409136779053e-05 -0.024589691136102574 0 -2.0520899392655593e-05 -0.024849070281282564 0 -2.3777997021355652e-05 -0.024750916026873682 0 -8.2514848675521152e-05 -0.024794725647127536 0 8.6811419341118273e-05 -0.024818590430154452 0 -2.0520899392655593e-05 -0.024849070281282564 0 -2.3777997021355652e-05 -0.024750916026873682 0 -6.1841571208291854e-05 -0.024898557539944889 0 -9.4491561780103502e-05 -0.024864420357190515 0 -8.2514848675521152e-05 -0.024794725647127536 0 -2.0520899392655593e-05 -0.024849070281282564 0 -6.1841571208291854e-05 -0.024898557539944889 0 -8.2514848675521152e-05 -0.024794725647127536 0 -1.9955472116843752e-05 -0.024931713935734824 0 -6.1841571208291854e-05 -0.024898557539944889 0 -4.5724409026273949e-05 -0.024937497385812978 0 -6.1841571208291854e-05 -0.024898557539944889 0 -6.0654548311305646e-05 -0.024935572203727555 0 -4.5724409026273949e-05 -0.024937497385812978 0 -6.0654548311305646e-05 -0.024935572203727555 0 -3.7661346445125372e-05 -0.024958506668466267 0 -4.5724409026273949e-05 -0.024937497385812978 0 -6.0654548311305646e-05 -0.024935572203727555 0 -6.760229899072062e-08 -0.024999916736705867 0 -3.7661346445125372e-05 -0.024958506668466267 0 -6.760229899072062e-08 -0.024999916736705867 0 -6.7637276471798285e-05 -0.024920322561556216 0 -8.0876417960801363e-08 -0.024999748550211882 0 -6.0654548311305646e-05 -0.024935572203727555 0 -6.760229899072062e-08 -0.024999916736705867 0 -6.7637276471798285e-05 -0.024920322561556216 0 -6.1841571208291854e-05 -0.024898557539944889 0 -6.0654548311305646e-05 -0.024935572203727555 0 -9.4491561780103502e-05 -0.024864420357190515 0 -6.0654548311305646e-05 -0.024935572203727555 0 -6.7637276471798285e-05 -0.024920322561556216 0 -9.4491561780103502e-05 -0.024864420357190515 0 -6.7637276471798285e-05 -0.024920322561556216 0 -9.4491561780103502e-05 -0.024864420357190515 0 -0.00014346672450371182 -0.024773446832152369 0 -6.7637276471798285e-05 -0.024920322561556216 0 -0.00014346672450371182 -0.024773446832152369 0 -8.0876417960801363e-08 -0.024999748550211882 0 -0.00011219725458233907 -0.024831282083224784 0 -4.6502736602974801e-08 -0.024999948442904891 0 -8.0876417960801363e-08 -0.024999748550211882 0 -0.00011219725458233907 -0.024831282083224784 0 -0.00014346672450371182 -0.024773446832152369 0 -8.0876417960801363e-08 -0.024999748550211882 0 -0.00011219725458233907 -0.024831282083224784 0 -0.00014346672450371182 -0.024773446832152369 0 -0.00021642278452168353 -0.024387777961760438 0 -0.00022015876558266698 -0.02460382405727516 0 -0.00019278780656754695 -0.024436342599599013 0 -0.00014346672450371182 -0.024773446832152369 0 -0.00021642278452168353 -0.024387777961760438 0 -9.9289566361464974e-05 -0.024623471378336318 0 -0.00021642278452168353 -0.024387777961760438 0 -5.6696269595110221e-05 -0.024124480419403543 0 -2.4293314265229311e-05 -0.024444520432010394 0 0.000182746552619779 -0.024353520637784398 0 -5.6696269595110221e-05 -0.024124480419403543 0 -2.4293314265229311e-05 -0.024444520432010394 0 0.000182746552619779 -0.024353520637784398 0 0.00011414472898581329 -0.024555412785406589 0 -2.4293314265229311e-05 -0.024444520432010394 0 -0.00021642278452168353 -0.024387777961760438 0 -2.4293314265229311e-05 -0.024444520432010394 0 -9.9289566361464974e-05 -0.024623471378336318 0 -9.9289566361464974e-05 -0.024623471378336318 0 2.1340504008330316e-05 -0.024630267911934674 0 -2.3777997021355652e-05 -0.024750916026873682 0 0.00011414472898581329 -0.024555412785406589 0 8.6811419341118273e-05 -0.024818590430154452 0 2.1340504008330316e-05 -0.024630267911934674 0 -2.4293314265229311e-05 -0.024444520432010394 0 -9.9289566361464974e-05 -0.024623471378336318 0 2.1340504008330316e-05 -0.024630267911934674 0 0.00011414472898581329 -0.024555412785406589 0 -2.4293314265229311e-05 -0.024444520432010394 0 2.1340504008330316e-05 -0.024630267911934674 0 8.6811419341118273e-05 -0.024818590430154452 0 2.1340504008330316e-05 -0.024630267911934674 0 -2.3777997021355652e-05 -0.024750916026873682 0 -9.9289566361464974e-05 -0.024623471378336318 0 -2.3777997021355652e-05 -0.024750916026873682 0 -8.2514848675521152e-05 -0.024794725647127536 0 -0.00014346672450371182 -0.024773446832152369 0 -9.9289566361464974e-05 -0.024623471378336318 0 -8.2514848675521152e-05 -0.024794725647127536 0 -9.4491561780103502e-05 -0.024864420357190515 0 -0.00014346672450371182 -0.024773446832152369 0 -8.2514848675521152e-05 -0.024794725647127536 0 -0.0028231206099280297 -0.0099715370939244697 0 -0.0024235732564363253 -0.010410812610532068 0 -0.0020504153755204939 -0.009453703059937436 0 -0.0028231206099280297 -0.0099715370939244697 0 -0.0024235732564363253 -0.010410812610532068 0 -0.0029556773893072317 -0.010621899080410505 0 -0.0020966234829297627 -0.010921435329652365 0 -0.0027923630130814656 -0.011409573656950556 0 -0.0013605182689305989 -0.012081572734590479 0 -0.0013623033338738203 -0.012042222353035809 0 -0.0017745184951635804 -0.01230226483327896 0 -0.0013605182689305989 -0.012081572734590479 0 -0.0017720561128649376 -0.012381104034160541 0 -0.0017745184951635804 -0.01230226483327896 0 -0.00071267119329237604 -0.012952790220259114 0 -0.00096040984834181852 -0.012995078784185557 0 -0.0028231206099280297 -0.0099715370939244697 0 -0.0036296787479041413 -0.010499620062114147 0 -0.0029556773893072317 -0.010621899080410505 0 -0.00018708749891783484 -0.013696612596498053 0 -0.00012780275973452024 -0.01374334660122974 0 -0.00018408088719357345 -0.013493204778060148 0 -0.00018708749891783484 -0.013696612596498053 0 -0.00012780275973452024 -0.01374334660122974 0 -0.00016603668195679241 -0.013786071406244188 0 -0.0013605182689305989 -0.012081572734590479 0 -0.0013623033338738203 -0.012042222353035809 0 -0.00095484613951260457 -0.011795253285173692 0 -0.0020966234829297627 -0.010921435329652365 0 -0.00097661224441386195 -0.011812438915969895 0 -0.00071267119329237604 -0.012952790220259114 0 -0.00097661224441386195 -0.011812438915969895 0 -0.00012780275973452024 -0.01374334660122974 0 -0.00018408088719357345 -0.013493204778060148 0 6.167296195615357e-05 -0.01359237492072104 0 -0.00018408088719357345 -0.013493204778060148 0 -2.6231989638396974e-05 -0.013025617581588381 0 6.167296195615357e-05 -0.01359237492072104 0 -0.00018408088719357345 -0.013493204778060148 0 -0.00010038773135536719 -0.013257573201991807 0 -2.6231989638396974e-05 -0.013025617581588381 0 -0.00010038773135536719 -0.013257573201991807 0 -7.8842297426180648e-08 -0.012575654363734534 0 -5.6359918151190911e-07 -0.013975477291093401 0 -0.00010038773135536719 -0.013257573201991807 0 -7.8842297426180648e-08 -0.012575654363734534 0 -2.6231989638396974e-05 -0.013025617581588381 0 -0.00018408088719357345 -0.013493204778060148 0 -5.6359918151190911e-07 -0.013975477291093401 0 -0.00010001571755551225 -0.01404943661950336 0 -0.00018408088719357345 -0.013493204778060148 0 -0.00010038773135536719 -0.013257573201991807 0 -5.6359918151190911e-07 -0.013975477291093401 0 -0.00018708749891783484 -0.013696612596498053 0 -0.00018408088719357345 -0.013493204778060148 0 -0.00010001571755551225 -0.01404943661950336 0 -0.00018708749891783484 -0.013696612596498053 0 -5.806136922685948e-05 -0.013828375492754242 0 -0.00010001571755551225 -0.01404943661950336 0 -5.806136922685948e-05 -0.013828375492754242 0 -0.00010001571755551225 -0.01404943661950336 0 3.0117119309251548e-05 -0.014196783017140436 0 -5.6359918151190911e-07 -0.013975477291093401 0 2.7430935171089707e-07 -0.015376474349881809 0 2.3281082461059065e-05 -0.014841191623236575 0 -5.6359918151190911e-07 -0.013975477291093401 0 -0.00010001571755551225 -0.01404943661950336 0 2.3281082461059065e-05 -0.014841191623236575 0 -0.00010001571755551225 -0.01404943661950336 0 2.3281082461059065e-05 -0.014841191623236575 0 3.0117119309251548e-05 -0.014196783017140436 0 2.3281082461059065e-05 -0.014841191623236575 0 0.00031033795233813527 -0.014152606269602661 0 0.00067636388463009338 -0.014496195364821135 0 2.3281082461059065e-05 -0.014841191623236575 0 0.00031033795233813527 -0.014152606269602661 0 3.0117119309251548e-05 -0.014196783017140436 0 -1.7085503560686916e-05 -0.015015733660028136 0 0.00019525318574960853 -0.015140254538219631 0 2.7430935171089707e-07 -0.015376474349881809 0 2.3281082461059065e-05 -0.014841191623236575 0 -5.8263955232982836e-05 -0.01617386671467394 0 -5.806136922685948e-05 -0.013828375492754242 0 0.00031033795233813527 -0.014152606269602661 0 0.00051810143468946886 -0.013837896997681003 0 -5.806136922685948e-05 -0.013828375492754242 0 0.00031033795233813527 -0.014152606269602661 0 3.0117119309251548e-05 -0.014196783017140436 0 -5.4408206514045859e-05 -0.013824475849176322 0 4.5920442773363879e-05 -0.013852209408692331 0 -5.806136922685948e-05 -0.013828375492754242 0 -0.00011727274611369128 -0.01386306391053501 0 -0.00035948180410080014 -0.013775684787823086 0 -0.00011727274611369128 -0.01386306391053501 0 -0.00034728332874813883 -0.014130356901203147 0 -0.00035948180410080014 -0.013775684787823086 0 -0.00018708749891783484 -0.013696612596498053 0 -0.00013689468962557394 -0.013780057676958796 0 -0.00016603668195679241 -0.013786071406244188 0 -0.00018708749891783484 -0.013696612596498053 0 -5.806136922685948e-05 -0.013828375492754242 0 -0.00013689468962557394 -0.013780057676958796 0 -5.806136922685948e-05 -0.013828375492754242 0 -0.00011727274611369128 -0.01386306391053501 0 -0.00013689468962557394 -0.013780057676958796 0 -0.00011727274611369128 -0.01386306391053501 0 -0.00016603668195679241 -0.013786071406244188 0 -0.00011768589936121444 -0.013761254728097631 0 -0.0017720561128649376 -0.012381104034160541 0 -0.0017745184951635804 -0.01230226483327896 0 -0.0021949123888448394 -0.012564047175313646 0 -0.00011727274611369128 -0.01386306391053501 0 -0.00013689468962557394 -0.013780057676958796 0 -0.00016603668195679241 -0.013786071406244188 0 -0.00096040984834181852 -0.012995078784185557 0 -0.0010380743767195854 -0.013676490901399545 0 7.7024854853596994e-05 -0.014065244670218262 0 -0.0010380743767195854 -0.013676490901399545 0 -0.00011727274611369128 -0.01386306391053501 0 -0.00034728332874813883 -0.014130356901203147 0 -2.9691785940828194e-05 -0.014452370233156342 0 -0.00034728332874813883 -0.014130356901203147 0 -0.00066635334381546292 -0.014191859286727551 0 -0.00035948180410080014 -0.013775684787823086 0 -0.00034728332874813883 -0.014130356901203147 0 -0.00066635334381546292 -0.014191859286727551 0 -0.00053458705442501289 -0.014458549153164012 0 -0.00066635334381546292 -0.014191859286727551 0 -0.0008950824991922475 -0.013933752896277685 0 -0.0010645975275552033 -0.014363593928381725 0 -0.00066635334381546292 -0.014191859286727551 0 -0.0010645975275552033 -0.014363593928381725 0 -0.00079541523986227517 -0.014452706497343914 0 0.00094393194760812073 -0.013855302398151529 0 0.00097486684115220617 -0.014102114563788456 0 0.0011304593678670011 -0.014048776461043022 0 0.00094393194760812073 -0.013855302398151529 0 0.00078481678325139075 -0.014125609209798638 0 0.00097486684115220617 -0.014102114563788456 0 -0.00066635334381546292 -0.014191859286727551 0 -0.0008950824991922475 -0.013933752896277685 0 -0.00035948180410080014 -0.013775684787823086 0 0.00094393194760812073 -0.013855302398151529 0 0.00051810143468946886 -0.013837896997681003 0 0.00078481678325139075 -0.014125609209798638 0 3.7778791034817683e-05 -0.01355901618428795 0 4.5920442773363879e-05 -0.013852209408692331 0 0.00057091431187092985 -0.014141167159110174 0 0.00067636388463009338 -0.014496195364821135 0 0.00078481678325139075 -0.014125609209798638 0 0.00031033795233813527 -0.014152606269602661 0 0.00051810143468946886 -0.013837896997681003 0 0.00057091431187092985 -0.014141167159110174 0 0.00051810143468946886 -0.013837896997681003 0 0.00057091431187092985 -0.014141167159110174 0 0.00078481678325139075 -0.014125609209798638 0 0.00031033795233813527 -0.014152606269602661 0 0.00057091431187092985 -0.014141167159110174 0 0.00067636388463009338 -0.014496195364821135 0 2.7430935171089707e-07 -0.015376474349881809 0 -5.8263955232982836e-05 -0.01617386671467394 0 1.4649750397052181e-10 -0.016776205852530219 0 0.00019525318574960853 -0.015140254538219631 0 0.0011596504044083114 -0.017533107311580243 0 -5.8263955232982836e-05 -0.01617386671467394 0 1.4649750397052181e-10 -0.016776205852530219 0 0.00017690113079872955 -0.016453777164740356 0 1.8313165097766385e-07 -0.016777677970759172 0 0.0011596504044083114 -0.017533107311580243 0 0.001028609518309859 -0.014355125605169439 0 0.00078481678325139075 -0.014125609209798638 0 0.00097486684115220617 -0.014102114563788456 0 0.00067636388463009338 -0.014496195364821135 0 0.001028609518309859 -0.014355125605169439 0 0.00078481678325139075 -0.014125609209798638 0 0.001028609518309859 -0.014355125605169439 0 0.00097486684115220617 -0.014102114563788456 0 0.0011304593678670011 -0.014048776461043022 0 1.4219955473896135e-06 -0.016779708022245158 0 0.0001802858255337413 -0.01781593576093669 0 0.00016242526872427781 -0.01924315649217519 0 0.0026448605796403632 -0.020638454521967539 0 0.0014077288108244883 -0.020977975908590279 0 0.0022082321467879972 -0.021537334948051514 0 0.0011596504044083114 -0.017533107311580243 0 0.0017752118648785586 -0.017793814902910775 0 0.0011596504044083114 -0.017533107311580243 0 0.00071179093272313518 -0.020389974964902302 0 -1.9587443137973104e-07 -0.019829432878661599 0 1.4219955473896135e-06 -0.016779708022245158 0 0.00016242526872427781 -0.01924315649217519 0 0.00094238332085878852 -0.021844677331241628 0 0.0014077288108244883 -0.020977975908590279 0 0.0022082321467879972 -0.021537334948051514 0 0.00094238332085878852 -0.021844677331241628 0 0.0022082321467879972 -0.021537334948051514 0 0.0017510733911723986 -0.022404544129205155 0 3.7778791034817683e-05 -0.01355901618428795 0 0.00035758568568630965 -0.017479558634558735 0 0.00094393194760812073 -0.013855302398151529 0 0.0011304593678670011 -0.014048776461043022 0 0.0012225559896613847 -0.01385083428131983 0 0.0017752118648785586 -0.017793814902910775 0 0.00035758568568630965 -0.017479558634558735 0 -0.0008950824991922475 -0.013933752896277685 0 -0.0010645975275552033 -0.014363593928381725 0 -0.0014171010519062807 -0.014113952236865856 0 -0.0010645975275552033 -0.014363593928381725 0 -0.0014171010519062807 -0.014113952236865856 0 -0.0013477870663418509 -0.01441951965641766 0 -0.0014171010519062807 -0.014113952236865856 0 -0.0016079540196001563 -0.014486732211033623 0 -0.0013477870663418509 -0.01441951965641766 0 0.00035758568568630965 -0.017479558634558735 0 -0.00063897833961413662 -0.017078963542206865 0 -7.9510494234000462e-05 -0.019657124404802946 0 0.00043621182377735524 -0.019480173633268063 0 0.0002391841843383022 -0.019870780871157723 0 0.00038200419490106493 -0.021445167198729454 0 0.00035758568568630965 -0.017479558634558735 0 0.00094238332085878852 -0.021844677331241628 0 0.00075557894735824862 -0.022688288310238537 0 0.0017510733911723986 -0.022404544129205155 0 -0.001792588315296359 -0.014866124801512609 0 -0.0016079540196001563 -0.014486732211033623 0 -0.0013020546877704215 -0.014717628008797041 0 -0.00067266541964623294 -0.018122302915282516 0 -0.00063897833961413662 -0.017078963542206865 0 -0.0016079540196001563 -0.014486732211033623 0 -0.0013477870663418509 -0.01441951965641766 0 -0.0013020546877704215 -0.014717628008797041 0 -0.0010645975275552033 -0.014363593928381725 0 -0.0013020546877704215 -0.014717628008797041 0 -0.00092405581464735946 -0.014794324254783843 0 -0.0010645975275552033 -0.014363593928381725 0 -0.0013477870663418509 -0.01441951965641766 0 -0.0013020546877704215 -0.014717628008797041 0 -0.0018711009504325618 -0.015793210255510282 0 -0.00089301633744582199 -0.014686418169989364 0 -0.0013020546877704215 -0.014717628008797041 0 -0.0013516168819289816 -0.015118461867065076 0 -0.00092405581464735946 -0.014794324254783843 0 -0.0016483863552810495 -0.015173026604893803 0 -0.0013908287387257195 -0.015325274589544803 0 -0.0010765462589482947 -0.0147855939011788 0 -0.00081452119248453874 -0.018075632961496415 0 -0.002241992710538666 -0.017205726604991214 0 -0.0016021500244518831 -0.016772431584849753 0 -0.00062368601348510803 -0.017702453706130727 0 -0.00081452119248453874 -0.018075632961496415 0 -0.0016021500244518831 -0.016772431584849753 0 -0.001792588315296359 -0.014866124801512609 0 -0.0013020546877704215 -0.014717628008797041 0 -0.0013516168819289816 -0.015118461867065076 0 -0.00067266541964623294 -0.018122302915282516 0 -0.0018711009504325618 -0.015793210255510282 0 -0.00076695836818327639 -0.018979167754073892 0 -0.0021350740066469111 -0.017249398900614402 0 -0.0026411692065885445 -0.017358412597815984 0 -0.0026419804748000915 -0.017400558492477118 0 -0.0024000480170756357 -0.017293906459412586 0 -0.0026411692065885445 -0.017358412597815984 0 -0.0024672226880391927 -0.017231005716002584 0 -0.0024000480170756357 -0.017293906459412586 0 -0.0018711009504325618 -0.015793210255510282 0 -0.0021350740066469111 -0.017249398900614402 0 -0.0024589041362485646 -0.016049830470106274 0 -0.002604056728401282 -0.016152719761298669 0 -0.0025051090271982668 -0.016245632866263935 0 -0.0021350740066469111 -0.017249398900614402 0 -0.0032662676270821963 -0.016197855555986216 0 -0.0015625535080834316 -0.018745921203935305 0 -0.0021350740066469111 -0.017249398900614402 0 -0.0026426055223362295 -0.01744995635185068 0 -0.0026419804748000915 -0.017400558492477118 0 -0.0024000480170756357 -0.017293906459412586 0 -0.0041038090882223877 -0.015706738414794547 0 -0.0040805057872404611 -0.015699148191395153 0 -0.0041053507700206035 -0.015707636474498455 0 -0.0041648742893255148 -0.015741896616598292 0 -0.0039014225604030494 -0.015568760203355628 0 -0.0040805057872404611 -0.015699148191395153 0 -0.0041053507700206035 -0.015707636474498455 0 -0.0040742032466350433 -0.015703901854369075 0 -0.0026885085624936129 -0.017560672565883711 0 -0.0032662676270821963 -0.016197855555986216 0 -0.0041053507700206035 -0.015707636474498455 0 -0.0040475465894710509 -0.015618519664139369 0 -0.0040808541999855447 -0.015700722540995155 0 -0.004041149713256989 -0.015675623650705867 0 -0.0040475465894710509 -0.015618519664139369 0 -0.0040808541999855447 -0.015700722540995155 0 -0.004041149713256989 -0.015675623650705867 0 -0.0040475465894710509 -0.015618519664139369 0 -0.0039722268172888535 -0.015648703091102285 0 -0.0041296221549550257 -0.015376849968916428 0 -0.0040116685769512753 -0.01540205946341173 0 -0.0039844886606367281 -0.015522682532075522 0 -0.0039014225604030494 -0.015568760203355628 0 -0.0039989451949317819 -0.015567423152814688 0 -0.0041296221549550257 -0.015376849968916428 0 -0.0040040563166179417 -0.01528798371844238 0 -0.0040116685769512753 -0.01540205946341173 0 -0.0039014225604030494 -0.015568760203355628 0 -0.0033789372268093949 -0.0146013273464794 0 -0.0032639312143096953 -0.015549576500042557 0 -0.0031708792924470255 -0.015276428647939473 0 -0.0030102650477624388 -0.01537164715507924 0 -0.0034038887111600131 -0.015417924502570918 0 -0.0032639312143096953 -0.015549576500042557 0 -0.0031708792924470255 -0.015276428647939473 0 -0.0032662676270821963 -0.016197855555986216 0 -0.0039014225604030494 -0.015568760203355628 0 -0.0018711009504325618 -0.015793210255510282 0 -0.002332224292737575 -0.01528410298237903 0 -0.0032662676270821963 -0.016197855555986216 0 -0.002332224292737575 -0.01528410298237903 0 -0.0024589041362485646 -0.016049830470106274 0 -0.0025051090271982668 -0.016245632866263935 0 -0.0023191867125434045 -0.016131409820243595 0 -0.002332224292737575 -0.01528410298237903 0 -0.0033789372268093949 -0.0146013273464794 0 -0.0036414820419699997 -0.013747393598433692 0 -0.0033228881097398973 -0.013926133084011531 0 -0.0033827314201138616 -0.013825832488721625 0 -0.0033789372268093949 -0.0146013273464794 0 -0.0025405604059916681 -0.013910038031942119 0 -0.0033789372268093949 -0.0146013273464794 0 -0.003633816519196371 -0.014931070139726499 0 -0.0036414820419699997 -0.013747393598433692 0 -0.0033589577214440786 -0.013728820290103753 0 -0.0032815487197040971 -0.013484808411335926 0 -0.0029387694669831105 -0.014607686743883344 0 -0.0026857492591781233 -0.014758761666327428 0 -0.002108789925877725 -0.014101004347965527 0 -0.0036414820419699997 -0.013747393598433692 0 -0.0033827314201138616 -0.013825832488721625 0 -0.0033589577214440786 -0.013728820290103753 0 -0.0040040563166179417 -0.01528798371844238 0 -0.0040116685769512753 -0.01540205946341173 0 -0.003927879537178958 -0.015420680974261728 0 -0.0040040563166179417 -0.01528798371844238 0 -0.003927879537178958 -0.015420680974261728 0 -0.0038047477743260571 -0.015405465967909626 0 -0.0040116685769512753 -0.01540205946341173 0 -0.003927879537178958 -0.015420680974261728 0 -0.0039844886606367281 -0.015522682532075522 0 -0.003927879537178958 -0.015420680974261728 0 -0.0038526534557354049 -0.015454669045272132 0 -0.0038047477743260571 -0.015405465967909626 0 -0.003927879537178958 -0.015420680974261728 0 -0.0038678805997909441 -0.015511303587406208 0 -0.0039844886606367281 -0.015522682532075522 0 -0.003927879537178958 -0.015420680974261728 0 -0.0038678805997909441 -0.015511303587406208 0 -0.0038526534557354049 -0.015454669045272132 0 -0.003633816519196371 -0.014931070139726499 0 -0.0036228156519979475 -0.015584351893178675 0 -0.0038047477743260571 -0.015405465967909626 0 -0.0036082418814045035 -0.015523647407783886 0 -0.0036833312406179815 -0.015510464840971246 0 -0.0037656982302106887 -0.015484924148183414 0 -0.0038047477743260571 -0.015405465967909626 0 -0.0036833312406179815 -0.015510464840971246 0 -0.0037656982302106887 -0.015484924148183414 0 -0.0036833312406179815 -0.015510464840971246 0 -0.0037648095641943341 -0.015543030965441913 0 -0.0037656982302106887 -0.015484924148183414 0 -0.0038057007271272278 -0.015479466782982397 0 -0.0037648095641943341 -0.015543030965441913 0 -0.0038678805997909441 -0.015511303587406208 0 -0.0038057007271272278 -0.015479466782982397 0 -0.0037648095641943341 -0.015543030965441913 0 -0.0038678805997909441 -0.015511303587406208 0 -0.0038526534557354049 -0.015454669045272132 0 -0.0038057007271272278 -0.015479466782982397 0 -0.0037656982302106887 -0.015484924148183414 0 -0.0038057007271272278 -0.015479466782982397 0 -0.0038047477743260571 -0.015405465967909626 0 -0.0038526534557354049 -0.015454669045272132 0 -0.0038057007271272278 -0.015479466782982397 0 -0.0038047477743260571 -0.015405465967909626 0 -0.0033009643519026056 -0.013883863305939603 0 -0.0033228881097398973 -0.013926133084011531 0 -0.0033827314201138616 -0.013825832488721625 0 -0.0033009643519026056 -0.013883863305939603 0 -0.0031835532082192591 -0.013906298670739073 0 -0.003285103163911467 -0.013825843284735469 0 -0.0033009643519026056 -0.013883863305939603 0 -0.003176461251611223 -0.01395416275727519 0 -0.0031835532082192591 -0.013906298670739073 0 -0.0033009643519026056 -0.013883863305939603 0 -0.0033228881097398973 -0.013926133084011531 0 -0.003176461251611223 -0.01395416275727519 0 -0.0031835532082192591 -0.013906298670739073 0 -0.0032003813422990567 -0.013834825610957679 0 -0.0030849955028697906 -0.013903555274404391 0 -0.0032003813422990567 -0.013834825610957679 0 -0.003214980673557325 -0.013744561166580949 0 -0.003285103163911467 -0.013825843284735469 0 -0.0031835532082192591 -0.013906298670739073 0 -0.0032003813422990567 -0.013834825610957679 0 -0.003285103163911467 -0.013825843284735469 0 -0.0032003813422990567 -0.013834825610957679 0 -0.003214980673557325 -0.013744561166580949 0 -0.0031153975570649109 -0.013807605627917137 0 -0.003214980673557325 -0.013744561166580949 0 -0.003285103163911467 -0.013825843284735469 0 -0.0033589577214440786 -0.013728820290103753 0 -0.0033009643519026056 -0.013883863305939603 0 -0.0033827314201138616 -0.013825832488721625 0 -0.003285103163911467 -0.013825843284735469 0 -0.0033827314201138616 -0.013825832488721625 0 -0.003285103163911467 -0.013825843284735469 0 -0.0033589577214440786 -0.013728820290103753 0 -0.003214980673557325 -0.013744561166580949 0 -0.0033589577214440786 -0.013728820290103753 0 -0.0032815487197040971 -0.013484808411335926 0 -0.003214980673557325 -0.013744561166580949 0 -0.0032815487197040971 -0.013484808411335926 0 -0.0030854064365103571 -0.013710040988377602 0 -0.002108789925877725 -0.014101004347965527 0 -0.001979984541366153 -0.014261908068219684 0 -0.0012790432848967695 -0.013765705033272364 0 -0.0026857492591781233 -0.014758761666327428 0 -0.002108789925877725 -0.014101004347965527 0 -0.001979984541366153 -0.014261908068219684 0 -0.0013908287387257195 -0.015325274589544803 0 -0.00063577620419436542 -0.014863258053451728 0 -0.0010765462589482947 -0.0147855939011788 0 -0.002332224292737575 -0.01528410298237903 0 -0.0012684219151237581 -0.014467404977074121 0 -0.00063577620419436542 -0.014863258053451728 0 -0.0010765462589482947 -0.0147855939011788 0 -0.00053458705442501289 -0.014458549153164012 0 -0.00089301633744582199 -0.014686418169989364 0 -0.00061815127996319905 -0.014523282292059375 0 -0.00092405581464735946 -0.014794324254783843 0 -0.00079541523986227517 -0.014452706497343914 0 -0.00053458705442501289 -0.014458549153164012 0 -0.0010645975275552033 -0.014363593928381725 0 -0.00092405581464735946 -0.014794324254783843 0 -0.00079541523986227517 -0.014452706497343914 0 -0.00066635334381546292 -0.014191859286727551 0 -0.00079541523986227517 -0.014452706497343914 0 -0.00053458705442501289 -0.014458549153164012 0 -0.00063577620419436542 -0.014863258053451728 0 -0.00053458705442501289 -0.014458549153164012 0 -2.9691785940828194e-05 -0.014452370233156342 0 -0.00034728332874813883 -0.014130356901203147 0 -0.00053458705442501289 -0.014458549153164012 0 -2.9691785940828194e-05 -0.014452370233156342 0 -0.0012684219151237581 -0.014467404977074121 0 -0.0010380743767195854 -0.013676490901399545 0 -0.002108789925877725 -0.014101004347965527 0 -0.0012790432848967695 -0.013765705033272364 0 -0.0012841000029253948 -0.01359556503772527 0 -0.002504074696657354 -0.012684733631786783 0 -0.0010380743767195854 -0.013676490901399545 0 -0.0036296787479041413 -0.010499620062114147 0 -0.0044702954034612965 -0.011067167655165154 0 -0.0038012497989596199 -0.011553761348026534 0 -0.0017720561128649376 -0.012381104034160541 0 -0.0021917886925680854 -0.012682543259356934 0 -0.0021949123888448394 -0.012564047175313646 0 -0.0027923630130814656 -0.011409573656950556 0 -0.002504074696657354 -0.012684733631786783 0 -0.0044702954034612965 -0.011067167655165154 0 -0.0041468114085121072 -0.011892369552711486 0 -0.0044474260498616105 -0.012249270947943225 0 -0.0044702954034612965 -0.011067167655165154 0 -0.0038012497989596199 -0.011553761348026534 0 -0.0041468114085121072 -0.011892369552711486 0 -0.0038012497989596199 -0.011553761348026534 0 -0.0039534757454705634 -0.0120150067713674 0 -0.0041468114085121072 -0.011892369552711486 0 -0.0038012497989596199 -0.011553761348026534 0 -0.0039534757454705634 -0.0120150067713674 0 -0.0036376652437576265 -0.012082669436132036 0 -0.002504074696657354 -0.012684733631786783 0 -0.003820162917262161 -0.012685511084702472 0 -0.0032815487197040971 -0.013484808411335926 0 -0.0029100984246468462 -0.013218253406046553 0 -0.0029036733657599881 -0.013663431292926609 0 -0.0025405604059916681 -0.013910038031942119 0 -0.002504074696657354 -0.012684733631786783 0 -0.0032815487197040971 -0.013484808411335926 0 -0.0030854064365103571 -0.013710040988377602 0 -0.0029036733657599881 -0.013663431292926609 0 -0.0029036733657599881 -0.013663431292926609 0 -0.0029823042539067358 -0.013803362656539571 0 -0.0028987785422037605 -0.014100870632681846 0 -0.0030854064365103571 -0.013710040988377602 0 -0.0029036733657599881 -0.013663431292926609 0 -0.0029823042539067358 -0.013803362656539571 0 -0.003214980673557325 -0.013744561166580949 0 -0.0030854064365103571 -0.013710040988377602 0 -0.0031153975570649109 -0.013807605627917137 0 -0.0030854064365103571 -0.013710040988377602 0 -0.0030465682118782336 -0.013783756186296348 0 -0.0031153975570649109 -0.013807605627917137 0 -0.0030854064365103571 -0.013710040988377602 0 -0.0029823042539067358 -0.013803362656539571 0 -0.0030465682118782336 -0.013783756186296348 0 -0.0030465682118782336 -0.013783756186296348 0 -0.0031153975570649109 -0.013807605627917137 0 -0.0030276228141711613 -0.013868848212421757 0 -0.0029823042539067358 -0.013803362656539571 0 -0.0030465682118782336 -0.013783756186296348 0 -0.0030276228141711613 -0.013868848212421757 0 -0.0031153975570649109 -0.013807605627917137 0 -0.0030849955028697906 -0.013903555274404391 0 -0.0030276228141711613 -0.013868848212421757 0 -0.0032003813422990567 -0.013834825610957679 0 -0.0031153975570649109 -0.013807605627917137 0 -0.0030849955028697906 -0.013903555274404391 0 -0.0031835532082192591 -0.013906298670739073 0 -0.0030849955028697906 -0.013903555274404391 0 -0.0028987785422037605 -0.014100870632681846 0 -0.003176461251611223 -0.01395416275727519 0 -0.0031835532082192591 -0.013906298670739073 0 -0.0028987785422037605 -0.014100870632681846 0 -0.0029823042539067358 -0.013803362656539571 0 -0.0030276228141711613 -0.013868848212421757 0 -0.0028987785422037605 -0.014100870632681846 0 -0.003820162917262161 -0.012685511084702472 0 -0.0035075323955908624 -0.014389675981561312 0 -0.0033228881097398973 -0.013926133084011531 0 -0.003176461251611223 -0.01395416275727519 0 -0.0028987785422037605 -0.014100870632681846 0 -0.0038136442413658281 -0.015371871998530236 0 -0.0035265290398665415 -0.015512825329476577 0 -0.0036082418814045035 -0.015523647407783886 0 -0.003633816519196371 -0.014931070139726499 0 -0.0035075323955908624 -0.014389675981561312 0 -0.0030849955028697906 -0.013903555274404391 0 -0.0030276228141711613 -0.013868848212421757 0 -0.0028987785422037605 -0.014100870632681846 0 -0.0044474260498616105 -0.012249270947943225 0 -0.004406163544130922 -0.013231905757810252 0 -0.0041645488083261418 -0.012829552206789611 0 -0.004406163544130922 -0.013231905757810252 0 -0.0039521150153579458 -0.013103143076926926 0 -0.0038813935714723429 -0.013424693515144156 0 -0.004406163544130922 -0.013231905757810252 0 -0.0039521150153579458 -0.013103143076926926 0 -0.0041645488083261418 -0.012829552206789611 0 -0.0041645488083261418 -0.012829552206789611 0 -0.0039732984972891744 -0.01263514454241442 0 -0.0037756155103263922 -0.012852702342652081 0 -0.0039521150153579458 -0.013103143076926926 0 -0.0041645488083261418 -0.012829552206789611 0 -0.0037756155103263922 -0.012852702342652081 0 -0.0039732984972891744 -0.01263514454241442 0 -0.0037168082104277801 -0.012624984560751522 0 -0.0037756155103263922 -0.012852702342652081 0 -0.0039732984972891744 -0.01263514454241442 0 -0.0042044880157709264 -0.012355070958066604 0 -0.0037168082104277801 -0.012624984560751522 0 -0.0041645488083261418 -0.012829552206789611 0 -0.0039732984972891744 -0.01263514454241442 0 -0.0041904628223824111 -0.012518104758370771 0 -0.0044474260498616105 -0.012249270947943225 0 -0.0041645488083261418 -0.012829552206789611 0 -0.0041904628223824111 -0.012518104758370771 0 -0.0039732984972891744 -0.01263514454241442 0 -0.0041904628223824111 -0.012518104758370771 0 -0.0042044880157709264 -0.012355070958066604 0 -0.0039534757454705634 -0.0120150067713674 0 -0.0041468114085121072 -0.011892369552711486 0 -0.0042044880157709264 -0.012355070958066604 0 -0.0041468114085121072 -0.011892369552711486 0 -0.0044474260498616105 -0.012249270947943225 0 -0.0042044880157709264 -0.012355070958066604 0 -0.0044474260498616105 -0.012249270947943225 0 -0.0041904628223824111 -0.012518104758370771 0 -0.0042044880157709264 -0.012355070958066604 0 -0.0039534757454705634 -0.0120150067713674 0 -0.0042044880157709264 -0.012355070958066604 0 -0.0036376652437576265 -0.012082669436132036 0 -0.0036376652437576265 -0.012082669436132036 0 -0.0028874251139535327 -0.012318829271367602 0 -0.0030978393098156855 -0.011965449968906401 0 -0.0042044880157709264 -0.012355070958066604 0 -0.0036376652437576265 -0.012082669436132036 0 -0.0028874251139535327 -0.012318829271367602 0 -0.0041451763913627577 -0.012346462372533581 0 -0.0031252482863712585 -0.012432742322242998 0 -0.0042044880157709264 -0.012355070958066604 0 -0.0037168082104277801 -0.012624984560751522 0 -0.0032754594688482967 -0.012463711325362699 0 -0.0037168082104277801 -0.012624984560751522 0 -0.0033571217490511278 -0.01281632160805083 0 -0.0032754594688482967 -0.012463711325362699 0 -0.0037168082104277801 -0.012624984560751522 0 -0.0037756155103263922 -0.012852702342652081 0 -0.0033571217490511278 -0.01281632160805083 0 -0.0037756155103263922 -0.012852702342652081 0 -0.0033571217490511278 -0.01281632160805083 0 -0.0035646102782133249 -0.013169009937928669 0 -0.0033571217490511278 -0.01281632160805083 0 -0.0035646102782133249 -0.013169009937928669 0 -0.0030999186112720192 -0.013120798274255469 0 -0.0039521150153579458 -0.013103143076926926 0 -0.0035646102782133249 -0.013169009937928669 0 -0.0038813935714723429 -0.013424693515144156 0 -0.0039521150153579458 -0.013103143076926926 0 -0.0037756155103263922 -0.012852702342652081 0 -0.0035646102782133249 -0.013169009937928669 0 -0.0032800395968822227 -0.013377839384811347 0 -0.0027919679512171044 -0.012644154140143008 0 -0.002452663993677807 -0.013412198530249624 0 -0.0032800395968822227 -0.013377839384811347 0 -0.0028617666826347911 -0.013867559399043564 0 -0.002452663993677807 -0.013412198530249624 0 -0.0033571217490511278 -0.01281632160805083 0 -0.0030999186112720192 -0.013120798274255469 0 -0.0027919679512171044 -0.012644154140143008 0 -0.0031432960431325711 -0.013192933268612308 0 -0.0028605377176298941 -0.012731915372852147 0 -0.0027919679512171044 -0.012644154140143008 0 -0.0032754594688482967 -0.012463711325362699 0 -0.0021442023269916842 -0.012517964806323672 0 -0.0023619820991082272 -0.012161013624317419 0 -0.0028874251139535327 -0.012318829271367602 0 -0.0030978393098156855 -0.011965449968906401 0 -0.0023619820991082272 -0.012161013624317419 0 -0.0028874251139535327 -0.012318829271367602 0 -0.0016362251843799718 -0.012342865584483028 0 -0.0023759369018791061 -0.012121406909906889 0 -0.003020284387578882 -0.0119749142688139 0 -0.0031252482863712585 -0.012432742322242998 0 -0.0017642137066845103 -0.012120038021682765 0 -0.0033571217490511278 -0.01281632160805083 0 -0.0027919679512171044 -0.012644154140143008 0 -0.0032754594688482967 -0.012463711325362699 0 -0.0023938938683293197 -0.012080231348636297 0 -0.0026055617360410564 -0.011575261620701219 0 -0.0030978393098156855 -0.011965449968906401 0 -0.0023938938683293197 -0.012080231348636297 0 -0.0026055617360410564 -0.011575261620701219 0 -0.0019319107983073039 -0.011541567298762967 0 -0.0026055617360410564 -0.011575261620701219 0 -0.0024865672593461672 -0.011004802118157764 0 -0.0019319107983073039 -0.011541567298762967 0 -0.0026055617360410564 -0.011575261620701219 0 -0.0031474410612501984 -0.011277099976684558 0 -0.0024865672593461672 -0.011004802118157764 0 -0.0030978393098156855 -0.011965449968906401 0 -0.0034301340246389151 -0.011728196921592259 0 -0.0031474410612501984 -0.011277099976684558 0 -0.0036376652437576265 -0.012082669436132036 0 -0.0030978393098156855 -0.011965449968906401 0 -0.0034301340246389151 -0.011728196921592259 0 -0.0038012497989596199 -0.011553761348026534 0 -0.0036376652437576265 -0.012082669436132036 0 -0.0034301340246389151 -0.011728196921592259 0 -0.0038012497989596199 -0.011553761348026534 0 -0.0034301340246389151 -0.011728196921592259 0 -0.0031474410612501984 -0.011277099976684558 0 -0.0026055617360410564 -0.011575261620701219 0 -0.0030978393098156855 -0.011965449968906401 0 -0.0031474410612501984 -0.011277099976684558 0 -0.0036296787479041413 -0.010499620062114147 0 -0.0031474410612501984 -0.011277099976684558 0 -0.0029556773893072317 -0.010621899080410505 0 -0.0036296787479041413 -0.010499620062114147 0 -0.0038012497989596199 -0.011553761348026534 0 -0.0031474410612501984 -0.011277099976684558 0 -0.0024235732564363253 -0.010410812610532068 0 -0.0029556773893072317 -0.010621899080410505 0 -0.0024865672593461672 -0.011004802118157764 0 -0.0031474410612501984 -0.011277099976684558 0 -0.0029556773893072317 -0.010621899080410505 0 -0.0024865672593461672 -0.011004802118157764 0 -0.002616686500544441 -0.015866986768616365 0 -0.0027766858106840339 -0.016354772429957008 0 -0.0023602413340712662 -0.01618678346906665 0 -0.002616686500544441 -0.015866986768616365 0 -0.0031014250868322073 -0.016182025991206529 0 -0.0030174961004889394 -0.015770856665400797 0 -0.002616686500544441 -0.015866986768616365 0 -0.0031014250868322073 -0.016182025991206529 0 -0.0027766858106840339 -0.016354772429957008 0 -0.0031014250868322073 -0.016182025991206529 0 -0.0030174961004889394 -0.015770856665400797 0 -0.0033968017295589389 -0.015963835010308181 0 -0.0030174961004889394 -0.015770856665400797 0 -0.0026656713273787162 -0.015371331519742558 0 -0.0031803218505020285 -0.015307106435748305 0 -0.002616686500544441 -0.015866986768616365 0 -0.0030174961004889394 -0.015770856665400797 0 -0.0026656713273787162 -0.015371331519742558 0 -0.002616686500544441 -0.015866986768616365 0 -0.0026656713273787162 -0.015371331519742558 0 -0.0021973444316164817 -0.015346032157079637 0 -0.0026656713273787162 -0.015371331519742558 0 -0.0023389814442422185 -0.01492176322337674 0 -0.0021973444316164817 -0.015346032157079637 0 -0.0026656713273787162 -0.015371331519742558 0 -0.002885697626182284 -0.014725836349594441 0 -0.0023389814442422185 -0.01492176322337674 0 -0.003166433451696136 -0.014479683690656636 0 -0.0025565079162130373 -0.014718453297413928 0 -0.0032800395968822227 -0.013377839384811347 0 -0.0028617666826347911 -0.013867559399043564 0 -0.0037071601259016287 -0.014118187060769531 0 -0.0028617666826347911 -0.013867559399043564 0 -0.0037071601259016287 -0.014118187060769531 0 -0.0027656239606259716 -0.014528718740149471 0 -0.0031432960431325711 -0.013192933268612308 0 -0.003166433451696136 -0.014479683690656636 0 -0.0029572897694808112 -0.015245398131920834 0 -0.003185726652726205 -0.015651795537056489 0 -0.0032592138035824271 -0.015124027459908755 0 -0.0035646102782133249 -0.013169009937928669 0 -0.0033810451348650944 -0.013627662171515878 0 -0.0038813935714723429 -0.013424693515144156 0 -0.003166433451696136 -0.014479683690656636 0 -0.0036529933417693127 -0.014246208824766293 0 -0.0035646102782133249 -0.013169009937928669 0 -0.0030999186112720192 -0.013120798274255469 0 -0.0033810451348650944 -0.013627662171515878 0 -0.003166433451696136 -0.014479683690656636 0 -0.0031831303719037046 -0.015558834656353028 0 -0.0026656713273787162 -0.015371331519742558 0 -0.002885697626182284 -0.014725836349594441 0 -0.0031803218505020285 -0.015307106435748305 0 -0.003185726652726205 -0.015651795537056489 0 -0.0035390646457742368 -0.015464400745531879 0 -0.0034960366986513695 -0.015905900978992232 0 -0.003185726652726205 -0.015651795537056489 0 -0.0032592138035824271 -0.015124027459908755 0 -0.0035390646457742368 -0.015464400745531879 0 -0.0035283932165401364 -0.015791873153068892 0 -0.0035056756263142598 -0.015812076021831229 0 -0.0035624567363415232 -0.014996847471398579 0 -0.0032592138035824271 -0.015124027459908755 0 -0.0035390646457742368 -0.015464400745531879 0 -0.0035075323955908624 -0.014389675981561312 0 -0.0036529933417693127 -0.014246208824766293 0 -0.0035075323955908624 -0.014389675981561312 0 -0.0035283932165401364 -0.015791873153068892 0 -0.0035265290398665415 -0.015512825329476577 0 -0.0036654775876821546 -0.015681348862711775 0 -0.0035285968612944665 -0.015749894961057938 0 -0.0036082418814045035 -0.015523647407783886 0 -0.0036654775876821546 -0.015681348862711775 0 -0.0036923459589071274 -0.015588559349060728 0 -0.0036082418814045035 -0.015523647407783886 0 -0.0036833312406179815 -0.015510464840971246 0 -0.0036923459589071274 -0.015588559349060728 0 -0.0035265290398665415 -0.015512825329476577 0 -0.0036082418814045035 -0.015523647407783886 0 -0.0036654775876821546 -0.015681348862711775 0 -0.0036654775876821546 -0.015681348862711775 0 -0.0035285968612944665 -0.015749894961057938 0 -0.0036824913828101898 -0.015823579893113563 0 -0.0035285968612944665 -0.015749894961057938 0 -0.0035818615136432395 -0.015856874849741492 0 -0.0036824913828101898 -0.015823579893113563 0 -0.0035285968612944665 -0.015749894961057938 0 -0.0035818615136432395 -0.015856874849741492 0 -0.0034960366986513695 -0.015905900978992232 0 -0.0036362339098975826 -0.015964580856286353 0 -0.0035818615136432395 -0.015856874849741492 0 -0.0036824913828101898 -0.015823579893113563 0 -0.0036362339098975826 -0.015964580856286353 0 -0.0035818615136432395 -0.015856874849741492 0 -0.0034960366986513695 -0.015905900978992232 0 -0.0036362339098975826 -0.015964580856286353 0 -0.0034960366986513695 -0.015905900978992232 0 -0.0035147628181989498 -0.016020182115356822 0 -0.0031831303719037046 -0.015558834656353028 0 -0.0033740222359870337 -0.015886903858890956 0 -0.003185726652726205 -0.015651795537056489 0 -0.0034960366986513695 -0.015905900978992232 0 -0.0033968017295589389 -0.015963835010308181 0 -0.0030174961004889394 -0.015770856665400797 0 -0.0031803218505020285 -0.015307106435748305 0 -0.0033968017295589389 -0.015963835010308181 0 -0.0034960366986513695 -0.015905900978992232 0 -0.0033968017295589389 -0.015963835010308181 0 -0.0035147628181989498 -0.016020182115356822 0 -0.0033968017295589389 -0.015963835010308181 0 -0.0034173040225390838 -0.016172478992876202 0 -0.0035147628181989498 -0.016020182115356822 0 -0.0031014250868322073 -0.016182025991206529 0 -0.0033968017295589389 -0.015963835010308181 0 -0.0034173040225390838 -0.016172478992876202 0 -0.0034173040225390838 -0.016172478992876202 0 -0.003595742291113323 -0.016131658157093418 0 -0.0035301457933491296 -0.016309725714628843 0 -0.003595742291113323 -0.016131658157093418 0 -0.0036796657441409229 -0.016263994082631676 0 -0.0035301457933491296 -0.016309725714628843 0 -0.003595742291113323 -0.016131658157093418 0 -0.0037673304171068505 -0.016114289734543867 0 -0.0036796657441409229 -0.016263994082631676 0 -0.0036362339098975826 -0.015964580856286353 0 -0.003595742291113323 -0.016131658157093418 0 -0.0037673304171068505 -0.016114289734543867 0 -0.0036362339098975826 -0.015964580856286353 0 -0.003595742291113323 -0.016131658157093418 0 -0.0035147628181989498 -0.016020182115356822 0 -0.0034173040225390838 -0.016172478992876202 0 -0.003595742291113323 -0.016131658157093418 0 -0.0035147628181989498 -0.016020182115356822 0 -0.0037673304171068505 -0.016114289734543867 0 -0.0038625511224912364 -0.016344527374172958 0 -0.0036796657441409229 -0.016263994082631676 0 -0.0037673304171068505 -0.016114289734543867 0 -0.0039296288026423164 -0.016152658666675934 0 -0.0038625511224912364 -0.016344527374172958 0 -0.0037673304171068505 -0.016114289734543867 0 -0.0039296288026423164 -0.016152658666675934 0 -0.0038267593907697823 -0.01596104869055516 0 -0.0039296288026423164 -0.016152658666675934 0 -0.004083221223759659 -0.016052947323765186 0 -0.0040541893332333469 -0.016347693417261229 0 -0.0039296288026423164 -0.016152658666675934 0 -0.0039527202935433665 -0.016012148526819585 0 -0.004083221223759659 -0.016052947323765186 0 -0.0039296288026423164 -0.016152658666675934 0 -0.0039527202935433665 -0.016012148526819585 0 -0.0038267593907697823 -0.01596104869055516 0 -0.0039527202935433665 -0.016012148526819585 0 -0.0039684254019042957 -0.015883323533529774 0 -0.004083221223759659 -0.016052947323765186 0 -0.0038267593907697823 -0.01596104869055516 0 -0.0038326681574082162 -0.0158183351915013 0 -0.0039684254019042957 -0.015883323533529774 0 -0.0039527202935433665 -0.016012148526819585 0 -0.0038267593907697823 -0.01596104869055516 0 -0.0039684254019042957 -0.015883323533529774 0 -0.0036362339098975826 -0.015964580856286353 0 -0.0038267593907697823 -0.01596104869055516 0 -0.0036824913828101898 -0.015823579893113563 0 -0.0036362339098975826 -0.015964580856286353 0 -0.0037673304171068505 -0.016114289734543867 0 -0.0038267593907697823 -0.01596104869055516 0 -0.0038267593907697823 -0.01596104869055516 0 -0.0036824913828101898 -0.015823579893113563 0 -0.0038326681574082162 -0.0158183351915013 0 -0.0036654775876821546 -0.015681348862711775 0 -0.0038326681574082162 -0.0158183351915013 0 -0.0038329602359186651 -0.015687912002846114 0 -0.0036654775876821546 -0.015681348862711775 0 -0.0036824913828101898 -0.015823579893113563 0 -0.0038326681574082162 -0.0158183351915013 0 -0.0036654775876821546 -0.015681348862711775 0 -0.0038329602359186651 -0.015687912002846114 0 -0.0036923459589071274 -0.015588559349060728 0 -0.0038678805997909441 -0.015511303587406208 0 -0.0038329602359186651 -0.015687912002846114 0 -0.0037648095641943341 -0.015543030965441913 0 -0.0038329602359186651 -0.015687912002846114 0 -0.0037648095641943341 -0.015543030965441913 0 -0.0036923459589071274 -0.015588559349060728 0 -0.0036833312406179815 -0.015510464840971246 0 -0.0037648095641943341 -0.015543030965441913 0 -0.0036923459589071274 -0.015588559349060728 0 -0.0039722268172888535 -0.015648703091102285 0 -0.0038329602359186651 -0.015687912002846114 0 -0.0039567774065048817 -0.015741050887584172 0 -0.0039722268172888535 -0.015648703091102285 0 -0.0039567774065048817 -0.015741050887584172 0 -0.0040234271078498076 -0.015708787137600374 0 -0.0038678805997909441 -0.015511303587406208 0 -0.0039844886606367281 -0.015522682532075522 0 -0.0038329602359186651 -0.015687912002846114 0 -0.0039989451949317819 -0.015567423152814688 0 -0.0038365539101258665 -0.015694280690582429 0 -0.0038326681574082162 -0.0158183351915013 0 -0.0038329602359186651 -0.015687912002846114 0 -0.0039567774065048817 -0.015741050887584172 0 -0.0038326681574082162 -0.0158183351915013 0 -0.0039567774065048817 -0.015741050887584172 0 -0.0039684254019042957 -0.015883323533529774 0 -0.0039684254019042957 -0.015883323533529774 0 -0.0040842065569518101 -0.015892839470617703 0 -0.0040735970360813801 -0.01577472487658774 0 -0.0040842065569518101 -0.015892839470617703 0 -0.0040735970360813801 -0.01577472487658774 0 -0.0042195248077938601 -0.015867716016120352 0 -0.0040158300101309774 -0.01579488089863634 0 -0.0040454178105646171 -0.016283718942450346 0 -0.0040735970360813801 -0.01577472487658774 0 -0.0040705456848342848 -0.015728106636607793 0 -0.0040868630809192345 -0.015765282080415294 0 -0.0039567774065048817 -0.015741050887584172 0 -0.0039684254019042957 -0.015883323533529774 0 -0.0040735970360813801 -0.01577472487658774 0 -0.0039567774065048817 -0.015741050887584172 0 -0.0040735970360813801 -0.01577472487658774 0 -0.0040234271078498076 -0.015708787137600374 0 -0.0040735970360813801 -0.01577472487658774 0 -0.0040234271078498076 -0.015708787137600374 0 -0.0040705456848342848 -0.015728106636607793 0 -0.004041149713256989 -0.015675623650705867 0 -0.0040234271078498076 -0.015708787137600374 0 -0.0040705456848342848 -0.015728106636607793 0 -0.004041149713256989 -0.015675623650705867 0 -0.0040705456848342848 -0.015728106636607793 0 -0.0040808541999855447 -0.015700722540995155 0 -0.004041149713256989 -0.015675623650705867 0 -0.0039722268172888535 -0.015648703091102285 0 -0.0040234271078498076 -0.015708787137600374 0 -0.0036433271533539229 -0.016887236662916368 0 -0.0037352316504481236 -0.016337580325629632 0 -0.0040936349533685981 -0.015741778833766446 0 -0.0041048091709274676 -0.015777306261686788 0 -0.0041123270700129094 -0.015721060738841153 0 -0.0040808541999855447 -0.015700722540995155 0 -0.0040936349533685981 -0.015741778833766446 0 -0.0041123270700129094 -0.015721060738841153 0 -0.0041053507700206035 -0.015707636474498455 0 -0.0040808541999855447 -0.015700722540995155 0 -0.0041123270700129094 -0.015721060738841153 0 -0.0040705456848342848 -0.015728106636607793 0 -0.0040936349533685981 -0.015741778833766446 0 -0.0040868630809192345 -0.015765282080415294 0 -0.0040705456848342848 -0.015728106636607793 0 -0.0040808541999855447 -0.015700722540995155 0 -0.0040936349533685981 -0.015741778833766446 0 -0.0040735970360813801 -0.01577472487658774 0 -0.0040868630809192345 -0.015765282080415294 0 -0.0040913676794154799 -0.015788637235351781 0 -0.0040936349533685981 -0.015741778833766446 0 -0.0041048091709274676 -0.015777306261686788 0 -0.0040868630809192345 -0.015765282080415294 0 -0.0041048091709274676 -0.015777306261686788 0 -0.0040868630809192345 -0.015765282080415294 0 -0.0040913676794154799 -0.015788637235351781 0 -0.0042066090898792248 -0.01598261603932653 0 -0.0042212953854772351 -0.015995889598927223 0 -0.0042091947565101387 -0.016008564588955478 0 -0.0040454178105646171 -0.016283718942450346 0 -0.0038929840550884064 -0.016846714299097686 0 -0.0032796430500270273 -0.018124060609789359 0 -0.0033418396902296591 -0.017929721048746988 0 -0.0031390924542908979 -0.01801954625422162 0 -0.0036433271533539229 -0.016887236662916368 0 -0.0038929840550884064 -0.016846714299097686 0 -0.0036433271533539229 -0.016887236662916368 0 -0.0040454178105646171 -0.016283718942450346 0 -0.0036948751650316873 -0.01676460538409796 0 -0.0038983436231215716 -0.016557306700173736 0 -0.0037876917266463552 -0.016475054444694326 0 -0.0042212953854772351 -0.015995889598927223 0 -0.00422316185625467 -0.016022120461277198 0 -0.0042797224429657124 -0.016041757050758412 0 -0.0038929840550884064 -0.016846714299097686 0 -0.0034170831782526123 -0.017820263114504981 0 -0.0033418396902296591 -0.017929721048746988 0 -0.0031390924542908979 -0.01801954625422162 0 -0.0031023522135786865 -0.017756508383721108 0 -0.0041155698082833486 -0.017371980948497439 0 -0.0034170831782526123 -0.017820263114504981 0 -0.00422316185625467 -0.016022120461277198 0 -0.0042121198137752176 -0.01606090389606708 0 -0.0042797224429657124 -0.016041757050758412 0 -0.0042121198137752176 -0.01606090389606708 0 -0.0041855028015303801 -0.016158016879590786 0 -0.0042797224429657124 -0.016041757050758412 0 -0.0041760657893473614 -0.016069821350090212 0 -0.0042121198137752176 -0.01606090389606708 0 -0.0041855028015303801 -0.016158016879590786 0 -0.0041760657893473614 -0.016069821350090212 0 -0.0042121198137752176 -0.01606090389606708 0 -0.0041863872334753941 -0.016032833167990267 0 -0.0042066090898792248 -0.01598261603932653 0 -0.0041863872334753941 -0.016032833167990267 0 -0.0042091947565101387 -0.016008564588955478 0 -0.00422316185625467 -0.016022120461277198 0 -0.0041863872334753941 -0.016032833167990267 0 -0.0042091947565101387 -0.016008564588955478 0 -0.00422316185625467 -0.016022120461277198 0 -0.0042121198137752176 -0.01606090389606708 0 -0.0041863872334753941 -0.016032833167990267 0 -0.0042212953854772351 -0.015995889598927223 0 -0.00422316185625467 -0.016022120461277198 0 -0.0042091947565101387 -0.016008564588955478 0 -0.0040454178105646171 -0.016283718942450346 0 -0.0041779469316301759 -0.015930597007670574 0 -0.0040842065569518101 -0.015892839470617703 0 -0.0042195248077938601 -0.015867716016120352 0 -0.004083221223759659 -0.016052947323765186 0 -0.0042066090898792248 -0.01598261603932653 0 -0.0041863872334753941 -0.016032833167990267 0 -0.004083221223759659 -0.016052947323765186 0 -0.0039684254019042957 -0.015883323533529774 0 -0.0040842065569518101 -0.015892839470617703 0 -0.004083221223759659 -0.016052947323765186 0 -0.0041760657893473614 -0.016069821350090212 0 -0.0041863872334753941 -0.016032833167990267 0 -0.004083221223759659 -0.016052947323765186 0 -0.004083221223759659 -0.016052947323765186 0 -0.0041855028015303801 -0.016158016879590786 0 -0.0040541893332333469 -0.016347693417261229 0 -0.0041155698082833486 -0.017371980948497439 0 -0.0040189464540964295 -0.01748428883544359 0 -0.0041760657893473614 -0.016069821350090212 0 -0.004083221223759659 -0.016052947323765186 0 -0.0041855028015303801 -0.016158016879590786 0 -0.0036937446866234795 -0.018789106491076027 0 -0.0038387644169357274 -0.018745878250229164 0 -0.0037495716062083103 -0.018639752974047009 0 -0.0036937446866234795 -0.018789106491076027 0 -0.0038387644169357274 -0.018745878250229164 0 -0.0036392567731324179 -0.018925437844137926 0 -0.0036937446866234795 -0.018789106491076027 0 -0.0037495716062083103 -0.018639752974047009 0 -0.0035847318903690036 -0.018668283905639717 0 -0.0037495716062083103 -0.018639752974047009 0 -0.0038625291079178595 -0.018566984831556187 0 -0.0037550718015954367 -0.018452837094671059 0 -0.0038387644169357274 -0.018745878250229164 0 -0.0037495716062083103 -0.018639752974047009 0 -0.0038625291079178595 -0.018566984831556187 0 -0.0035055453723663774 -0.018808755694688296 0 -0.0026637050504285005 -0.019933819927250504 0 -0.0037495716062083103 -0.018639752974047009 0 -0.0037550718015954367 -0.018452837094671059 0 -0.0035847318903690036 -0.018668283905639717 0 -0.0038625291079178595 -0.018566984831556187 0 -0.0039309097713199539 -0.018426915991041865 0 -0.0037550718015954367 -0.018452837094671059 0 -0.0038387644169357274 -0.018745878250229164 0 -0.0038625291079178595 -0.018566984831556187 0 -0.004037565542906703 -0.018567057557620219 0 -0.0038625291079178595 -0.018566984831556187 0 -0.0039309097713199539 -0.018426915991041865 0 -0.004037565542906703 -0.018567057557620219 0 -0.0039309097713199539 -0.018426915991041865 0 -0.0039265736758804506 -0.018240784125304131 0 -0.0040592891196171432 -0.018335058848992242 0 -0.0039309097713199539 -0.018426915991041865 0 -0.0037550718015954367 -0.018452837094671059 0 -0.0039265736758804506 -0.018240784125304131 0 -0.0039309097713199539 -0.018426915991041865 0 -0.0040592891196171432 -0.018335058848992242 0 -0.004037565542906703 -0.018567057557620219 0 -0.0030837174853338813 -0.019394318550536003 0 -0.0031136910319919022 -0.018846495555115233 0 -0.0036076432828538118 -0.018687996321822282 0 -0.0035055453723663774 -0.018808755694688296 0 -0.0037448714640641078 -0.018482655188147488 0 -0.0030837174853338813 -0.019394318550536003 0 -0.0031136910319919022 -0.018846495555115233 0 -0.0025369997779781939 -0.018891918934038132 0 -0.0028679157363233902 -0.019269157399133399 0 -0.0020663825800995121 -0.02053573422464362 0 -0.0031136910319919022 -0.018846495555115233 0 -0.0031957091858423169 -0.018372633386256242 0 -0.0025369997779781939 -0.018891918934038132 0 -0.0031136910319919022 -0.018846495555115233 0 -0.0031957091858423169 -0.018372633386256242 0 -0.0036076432828538118 -0.018687996321822282 0 -0.0022391028677724721 -0.020536525648261476 0 -0.0022981626631883847 -0.020568562384248298 0 -0.0022352889339114232 -0.020616718152965379 0 -0.0038264313484098018 -0.017896430505910017 0 -0.0036076432828538118 -0.018687996321822282 0 -0.0040391180893905769 -0.018020821423671795 0 -0.0031957091858423169 -0.018372633386256242 0 -0.0038264313484098018 -0.017896430505910017 0 -0.0036076432828538118 -0.018687996321822282 0 -0.0028679157363233902 -0.019269157399133399 0 -0.0028389072536265689 -0.019642677500912958 0 -0.0022391028677724721 -0.020536525648261476 0 -0.0021838825195668638 -0.02058171265489914 0 -0.0022352889339114232 -0.020616718152965379 0 -0.0037448714640641078 -0.018482655188147488 0 -0.0040355606151886939 -0.018047334357144139 0 -0.0039265736758804506 -0.018240784125304131 0 -0.0040522599696066076 -0.018175705611166125 0 -0.0040391180893905769 -0.018020821423671795 0 -0.0039265736758804506 -0.018240784125304131 0 -0.0040522599696066076 -0.018175705611166125 0 -0.0040592891196171432 -0.018335058848992242 0 -0.0042020136805368197 -0.0182384235951705 0 -0.0040522599696066076 -0.018175705611166125 0 -0.0040592891196171432 -0.018335058848992242 0 -0.0042020136805368197 -0.0182384235951705 0 -0.0041463972898969957 -0.01814805656994381 0 -0.0042306995755793863 -0.018078205954925534 0 -0.0042020136805368197 -0.0182384235951705 0 -0.0041463972898969957 -0.01814805656994381 0 -0.0040522599696066076 -0.018175705611166125 0 -0.0041463972898969957 -0.01814805656994381 0 -0.0040522599696066076 -0.018175705611166125 0 -0.0041418933703785046 -0.018097540231955617 0 -0.0028389072536265689 -0.019642677500912958 0 -0.0045171947043508021 -0.0180578199648995 0 -0.0038264313484098018 -0.017896430505910017 0 -0.0042519139130168943 -0.01809613795139051 0 -0.0040391180893905769 -0.018020821423671795 0 -0.0040522599696066076 -0.018175705611166125 0 -0.0041418933703785046 -0.018097540231955617 0 -0.0040391180893905769 -0.018020821423671795 0 -0.0041418933703785046 -0.018097540231955617 0 -0.0042519139130168943 -0.01809613795139051 0 -0.0040391180893905769 -0.018020821423671795 0 -0.0041463972898969957 -0.01814805656994381 0 -0.0041418933703785046 -0.018097540231955617 0 -0.0042306995755793863 -0.018078205954925534 0 -0.0041418933703785046 -0.018097540231955617 0 -0.0042306995755793863 -0.018078205954925534 0 -0.0042519139130168943 -0.01809613795139051 0 -0.0040785743628912619 -0.018098542583533859 0 -0.0038677361359077448 -0.018167048632959454 0 -0.0040602745055118329 -0.018298613886669514 0 -0.0042519139130168943 -0.01809613795139051 0 -0.0040785743628912619 -0.018098542583533859 0 -0.0040602745055118329 -0.018298613886669514 0 -0.0042306995755793863 -0.018078205954925534 0 -0.0042519139130168943 -0.01809613795139051 0 -0.0040785743628912619 -0.018098542583533859 0 -0.0042306995755793863 -0.018078205954925534 0 -0.0040785743628912619 -0.018098542583533859 0 -0.0039182896069378872 -0.017849281742838757 0 -0.0042020136805368197 -0.0182384235951705 0 -0.0042450478807193118 -0.018388744186703446 0 -0.0044599866283024725 -0.018194601618826373 0 -0.0043270154666549959 -0.018146510462761674 0 -0.0039802794186441746 -0.017691834734422186 0 -0.0040810274552548565 -0.017473584702295677 0 -0.0039802794186441746 -0.017691834734422186 0 -0.0042020136805368197 -0.0182384235951705 0 -0.0042306995755793863 -0.018078205954925534 0 -0.0044599866283024725 -0.018194601618826373 0 -0.0038787786584830552 -0.016613253265633312 0 -0.0036227442200582223 -0.016521142956706352 0 -0.0036375960322271518 -0.016902812243780894 0 -0.0042450478807193118 -0.018388744186703446 0 -0.0040592891196171432 -0.018335058848992242 0 -0.004037565542906703 -0.018567057557620219 0 -0.0042020136805368197 -0.0182384235951705 0 -0.0042450478807193118 -0.018388744186703446 0 -0.0040592891196171432 -0.018335058848992242 0 -0.0040810274552548565 -0.017473584702295677 0 -0.0040189464540964295 -0.01748428883544359 0 -0.0039296288026423164 -0.016152658666675934 0 -0.0040541893332333469 -0.016347693417261229 0 -0.0038625511224912364 -0.016344527374172958 0 -0.0038787786584830552 -0.016613253265633312 0 -0.0040541893332333469 -0.016347693417261229 0 -0.0038625511224912364 -0.016344527374172958 0 -0.0038625511224912364 -0.016344527374172958 0 -0.0036796657441409229 -0.016263994082631676 0 -0.0036227442200582223 -0.016521142956706352 0 -0.0038787786584830552 -0.016613253265633312 0 -0.0038625511224912364 -0.016344527374172958 0 -0.0036227442200582223 -0.016521142956706352 0 -0.0035301457933491296 -0.016309725714628843 0 -0.0033509198053093799 -0.016432764971869494 0 -0.0036227442200582223 -0.016521142956706352 0 -0.0036796657441409229 -0.016263994082631676 0 -0.0035301457933491296 -0.016309725714628843 0 -0.0036227442200582223 -0.016521142956706352 0 -0.0031014250868322073 -0.016182025991206529 0 -0.0034173040225390838 -0.016172478992876202 0 -0.0033509198053093799 -0.016432764971869494 0 -0.0034173040225390838 -0.016172478992876202 0 -0.0035301457933491296 -0.016309725714628843 0 -0.0033509198053093799 -0.016432764971869494 0 -0.0031014250868322073 -0.016182025991206529 0 -0.0033509198053093799 -0.016432764971869494 0 -0.0030906444039695263 -0.016467734230453161 0 -0.0033509198053093799 -0.016432764971869494 0 -0.0033331986229542545 -0.016800462575587146 0 -0.0036227442200582223 -0.016521142956706352 0 -0.0033509198053093799 -0.016432764971869494 0 -0.0033331986229542545 -0.016800462575587146 0 -0.0030906444039695263 -0.016467734230453161 0 -0.0033331986229542545 -0.016800462575587146 0 -0.0036227442200582223 -0.016521142956706352 0 -0.0036375960322271518 -0.016902812243780894 0 -0.003396640224127865 -0.016987363348396477 0 -0.0039802794186441746 -0.017691834734422186 0 -0.0035473837350608745 -0.017259181866545889 0 -0.0041401149606512784 -0.017536445294198986 0 -0.0035789992829745581 -0.018046662781880007 0 -0.0039182896069378872 -0.017849281742838757 0 -0.0038677361359077448 -0.018167048632959454 0 -0.0035789992829745581 -0.018046662781880007 0 -0.0039802794186441746 -0.017691834734422186 0 -0.003624013465315512 -0.018027311833002244 0 -0.0038677361359077448 -0.018167048632959454 0 -0.0035789992829745581 -0.018046662781880007 0 -0.0037573884038378811 -0.01848379222052526 0 -0.0040785743628912619 -0.018098542583533859 0 -0.0039182896069378872 -0.017849281742838757 0 -0.0038677361359077448 -0.018167048632959454 0 -0.0035473837350608745 -0.017259181866545889 0 -0.0035789992829745581 -0.018046662781880007 0 -0.0029596200123444974 -0.017722370050473155 0 -0.0035473837350608745 -0.017259181866545889 0 -0.0029596200123444974 -0.017722370050473155 0 -0.0030185303853357444 -0.016968973777425591 0 -0.0035789992829745581 -0.018046662781880007 0 -0.0029596200123444974 -0.017722370050473155 0 -0.0031887312305725122 -0.018297913423133663 0 -0.0029596200123444974 -0.017722370050473155 0 -0.0026889097778076908 -0.018238296237642445 0 -0.0031887312305725122 -0.018297913423133663 0 -0.0029596200123444974 -0.017722370050473155 0 -0.0026889097778076908 -0.018238296237642445 0 -0.002211173970765797 -0.017927762380453124 0 -0.0029596200123444974 -0.017722370050473155 0 -0.0024249694127902077 -0.017231490369996116 0 -0.002211173970765797 -0.017927762380453124 0 -0.0029596200123444974 -0.017722370050473155 0 -0.0024249694127902077 -0.017231490369996116 0 -0.0030185303853357444 -0.016968973777425591 0 -0.0024249694127902077 -0.017231490369996116 0 -0.0030185303853357444 -0.016968973777425591 0 -0.002466847490626884 -0.016639151917360515 0 -0.0029766987906475889 -0.016842499250818019 0 -0.002500085123531893 -0.016646159598907764 0 -0.003396640224127865 -0.016987363348396477 0 -0.0029766987906475889 -0.016842499250818019 0 -0.0033331986229542545 -0.016800462575587146 0 -0.0029594891131102638 -0.016720885573561012 0 -0.0030906444039695263 -0.016467734230453161 0 -0.0029594891131102638 -0.016720885573561012 0 -0.0030906444039695263 -0.016467734230453161 0 -0.0027766858106840339 -0.016354772429957008 0 -0.0031014250868322073 -0.016182025991206529 0 -0.0030906444039695263 -0.016467734230453161 0 -0.0027766858106840339 -0.016354772429957008 0 -0.0029594891131102638 -0.016720885573561012 0 -0.0027766858106840339 -0.016354772429957008 0 -0.002466847490626884 -0.016639151917360515 0 -0.0027766858106840339 -0.016354772429957008 0 -0.002466847490626884 -0.016639151917360515 0 -0.0023602413340712662 -0.01618678346906665 0 -3.2482698409566188e-05 -0.024969047458422208 0 -3.3645243035600136e-05 -0.024975937957268587 0 -2.9795050973638093e-05 -0.024973452959409517 0 -3.2482698409566188e-05 -0.024969047458422208 0 -3.3645243035600136e-05 -0.024975937957268587 0 -3.2482722219805104e-05 -0.024942969932311373 0 -3.2482698409566188e-05 -0.024969047458422208 0 -2.9795050973638093e-05 -0.024973452959409517 0 -2.5960026626167395e-05 -0.024976945693512748 0 -3.2482698409566188e-05 -0.024969047458422208 0 -2.5960026626167395e-05 -0.024976945693512748 0 -3.3396625303956872e-05 -0.024962052828529039 0 4.4839145223658798e-05 -0.024957392708407255 0 -3.2482722219805104e-05 -0.024942969932311373 0 3.5571831532907989e-05 -0.024946758931153053 0 0.00010535002490624005 -0.025131836549098261 0 -7.2322867428056416e-05 -0.024870415808925381 0 4.4839145223658798e-05 -0.024957392708407255 0 3.5571831532907989e-05 -0.024946758931153053 0 4.7325910213325289e-05 -0.0249535573546237 0 0.00010535002490624005 -0.025131836549098261 0 -0.00047788808717682147 -0.024178518474812397 0 -3.3645243035600136e-05 -0.024975937957268587 0 -3.4479083820841401e-05 -0.024962913879253534 0 -4.6280791245834834e-05 -0.024955206331448546 0 -3.3645243035600136e-05 -0.024975937957268587 0 -6.1476202552792646e-05 -0.024954148576156979 0 -4.6280791245834834e-05 -0.024955206331448546 0 -3.4479083820841401e-05 -0.024962913879253534 0 -2.9795050973638093e-05 -0.024973452959409517 0 -1.9820787014212782e-05 -0.02497521422570002 0 -2.9795050973638093e-05 -0.024973452959409517 0 -1.9820787014212782e-05 -0.02497521422570002 0 -2.5960026626167395e-05 -0.024976945693512748 0 -3.3645243035600136e-05 -0.024975937957268587 0 -3.4479083820841401e-05 -0.024962913879253534 0 -2.9795050973638093e-05 -0.024973452959409517 0 -1.9820787014212782e-05 -0.02497521422570002 0 -1.3573599146785323e-05 -0.024985712781289329 0 -2.5960026626167395e-05 -0.024976945693512748 0 -1.9820787014212782e-05 -0.02497521422570002 0 -1.3573599146785323e-05 -0.024985712781289329 0 -4.3804525523293794e-06 -0.024993740947307361 0 -1.3573599146785323e-05 -0.024985712781289329 0 -4.3804525523293794e-06 -0.024993740947307361 0 -1.558577388628476e-08 -0.024999972213156869 0 -4.3804525523293794e-06 -0.024993740947307361 0 -1.558577388628476e-08 -0.024999972213156869 0 -4.2866347632467383e-09 -0.024999983983217722 0 -1.558577388628476e-08 -0.024999972213156869 0 -1.6348362698541231e-05 -0.024984429033196545 0 -1.5035334702181022e-08 -0.024999958223743343 0 -1.3573599146785323e-05 -0.024985712781289329 0 -1.558577388628476e-08 -0.024999972213156869 0 -1.6348362698541231e-05 -0.024984429033196545 0 -1.6348362698541231e-05 -0.024984429033196545 0 -2.5960026626167395e-05 -0.024976945693512748 0 -2.9760774867867607e-05 -0.024970040198687482 0 -2.5960026626167395e-05 -0.024976945693512748 0 -2.9760774867867607e-05 -0.024970040198687482 0 -3.3396625303956872e-05 -0.024962052828529039 0 -1.3573599146785323e-05 -0.024985712781289329 0 -1.6348362698541231e-05 -0.024984429033196545 0 -2.5960026626167395e-05 -0.024976945693512748 0 -2.9760774867867607e-05 -0.024970040198687482 0 -3.7661346445125372e-05 -0.024958506668466267 0 -3.9748298478354635e-05 -0.024941851521729293 0 -2.9760774867867607e-05 -0.024970040198687482 0 -3.9748298478354635e-05 -0.024941851521729293 0 -3.3396625303956872e-05 -0.024962052828529039 0 -1.6348362698541231e-05 -0.024984429033196545 0 -2.9760774867867607e-05 -0.024970040198687482 0 -1.5035334702181022e-08 -0.024999958223743343 0 -2.9760774867867607e-05 -0.024970040198687482 0 -1.5035334702181022e-08 -0.024999958223743343 0 -3.7661346445125372e-05 -0.024958506668466267 0 -6.760229899072062e-08 -0.024999916736705867 0 -1.5035334702181022e-08 -0.024999958223743343 0 -3.7661346445125372e-05 -0.024958506668466267 0 -3.7661346445125372e-05 -0.024958506668466267 0 -4.5724409026273949e-05 -0.024937497385812978 0 -3.9748298478354635e-05 -0.024941851521729293 0 -1.9955472116843752e-05 -0.024931713935734824 0 -4.5724409026273949e-05 -0.024937497385812978 0 -4.7761862242685561e-05 -0.02491060827799331 0 -4.5724409026273949e-05 -0.024937497385812978 0 -4.7761862242685561e-05 -0.02491060827799331 0 -3.9748298478354635e-05 -0.024941851521729293 0 -3.9748298478354635e-05 -0.024941851521729293 0 -3.2482722219805104e-05 -0.024942969932311373 0 -3.3396625303956872e-05 -0.024962052828529039 0 -4.7761862242685561e-05 -0.02491060827799331 0 -3.2482722219805104e-05 -0.024942969932311373 0 -1.5602325236123826e-06 -0.024928195568129731 0 -4.7761862242685561e-05 -0.02491060827799331 0 -3.9748298478354635e-05 -0.024941851521729293 0 -3.2482722219805104e-05 -0.024942969932311373 0 -3.2482698409566188e-05 -0.024969047458422208 0 -3.2482722219805104e-05 -0.024942969932311373 0 -3.3396625303956872e-05 -0.024962052828529039 0 4.830716237206999e-05 -0.024933268922595377 0 3.5571831532907989e-05 -0.024946758931153053 0 6.6822350151854565e-05 -0.024933990446706397 0 3.5571831532907989e-05 -0.024946758931153053 0 -1.5602325236123826e-06 -0.024928195568129731 0 3.0316721232933865e-05 -0.024928357147375041 0 4.830716237206999e-05 -0.024933268922595377 0 3.5571831532907989e-05 -0.024946758931153053 0 3.0316721232933865e-05 -0.024928357147375041 0 4.830716237206999e-05 -0.024933268922595377 0 3.0316721232933865e-05 -0.024928357147375041 0 5.9728830563680211e-05 -0.024919472047837694 0 -3.2482722219805104e-05 -0.024942969932311373 0 3.5571831532907989e-05 -0.024946758931153053 0 -1.5602325236123826e-06 -0.024928195568129731 0 -4.7761862242685561e-05 -0.02491060827799331 0 -1.5602325236123826e-06 -0.024928195568129731 0 1.5139923106292022e-05 -0.024894333484809811 0 -1.5602325236123826e-06 -0.024928195568129731 0 3.256123134805786e-05 -0.02490826642937367 0 1.5139923106292022e-05 -0.024894333484809811 0 3.256123134805786e-05 -0.02490826642937367 0 1.5139923106292022e-05 -0.024894333484809811 0 5.5448693224532575e-05 -0.024890256694639526 0 -1.5602325236123826e-06 -0.024928195568129731 0 3.256123134805786e-05 -0.02490826642937367 0 3.0316721232933865e-05 -0.024928357147375041 0 3.256123134805786e-05 -0.02490826642937367 0 3.0316721232933865e-05 -0.024928357147375041 0 5.9728830563680211e-05 -0.024919472047837694 0 3.256123134805786e-05 -0.02490826642937367 0 5.9728830563680211e-05 -0.024919472047837694 0 5.5448693224532575e-05 -0.024890256694639526 0 1.5139923106292022e-05 -0.024894333484809811 0 5.5448693224532575e-05 -0.024890256694639526 0 5.7410471403586679e-05 -0.024832794884834523 0 -5.0035409136779053e-05 -0.024589691136102574 0 -4.7761862242685561e-05 -0.02491060827799331 0 5.7410471403586679e-05 -0.024832794884834523 0 -1.5666811000986448e-05 -0.024709568573606452 0 -5.6885169194512081e-05 -0.024907123907065187 0 -4.7761862242685561e-05 -0.02491060827799331 0 1.5139923106292022e-05 -0.024894333484809811 0 5.7410471403586679e-05 -0.024832794884834523 0 -0.0013277704481401826 -0.021558077661193057 0 -0.0010160758408234321 -0.021682678328527476 0 -0.0013409016456760881 -0.02229319033414567 0 0.00020881956208965779 -0.024646200293282468 0 5.7410471403586679e-05 -0.024832794884834523 0 0.00011855249642842274 -0.024912414490234881 0 -0.00054702760043414138 -0.023200454162441743 0 -0.00074390305572628608 -0.023281212013953254 0 5.5448693224532575e-05 -0.024890256694639526 0 5.7410471403586679e-05 -0.024832794884834523 0 8.6403275706756381e-05 -0.024903003910893402 0 -0.0015761160921923757 -0.021310324472993431 0 -0.001420979165594061 -0.020478581464475284 0 -0.0010160758408234321 -0.021682678328527476 0 -0.0008080459333475985 -0.021965383598213026 0 -0.0013409016456760881 -0.02229319033414567 0 -0.00079616480519070472 -0.021509546014206991 0 -0.00089219091765661341 -0.021786947578577756 0 -0.00066315421861598025 -0.02157146289745503 0 -0.00079383782406201322 -0.021421248458068306 0 -0.00081226600107521768 -0.021819779670750581 0 -0.00079383782406201322 -0.021421248458068306 0 -0.0010160758408234321 -0.021682678328527476 0 -0.0008080459333475985 -0.021965383598213026 0 -0.00089219091765661341 -0.021786947578577756 0 -0.00074390305572628608 -0.023281212013953254 0 -0.0014567439460234331 -0.021052148116420168 0 -0.0014787441963217528 -0.021403092054375447 0 -0.0012292120118633293 -0.020914908677820532 0 -0.00089219091765661341 -0.021786947578577756 0 -0.001420979165594061 -0.020478581464475284 0 -0.00066992420693787397 -0.022225069489579866 0 -0.00069194145862791522 -0.022607768528446336 0 -0.0010472838162500591 -0.02245790018805198 0 -0.00089219091765661341 -0.021786947578577756 0 -0.0015761160921923757 -0.021310324472993431 0 -0.00069194145862791522 -0.022607768528446336 0 -0.0010472838162500591 -0.02245790018805198 0 -0.0010518195376788611 -0.022897928077514562 0 6.6822350151854565e-05 -0.024933990446706397 0 0.00011855249642842274 -0.024912414490234881 0 4.7325910213325289e-05 -0.0249535573546237 0 -0.00074390305572628608 -0.023281212013953254 0 -0.00047834638833694733 -0.024136901742778657 0 4.830716237206999e-05 -0.024933268922595377 0 5.9728830563680211e-05 -0.024919472047837694 0 6.6822350151854565e-05 -0.024933990446706397 0 5.9728830563680211e-05 -0.024919472047837694 0 6.6822350151854565e-05 -0.024933990446706397 0 8.1475615284875541e-05 -0.024917999797486157 0 6.6822350151854565e-05 -0.024933990446706397 0 8.1475615284875541e-05 -0.024917999797486157 0 0.00011855249642842274 -0.024912414490234881 0 5.7410471403586679e-05 -0.024832794884834523 0 8.6403275706756381e-05 -0.024903003910893402 0 0.00011855249642842274 -0.024912414490234881 0 8.1475615284875541e-05 -0.024917999797486157 0 8.6403275706756381e-05 -0.024903003910893402 0 0.00011855249642842274 -0.024912414490234881 0 5.9728830563680211e-05 -0.024919472047837694 0 8.1475615284875541e-05 -0.024917999797486157 0 8.6403275706756381e-05 -0.024903003910893402 0 5.9728830563680211e-05 -0.024919472047837694 0 5.5448693224532575e-05 -0.024890256694639526 0 8.6403275706756381e-05 -0.024903003910893402 0 -0.0030417701732585478 -0.01774649039160479 0 -0.0030461187532678465 -0.017310403361477416 0 -0.0031884408915755745 -0.017405663627613643 0 -0.0026885085624936129 -0.017560672565883711 0 -0.002605685873541532 -0.018623855324464453 0 -0.0033111607427909868 -0.017045536025230967 0 -0.0030461187532678465 -0.017310403361477416 0 -0.0031884408915755745 -0.017405663627613643 0 -0.002479520392637932 -0.018556022258807134 0 -0.0023882334139308336 -0.018495723435191271 0 -0.0023902327566755429 -0.018648628050722208 0 -0.0018400890364915809 -0.019533814097505736 0 -0.002605685873541532 -0.018623855324464453 0 -0.0020950578594763044 -0.019694432492875832 0 -0.0019450992828157151 -0.019847012817553876 0 -0.0020755993774982844 -0.019824094739827641 0 -0.0019450992828157151 -0.019847012817553876 0 -0.0020755993774982844 -0.019824094739827641 0 -0.0021402356075289715 -0.019933370387772927 0 -0.0020755993774982844 -0.019824094739827641 0 -0.0021780099201724203 -0.019745258162307534 0 -0.0021402356075289715 -0.019933370387772927 0 -0.0020950578594763044 -0.019694432492875832 0 -0.0020755993774982844 -0.019824094739827641 0 -0.0021780099201724203 -0.019745258162307534 0 -0.0018400890364915809 -0.019533814097505736 0 -0.001420979165594061 -0.020478581464475284 0 -0.00066315421861598025 -0.02157146289745503 0 -0.00081226600107521768 -0.021819779670750581 0 -0.00054796579967159368 -0.021663866566039056 0 -0.00066315421861598025 -0.02157146289745503 0 -0.00055921600874523096 -0.021563230778881129 0 -0.00054796579967159368 -0.021663866566039056 0 -0.0023354247831627686 -0.020048658291566587 0 -0.0021780099201724203 -0.019745258162307534 0 -0.0021402356075289715 -0.019933370387772927 0 -0.0023354247831627686 -0.020048658291566587 0 -0.0021418240320732452 -0.020054101243696405 0 -0.0021936133749771479 -0.020150601803892436 0 -0.0023354247831627686 -0.020048658291566587 0 -0.0021418240320732452 -0.020054101243696405 0 -0.0021402356075289715 -0.019933370387772927 0 -0.0021418240320732452 -0.020054101243696405 0 -0.0021402356075289715 -0.019933370387772927 0 -0.0020135188497453407 -0.020063347514000667 0 -0.0021418240320732452 -0.020054101243696405 0 -0.0020135188497453407 -0.020063347514000667 0 -0.0021036390578308144 -0.020129422839021482 0 -0.0019450992828157151 -0.019847012817553876 0 -0.0021402356075289715 -0.019933370387772927 0 -0.0020135188497453407 -0.020063347514000667 0 -0.0029848151203326861 -0.018423213422999022 0 -0.0031390924542908979 -0.01801954625422162 0 -0.0029861232190693402 -0.01786526439750941 0 -0.0032796430500270273 -0.018124060609789359 0 -0.0029848151203326861 -0.018423213422999022 0 -0.0031390924542908979 -0.01801954625422162 0 -0.002605685873541532 -0.018623855324464453 0 -0.0025238816205606822 -0.019156024793839814 0 -0.0019450992828157151 -0.019847012817553876 0 -0.0020135188497453407 -0.020063347514000667 0 -0.0019481773935253897 -0.020123756001406052 0 -0.0036433271533539229 -0.016887236662916368 0 -0.002605685873541532 -0.018623855324464453 0 -0.0036937446866234795 -0.018789106491076027 0 -0.0035864120039668735 -0.018888218564478469 0 -0.0036392567731324179 -0.018925437844137926 0 -0.0028967465236051011 -0.019145893462625057 0 -0.0034170831782526123 -0.017820263114504981 0 -0.0028073892126787769 -0.018589798001302858 0 -0.0028156771656596994 -0.018594543595589631 0 -0.0028056734844020873 -0.018603812475477897 0 -0.0028967465236051011 -0.019145893462625057 0 -0.0025238816205606822 -0.019156024793839814 0 -0.0031390924542908979 -0.01801954625422162 0 -0.0031023522135786865 -0.017756508383721108 0 -0.0029861232190693402 -0.01786526439750941 0 -0.0034170831782526123 -0.017820263114504981 0 -0.0025238816205606822 -0.019156024793839814 0 -0.0020135188497453407 -0.020063347514000667 0 -0.001938406719962887 -0.020132144024401367 0 -0.0020358645946817883 -0.020169671812744063 0 -0.0020135188497453407 -0.020063347514000667 0 -0.0020358645946817883 -0.020169671812744063 0 -0.0021036390578308144 -0.020129422839021482 0 -0.0019392326420481513 -0.020235589690342427 0 -0.001938406719962887 -0.020132144024401367 0 -0.0020358645946817883 -0.020169671812744063 0 -0.0019300716799448006 -0.019892330261816162 0 -0.0025238816205606822 -0.019156024793839814 0 -0.0019392326420481513 -0.020235589690342427 0 -0.0020358645946817883 -0.020169671812744063 0 -0.0020611975780069607 -0.020246001479226828 0 -0.0028967465236051011 -0.019145893462625057 0 -0.0020332538229832879 -0.020442374041896468 0 -0.0019392326420481513 -0.020235589690342427 0 -0.0020611975780069607 -0.020246001479226828 0 -0.0020645777434211191 -0.020336828166348714 0 -0.0020964784136693238 -0.020295557221814028 0 -0.0021337135876046535 -0.020210195077924469 0 -0.0022018746811402357 -0.020316076180621066 0 -0.0020964784136693238 -0.020295557221814028 0 -0.0020611975780069607 -0.020246001479226828 0 -0.0020645777434211191 -0.020336828166348714 0 -0.0020964784136693238 -0.020295557221814028 0 -0.0021337135876046535 -0.020210195077924469 0 -0.0020611975780069607 -0.020246001479226828 0 -0.0020358645946817883 -0.020169671812744063 0 -0.0021337135876046535 -0.020210195077924469 0 -0.0020611975780069607 -0.020246001479226828 0 -0.0020358645946817883 -0.020169671812744063 0 -0.0021337135876046535 -0.020210195077924469 0 -0.0021036390578308144 -0.020129422839021482 0 -0.0021418240320732452 -0.020054101243696405 0 -0.0021036390578308144 -0.020129422839021482 0 -0.0021936133749771479 -0.020150601803892436 0 -0.0021337135876046535 -0.020210195077924469 0 -0.0021036390578308144 -0.020129422839021482 0 -0.0021936133749771479 -0.020150601803892436 0 -0.0021337135876046535 -0.020210195077924469 0 -0.0021936133749771479 -0.020150601803892436 0 -0.0022018746811402357 -0.020316076180621066 0 -0.0021936133749771479 -0.020150601803892436 0 -0.0022018746811402357 -0.020316076180621066 0 -0.0023568190966635622 -0.020313242044506252 0 -0.0022018746811402357 -0.020316076180621066 0 -0.0020598818795337847 -0.020342542267861134 0 -0.0023705154297346399 -0.020592086388754174 0 -0.0017484848292889463 -0.021398767787028178 0 -0.001653889434445815 -0.021325127704274045 0 -0.001696695513711111 -0.021340371244956663 0 -0.0020332538229832879 -0.020442374041896468 0 -0.0019101155271761391 -0.021227762875561627 0 -0.0017484848292889463 -0.021398767787028178 0 -0.0017396493091830349 -0.021333682122973683 0 -0.001696695513711111 -0.021340371244956663 0 -0.0020964784136693238 -0.020295557221814028 0 -0.0022018746811402357 -0.020316076180621066 0 -0.0020598818795337847 -0.020342542267861134 0 -0.0020689744972261911 -0.020385903828392136 0 -0.0020332538229832879 -0.020442374041896468 0 -0.0028967465236051011 -0.019145893462625057 0 -0.0026637050504285005 -0.019933819927250504 0 -0.0036937446866234795 -0.018789106491076027 0 -0.0035864120039668735 -0.018888218564478469 0 -0.0035847318903690036 -0.018668283905639717 0 -0.0025594027934165175 -0.019727080746905445 0 -0.0026718157528806117 -0.019814831467473915 0 -0.0025611619204161987 -0.019958848147577146 0 -0.0017484848292889463 -0.021398767787028178 0 -0.0018095143112003647 -0.021341400170710349 0 -0.0017396493091830349 -0.021333682122973683 0 -0.0020332538229832879 -0.020442374041896468 0 -0.0026637050504285005 -0.019933819927250504 0 3.5571831532907989e-05 -0.024946758931153053 0 6.6822350151854565e-05 -0.024933990446706397 0 4.7325910213325289e-05 -0.0249535573546237 0 -0.0023354247831627686 -0.020048658291566587 0 -0.0021936133749771479 -0.020150601803892436 0 -0.0023568190966635622 -0.020313242044506252 0 -0.0015761160921923757 -0.021310324472993431 0 -0.001267900603467748 -0.022237799432495261 0 -0.00069194145862791522 -0.022607768528446336 0 -0.0010518195376788611 -0.022897928077514562 0 -0.000874395721524693 -0.022972982192436119 0 -0.0016616196764273282 -0.021518898891196871 0 -0.0016676432098312033 -0.021524230171870107 0 -0.0016663639584956762 -0.02152586728809186 0 -0.0015761160921923757 -0.021310324472993431 0 -0.0020311697461869184 -0.020792476898615565 0 -0.0016676432098312033 -0.021524230171870107 0 -0.0016663639584956762 -0.02152586728809186 0 -0.0016658309478162325 -0.021523302542232638 0 -0.0022018746811402357 -0.020316076180621066 0 -0.0023568190966635622 -0.020313242044506252 0 -0.0023705154297346399 -0.020592086388754174 0 -0.0016676432098312033 -0.021524230171870107 0 -0.0016673357142002905 -0.021518308325607003 0 -0.0016709599515851556 -0.021514240059130496 0 -0.0020311697461869184 -0.020792476898615565 0 -0.0019101155271761391 -0.021227762875561627 0 -0.0016676432098312033 -0.021524230171870107 0 -0.0016658309478162325 -0.021523302542232638 0 -0.0016673357142002905 -0.021518308325607003 0 4.4839145223658798e-05 -0.024957392708407255 0 2.9856467532731659e-05 -0.024917358216751912 0 3.3994080030762596e-05 -0.024906975506158321 0 4.4839145223658798e-05 -0.024957392708407255 0 4.7325910213325289e-05 -0.0249535573546237 0 2.9856467532731659e-05 -0.024917358216751912 0 -0.0016673357142002905 -0.021518308325607003 0 -0.0016615704743257371 -0.021523920934012588 0 -0.0016666182719318433 -0.021509374199541478 0 -0.0016658309478162325 -0.021523302542232638 0 -0.0016673357142002905 -0.021518308325607003 0 -0.0016615704743257371 -0.021523920934012588 0 -0.00047834638833694733 -0.024136901742778657 0 -0.0007878554030674354 -0.02334190399842927 0 -0.0016663639584956762 -0.02152586728809186 0 -0.0016658309478162325 -0.021523302542232638 0 -0.0016615704743257371 -0.021523920934012588 0 -0.0010518195376788611 -0.022897928077514562 0 -0.000874395721524693 -0.022972982192436119 0 -0.0010558278691512395 -0.023333157730627531 0 -0.001267900603467748 -0.022237799432495261 0 -0.0007878554030674354 -0.02334190399842927 0 -0.0007878554030674354 -0.02334190399842927 0 -0.00047788808717682147 -0.024178518474812397 0 -0.00088216583800903713 -0.023490741609136098 0 -0.00087528719376370613 -0.023502530351583863 0 -0.00091340445299269754 -0.02354397075788776 0 -0.00085835805657397005 -0.023557375394794682 0 -0.00086004528114135015 -0.023556997021692342 0 -0.0008620667045004805 -0.0235557515520976 0 -0.0016647087747906331 -0.021512210766172782 0 -0.0016666182719318433 -0.021509374199541478 0 -0.0016613401141104371 -0.021520526091877733 0 -0.00047788808717682147 -0.024178518474812397 0 -0.0010506598633982429 -0.022970549052045004 0 -0.00047788808717682147 -0.024178518474812397 0 -0.00048529150171792713 -0.024241493342969333 0 -0.0007878554030674354 -0.02334190399842927 0 -0.0010506598633982429 -0.022970549052045004 0 -0.0016673357142002905 -0.021518308325607003 0 -0.0016647087747906331 -0.021512210766172782 0 -0.0016666182719318433 -0.021509374199541478 0 -0.0016673357142002905 -0.021518308325607003 0 -0.0016647087747906331 -0.021512210766172782 0 -0.0016709599515851556 -0.021514240059130496 0 -0.0019101155271761391 -0.021227762875561627 0 -0.001671164149409061 -0.021563286073421711 0 -0.0016647087747906331 -0.021512210766172782 0 -0.0016611301621259069 -0.021507962978160114 0 -0.0016613401141104371 -0.021520526091877733 0 -0.001653889434445815 -0.021325127704274045 0 -0.0016420492823784785 -0.021347581652187638 0 -0.0016613401141104371 -0.021520526091877733 0 -0.0017852584779826466 -0.021352697321696496 0 -0.0019101155271761391 -0.021227762875561627 0 -0.001653889434445815 -0.021325127704274045 0 -0.0016420492823784785 -0.021347581652187638 0 -0.001696695513711111 -0.021340371244956663 0 -0.0016420492823784785 -0.021347581652187638 0 -0.0016613401141104371 -0.021520526091877733 0 -0.0015954149882358951 -0.021464759963367261 0 -0.0016666182719318433 -0.021509374199541478 0 -0.0016613401141104371 -0.021520526091877733 0 -0.001660519457125384 -0.021541435013819828 0 -0.0015832936848404295 -0.02150892142807697 0 -0.001660519457125384 -0.021541435013819828 0 -0.0015033055651083901 -0.021608541089694868 0 -0.0016613401141104371 -0.021520526091877733 0 -0.0015832936848404295 -0.02150892142807697 0 -0.0015954149882358951 -0.021464759963367261 0 -0.0016613401141104371 -0.021520526091877733 0 -0.0015832936848404295 -0.02150892142807697 0 -0.001660519457125384 -0.021541435013819828 0 -0.0010506598633982429 -0.022970549052045004 0 -0.00084940194398403293 -0.023766211955296192 0 -0.00087707152855066449 -0.023409461146259865 0 -0.00077863623479313185 -0.023586348980320256 0 -0.00087541973778389377 -0.02358277357358534 0 -0.00087528719376370613 -0.023502530351583863 0 -0.00087541973778389377 -0.02358277357358534 0 -0.00091340445299269754 -0.02354397075788776 0 -0.0010506598633982429 -0.022970549052045004 0 -0.0012830068279134214 -0.022444128841939966 0 -0.0030837174853338813 -0.019394318550536003 0 -0.0025459090183364811 -0.020086267581899749 0 -0.0025419140775836315 -0.019489109017680022 0 -0.0018095143112003647 -0.021341400170710349 0 -0.001820736560815507 -0.021251620608186569 0 -0.0017586163694929887 -0.021288150482702401 0 -0.0026637050504285005 -0.019933819927250504 0 -0.0021896487539565953 -0.020408628621284872 0 -0.0018095143112003647 -0.021341400170710349 0 -0.0017586163694929887 -0.021288150482702401 0 -0.0017396493091830349 -0.021333682122973683 0 -0.001820736560815507 -0.021251620608186569 0 -0.0017586163694929887 -0.021288150482702401 0 -0.0017207389966235574 -0.021230043917762502 0 -0.0017586163694929887 -0.021288150482702401 0 -0.0017078206833775775 -0.021308934329585895 0 -0.0017207389966235574 -0.021230043917762502 0 -0.0017586163694929887 -0.021288150482702401 0 -0.0017396493091830349 -0.021333682122973683 0 -0.0017078206833775775 -0.021308934329585895 0 -0.0017396493091830349 -0.021333682122973683 0 -0.001696695513711111 -0.021340371244956663 0 -0.0017078206833775775 -0.021308934329585895 0 -0.0016420492823784785 -0.021347581652187638 0 -0.001696695513711111 -0.021340371244956663 0 -0.0017078206833775775 -0.021308934329585895 0 -0.0016420492823784785 -0.021347581652187638 0 -0.0015954149882358951 -0.021464759963367261 0 -0.0014883396049136662 -0.021477097051711552 0 -0.0016420492823784785 -0.021347581652187638 0 -0.0017078206833775775 -0.021308934329585895 0 -0.0017207389966235574 -0.021230043917762502 0 -0.0016881802732853341 -0.021302623094109564 0 -0.0014785936706534198 -0.021472160149782517 0 -0.0014883396049136662 -0.021477097051711552 0 -0.0013360269729721925 -0.021584152667694503 0 -0.0015033055651083901 -0.021608541089694868 0 -0.0015832936848404295 -0.02150892142807697 0 -0.0015954149882358951 -0.021464759963367261 0 -0.0014883396049136662 -0.021477097051711552 0 -0.0015832936848404295 -0.02150892142807697 0 -0.0014883396049136662 -0.021477097051711552 0 -0.0015033055651083901 -0.021608541089694868 0 -0.0030837174853338813 -0.019394318550536003 0 -0.0025419140775836315 -0.019489109017680022 0 -0.0025369997779781939 -0.018891918934038132 0 -0.001820736560815507 -0.021251620608186569 0 -0.0017207389966235574 -0.021230043917762502 0 -0.0018240242987394004 -0.021137322061215033 0 -0.0021896487539565953 -0.020408628621284872 0 -0.0020663825800995121 -0.02053573422464362 0 -0.0014785936706534198 -0.021472160149782517 0 -0.0020663825800995121 -0.02053573422464362 0 -0.0020663825800995121 -0.02053573422464362 0 -0.0018137892271937299 -0.021190971050866508 0 -0.0013360269729721925 -0.021584152667694503 0 -0.0014206904251883536 -0.021704890944181654 0 -0.0013263975889853982 -0.021819039351376301 0 -0.0022391028677724721 -0.020536525648261476 0 -0.0022975239292510343 -0.020488727286347375 0 -0.0022981626631883847 -0.020568562384248298 0 -0.0013360269729721925 -0.021584152667694503 0 -0.0014206904251883536 -0.021704890944181654 0 -0.0015033055651083901 -0.021608541089694868 0 -0.0014206904251883536 -0.021704890944181654 0 -0.0015033055651083901 -0.021608541089694868 0 -0.0015183636783566274 -0.021811991796333269 0 -0.001660519457125384 -0.021541435013819828 0 -0.0015033055651083901 -0.021608541089694868 0 -0.0015183636783566274 -0.021811991796333269 0 -0.0014206904251883536 -0.021704890944181654 0 -0.0015183636783566274 -0.021811991796333269 0 -0.0013263975889853982 -0.021819039351376301 0 -0.00072343149472907083 -0.023725606664103571 0 -0.00076910203796876878 -0.023750462607162424 0 -0.00073827385859687492 -0.023765699036741861 0 -0.0015183636783566274 -0.021811991796333269 0 -0.0013263975889853982 -0.021819039351376301 0 -0.0013574929831863766 -0.022078355026517577 0 -0.00087541973778389377 -0.02358277357358534 0 -0.00087657553638905859 -0.023675760247277598 0 -0.00095262015501713893 -0.0236090941482935 0 -0.00087541973778389377 -0.02358277357358534 0 -0.00087657553638905859 -0.023675760247277598 0 -0.00079166607542688696 -0.023669601077779764 0 -0.00077863623479313185 -0.023586348980320256 0 -0.00087541973778389377 -0.02358277357358534 0 -0.00079166607542688696 -0.023669601077779764 0 -0.0012830068279134214 -0.022444128841939966 0 -0.0010737473493909629 -0.022842731261281019 0 -0.00077863623479313185 -0.023586348980320256 0 -0.00072343149472907083 -0.023725606664103571 0 -0.00079166607542688696 -0.023669601077779764 0 -0.00087657553638905859 -0.023675760247277598 0 -0.00079166607542688696 -0.023669601077779764 0 -0.00076910203796876878 -0.023750462607162424 0 -0.00076910203796876878 -0.023750462607162424 0 -0.00076665972201208309 -0.023768723881402259 0 -0.00076014804220401284 -0.0237725815884803 0 -0.00072343149472907083 -0.023725606664103571 0 -0.00079166607542688696 -0.023669601077779764 0 -0.00076910203796876878 -0.023750462607162424 0 -0.00092865993989212558 -0.023625224319981174 0 -0.00073095662506918451 -0.02378568286775903 0 -0.00076834005169163454 -0.023775493692030799 0 -0.00076910203796876878 -0.023750462607162424 0 -0.00076665972201208309 -0.023768723881402259 0 -0.00076834005169163454 -0.023775493692030799 0 -0.00076665972201208309 -0.023768723881402259 0 -0.00076525431054114427 -0.02377736458443128 0 -0.00076665972201208309 -0.023768723881402259 0 -0.00076664676885766531 -0.023776985097062425 0 -0.00076525431054114427 -0.02377736458443128 0 -0.00076665972201208309 -0.023768723881402259 0 -0.00076664676885766531 -0.023776985097062425 0 -0.00076552278288061985 -0.023779236889455081 0 -0.00076664676885766531 -0.023776985097062425 0 -0.00076326130454294956 -0.023780294149599677 0 -0.00076525431054114427 -0.02377736458443128 0 -0.00076664676885766531 -0.023776985097062425 0 -0.00076689107984633865 -0.023781218898389581 0 -0.00076326130454294956 -0.023780294149599677 0 -9.1315629494037695e-05 -0.024812339302512195 0 -0.00012186607433641674 -0.024879041043791395 0 -2.9078120738076192e-05 -0.024905470712781604 0 -0.00037054897654687359 -0.024412758750978539 0 -0.00043733385119630646 -0.024326186197149113 0 -0.00012186607433641674 -0.024879041043791395 0 -7.5569903428938899e-05 -0.024940607896915115 0 -2.9078120738076192e-05 -0.024905470712781604 0 -0.00012186607433641674 -0.024879041043791395 0 -7.5569903428938899e-05 -0.024940607896915115 0 -0.00015032953672837547 -0.02494016516634515 0 -0.00076834005169163454 -0.023775493692030799 0 -0.00076525431054114427 -0.02377736458443128 0 -0.00076232259885362203 -0.023786485849231147 0 -0.00092865993989212558 -0.023625224319981174 0 -0.00043086385424337463 -0.024330888971949328 0 -0.00076326130454294956 -0.023780294149599677 0 -0.00076525431054114427 -0.02377736458443128 0 -0.00076232259885362203 -0.023786485849231147 0 -0.00043733385119630646 -0.024326186197149113 0 -0.00043086385424337463 -0.024330888971949328 0 -0.00087541973778389377 -0.02358277357358534 0 -0.00095262015501713893 -0.0236090941482935 0 -0.00091340445299269754 -0.02354397075788776 0 -0.00043086385424337463 -0.024330888971949328 0 -0.00048529150171792713 -0.024241493342969333 0 -4.8573516905071024e-05 -0.024913238324789477 0 -5.6473566826947676e-05 -0.024936460674062071 0 -4.1179064239386725e-05 -0.024943959276909174 0 -0.00043086385424337463 -0.024330888971949328 0 5.9439593949370411e-05 -0.025090055921949819 0 -4.8573516905071024e-05 -0.024913238324789477 0 -4.1179064239386725e-05 -0.024943959276909174 0 -2.0073645526529348e-05 -0.024947382546287915 0 -7.5569903428938899e-05 -0.024940607896915115 0 -0.00015032953672837547 -0.02494016516634515 0 -4.8638361697948804e-05 -0.02500246344965297 0 -3.4479083820841401e-05 -0.024962913879253534 0 -4.1179064239386725e-05 -0.024943959276909174 0 -2.0073645526529348e-05 -0.024947382546287915 0 -3.4479083820841401e-05 -0.024962913879253534 0 -1.9820787014212782e-05 -0.02497521422570002 0 -2.0073645526529348e-05 -0.024947382546287915 0 -3.4479083820841401e-05 -0.024962913879253534 0 -4.6280791245834834e-05 -0.024955206331448546 0 -4.1179064239386725e-05 -0.024943959276909174 0 -6.1476202552792646e-05 -0.024954148576156979 0 -5.6473566826947676e-05 -0.024936460674062071 0 -4.6280791245834834e-05 -0.024955206331448546 0 -5.6473566826947676e-05 -0.024936460674062071 0 -4.6280791245834834e-05 -0.024955206331448546 0 -4.1179064239386725e-05 -0.024943959276909174 0 -4.3804525523293794e-06 -0.024993740947307361 0 -1.3036489978610294e-05 -0.024996108434191085 0 -4.2866347632467383e-09 -0.024999983983217722 0 -4.3804525523293794e-06 -0.024993740947307361 0 -1.3036489978610294e-05 -0.024996108434191085 0 -4.8638361697948804e-05 -0.02500246344965297 0 -1.9820787014212782e-05 -0.02497521422570002 0 -4.3804525523293794e-06 -0.024993740947307361 0 -2.0073645526529348e-05 -0.024947382546287915 0 -5.3183468127855689e-05 -0.024946407730933911 0 5.9439593949370411e-05 -0.025090055921949819 0 -7.5569903428938899e-05 -0.024940607896915115 0 -4.8638361697948804e-05 -0.02500246344965297 0 -3.2747750184463882e-05 -0.02496475687306313 0 -1.3036489978610294e-05 -0.024996108434191085 0 -4.8638361697948804e-05 -0.02500246344965297 0 -3.2747750184463882e-05 -0.02496475687306313 0 -3.2747750184463882e-05 -0.02496475687306313 0 -3.1251656410746379e-06 -0.024991906413979761 0 -2.9078120738076192e-05 -0.024905470712781604 0 -1.3036489978610294e-05 -0.024996108434191085 0 -3.2747750184463882e-05 -0.02496475687306313 0 -3.1251656410746379e-06 -0.024991906413979761 0 -4.2866347632467383e-09 -0.024999983983217722 0 -3.1251656410746379e-06 -0.024991906413979761 0 -5.2290293565127762e-09 -0.024999994200991374 0 -1.3036489978610294e-05 -0.024996108434191085 0 -4.2866347632467383e-09 -0.024999983983217722 0 -3.1251656410746379e-06 -0.024991906413979761 0 -3.1251656410746379e-06 -0.024991906413979761 0 -5.2290293565127762e-09 -0.024999994200991374 0 -1.3761808122788099e-05 -0.025002292358230111 0 -5.2290293565127762e-09 -0.024999994200991374 0 -1.3761808122788099e-05 -0.025002292358230111 0 -1.0384178417059217e-05 -0.024993998259582598 0 -3.4033107727985797e-05 -0.024946069888377418 0 4.7020097710898191e-05 -0.025054875627813666 0 -7.5569903428938899e-05 -0.024940607896915115 0 -3.2747750184463882e-05 -0.02496475687306313 0 -2.9078120738076192e-05 -0.024905470712781604 0 -4.7581535964111685e-05 -0.024981333959902343 0 -1.0384178417059217e-05 -0.024993998259582598 0 -1.7958331174796055e-05 -0.024971835175164808 0 -0.00037054897654687359 -0.024412758750978539 0 4.7020097710898191e-05 -0.025054875627813666 0 -4.7581535964111685e-05 -0.024981333959902343 0 -1.3761808122788099e-05 -0.025002292358230111 0 -1.0384178417059217e-05 -0.024993998259582598 0 -5.2290293565127762e-09 -0.024999994200991374 0 -1.0384178417059217e-05 -0.024993998259582598 0 1.7544621419983351e-06 -0.024994877197731854 0 -5.2290293565127762e-09 -0.024999994200991374 0 1.7544621419983351e-06 -0.024994877197731854 0 2.66906662065422e-09 -0.024999979897843264 0 -1.0384178417059217e-05 -0.024993998259582598 0 1.7544621419983351e-06 -0.024994877197731854 0 -1.7958331174796055e-05 -0.024971835175164808 0 -5.1489530181831486e-06 -0.024960507811610699 0 2.3754407594809971e-05 -0.025046584581718965 0 1.7544621419983351e-06 -0.024994877197731854 0 -1.7958331174796055e-05 -0.024971835175164808 0 4.3643168195539291e-06 -0.024935837505383213 0 1.7544621419983351e-06 -0.024994877197731854 0 2.66906662065422e-09 -0.024999979897843264 0 4.0188875063812352e-07 -0.025000497112821273 0 -1.7958331174796055e-05 -0.024971835175164808 0 -3.7424881577488106e-05 -0.024936246645762179 0 4.3643168195539291e-06 -0.024935837505383213 0 -4.7581535964111685e-05 -0.024981333959902343 0 -1.7958331174796055e-05 -0.024971835175164808 0 -3.7424881577488106e-05 -0.024936246645762179 0 -3.7424881577488106e-05 -0.024936246645762179 0 4.3643168195539291e-06 -0.024935837505383213 0 -1.088215593679006e-05 -0.024869316098629624 0 -0.00061030692464233885 -0.023884630048970283 0 -0.00062530961544786238 -0.023833742562735509 0 -0.00057827971303063379 -0.023819566796565359 0 -0.00033142652412263555 -0.024387337690886478 0 -0.00014412984541112411 -0.024567187092800351 0 2.66906662065422e-09 -0.024999979897843264 0 4.0188875063812352e-07 -0.025000497112821273 0 2.0496652013136879e-10 -0.025000004624791908 0 2.3754407594809971e-05 -0.025046584581718965 0 -0.00014412984541112411 -0.024567187092800351 0 4.0188875063812352e-07 -0.025000497112821273 0 2.0496652013136879e-10 -0.025000004624791908 0 -6.0226004161053969e-07 -0.024998099044384318 0 -0.00076664676885766531 -0.023776985097062425 0 -0.00076689107984633865 -0.023781218898389581 0 -0.00077276016052848205 -0.023784466267516249 0 -0.00076664676885766531 -0.023776985097062425 0 -0.00076552278288061985 -0.023779236889455081 0 -0.00077276016052848205 -0.023784466267516249 0 -0.00076552278288061985 -0.023779236889455081 0 -0.00077276016052848205 -0.023784466267516249 0 -0.00076010648586426666 -0.023790048996749465 0 -0.00064789084885996239 -0.023975232116416639 0 -0.00069894211719509318 -0.023907293135414974 0 -0.00065523142363745036 -0.023880839388471485 0 -0.00064789084885996239 -0.023975232116416639 0 -0.00061030692464233885 -0.023884630048970283 0 -0.00065523142363745036 -0.023880839388471485 0 -0.00037054897654687359 -0.024412758750978539 0 -0.00033142652412263555 -0.024387337690886478 0 -0.00037054897654687359 -0.024412758750978539 0 -0.00080631791204117834 -0.023746446661458236 0 -0.00065523142363745036 -0.023880839388471485 0 -0.000691898839339834 -0.023841441901447286 0 -0.00062530961544786238 -0.023833742562735509 0 -0.00061030692464233885 -0.023884630048970283 0 -0.00065523142363745036 -0.023880839388471485 0 -0.00062530961544786238 -0.023833742562735509 0 -0.00069894211719509318 -0.023907293135414974 0 -0.00065523142363745036 -0.023880839388471485 0 -0.000691898839339834 -0.023841441901447286 0 -0.000691898839339834 -0.023841441901447286 0 -0.00074938356349890406 -0.023816426222387457 0 -0.00076774384736849296 -0.02379662556027003 0 -0.00075180546305276988 -0.023815176150635109 0 -0.00061508586853534794 -0.023904539087628778 0 -0.00069894211719509318 -0.023907293135414974 0 -0.000691898839339834 -0.023841441901447286 0 -0.00074938356349890406 -0.023816426222387457 0 -0.00080631791204117834 -0.023746446661458236 0 -0.00072203432008417399 -0.023856504757303238 0 -0.00077276016052848205 -0.023784466267516249 0 -0.00074938356349890406 -0.023816426222387457 0 -0.00076010648586426666 -0.023790048996749465 0 -0.000691898839339834 -0.023841441901447286 0 -0.00066976799505017283 -0.023804440692405344 0 -0.00073328512357181779 -0.023828638541725462 0 -6.6484909164068516e-05 -0.024881094519140841 0 -0.0002666820139365756 -0.024779130140830722 0 -0.00026240637297465102 -0.025007867857680902 0 -0.00037251579776187757 -0.02437363659193666 0 -0.00061508586853534794 -0.023904539087628778 0 -0.000691898839339834 -0.023841441901447286 0 -0.00066976799505017283 -0.023804440692405344 0 -0.00062530961544786238 -0.023833742562735509 0 -6.6484909164068516e-05 -0.024881094519140841 0 -1.8775862417005847e-05 -0.024808812862231404 0 -4.5302588173283557e-05 -0.024784654145831815 0 -6.6484909164068516e-05 -0.024881094519140841 0 -4.5302588173283557e-05 -0.024784654145831815 0 -0.00011731465144969707 -0.024721679773148462 0 -6.6484909164068516e-05 -0.024881094519140841 0 -0.00011731465144969707 -0.024721679773148462 0 -0.0002666820139365756 -0.024779130140830722 0 2.0496652013136879e-10 -0.025000004624791908 0 -6.0226004161053969e-07 -0.024998099044384318 0 -3.0069608520479703e-07 -0.024999333028034313 0 -0.00066976799505017283 -0.023804440692405344 0 -0.00062530961544786238 -0.023833742562735509 0 -0.00058638653109625892 -0.023782834798631233 0 -0.00062530961544786238 -0.023833742562735509 0 -0.00057827971303063379 -0.023819566796565359 0 -0.00058638653109625892 -0.023782834798631233 0 -0.00014412984541112411 -0.024567187092800351 0 -0.00022954825675718888 -0.024573514587431861 0 -0.00037251579776187757 -0.02437363659193666 0 -0.00022954825675718888 -0.024573514587431861 0 2.0496652013136879e-10 -0.025000004624791908 0 -3.0069608520479703e-07 -0.024999333028034313 0 -9.4763391967643512e-10 -0.024999993920774698 0 -0.00010762589533508859 -0.024614160778409 0 -8.2035527080732368e-05 -0.024720658482128 0 -0.0001828556464170225 -0.024763749873084939 0 -0.00014412984541112411 -0.024567187092800351 0 -6.1045439826459984e-05 -0.024931212046099386 0 -4.0945344164107073e-05 -0.025007927678287901 0 7.5711861247650729e-06 -0.02497321107253973 0 -3.241330953931171e-06 -0.024932828703097248 0 -0.00022954825675718888 -0.024573514587431861 0 -6.1045439826459984e-05 -0.024931212046099386 0 -6.1045439826459984e-05 -0.024931212046099386 0 -3.901902304728446e-08 -0.02499991756678694 0 -6.1045439826459984e-05 -0.024931212046099386 0 -1.4528976945388168e-08 -0.025000001815397729 0 -2.9411513837733024e-07 -0.024999801247075147 0 -6.6957502796198389e-10 -0.024999999585020017 0 3.0970779792520668e-10 -0.024999999935201751 0 7.5711861247650729e-06 -0.02497321107253973 0 -3.241330953931171e-06 -0.024932828703097248 0 3.7508353186307865e-08 -0.024999737745319935 0 -3.241330953931171e-06 -0.024932828703097248 0 3.7508353186307865e-08 -0.024999737745319935 0 -9.0606791726334618e-06 -0.024903619747201823 0 3.7508353186307865e-08 -0.024999737745319935 0 -9.0606791726334618e-06 -0.024903619747201823 0 -3.4188268055445494e-08 -0.024999847962005904 0 -9.0606791726334618e-06 -0.024903619747201823 0 -2.1254488086365995e-05 -0.024790024080941313 0 -1.4078422637420009e-05 -0.024934995583336731 0 -9.0606791726334618e-06 -0.024903619747201823 0 -2.1254488086365995e-05 -0.024790024080941313 0 -3.7753568470619423e-05 -0.024827866212973278 0 -2.1254488086365995e-05 -0.024790024080941313 0 -3.7753568470619423e-05 -0.024827866212973278 0 -7.2162856513511691e-05 -0.024728152553271938 0 -0.00022954825675718888 -0.024573514587431861 0 2.3914344441340587e-05 -0.024982886591368512 0 -1.8775862417005847e-05 -0.024808812862231404 0 -3.7753568470619423e-05 -0.024827866212973278 0 -4.5302588173283557e-05 -0.024784654145831815 0 -4.0945344164107073e-05 -0.025007927678287901 0 -3.241330953931171e-06 -0.024932828703097248 0 -3.7753568470619423e-05 -0.024827866212973278 0 -3.241330953931171e-06 -0.024932828703097248 0 -9.0606791726334618e-06 -0.024903619747201823 0 -3.7753568470619423e-05 -0.024827866212973278 0 -3.7753568470619423e-05 -0.024827866212973278 0 -4.5302588173283557e-05 -0.024784654145831815 0 -7.2162856513511691e-05 -0.024728152553271938 0 -4.5302588173283557e-05 -0.024784654145831815 0 -0.00011731465144969707 -0.024721679773148462 0 -7.2162856513511691e-05 -0.024728152553271938 0 -0.00011731465144969707 -0.024721679773148462 0 -0.00014228201230037868 -0.024587067441069234 0 -7.2162856513511691e-05 -0.024728152553271938 0 -0.00011731465144969707 -0.024721679773148462 0 -0.00014228201230037868 -0.024587067441069234 0 -0.00022193186503512822 -0.024393888921023635 0 -0.00014228201230037868 -0.024587067441069234 0 -7.2162856513511691e-05 -0.024728152553271938 0 -0.00011958395718869796 -0.024643935009999274 0 -2.1254488086365995e-05 -0.024790024080941313 0 -7.2162856513511691e-05 -0.024728152553271938 0 -0.00011958395718869796 -0.024643935009999274 0 -2.1254488086365995e-05 -0.024790024080941313 0 -0.00010929601685792789 -0.024590659275231557 0 -0.00011958395718869796 -0.024643935009999274 0 -0.00010929601685792789 -0.024590659275231557 0 -0.00011958395718869796 -0.024643935009999274 0 -0.00016593633484441407 -0.024573015298072907 0 -0.00014228201230037868 -0.024587067441069234 0 -0.00011958395718869796 -0.024643935009999274 0 -0.00016593633484441407 -0.024573015298072907 0 -0.00014228201230037868 -0.024587067441069234 0 -0.00016593633484441407 -0.024573015298072907 0 -0.00022193186503512822 -0.024393888921023635 0 -0.00013826842372023279 -0.024245669307239252 0 -0.00013819660852060819 -0.024222806821750174 0 -8.1238893072840449e-05 -0.023895578967457361 0 -0.00019139419959397774 -0.023927529669159325 0 -0.0001743423374198172 -0.023837257439732924 0 -0.00010929601685792789 -0.024590659275231557 0 -0.00016593633484441407 -0.024573015298072907 0 -0.00012934503197692344 -0.024498215989973149 0 -0.00010929601685792789 -0.024590659275231557 0 -8.5276641378381925e-05 -0.024525570074281914 0 -0.00012934503197692344 -0.024498215989973149 0 -2.2084691977209478e-05 -0.024539509382479792 0 -8.5276641378381925e-05 -0.024525570074281914 0 -7.8984008064227225e-05 -0.024487140473830594 0 -0.00010929601685792789 -0.024590659275231557 0 -2.2084691977209478e-05 -0.024539509382479792 0 -8.5276641378381925e-05 -0.024525570074281914 0 1.5215351301544184e-05 -0.024995080057314441 0 -1.161472460057609e-08 -0.025000001390748441 0 -1.4078422637420009e-05 -0.024934995583336731 0 -1.161472460057609e-08 -0.025000001390748441 0 -3.4188268055445494e-08 -0.024999847962005904 0 -1.4078422637420009e-05 -0.024934995583336731 0 -9.0606791726334618e-06 -0.024903619747201823 0 -3.4188268055445494e-08 -0.024999847962005904 0 -1.4078422637420009e-05 -0.024934995583336731 0 -2.1254488086365995e-05 -0.024790024080941313 0 -0.00010929601685792789 -0.024590659275231557 0 -2.2084691977209478e-05 -0.024539509382479792 0 -2.1254488086365995e-05 -0.024790024080941313 0 1.5215351301544184e-05 -0.024995080057314441 0 -1.4078422637420009e-05 -0.024934995583336731 0 -2.0544079411399926e-05 -0.024798238129424204 0 -1.2301901581972934e-05 -0.024771800421822737 0 -0.0010714029826268572 -0.024007001326867318 0 -0.0010115805572498955 -0.023058869994825964 0 -0.00050829081261994367 -0.023794858684639153 0 -0.0010714029826268572 -0.024007001326867318 0 -0.00050829081261994367 -0.023794858684639153 0 -0.00064285360157090266 -0.024268446921718333 0 -0.0011570471085572502 -0.023139683399988835 0 -0.0010523914188471633 -0.02305981070323123 0 -0.0012938711264162059 -0.022329274359445823 0 -0.0010115805572498955 -0.023058869994825964 0 -0.0010406997589183125 -0.022560269486009945 0 -0.0010115805572498955 -0.023058869994825964 0 -0.00050829081261994367 -0.023794858684639153 0 -0.00055265749041799952 -0.023384853863722414 0 -0.00026093258519616433 -0.023766850665583851 0 -0.00050829081261994367 -0.023794858684639153 0 -0.00055265749041799952 -0.023384853863722414 0 -8.1238893072840449e-05 -0.023895578967457361 0 -0.00026093258519616433 -0.023766850665583851 0 -0.0001743423374198172 -0.023837257439732924 0 -8.1238893072840449e-05 -0.023895578967457361 0 -0.00026093258519616433 -0.023766850665583851 0 -0.00022193186503512822 -0.024393888921023635 0 -0.00013826842372023279 -0.024245669307239252 0 -0.00022497432651690096 -0.024397144574445497 0 -0.00050829081261994367 -0.023794858684639153 0 -0.00022193186503512822 -0.024393888921023635 0 -0.00064285360157090266 -0.024268446921718333 0 -0.00026093258519616433 -0.023766850665583851 0 -0.00050829081261994367 -0.023794858684639153 0 -0.00022193186503512822 -0.024393888921023635 0 -0.00022193186503512822 -0.024393888921023635 0 -0.00053082920115448491 -0.02459713581392356 0 -0.00064285360157090266 -0.024268446921718333 0 -0.00011731465144969707 -0.024721679773148462 0 -0.00022193186503512822 -0.024393888921023635 0 -0.0002666820139365756 -0.024779130140830722 0 -0.00022193186503512822 -0.024393888921023635 0 -0.00053082920115448491 -0.02459713581392356 0 -0.0002666820139365756 -0.024779130140830722 0 -0.00053082920115448491 -0.02459713581392356 0 -0.00064285360157090266 -0.024268446921718333 0 -0.00099373919987566571 -0.024509203449199598 0 -0.00053082920115448491 -0.02459713581392356 0 -0.00099373919987566571 -0.024509203449199598 0 -0.00076461541839238807 -0.024719100711260461 0 -0.0010714029826268572 -0.024007001326867318 0 -0.00064285360157090266 -0.024268446921718333 0 -0.00099373919987566571 -0.024509203449199598 0 -0.0011570471085572502 -0.023139683399988835 0 -0.0011720320747403729 -0.023353367710081733 0 -0.00099373919987566571 -0.024509203449199598 0 -0.00095305640577955371 -0.024862541025286324 0 -0.00076461541839238807 -0.024719100711260461 0 -0.0011720320747403729 -0.023353367710081733 0 -0.0010338183600813418 -0.023010843799067336 0 -0.00095305640577955371 -0.024862541025286324 0 -0.00076461541839238807 -0.024719100711260461 0 -0.00055800027899633429 -0.02496392356481324 0 -0.00053082920115448491 -0.02459713581392356 0 -0.00076461541839238807 -0.024719100711260461 0 -0.00055800027899633429 -0.02496392356481324 0 -0.0010338183600813418 -0.023010843799067336 0 -0.00060210993014173987 -0.024261610988466496 0 -0.00089435436807225018 -0.023196386863956791 0 -0.00089437062696066201 -0.023250682038195154 0 -0.00080527709143973347 -0.023232737816073833 0 -0.00089437062696066201 -0.023250682038195154 0 -0.00080527709143973347 -0.023232737816073833 0 -0.00085686831494470161 -0.023279759989843662 0 -0.0010338183600813418 -0.023010843799067336 0 -0.0010860682860725512 -0.022514175721097551 0 -0.0012721985720495312 -0.021899997047925775 0 -0.0012696043111045012 -0.021860522770143675 0 -0.0012507566191137247 -0.02186109614712213 0 -0.0012696043111045012 -0.021860522770143675 0 -0.0012608830684693792 -0.021846381425037111 0 -0.0012507566191137247 -0.02186109614712213 0 -0.00053082920115448491 -0.02459713581392356 0 -0.0002666820139365756 -0.024779130140830722 0 -0.00055800027899633429 -0.02496392356481324 0 -0.00080527709143973347 -0.023232737816073833 0 -0.0007146014137500423 -0.023271209664529502 0 -0.00080186800163373954 -0.023295167683728527 0 -0.00060210993014173987 -0.024261610988466496 0 -0.00061508586853534794 -0.023904539087628778 0 -0.0002666820139365756 -0.024779130140830722 0 -0.00055800027899633429 -0.02496392356481324 0 -0.00026240637297465102 -0.025007867857680902 0 -0.00076774384736849296 -0.02379662556027003 0 -0.00076111562411974594 -0.023792671467780545 0 -0.00074841287271713429 -0.023790396569263 0 -0.00074938356349890406 -0.023816426222387457 0 -0.00076111562411974594 -0.023792671467780545 0 -0.00076010648586426666 -0.023790048996749465 0 -0.00074938356349890406 -0.023816426222387457 0 -0.00076774384736849296 -0.02379662556027003 0 -0.00076111562411974594 -0.023792671467780545 0 -0.00076111562411974594 -0.023792671467780545 0 -0.00074841287271713429 -0.023790396569263 0 -0.00076014804220401284 -0.0237725815884803 0 -0.00061508586853534794 -0.023904539087628778 0 -0.00073971057452170601 -0.023593199461848801 0 -0.00074841287271713429 -0.023790396569263 0 -0.00076014804220401284 -0.0237725815884803 0 -0.00073827385859687492 -0.023765699036741861 0 -0.00076910203796876878 -0.023750462607162424 0 -0.00076014804220401284 -0.0237725815884803 0 -0.00073827385859687492 -0.023765699036741861 0 -0.00076111562411974594 -0.023792671467780545 0 -0.00076014804220401284 -0.0237725815884803 0 -0.00076276905649084624 -0.023779949190926436 0 -0.00076665972201208309 -0.023768723881402259 0 -0.00076014804220401284 -0.0237725815884803 0 -0.00076276905649084624 -0.023779949190926436 0 -0.00076665972201208309 -0.023768723881402259 0 -0.00076552278288061985 -0.023779236889455081 0 -0.00076276905649084624 -0.023779949190926436 0 -0.00076111562411974594 -0.023792671467780545 0 -0.00076276905649084624 -0.023779949190926436 0 -0.00076010648586426666 -0.023790048996749465 0 -0.00076552278288061985 -0.023779236889455081 0 -0.00076276905649084624 -0.023779949190926436 0 -0.00076010648586426666 -0.023790048996749465 0 -0.0012696043111045012 -0.021860522770143675 0 -0.0012664724570299634 -0.02183802573648749 0 -0.0012608830684693792 -0.021846381425037111 0 -0.00089437062696066201 -0.023250682038195154 0 -0.00089479631225761809 -0.023301210826663907 0 -0.00085686831494470161 -0.023279759989843662 0 -0.0010860682860725512 -0.022514175721097551 0 -0.0012948092413473365 -0.022378605948577251 0 -0.00089479631225761809 -0.023301210826663907 0 -0.00085686831494470161 -0.023279759989843662 0 -0.00088607746074023869 -0.023315961061871716 0 -0.0012712745931060183 -0.021831408092918902 0 -0.0012608830684693792 -0.021846381425037111 0 -0.0012508325190449187 -0.021827143123924433 0 -0.0012948092413473365 -0.022378605948577251 0 -0.0013927464055453426 -0.021896664298262185 0 -0.00073971057452170601 -0.023593199461848801 0 -0.0011901256778756939 -0.02269095979775481 0 -0.00080186800163373954 -0.023295167683728527 0 -0.00085686831494470161 -0.023279759989843662 0 -0.00088607746074023869 -0.023315961061871716 0 -0.00080527709143973347 -0.023232737816073833 0 -0.00080186800163373954 -0.023295167683728527 0 -0.00085686831494470161 -0.023279759989843662 0 -0.00074841287271713429 -0.023790396569263 0 -0.00073827385859687492 -0.023765699036741861 0 -0.00071421078737314689 -0.02376934007223331 0 -0.00072343149472907083 -0.023725606664103571 0 -0.00073827385859687492 -0.023765699036741861 0 -0.00071421078737314689 -0.02376934007223331 0 -0.0010737473493909629 -0.022842731261281019 0 -0.0011901256778756939 -0.02269095979775481 0 -0.0013263975889853982 -0.021819039351376301 0 -0.0013574929831863766 -0.022078355026517577 0 -0.0013256979812742407 -0.022064435476534926 0 -0.0018137892271937299 -0.021190971050866508 0 -0.0015426571964981988 -0.021879002752008051 0 -0.0022981626631883847 -0.020568562384248298 0 -0.0022951858608902479 -0.020655257475686365 0 -0.0022352889339114232 -0.020616718152965379 0 -0.0015090348653068845 -0.022409172209216181 0 -0.0015562103398920255 -0.022332522574055949 0 -0.0015082095141279862 -0.022311989747640509 0 -0.0012948092413473365 -0.022378605948577251 0 -0.0011901256778756939 -0.02269095979775481 0 -0.0011901256778756939 -0.02269095979775481 0 -0.0015426571964981988 -0.021879002752008051 0 -0.0012712745931060183 -0.021831408092918902 0 -0.0012713509832302816 -0.021820772207656696 0 -0.0012508325190449187 -0.021827143123924433 0 -0.0012948092413473365 -0.022378605948577251 0 -0.0015426571964981988 -0.021879002752008051 0 -0.0012464622769391663 -0.02180577228017249 0 -0.0012508325190449187 -0.021827143123924433 0 -0.0012273366398786038 -0.02182017981837003 0 -0.0015426571964981988 -0.021879002752008051 0 -0.0016470202763220533 -0.021215098456805678 0 -0.0012713509832302816 -0.021820772207656696 0 -0.0012464622769391663 -0.02180577228017249 0 -0.0012508325190449187 -0.021827143123924433 0 -0.0012608830684693792 -0.021846381425037111 0 -0.0012508325190449187 -0.021827143123924433 0 -0.0012350556108619321 -0.02184308338570223 0 -0.0012508325190449187 -0.021827143123924433 0 -0.0012350556108619321 -0.02184308338570223 0 -0.0012273366398786038 -0.02182017981837003 0 -0.0012608830684693792 -0.021846381425037111 0 -0.0012350556108619321 -0.02184308338570223 0 -0.0012507566191137247 -0.02186109614712213 0 -0.0012350556108619321 -0.02184308338570223 0 -0.0012104540311887433 -0.021844409314110257 0 -0.0012273366398786038 -0.02182017981837003 0 -0.0028389072536265689 -0.019642677500912958 0 -0.0016470202763220533 -0.021215098456805678 0 -0.0012325926623078451 -0.021789516208066278 0 -0.0012464622769391663 -0.02180577228017249 0 -0.0012273366398786038 -0.02182017981837003 0 -0.0045799183390020162 -0.018255700785994592 0 -0.0042519139130168943 -0.01809613795139051 0 -0.0042242781746672691 -0.018588710111791588 0 -0.0012325926623078451 -0.021789516208066278 0 -0.0012273366398786038 -0.02182017981837003 0 -0.0012115232812839941 -0.021828579617473323 0 -0.0028389072536265689 -0.019642677500912958 0 -0.0027122263896394907 -0.020272435189731541 0 -0.0042519139130168943 -0.01809613795139051 0 -0.0042242781746672691 -0.018588710111791588 0 -0.0040602745055118329 -0.018298613886669514 0 -0.0042242781746672691 -0.018588710111791588 0 -0.0040602745055118329 -0.018298613886669514 0 -0.0037573884038378811 -0.01848379222052526 0 -0.0012115232812839941 -0.021828579617473323 0 -0.0011971322640024634 -0.021850854106931189 0 -0.001243872501604885 -0.021852053486264723 0 -0.0027122263896394907 -0.020272435189731541 0 -0.0025309026032182208 -0.020437632060064981 0 -0.0012104540311887433 -0.021844409314110257 0 -0.0012273366398786038 -0.02182017981837003 0 -0.0012115232812839941 -0.021828579617473323 0 -0.0012104540311887433 -0.021844409314110257 0 -0.0012115232812839941 -0.021828579617473323 0 -0.0011971322640024634 -0.021850854106931189 0 -0.0012104540311887433 -0.021844409314110257 0 -0.0011971322640024634 -0.021850854106931189 0 -0.0011815221197226799 -0.02187103888296206 0 -0.0011971322640024634 -0.021850854106931189 0 -0.0011846516396821329 -0.021831511658831369 0 -0.001243872501604885 -0.021852053486264723 0 -0.0011971322640024634 -0.021850854106931189 0 -0.0011846516396821329 -0.021831511658831369 0 -0.0011815221197226799 -0.02187103888296206 0 -0.0011846516396821329 -0.021831511658831369 0 -0.0011815221197226799 -0.02187103888296206 0 -0.0011488747225883759 -0.02193513431358509 0 -0.0011815221197226799 -0.02187103888296206 0 -0.0011893021024705459 -0.021913600403241418 0 -0.0012198808009548777 -0.021867395490278586 0 -0.0011815221197226799 -0.02187103888296206 0 -0.0011893021024705459 -0.021913600403241418 0 -0.0011488747225883759 -0.02193513431358509 0 -0.0012721985720495312 -0.021899997047925775 0 -0.0011893021024705459 -0.021913600403241418 0 -0.0012198808009548777 -0.021867395490278586 0 -0.0013253956514096389 -0.022045688791949462 0 -0.0013259082996839768 -0.021909329693285122 0 -0.0011893021024705459 -0.021913600403241418 0 -0.0010338183600813418 -0.023010843799067336 0 -0.001359249903889304 -0.021584288121736132 0 -0.0012721985720495312 -0.021899997047925775 0 -0.0012198808009548777 -0.021867395490278586 0 -0.0012507566191137247 -0.02186109614712213 0 -0.0012350556108619321 -0.02184308338570223 0 -0.0012198808009548777 -0.021867395490278586 0 -0.0012507566191137247 -0.02186109614712213 0 -0.0012350556108619321 -0.02184308338570223 0 -0.0012104540311887433 -0.021844409314110257 0 -0.0012198808009548777 -0.021867395490278586 0 -0.0012104540311887433 -0.021844409314110257 0 -0.0011815221197226799 -0.02187103888296206 0 -0.0012198808009548777 -0.021867395490278586 0 -0.0028284069048053178 -0.01869155681289118 0 -0.0026820389081043208 -0.019298359107634284 0 -0.0021804158573558697 -0.018791769346202112 0 -0.0026889097778076908 -0.018238296237642445 0 -0.0028284069048053178 -0.01869155681289118 0 -0.0021804158573558697 -0.018791769346202112 0 -0.0026889097778076908 -0.018238296237642445 0 -0.0031887312305725122 -0.018297913423133663 0 -0.0028284069048053178 -0.01869155681289118 0 -0.0031887312305725122 -0.018297913423133663 0 -0.0028284069048053178 -0.01869155681289118 0 -0.0033372442174627922 -0.018863184499025534 0 -0.0028284069048053178 -0.01869155681289118 0 -0.0033372442174627922 -0.018863184499025534 0 -0.0026820389081043208 -0.019298359107634284 0 -0.0031887312305725122 -0.018297913423133663 0 -0.0033372442174627922 -0.018863184499025534 0 -0.0037573884038378811 -0.01848379222052526 0 -0.0035789992829745581 -0.018046662781880007 0 -0.0031887312305725122 -0.018297913423133663 0 -0.0037573884038378811 -0.01848379222052526 0 -0.0038677361359077448 -0.018167048632959454 0 -0.0040602745055118329 -0.018298613886669514 0 -0.0037573884038378811 -0.01848379222052526 0 -0.0033372442174627922 -0.018863184499025534 0 -0.0037573884038378811 -0.01848379222052526 0 -0.0038169284586173401 -0.019041737068962478 0 -0.0042242781746672691 -0.018588710111791588 0 -0.0037573884038378811 -0.01848379222052526 0 -0.0038169284586173401 -0.019041737068962478 0 -0.001243872501604885 -0.021852053486264723 0 -0.0013733476321827114 -0.021770823225149283 0 -0.0012682275952479428 -0.021719781418111414 0 -0.0011846516396821329 -0.021831511658831369 0 -0.001243872501604885 -0.021852053486264723 0 -0.0012682275952479428 -0.021719781418111414 0 -0.0013733476321827114 -0.021770823225149283 0 -0.0013935088135160294 -0.021559024716396674 0 -0.0012682275952479428 -0.021719781418111414 0 -0.0033372442174627922 -0.018863184499025534 0 -0.0038169284586173401 -0.019041737068962478 0 -0.0032874475999193692 -0.019572323666552954 0 -0.0025309026032182208 -0.020437632060064981 0 -0.0023251135099261115 -0.02067209270932284 0 -0.0033372442174627922 -0.018863184499025534 0 -0.0032874475999193692 -0.019572323666552954 0 -0.0026820389081043208 -0.019298359107634284 0 -0.0032874475999193692 -0.019572323666552954 0 -0.0026820389081043208 -0.019298359107634284 0 -0.0026765572712629834 -0.020135231088983237 0 -0.0023251135099261115 -0.02067209270932284 0 -0.002105886320637778 -0.020791662507379214 0 -0.0013733476321827114 -0.021770823225149283 0 -0.0015843466355913985 -0.021463164950557202 0 -0.0013935088135160294 -0.021559024716396674 0 -0.0026820389081043208 -0.019298359107634284 0 -0.0026765572712629834 -0.020135231088983237 0 -0.0021117361690245005 -0.019652916089441544 0 -0.0015843466355913985 -0.021463164950557202 0 -0.0016395572504792279 -0.021008888861482132 0 -0.0018201658899070149 -0.020766124612840463 0 -0.0015843466355913985 -0.021463164950557202 0 -0.0014547777614712118 -0.02134309706686114 0 -0.0016395572504792279 -0.021008888861482132 0 -0.002105886320637778 -0.020791662507379214 0 -0.0018413978502835938 -0.020803118311043828 0 -0.0015843466355913985 -0.021463164950557202 0 -0.0014547777614712118 -0.02134309706686114 0 -0.0013935088135160294 -0.021559024716396674 0 -0.0014547777614712118 -0.02134309706686114 0 -0.0013935088135160294 -0.021559024716396674 0 -0.0012859415824883339 -0.021642991119577428 0 -0.0013935088135160294 -0.021559024716396674 0 -0.0012682275952479428 -0.021719781418111414 0 -0.0012859415824883339 -0.021642991119577428 0 -0.0012682275952479428 -0.021719781418111414 0 -0.0012859415824883339 -0.021642991119577428 0 -0.0011642240075830455 -0.021877352663811956 0 -0.0012859415824883339 -0.021642991119577428 0 -0.0012847729385072387 -0.021720663982460649 0 -0.0011642240075830455 -0.021877352663811956 0 -0.0012847729385072387 -0.021720663982460649 0 -0.0013989524640230426 -0.021461164502955158 0 -0.0014338736223063469 -0.021429975522376937 0 -0.0012859415824883339 -0.021642991119577428 0 -0.0012847729385072387 -0.021720663982460649 0 -0.0013989524640230426 -0.021461164502955158 0 -0.0014547777614712118 -0.02134309706686114 0 -0.0012859415824883339 -0.021642991119577428 0 -0.0013989524640230426 -0.021461164502955158 0 -0.0014547777614712118 -0.02134309706686114 0 -0.0013989524640230426 -0.021461164502955158 0 -0.0015442003388075314 -0.0211847781165523 0 -0.0013989524640230426 -0.021461164502955158 0 -0.0015442003388075314 -0.0211847781165523 0 -0.0014338736223063469 -0.021429975522376937 0 -0.0015442003388075314 -0.0211847781165523 0 -0.0015545968848962228 -0.021044905383049584 0 -0.0015945108058890572 -0.020972673007296543 0 -0.0015442003388075314 -0.0211847781165523 0 -0.0016395572504792279 -0.021008888861482132 0 -0.0015945108058890572 -0.020972673007296543 0 -0.0014547777614712118 -0.02134309706686114 0 -0.0015442003388075314 -0.0211847781165523 0 -0.0016395572504792279 -0.021008888861482132 0 -0.0012938711264162059 -0.022329274359445823 0 -0.0013253956514096389 -0.022045688791949462 0 -0.0011204784256898886 -0.022115697185243793 0 -0.0013253956514096389 -0.022045688791949462 0 -0.0011893021024705459 -0.021913600403241418 0 -0.0011204784256898886 -0.022115697185243793 0 -0.0011893021024705459 -0.021913600403241418 0 -0.0011204784256898886 -0.022115697185243793 0 -0.0011488747225883759 -0.02193513431358509 0 -0.0011846516396821329 -0.021831511658831369 0 -0.0011488747225883759 -0.02193513431358509 0 -0.0011642240075830455 -0.021877352663811956 0 -0.0011846516396821329 -0.021831511658831369 0 -0.0012682275952479428 -0.021719781418111414 0 -0.0011642240075830455 -0.021877352663811956 0 -0.0011204784256898886 -0.022115697185243793 0 -0.0011488747225883759 -0.02193513431358509 0 -0.0011642240075830455 -0.021877352663811956 0 -0.0012847729385072387 -0.021720663982460649 0 -0.0011642240075830455 -0.021877352663811956 0 -0.0011363696136082082 -0.022144746055101014 0 -0.0012847729385072387 -0.021720663982460649 0 -0.0011363696136082082 -0.022144746055101014 0 -0.0012396934574380304 -0.022042979580068272 0 -0.0011204784256898886 -0.022115697185243793 0 -0.0011642240075830455 -0.021877352663811956 0 -0.0011363696136082082 -0.022144746055101014 0 -0.0011363696136082082 -0.022144746055101014 0 -0.0010406997589183125 -0.022560269486009945 0 -0.0010930138024523345 -0.02244246662835718 0 -0.0011204784256898886 -0.022115697185243793 0 -0.0011363696136082082 -0.022144746055101014 0 -0.0010406997589183125 -0.022560269486009945 0 -0.0012938711264162059 -0.022329274359445823 0 -0.0011204784256898886 -0.022115697185243793 0 -0.0010406997589183125 -0.022560269486009945 0 -0.0010115805572498955 -0.023058869994825964 0 -0.0010406997589183125 -0.022560269486009945 0 -0.00093560041549432447 -0.022843496939479263 0 -0.0010406997589183125 -0.022560269486009945 0 -0.00093560041549432447 -0.022843496939479263 0 -0.0010930138024523345 -0.02244246662835718 0 -0.00093560041549432447 -0.022843496939479263 0 -0.00099691795980874306 -0.022579701333295704 0 -0.0010930138024523345 -0.02244246662835718 0 -0.00093560041549432447 -0.022843496939479263 0 -0.00099691795980874306 -0.022579701333295704 0 -0.00057963528278789152 -0.022932023591161345 0 -0.00099691795980874306 -0.022579701333295704 0 -0.00088643941344463339 -0.022405398951740561 0 -0.00057963528278789152 -0.022932023591161345 0 -0.00099691795980874306 -0.022579701333295704 0 -0.00088643941344463339 -0.022405398951740561 0 -0.0010792734798137052 -0.022267810182343799 0 -0.00099691795980874306 -0.022579701333295704 0 -0.0011458166565694627 -0.022312468369865203 0 -0.0010930138024523345 -0.02244246662835718 0 -0.0011458166565694627 -0.022312468369865203 0 -0.0012286624339566852 -0.022130639959151991 0 -0.0010792734798137052 -0.022267810182343799 0 -0.00099691795980874306 -0.022579701333295704 0 -0.0011458166565694627 -0.022312468369865203 0 -0.0010792734798137052 -0.022267810182343799 0 -0.0011458166565694627 -0.022312468369865203 0 -0.0010930138024523345 -0.02244246662835718 0 -0.0012396934574380304 -0.022042979580068272 0 -0.0011363696136082082 -0.022144746055101014 0 -0.0010930138024523345 -0.02244246662835718 0 -0.0012396934574380304 -0.022042979580068272 0 -0.0012396934574380304 -0.022042979580068272 0 -0.0013205688873218632 -0.021943132141981795 0 -0.0013274136069766976 -0.021622292772053287 0 -0.0012396934574380304 -0.022042979580068272 0 -0.0012286624339566852 -0.022130639959151991 0 -0.0013205688873218632 -0.021943132141981795 0 -0.0011458166565694627 -0.022312468369865203 0 -0.0012396934574380304 -0.022042979580068272 0 -0.0012286624339566852 -0.022130639959151991 0 -0.0012286624339566852 -0.022130639959151991 0 -0.0013205688873218632 -0.021943132141981795 0 -0.0012539150712620806 -0.022010443810140841 0 -0.0013205688873218632 -0.021943132141981795 0 -0.0012923702612376389 -0.021954217450368987 0 -0.001298888838150204 -0.021945225908053784 0 -0.0012923702612376389 -0.021954217450368987 0 -0.0012539150712620806 -0.022010443810140841 0 -0.001222304060295835 -0.021926995473276027 0 -0.0013205688873218632 -0.021943132141981795 0 -0.0012923702612376389 -0.021954217450368987 0 -0.0012539150712620806 -0.022010443810140841 0 -0.0012539150712620806 -0.022010443810140841 0 -0.0011484914311310308 -0.022028274299980114 0 -0.001222304060295835 -0.021926995473276027 0 -0.0011484914311310308 -0.022028274299980114 0 -0.00096149821353907442 -0.022113715406157246 0 -0.0009513775481089637 -0.02192251846997224 0 -0.0011484914311310308 -0.022028274299980114 0 -0.00096149821353907442 -0.022113715406157246 0 -0.0010792734798137052 -0.022267810182343799 0 -0.00096149821353907442 -0.022113715406157246 0 -0.00088643941344463339 -0.022405398951740561 0 -0.0010792734798137052 -0.022267810182343799 0 -0.0012286624339566852 -0.022130639959151991 0 -0.0011484914311310308 -0.022028274299980114 0 -0.0010792734798137052 -0.022267810182343799 0 -0.0012286624339566852 -0.022130639959151991 0 -0.0012539150712620806 -0.022010443810140841 0 -0.0011484914311310308 -0.022028274299980114 0 -0.0015297662211020008 -0.02120039900131639 0 -0.0015148208385737524 -0.021170427498047709 0 -0.0015180756024369298 -0.021052833151030508 0 -0.0015297662211020008 -0.02120039900131639 0 -0.0015148208385737524 -0.021170427498047709 0 -0.0015000682641598806 -0.021315753471080365 0 -0.0015442003388075314 -0.0211847781165523 0 -0.0015297662211020008 -0.02120039900131639 0 -0.0015545968848962228 -0.021044905383049584 0 -0.0015442003388075314 -0.0211847781165523 0 -0.0015297662211020008 -0.02120039900131639 0 -0.0014338736223063469 -0.021429975522376937 0 -0.0015297662211020008 -0.02120039900131639 0 -0.0014338736223063469 -0.021429975522376937 0 -0.0015000682641598806 -0.021315753471080365 0 -0.0012847729385072387 -0.021720663982460649 0 -0.0012396934574380304 -0.022042979580068272 0 -0.0013274136069766976 -0.021622292772053287 0 -0.0014338736223063469 -0.021429975522376937 0 -0.0013274136069766976 -0.021622292772053287 0 -0.0015000682641598806 -0.021315753471080365 0 -0.0012847729385072387 -0.021720663982460649 0 -0.0014338736223063469 -0.021429975522376937 0 -0.0013274136069766976 -0.021622292772053287 0 -0.0013205688873218632 -0.021943132141981795 0 -0.0013274136069766976 -0.021622292772053287 0 -0.001298888838150204 -0.021945225908053784 0 -0.0013318623889646145 -0.021627934933493666 0 -0.00137004422286624 -0.021616348017289094 0 -0.0014320967432655111 -0.021276691717799692 0 -0.001489452199315506 -0.021259049045266005 0 -0.001479313278734593 -0.021315978966595879 0 -0.0013274136069766976 -0.021622292772053287 0 -0.0014320967432655111 -0.021276691717799692 0 -0.0015000682641598806 -0.021315753471080365 0 -0.0015000682641598806 -0.021315753471080365 0 -0.001489452199315506 -0.021259049045266005 0 -0.0015039075985603769 -0.021222465865577217 0 -0.0014320967432655111 -0.021276691717799692 0 -0.0015000682641598806 -0.021315753471080365 0 -0.001489452199315506 -0.021259049045266005 0 -0.001489452199315506 -0.021259049045266005 0 -0.0014780492955201107 -0.021231867949332513 0 -0.0015039075985603769 -0.021222465865577217 0 -0.0015148208385737524 -0.021170427498047709 0 -0.0015000682641598806 -0.021315753471080365 0 -0.0015039075985603769 -0.021222465865577217 0 -0.0015148208385737524 -0.021170427498047709 0 -0.0015039075985603769 -0.021222465865577217 0 -0.0014748420965899412 -0.021139505581535555 0 -0.0014483117156718613 -0.021372621196667038 0 -0.0014243531428229301 -0.021406079387516853 0 -0.0014380456271562805 -0.021337822610940683 0 -0.0014483117156718613 -0.021372621196667038 0 -0.0014597121042045102 -0.021391469369641848 0 -0.0014519390799864666 -0.021429283734843683 0 -0.0014483117156718613 -0.021372621196667038 0 -0.0014652045009264194 -0.021300279494704078 0 -0.0014597121042045102 -0.021391469369641848 0 -0.0014483117156718613 -0.021372621196667038 0 -0.0014652045009264194 -0.021300279494704078 0 -0.0014380456271562805 -0.021337822610940683 0 -0.0014652045009264194 -0.021300279494704078 0 -0.0014468281280730236 -0.021272868632317546 0 -0.0014380456271562805 -0.021337822610940683 0 -0.001489452199315506 -0.021259049045266005 0 -0.0014780492955201107 -0.021231867949332513 0 -0.0014652045009264194 -0.021300279494704078 0 -0.0014780492955201107 -0.021231867949332513 0 -0.0014652045009264194 -0.021300279494704078 0 -0.0014468281280730236 -0.021272868632317546 0 -0.001489452199315506 -0.021259049045266005 0 -0.0014652045009264194 -0.021300279494704078 0 -0.001479313278734593 -0.021315978966595879 0 -0.001479313278734593 -0.021315978966595879 0 -0.0014597121042045102 -0.021391469369641848 0 -0.0014691539490652714 -0.021463987433213757 0 -0.0014652045009264194 -0.021300279494704078 0 -0.001479313278734593 -0.021315978966595879 0 -0.0014597121042045102 -0.021391469369641848 0 -0.001479313278734593 -0.021315978966595879 0 -0.0015412138197453463 -0.021363283201763981 0 -0.0014691539490652714 -0.021463987433213757 0 -0.0014320967432655111 -0.021276691717799692 0 -0.001479313278734593 -0.021315978966595879 0 -0.0015412138197453463 -0.021363283201763981 0 -0.00137004422286624 -0.021616348017289094 0 -0.0014532529687902006 -0.021638171825282181 0 -0.001298888838150204 -0.021945225908053784 0 -0.0013790970875910673 -0.021919212357271529 0 -0.0013187003133014342 -0.021930195764719686 0 -0.0013790970875910673 -0.021919212357271529 0 -0.0013187003133014342 -0.021930195764719686 0 -0.0013197872849811964 -0.02185801602513027 0 -0.0014710407805452158 -0.021675246344545068 0 -0.0013197872849811964 -0.02185801602513027 0 -0.001353367621114789 -0.021783485526557778 0 -0.0013790970875910673 -0.021919212357271529 0 -0.0014710407805452158 -0.021675246344545068 0 -0.0013197872849811964 -0.02185801602513027 0 -0.0014532529687902006 -0.021638171825282181 0 -0.0014712941039965474 -0.021664977682851135 0 -0.0014710407805452158 -0.021675246344545068 0 -0.001353367621114789 -0.021783485526557778 0 -0.0014402794025045972 -0.021661085365205807 0 -0.0014710407805452158 -0.021675246344545068 0 -0.0014402794025045972 -0.021661085365205807 0 -0.0014742968694429154 -0.021584386592920536 0 -0.0014710407805452158 -0.021675246344545068 0 -0.0014694146738532931 -0.021562887666578413 0 -0.0014742968694429154 -0.021584386592920536 0 -0.0014694146738532931 -0.021562887666578413 0 -0.001477366812349381 -0.021513319282825211 0 -0.0014742968694429154 -0.021584386592920536 0 -0.0014710407805452158 -0.021675246344545068 0 -0.0014694146738532931 -0.021562887666578413 0 -0.0014691539490652714 -0.021463987433213757 0 -0.0015412138197453463 -0.021363283201763981 0 -0.0014710407805452158 -0.021675246344545068 0 -0.0014691539490652714 -0.021463987433213757 0 -0.0014694146738532931 -0.021562887666578413 0 -0.0014691539490652714 -0.021463987433213757 0 -0.001460981158629999 -0.021476763948716025 0 -0.0014597121042045102 -0.021391469369641848 0 -0.0014691539490652714 -0.021463987433213757 0 -0.001460981158629999 -0.021476763948716025 0 -0.0014597121042045102 -0.021391469369641848 0 -0.001460981158629999 -0.021476763948716025 0 -0.0014519390799864666 -0.021429283734843683 0 -0.001460981158629999 -0.021476763948716025 0 -0.0014600071507582001 -0.021489046025004479 0 -0.0014519390799864666 -0.021429283734843683 0 -0.001460981158629999 -0.021476763948716025 0 -0.0014682438395373426 -0.021517751153469628 0 -0.0014600071507582001 -0.021489046025004479 0 -0.0014694146738532931 -0.021562887666578413 0 -0.001460981158629999 -0.021476763948716025 0 -0.0014682438395373426 -0.021517751153469628 0 -0.0014694146738532931 -0.021562887666578413 0 -0.0014682438395373426 -0.021517751153469628 0 -0.001477366812349381 -0.021513319282825211 0 -0.001477366812349381 -0.021513319282825211 0 -0.0014845712809562863 -0.021447523704873482 0 -0.0014877786718461002 -0.021459949967232741 0 -0.001477366812349381 -0.021513319282825211 0 -0.0014750553911192451 -0.021494738361286889 0 -0.0014845712809562863 -0.021447523704873482 0 -0.0014682438395373426 -0.021517751153469628 0 -0.001477366812349381 -0.021513319282825211 0 -0.0014750553911192451 -0.021494738361286889 0 -0.0014682438395373426 -0.021517751153469628 0 -0.0014750553911192451 -0.021494738361286889 0 -0.0014600071507582001 -0.021489046025004479 0 -0.0014750553911192451 -0.021494738361286889 0 -0.0014600071507582001 -0.021489046025004479 0 -0.0013998310840105845 -0.021494353133314929 0 -0.0014783054527577491 -0.021461303136688613 0 -0.0014419317941189622 -0.021241619001522546 0 -0.0014750553911192451 -0.021494738361286889 0 -0.0014897400994149691 -0.021394579181003622 0 -0.0014905841154151721 -0.021360885161907095 0 -0.0014750553911192451 -0.021494738361286889 0 -0.0014845712809562863 -0.021447523704873482 0 -0.0014897400994149691 -0.021394579181003622 0 -0.0014845712809562863 -0.021447523704873482 0 -0.0014897400994149691 -0.021394579181003622 0 -0.0014877786718461002 -0.021459949967232741 0 -0.0014897400994149691 -0.021394579181003622 0 -0.0014905841154151721 -0.021360885161907095 0 -0.0014787624407510767 -0.021294388233322747 0 -0.0014603704601701239 -0.02147917106311013 0 -0.0014052350152817766 -0.021405861454609692 0 -0.0014600071507582001 -0.021489046025004479 0 -0.0014519390799864666 -0.021429283734843683 0 -0.0014243531428229301 -0.021406079387516853 0 -0.0014600071507582001 -0.021489046025004479 0 -0.0013998310840105845 -0.021494353133314929 0 -0.0013853423751943486 -0.02140593666524631 0 -0.0014483117156718613 -0.021372621196667038 0 -0.0014519390799864666 -0.021429283734843683 0 -0.0014243531428229301 -0.021406079387516853 0 -0.001225328106452599 -0.021854304303739649 0 -0.001094142221455065 -0.021786210865690377 0 -0.001132586319132214 -0.021900271402022949 0 -0.001225328106452599 -0.021854304303739649 0 -0.0013010205246592535 -0.021881173336462511 0 -0.0012471264480965671 -0.021894808075220699 0 -0.0011953434403223721 -0.021901034760445245 0 -0.00096438299750490524 -0.022527438380488082 0 -0.00096438299750490524 -0.022527438380488082 0 -0.00083708328508135172 -0.022358863361689782 0 -0.00069599653748753109 -0.022985384275593278 0 -0.00067833554120128611 -0.023025284237664194 0 -0.00065918963498310876 -0.023020857420293292 0 -0.0011484914311310308 -0.022028274299980114 0 -0.0009513775481089637 -0.02192251846997224 0 -0.001132586319132214 -0.021900271402022949 0 -0.001094142221455065 -0.021786210865690377 0 -0.0009513775481089637 -0.02192251846997224 0 -0.001132586319132214 -0.021900271402022949 0 -0.001225328106452599 -0.021854304303739649 0 -0.001222304060295835 -0.021926995473276027 0 -0.001132586319132214 -0.021900271402022949 0 -0.0011484914311310308 -0.022028274299980114 0 -0.001222304060295835 -0.021926995473276027 0 -0.001132586319132214 -0.021900271402022949 0 -0.0012923702612376389 -0.021954217450368987 0 -0.001222304060295835 -0.021926995473276027 0 -0.001266127836679171 -0.021886266439122969 0 -0.0012923702612376389 -0.021954217450368987 0 -0.001298888838150204 -0.021945225908053784 0 -0.0013187003133014342 -0.021930195764719686 0 -0.0012923702612376389 -0.021954217450368987 0 -0.0013187003133014342 -0.021930195764719686 0 -0.001266127836679171 -0.021886266439122969 0 -0.001266127836679171 -0.021886266439122969 0 -0.0013197872849811964 -0.02185801602513027 0 -0.0012720225977420031 -0.021876916871512133 0 -0.0013187003133014342 -0.021930195764719686 0 -0.001266127836679171 -0.021886266439122969 0 -0.0013197872849811964 -0.02185801602513027 0 -0.001225328106452599 -0.021854304303739649 0 -0.001266127836679171 -0.021886266439122969 0 -0.0012471264480965671 -0.021894808075220699 0 -0.001225328106452599 -0.021854304303739649 0 -0.001222304060295835 -0.021926995473276027 0 -0.001266127836679171 -0.021886266439122969 0 -0.001266127836679171 -0.021886266439122969 0 -0.0012471264480965671 -0.021894808075220699 0 -0.0012720225977420031 -0.021876916871512133 0 -0.0012471264480965671 -0.021894808075220699 0 -0.0012720225977420031 -0.021876916871512133 0 -0.0012448409699030584 -0.02196547139096016 0 -0.0013197872849811964 -0.02185801602513027 0 -0.0012720225977420031 -0.021876916871512133 0 -0.001353367621114789 -0.021783485526557778 0 -0.0012720225977420031 -0.021876916871512133 0 -0.001353367621114789 -0.021783485526557778 0 -0.0012448409699030584 -0.02196547139096016 0 -0.001353367621114789 -0.021783485526557778 0 -0.0012448409699030584 -0.02196547139096016 0 -0.0013252897088040579 -0.02181629111063502 0 -0.0012527193435809757 -0.022167194153103413 0 -0.0011148114261689622 -0.02296116762320323 0 -0.00075407737065782705 -0.022552234032803865 0 -0.0012557196317307157 -0.022219920991805517 0 -0.001189462666838242 -0.022464553825285099 0 -0.0012448409699030584 -0.02196547139096016 0 -0.0012527193435809757 -0.022167194153103413 0 -0.0012999396252403046 -0.021953735505873789 0 -0.0012471264480965671 -0.021894808075220699 0 -0.0012448409699030584 -0.02196547139096016 0 -0.0012999396252403046 -0.021953735505873789 0 -0.0013010205246592535 -0.021881173336462511 0 -0.0012471264480965671 -0.021894808075220699 0 -0.0012999396252403046 -0.021953735505873789 0 -0.00096438299750490524 -0.022527438380488082 0 -0.001189462666838242 -0.022464553825285099 0 -0.00090644956784840245 -0.023455255631255497 0 -0.00065542668519622883 -0.02305757322730204 0 -0.00030999731194205179 -0.023263719982365531 0 -0.00096438299750490524 -0.022527438380488082 0 -0.00043659704875457952 -0.023426755478660726 0 -0.00090644956784840245 -0.023455255631255497 0 -0.0011148114261689622 -0.02296116762320323 0 -0.00065542668519622883 -0.02305757322730204 0 -0.0011148114261689622 -0.02296116762320323 0 -0.00065542668519622883 -0.02305757322730204 0 -0.00075407737065782705 -0.022552234032803865 0 -0.00075407737065782705 -0.022552234032803865 0 -0.00040950085828291786 -0.022635236073500934 0 -0.00029109452824770783 -0.023072192962931653 0 -0.00065542668519622883 -0.02305757322730204 0 -0.00075407737065782705 -0.022552234032803865 0 -0.00029109452824770783 -0.023072192962931653 0 -0.00040950085828291786 -0.022635236073500934 0 -6.4010609683812434e-05 -0.02314153381178061 0 -0.00019919569669404181 -0.022200380676775204 0 -0.00040950085828291786 -0.022635236073500934 0 -0.00029109452824770783 -0.023072192962931653 0 -6.4010609683812434e-05 -0.02314153381178061 0 -6.4010609683812434e-05 -0.02314153381178061 0 0.00017236256839562567 -0.023403462633872388 0 -0.00019919569669404181 -0.022200380676775204 0 -6.4010609683812434e-05 -0.02314153381178061 0 0.00015705235269080243 -0.023353862217538979 0 0.00017236256839562567 -0.023403462633872388 0 -0.00029668161447085996 -0.02394541609727243 0 -0.00028734410854330871 -0.024005484091003618 0 -0.00029789863429801651 -0.024013764039501465 0 -4.8323812486177551e-05 -0.023670304825517824 0 -0.00043659704875457952 -0.023426755478660726 0 -6.4010609683812434e-05 -0.02314153381178061 0 0.00015705235269080243 -0.023353862217538979 0 -0.0002800964577410912 -0.023430987015571891 0 -0.00029668161447085996 -0.02394541609727243 0 -0.00028734410854330871 -0.024005484091003618 0 -0.00025043183863827792 -0.024024105402449872 0 -0.00065542668519622883 -0.02305757322730204 0 -0.00029109452824770783 -0.023072192962931653 0 -0.00030999731194205179 -0.023263719982365531 0 -0.00029109452824770783 -0.023072192962931653 0 -6.4010609683812434e-05 -0.02314153381178061 0 -0.0002800964577410912 -0.023430987015571891 0 -0.00031893210305901365 -0.02309953298028455 0 -0.00043659704875457952 -0.023426755478660726 0 -0.00043659704875457952 -0.023426755478660726 0 -0.00044637059109592066 -0.02358229715833941 0 -0.00069599653748753109 -0.022985384275593278 0 -0.000657796000965765 -0.022977903938464474 0 -0.00065918963498310876 -0.023020857420293292 0 -0.00029789863429801651 -0.024013764039501465 0 -0.00027688264684888267 -0.02403743356698217 0 -0.0002337704780450651 -0.024007784217095214 0 -0.00028734410854330871 -0.024005484091003618 0 -0.00029789863429801651 -0.024013764039501465 0 -0.00027688264684888267 -0.02403743356698217 0 -0.00028734410854330871 -0.024005484091003618 0 -0.00027688264684888267 -0.02403743356698217 0 -0.00025043183863827792 -0.024024105402449872 0 -0.0002337704780450651 -0.024007784217095214 0 -0.00030212550869312282 -0.023997221018927976 0 -0.00030842814559568088 -0.023837965042849216 0 -0.00027688264684888267 -0.02403743356698217 0 -0.0002337704780450651 -0.024007784217095214 0 -0.00030212550869312282 -0.023997221018927976 0 -0.00020977074537589945 -0.024112966584831159 0 -0.00013209075909923818 -0.02427706864220612 0 -0.00024736023074046478 -0.024081136922061055 0 -0.00027688264684888267 -0.02403743356698217 0 -0.00030212550869312282 -0.023997221018927976 0 -0.00020977074537589945 -0.024112966584831159 0 -0.00030212550869312282 -0.023997221018927976 0 -0.00020977074537589945 -0.024112966584831159 0 -0.00024736023074046478 -0.024081136922061055 0 -0.00027688264684888267 -0.02403743356698217 0 -0.00020977074537589945 -0.024112966584831159 0 -0.00025043183863827792 -0.024024105402449872 0 -0.00020977074537589945 -0.024112966584831159 0 -0.00025043183863827792 -0.024024105402449872 0 -0.00017959871609293893 -0.023987365925393817 0 -0.00020977074537589945 -0.024112966584831159 0 -9.3143493819476995e-05 -0.024025485175206657 0 -0.00011708274775952601 -0.024151814293541653 0 -0.00020977074537589945 -0.024112966584831159 0 -0.00011708274775952601 -0.024151814293541653 0 -0.00013209075909923818 -0.02427706864220612 0 -0.00020977074537589945 -0.024112966584831159 0 -9.3143493819476995e-05 -0.024025485175206657 0 -0.00017959871609293893 -0.023987365925393817 0 -9.3143493819476995e-05 -0.024025485175206657 0 -6.2827318140526821e-05 -0.02374538063752954 0 -3.2698530790495525e-05 -0.023930937604144033 0 -9.3143493819476995e-05 -0.024025485175206657 0 -0.00017959871609293893 -0.023987365925393817 0 -6.2827318140526821e-05 -0.02374538063752954 0 -0.00029668161447085996 -0.02394541609727243 0 -0.00017959871609293893 -0.023987365925393817 0 -6.2827318140526821e-05 -0.02374538063752954 0 -0.00029668161447085996 -0.02394541609727243 0 -0.00025043183863827792 -0.024024105402449872 0 -0.00017959871609293893 -0.023987365925393817 0 0.00017236256839562567 -0.023403462633872388 0 -6.2827318140526821e-05 -0.02374538063752954 0 4.6834447469701916e-05 -0.023765833444564687 0 -4.8323812486177551e-05 -0.023670304825517824 0 -4.2272368956171555e-05 -0.023708205225872199 0 0.00015705235269080243 -0.023353862217538979 0 0.00017236256839562567 -0.023403462633872388 0 -6.2827318140526821e-05 -0.02374538063752954 0 0.00017236256839562567 -0.023403462633872388 0 0.00017204869225702712 -0.023723650204099635 0 4.6834447469701916e-05 -0.023765833444564687 0 -6.2827318140526821e-05 -0.02374538063752954 0 -3.2698530790495525e-05 -0.023930937604144033 0 2.5345176448818321e-06 -0.023816417274654753 0 -6.2827318140526821e-05 -0.02374538063752954 0 4.6834447469701916e-05 -0.023765833444564687 0 2.5345176448818321e-06 -0.023816417274654753 0 -3.2698530790495525e-05 -0.023930937604144033 0 3.4210225028256797e-05 -0.023958139933681413 0 -6.0313189685532245e-05 -0.024190523790405847 0 -3.2698530790495525e-05 -0.023930937604144033 0 3.4210225028256797e-05 -0.023958139933681413 0 4.1453272044417854e-05 -0.023862352230756716 0 -3.2698530790495525e-05 -0.023930937604144033 0 2.5345176448818321e-06 -0.023816417274654753 0 4.1453272044417854e-05 -0.023862352230756716 0 3.4210225028256797e-05 -0.023958139933681413 0 0.00014957849432403037 -0.024066625932711423 0 0.00010050246391940481 -0.023863426415930127 0 3.4210225028256797e-05 -0.023958139933681413 0 -6.0313189685532245e-05 -0.024190523790405847 0 0.00014957849432403037 -0.024066625932711423 0 -6.0313189685532245e-05 -0.024190523790405847 0 0.00014957849432403037 -0.024066625932711423 0 8.0439519936717873e-05 -0.024657997167613108 0 -9.3143493819476995e-05 -0.024025485175206657 0 -6.0313189685532245e-05 -0.024190523790405847 0 -0.00011708274775952601 -0.024151814293541653 0 -9.3143493819476995e-05 -0.024025485175206657 0 -3.2698530790495525e-05 -0.023930937604144033 0 -6.0313189685532245e-05 -0.024190523790405847 0 7.3166527408514008e-05 -0.024963307559761391 0 -1.1120799576533312e-07 -0.024999683405444402 0 5.470906260527331e-08 -0.02500007645651374 0 0.00010062469647683359 -0.024513513254637329 0 8.8426843994152368e-05 -0.024628053904465354 0 7.3166527408514008e-05 -0.024963307559761391 0 -1.1120799576533312e-07 -0.024999683405444402 0 8.0439519936717873e-05 -0.024657997167613108 0 -1.1120799576533312e-07 -0.024999683405444402 0 8.0439519936717873e-05 -0.024657997167613108 0 1.7158601170626687e-07 -0.024999683888987326 0 -1.8236912231140239e-05 -0.02470589928044795 0 -2.827567632703286e-05 -0.024482420855438791 0 -8.087966469211287e-05 -0.024466200799137635 0 8.0439519936717873e-05 -0.024657997167613108 0 -1.8236912231140239e-05 -0.02470589928044795 0 -2.827567632703286e-05 -0.024482420855438791 0 8.0439519936717873e-05 -0.024657997167613108 0 -1.8236912231140239e-05 -0.02470589928044795 0 1.7158601170626687e-07 -0.024999683888987326 0 -6.0313189685532245e-05 -0.024190523790405847 0 -0.00011708274775952601 -0.024151814293541653 0 -0.00013209075909923818 -0.02427706864220612 0 -6.0313189685532245e-05 -0.024190523790405847 0 8.0439519936717873e-05 -0.024657997167613108 0 -2.827567632703286e-05 -0.024482420855438791 0 -6.0313189685532245e-05 -0.024190523790405847 0 -2.827567632703286e-05 -0.024482420855438791 0 -0.00013209075909923818 -0.02427706864220612 0 -2.827567632703286e-05 -0.024482420855438791 0 -0.00013209075909923818 -0.02427706864220612 0 -8.087966469211287e-05 -0.024466200799137635 0 -0.00013209075909923818 -0.02427706864220612 0 -0.00015108649484234005 -0.024270305230882451 0 -8.087966469211287e-05 -0.024466200799137635 0 -0.00013209075909923818 -0.02427706864220612 0 -0.00015108649484234005 -0.024270305230882451 0 -0.00024736023074046478 -0.024081136922061055 0 -0.00015108649484234005 -0.024270305230882451 0 -0.00013839437994624514 -0.024289009701983982 0 -0.00024736023074046478 -0.024081136922061055 0 -0.00015108649484234005 -0.024270305230882451 0 -8.087966469211287e-05 -0.024466200799137635 0 -0.00013839437994624514 -0.024289009701983982 0 -8.087966469211287e-05 -0.024466200799137635 0 -0.00013839437994624514 -0.024289009701983982 0 -5.6138021172525284e-05 -0.024615588818908515 0 -0.00013839437994624514 -0.024289009701983982 0 -0.00021635069130234713 -0.023944098888163016 0 -0.00024736023074046478 -0.024081136922061055 0 -1.8236912231140239e-05 -0.02470589928044795 0 -5.6138021172525284e-05 -0.024615588818908515 0 -5.0208560654526127e-07 -0.024998678610304852 0 -1.8236912231140239e-05 -0.02470589928044795 0 1.7158601170626687e-07 -0.024999683888987326 0 -5.0208560654526127e-07 -0.024998678610304852 0 -1.8236912231140239e-05 -0.02470589928044795 0 -8.087966469211287e-05 -0.024466200799137635 0 -5.6138021172525284e-05 -0.024615588818908515 0 -0.00013839437994624514 -0.024289009701983982 0 -5.6138021172525284e-05 -0.024615588818908515 0 -9.9468212418262373e-05 -0.024423967676499781 0 -5.6138021172525284e-05 -0.024615588818908515 0 -4.70667301180985e-05 -0.024636139127882192 0 -9.9468212418262373e-05 -0.024423967676499781 0 -5.0208560654526127e-07 -0.024998678610304852 0 -4.70667301180985e-05 -0.024636139127882192 0 -8.3757618330540461e-05 -0.024469613703489816 0 -5.6138021172525284e-05 -0.024615588818908515 0 -5.0208560654526127e-07 -0.024998678610304852 0 -4.70667301180985e-05 -0.024636139127882192 0 -1.7377054614542836e-08 -0.024999882304756863 0 -2.6520101987403115e-05 -0.024738517501610668 0 -3.6601771476785052e-09 -0.024999998431188063 0 6.5585535719781469e-09 -0.0250000019748257 0 1.3376348711178067e-06 -0.025000469899458918 0 -4.70667301180985e-05 -0.024636139127882192 0 -8.3757618330540461e-05 -0.024469613703489816 0 -9.9468212418262373e-05 -0.024423967676499781 0 -8.3757618330540461e-05 -0.024469613703489816 0 -9.9468212418262373e-05 -0.024423967676499781 0 -7.8984008064227225e-05 -0.024487140473830594 0 -9.9468212418262373e-05 -0.024423967676499781 0 -7.8984008064227225e-05 -0.024487140473830594 0 -0.00012934503197692344 -0.024498215989973149 0 -2.2084691977209478e-05 -0.024539509382479792 0 -8.3757618330540461e-05 -0.024469613703489816 0 -7.8984008064227225e-05 -0.024487140473830594 0 1.5215351301544184e-05 -0.024995080057314441 0 -1.161472460057609e-08 -0.025000001390748441 0 1.3376348711178067e-06 -0.025000469899458918 0 -1.161472460057609e-08 -0.025000001390748441 0 6.5585535719781469e-09 -0.0250000019748257 0 1.3376348711178067e-06 -0.025000469899458918 0 -1.2301901581972934e-05 -0.024771800421822737 0 -2.6520101987403115e-05 -0.024738517501610668 0 -0.00021635069130234713 -0.023944098888163016 0 -0.00015644114667185178 -0.024091805474679991 0 -0.0001743423374198172 -0.023837257439732924 0 -0.00013839437994624514 -0.024289009701983982 0 -0.00021635069130234713 -0.023944098888163016 0 -0.00015644114667185178 -0.024091805474679991 0 -0.00013839437994624514 -0.024289009701983982 0 -9.9468212418262373e-05 -0.024423967676499781 0 -0.00015644114667185178 -0.024091805474679991 0 -0.00011141014594295853 -0.02437809968976181 0 -0.00013819660852060819 -0.024222806821750174 0 -9.9468212418262373e-05 -0.024423967676499781 0 -0.00015644114667185178 -0.024091805474679991 0 -0.00019139419959397774 -0.023927529669159325 0 -8.5276641378381925e-05 -0.024525570074281914 0 -7.8984008064227225e-05 -0.024487140473830594 0 -0.00012934503197692344 -0.024498215989973149 0 -0.00015644114667185178 -0.024091805474679991 0 -0.00019139419959397774 -0.023927529669159325 0 -0.0001743423374198172 -0.023837257439732924 0 -0.00026093258519616433 -0.023766850665583851 0 -0.0001743423374198172 -0.023837257439732924 0 -0.00036229954297552859 -0.023572182391531023 0 -0.00021635069130234713 -0.023944098888163016 0 -0.0001743423374198172 -0.023837257439732924 0 -0.00036229954297552859 -0.023572182391531023 0 -0.00021635069130234713 -0.023944098888163016 0 -0.00035650150516841839 -0.023694836909029508 0 -0.00036229954297552859 -0.023572182391531023 0 -0.00035650150516841839 -0.023694836909029508 0 -0.00036229954297552859 -0.023572182391531023 0 -0.00047748279654146733 -0.023379153102878619 0 -0.00035650150516841839 -0.023694836909029508 0 -0.00047748279654146733 -0.023379153102878619 0 -0.00043745578203290827 -0.02352976436871183 0 -0.00036229954297552859 -0.023572182391531023 0 -0.00055265749041799952 -0.023384853863722414 0 -0.00047748279654146733 -0.023379153102878619 0 -0.00026093258519616433 -0.023766850665583851 0 -0.00036229954297552859 -0.023572182391531023 0 -0.00055265749041799952 -0.023384853863722414 0 -0.0010115805572498955 -0.023058869994825964 0 -0.00055265749041799952 -0.023384853863722414 0 -0.00067253843621134621 -0.02310471568853615 0 -0.00055265749041799952 -0.023384853863722414 0 -0.00067253843621134621 -0.02310471568853615 0 -0.00047748279654146733 -0.023379153102878619 0 -0.0010115805572498955 -0.023058869994825964 0 -0.00093560041549432447 -0.022843496939479263 0 -0.00067253843621134621 -0.02310471568853615 0 -0.00093560041549432447 -0.022843496939479263 0 -0.00067253843621134621 -0.02310471568853615 0 -0.00057963528278789152 -0.022932023591161345 0 -0.00057963528278789152 -0.022932023591161345 0 -0.00044177153768055945 -0.023350472684222408 0 -0.00013639317540731682 -0.023745637733967841 0 -0.00067253843621134621 -0.02310471568853615 0 -0.00057963528278789152 -0.022932023591161345 0 -0.00052880285713458866 -0.023223573484851715 0 -0.00057963528278789152 -0.022932023591161345 0 -0.00044177153768055945 -0.023350472684222408 0 -0.00052880285713458866 -0.023223573484851715 0 -0.00067253843621134621 -0.02310471568853615 0 -0.00047748279654146733 -0.023379153102878619 0 -0.00052880285713458866 -0.023223573484851715 0 -0.00044177153768055945 -0.023350472684222408 0 -0.00052880285713458866 -0.023223573484851715 0 -0.00043745578203290827 -0.02352976436871183 0 -0.00047748279654146733 -0.023379153102878619 0 -0.00052880285713458866 -0.023223573484851715 0 -0.00043745578203290827 -0.02352976436871183 0 -0.00043745578203290827 -0.02352976436871183 0 -0.00037635025218586107 -0.023647727174021953 0 -0.00035329935704739957 -0.023809462587717597 0 -0.00044177153768055945 -0.023350472684222408 0 -0.00043745578203290827 -0.02352976436871183 0 -0.00037635025218586107 -0.023647727174021953 0 -0.00037635025218586107 -0.023647727174021953 0 -0.00021160420275428821 -0.023672085605182219 0 -0.00030842814559568088 -0.023837965042849216 0 -0.00037635025218586107 -0.023647727174021953 0 -0.00030842814559568088 -0.023837965042849216 0 -0.00035329935704739957 -0.023809462587717597 0 -0.00051723534214799332 -0.022940288385568008 0 -0.00049689933475470993 -0.023101510699358431 0 -0.00088643941344463339 -0.022405398951740561 0 -0.00057963528278789152 -0.022932023591161345 0 -0.00063835305795604722 -0.022209148505453351 0 -0.00032860731928227089 -0.023522007497380929 0 -0.00049689933475470993 -0.023101510699358431 0 -0.00044177153768055945 -0.023350472684222408 0 -0.00037635025218586107 -0.023647727174021953 0 -0.00021160420275428821 -0.023672085605182219 0 -0.00096149821353907442 -0.022113715406157246 0 -0.00088643941344463339 -0.022405398951740561 0 -0.00063835305795604722 -0.022209148505453351 0 -0.00096149821353907442 -0.022113715406157246 0 -0.0009513775481089637 -0.02192251846997224 0 -0.00063835305795604722 -0.022209148505453351 0 -0.00067833554120128611 -0.023025284237664194 0 -0.00065918963498310876 -0.023020857420293292 0 -0.00065645499223864726 -0.02306749411067938 0 -0.00044637059109592066 -0.02358229715833941 0 -0.00049689933475470993 -0.023101510699358431 0 -0.0002337704780450651 -0.024007784217095214 0 -0.00021160420275428821 -0.023672085605182219 0 -0.00030842814559568088 -0.023837965042849216 0 -0.00083708328508135172 -0.022358863361689782 0 -0.00049689933475470993 -0.023101510699358431 0 -0.00030212550869312282 -0.023997221018927976 0 -0.00030842814559568088 -0.023837965042849216 0 -0.00035329935704739957 -0.023809462587717597 0 -0.00030212550869312282 -0.023997221018927976 0 -0.00024736023074046478 -0.024081136922061055 0 -0.00035329935704739957 -0.023809462587717597 0 -0.00021635069130234713 -0.023944098888163016 0 -0.00035650150516841839 -0.023694836909029508 0 -0.00024736023074046478 -0.024081136922061055 0 -0.00035650150516841839 -0.023694836909029508 0 -0.00024736023074046478 -0.024081136922061055 0 -0.00035329935704739957 -0.023809462587717597 0 -0.00035650150516841839 -0.023694836909029508 0 -0.00043745578203290827 -0.02352976436871183 0 -0.00035329935704739957 -0.023809462587717597 0 0.00042082547767275313 -0.0047430540299838167 0 -0.00034682144718632983 -0.0043983017365471222 0 0.00090734759517233511 -0.0040618788227983864 0 0.00042082547767275313 -0.0047430540299838167 0 0.0011186967494209829 -0.0046177909892583229 0 0.00090734759517233511 -0.0040618788227983864 0 -0.00050873082114993992 -0.0038583380777507939 0 0.00077831946263188471 -0.0043699079205800446 0 0.0015825932404779502 -0.0042476379412675538 0 0.0011186967494209829 -0.0046177909892583229 0 0.0018751447379036325 -0.00504433576507567 0 0.0015825932404779502 -0.0042476379412675538 0 0.0011186967494209829 -0.0046177909892583229 0 0.00090734759517233511 -0.0040618788227983864 0 0.00095840416397562035 -0.0051455821900653915 0 0.002202022925312287 -0.0046056374261659386 0 0.0016947944214012565 -0.0056961502102197779 0 0.0011186967494209829 -0.0046177909892583229 0 0.00095840416397562035 -0.0051455821900653915 0 0.0018751447379036325 -0.00504433576507567 0 0.0010563791108222306 -0.0050996445379956875 0 0.0020446499345121382 -0.0048517797056927972 0 0.00042082547767275313 -0.0047430540299838167 0 0.0011186967494209829 -0.0046177909892583229 0 0.00095840416397562035 -0.0051455821900653915 0 0.00042082547767275313 -0.0047430540299838167 0 0.00095840416397562035 -0.0051455821900653915 0 8.8726679233006636e-05 -0.0054392053883834347 0 0.00095840416397562035 -0.0051455821900653915 0 8.8726679233006636e-05 -0.0054392053883834347 0 0.00058801283941124554 -0.0059733027198951598 0 8.8726679233006636e-05 -0.0054392053883834347 0 -0.00071836268055192358 -0.0052801614532934308 0 -0.00072820881718813025 -0.0059262269112508184 0 8.8726679233006636e-05 -0.0054392053883834347 0 -0.00013363893151066512 -0.0049656638448816008 0 -0.00071836268055192358 -0.0052801614532934308 0 -0.00013363893151066512 -0.0049656638448816008 0 -0.00071836268055192358 -0.0052801614532934308 0 -0.00034682144718632983 -0.0043983017365471222 0 0.00042082547767275313 -0.0047430540299838167 0 8.8726679233006636e-05 -0.0054392053883834347 0 -0.00013363893151066512 -0.0049656638448816008 0 -0.00071836268055192358 -0.0052801614532934308 0 -0.001278727325227966 -0.0051585155955606241 0 -0.00034682144718632983 -0.0043983017365471222 0 -0.001197585926785188 -0.0055615944205416957 0 -0.00071836268055192358 -0.0052801614532934308 0 -0.001278727325227966 -0.0051585155955606241 0 -0.001197585926785188 -0.0055615944205416957 0 -0.00071836268055192358 -0.0052801614532934308 0 -0.00072820881718813025 -0.0059262269112508184 0 -0.0013806931148567262 -0.0047001547117796454 0 -0.00066213425442034773 -0.0050533824093541811 0 -0.0024607038118531197 -0.0059307034255542358 0 -0.00050873082114993992 -0.0038583380777507939 0 -0.0012602333434292008 -0.011099272831733212 0 -0.001278727325227966 -0.0051585155955606241 0 -0.00034682144718632983 -0.0043983017365471222 0 -0.0017357991138648749 -0.0049764866971695092 0 -0.0013806931148567262 -0.0047001547117796454 0 -0.0024607038118531197 -0.0059307034255542358 0 -0.0020040762182181033 -0.0045772034648239503 0 0.00042082547767275313 -0.0047430540299838167 0 -0.00013363893151066512 -0.0049656638448816008 0 -0.00034682144718632983 -0.0043983017365471222 0 -0.00066213425442034773 -0.0050533824093541811 0 -0.00091606376228632548 -0.0042376994160057864 0 0.00014003295580678965 -0.0040976998297604945 0 -0.00091606376228632548 -0.0042376994160057864 0 -0.0013550108764081301 -0.0034288064325431336 0 0.00014003295580678965 -0.0040976998297604945 0 -0.0010875953341954927 -0.0033568514398932699 0 -0.00033432746680491426 -0.0035154471842872713 0 0.00014003295580678965 -0.0040976998297604945 0 -0.0014927771638400011 -0.0060310011269674724 0 -6.341901878299574e-06 -0.0032960870093613637 0 -0.0014252745428751932 -0.0040371504174679601 0 -0.0015129915787873316 -0.0033356724159647991 0 -0.0020040762182181033 -0.0045772034648239503 0 0.00014837580626803659 -0.010846344512480816 0 -0.0016086022221928019 -0.013044494225680849 0 -0.0013806931148567262 -0.0047001547117796454 0 -0.0014252745428751932 -0.0040371504174679601 0 -0.0020040762182181033 -0.0045772034648239503 0 -0.0013806931148567262 -0.0047001547117796454 0 -0.00066213425442034773 -0.0050533824093541811 0 -0.00091606376228632548 -0.0042376994160057864 0 -0.0013806931148567262 -0.0047001547117796454 0 -0.00091606376228632548 -0.0042376994160057864 0 -0.0014252745428751932 -0.0040371504174679601 0 -0.00091606376228632548 -0.0042376994160057864 0 -0.0014252745428751932 -0.0040371504174679601 0 -0.0013550108764081301 -0.0034288064325431336 0 -0.0014252745428751932 -0.0040371504174679601 0 -0.0015129915787873316 -0.0033356724159647991 0 -0.0013550108764081301 -0.0034288064325431336 0 0.00014837580626803659 -0.010846344512480816 0 -0.0014927771638400011 -0.0060310011269674724 0 -0.0011941416697568233 -0.0033194612013744849 0 -0.0010575845992699135 -0.0033922623009320185 0 -0.0010288450974818286 -0.0028320254486966095 0 -0.0010575845992699135 -0.0033922623009320185 0 -0.00047816948961831163 -0.0030146560872380199 0 -0.0010288450974818286 -0.0028320254486966095 0 0.00014837580626803659 -0.010846344512480816 0 0.00087467010774111532 -0.0070334335089745556 0 0.00076282368502148456 -0.0096348890215847364 0 0.00098994968131623255 -0.0089794697835428403 0 0.00087141840172845573 -0.0090307217197498069 0 -0.0010575845992699135 -0.0033922623009320185 0 -0.00033432746680491426 -0.0035154471842872713 0 -0.00047816948961831163 -0.0030146560872380199 0 -0.0014927771638400011 -0.0060310011269674724 0 -0.00053575214931061109 -0.0037390768657633608 0 -0.00033432746680491426 -0.0035154471842872713 0 -0.00047816948961831163 -0.0030146560872380199 0 0.00014875751911575734 -0.0030385144405737936 0 -0.00033432746680491426 -0.0035154471842872713 0 0.00014875751911575734 -0.0030385144405737936 0 0.00048350726854561575 -0.0035746962775242285 0 0.00014875751911575734 -0.0030385144405737936 0 0.00066700997123441655 -0.0031501897560040027 0 0.00070299091702064932 -0.0026823110300363746 0 0.00066700997123441655 -0.0031501897560040027 0 0.00048350726854561575 -0.0035746962775242285 0 0.00099182898376469052 -0.003421958111849384 0 0.00014875751911575734 -0.0030385144405737936 0 0.00066700997123441655 -0.0031501897560040027 0 0.00048350726854561575 -0.0035746962775242285 0 -0.00066213425442034773 -0.0050533824093541811 0 0.00014003295580678965 -0.0040976998297604945 0 0.00090734759517233511 -0.0040618788227983864 0 -0.00033432746680491426 -0.0035154471842872713 0 0.00048350726854561575 -0.0035746962775242285 0 0.00014003295580678965 -0.0040976998297604945 0 0.00048350726854561575 -0.0035746962775242285 0 0.00090734759517233511 -0.0040618788227983864 0 0.00099182898376469052 -0.003421958111849384 0 0.00048350726854561575 -0.0035746962775242285 0 0.00014003295580678965 -0.0040976998297604945 0 0.00090734759517233511 -0.0040618788227983864 0 0.0015825932404779502 -0.0042476379412675538 0 0.00090734759517233511 -0.0040618788227983864 0 0.0014745808528277911 -0.0035925635286143572 0 0.00090734759517233511 -0.0040618788227983864 0 0.0014745808528277911 -0.0035925635286143572 0 0.00099182898376469052 -0.003421958111849384 0 0.0014745808528277911 -0.0035925635286143572 0 0.00099182898376469052 -0.003421958111849384 0 0.0012125118563194785 -0.0028690487822354144 0 0.00066700997123441655 -0.0031501897560040027 0 0.00099182898376469052 -0.003421958111849384 0 0.0012125118563194785 -0.0028690487822354144 0 0.00066700997123441655 -0.0031501897560040027 0 0.0012125118563194785 -0.0028690487822354144 0 0.00070299091702064932 -0.0026823110300363746 0 0.0014745808528277911 -0.0035925635286143572 0 0.0012125118563194785 -0.0028690487822354144 0 0.0017533278906760432 -0.002945991306904993 0 0.0017533278906760432 -0.002945991306904993 0 0.0024537845500682059 -0.0030009703271766833 0 0.0020013761637803396 -0.0037109358415161864 0 0.0014745808528277911 -0.0035925635286143572 0 0.0017533278906760432 -0.002945991306904993 0 0.0020013761637803396 -0.0037109358415161864 0 0.0017533278906760432 -0.002945991306904993 0 0.0024537845500682059 -0.0030009703271766833 0 0.0021896086992078249 -0.0024239758899922657 0 0.0024537845500682059 -0.0030009703271766833 0 0.0025543735975637641 -0.0036180360752435439 0 0.0032203133347413369 -0.0030467210164070654 0 0.0024537845500682059 -0.0030009703271766833 0 0.0032203133347413369 -0.0030467210164070654 0 0.0031456722664846139 -0.0023221802965661454 0 0.0024537845500682059 -0.0030009703271766833 0 0.0025543735975637641 -0.0036180360752435439 0 0.0020013761637803396 -0.0037109358415161864 0 0.0025543735975637641 -0.0036180360752435439 0 0.0032783760267346613 -0.0041885602717061541 0 0.0027462945242633678 -0.0042517590537864353 0 0.0025543735975637641 -0.0036180360752435439 0 0.0022639598008377519 -0.0043493105878998229 0 0.0027462945242633678 -0.0042517590537864353 0 0.0015825932404779502 -0.0042476379412675538 0 0.0020013761637803396 -0.0037109358415161864 0 0.0022639598008377519 -0.0043493105878998229 0 0.0025543735975637641 -0.0036180360752435439 0 0.0020013761637803396 -0.0037109358415161864 0 0.0022639598008377519 -0.0043493105878998229 0 0.0015825932404779502 -0.0042476379412675538 0 0.0014745808528277911 -0.0035925635286143572 0 0.0020013761637803396 -0.0037109358415161864 0 0.003955775772412449 -0.0013202759363704387 0 0.0037070877306279843 -0.0017536366008368601 0 0.0042262662009474351 -0.001706549727347808 0 0.00398197469722245 -0.00091220442138010194 0 0.0036440817765652565 -0.002957209065361335 0 0.0025543735975637641 -0.0036180360752435439 0 0.0032203133347413369 -0.0030467210164070654 0 0.0038030657750037686 -0.0035175940098777923 0 0.0042175701143770785 -0.0027881625836051389 0 0.0032203133347413369 -0.0030467210164070654 0 0.0038030657750037686 -0.0035175940098777923 0 0.0025543735975637641 -0.0036180360752435439 0 0.0034986197570115998 -0.0036995370225223006 0 0.0036589778138215474 -0.0035307512259936881 0 0.0026465912704967212 -0.0037345938393094922 0 0.0036440817765652565 -0.002957209065361335 0 0.0025543735975637641 -0.0036180360752435439 0 0.0032783760267346613 -0.0041885602717061541 0 0.0034986197570115998 -0.0036995370225223006 0 0.0033423344803987301 -0.0035986378754154242 0 0.0036440817765652565 -0.002957209065361335 0 0.003421918740764503 -0.0029804102739965626 0 0.0037808679589572177 -0.0023713463195957399 0 0.0038304676767623538 -0.00289673391882891 0 0.0032783760267346613 -0.0041885602717061541 0 0.0034986197570115998 -0.0036995370225223006 0 0.0036616327485762289 -0.0035287633214210056 0 0.003464864414940194 -0.0032849694144257077 0 0.0036440817765652565 -0.002957209065361335 0 0.0036440817765652565 -0.002957209065361335 0 0.0044306077996669373 -0.002014900721345365 0 0.0037808679589572177 -0.0023713463195957399 0 0.0042202869707633622 -0.0028270407359494991 0 0.0045172783595596802 -0.0023207124947052515 0 0.0037808679589572177 -0.0023713463195957399 0 0.0038304676767623538 -0.00289673391882891 0 0.0042202869707633622 -0.0028270407359494991 0 0.0042202869707633622 -0.0028270407359494991 0 0.0038994915703272565 -0.0034140153949671279 0 0.0047362131305589018 -0.0032294092637518337 0 0.0040875705319492412 -0.0035104719747583507 0 0.0046855968130178434 -0.003283552558408676 0 0.0041545679835317366 -0.0036671102008827708 0 0.0043866406217539294 -0.0041189345623808679 0 0.0047362131305589018 -0.0032294092637518337 0 0.0038304676767623538 -0.00289673391882891 0 0.0042202869707633622 -0.0028270407359494991 0 0.0038994915703272565 -0.0034140153949671279 0 0.0041545679835317366 -0.0036671102008827708 0 0.0037624717705850822 -0.0042183540722175459 0 0.0034322277528073424 -0.0041380294601867139 0 0.003421918740764503 -0.0029804102739965626 0 0.0038994915703272565 -0.0034140153949671279 0 0.0030644656240051823 -0.0035994951428999587 0 0.0040875705319492412 -0.0035104719747583507 0 0.0031400517740267134 -0.0041623986471672689 0 0.003421918740764503 -0.0029804102739965626 0 0.0038304676767623538 -0.00289673391882891 0 0.0038994915703272565 -0.0034140153949671279 0 0.0033423344803987301 -0.0035986378754154242 0 0.0031400517740267134 -0.0041623986471672689 0 0.0037624717705850822 -0.0042183540722175459 0 0.0043866406217539294 -0.0041189345623808679 0 0.0033994737129004614 -0.0047036279285640158 0 0.0049633585975321489 -0.0052880455402227735 0 0.0033994737129004614 -0.0047036279285640158 0 0.0038798579258529746 -0.0053450879983132976 0 0.0046469240364642389 -0.0047354539004195208 0 0.0033985571496608271 -0.0046735066579155467 0 0.0041545679835317366 -0.0036671102008827708 0 0.0037624717705850822 -0.0042183540722175459 0 0.0043866406217539294 -0.0041189345623808679 0 0.0015825932404779502 -0.0042476379412675538 0 0.0022639598008377519 -0.0043493105878998229 0 0.0018751447379036325 -0.00504433576507567 0 0.0022639598008377519 -0.0043493105878998229 0 0.0028867817827252481 -0.0048564928583141086 0 0.0018751447379036325 -0.00504433576507567 0 0.0022639598008377519 -0.0043493105878998229 0 0.0027462945242633678 -0.0042517590537864353 0 0.0028867817827252481 -0.0048564928583141086 0 0.0032783760267346613 -0.0041885602717061541 0 0.0027462945242633678 -0.0042517590537864353 0 0.0028867817827252481 -0.0048564928583141086 0 0.0031400517740267134 -0.0041623986471672689 0 0.0020446499345121382 -0.0048517797056927972 0 0.0027760294384646181 -0.0047506138795498781 0 0.0033387357625554049 -0.0044000293081255595 0 0.0033994737129004614 -0.0047036279285640158 0 0.0034877884027430862 -0.0041193890789814596 0 0.0027760294384646181 -0.0047506138795498781 0 0.002202022925312287 -0.0046056374261659386 0 0.0034877884027430862 -0.0041193890789814596 0 0.0027760294384646181 -0.0047506138795498781 0 0.0033387357625554049 -0.0044000293081255595 0 0.0037624717705850822 -0.0042183540722175459 0 0.0033387357625554049 -0.0044000293081255595 0 0.0033994737129004614 -0.0047036279285640158 0 0.0037624717705850822 -0.0042183540722175459 0 0.0034322277528073424 -0.0041380294601867139 0 0.0033387357625554049 -0.0044000293081255595 0 0.0031400517740267134 -0.0041623986471672689 0 0.0031936356938778478 -0.0041918492805580214 0 0.0033994737129004614 -0.0047036279285640158 0 0.0031813268248491234 -0.0051437773188380033 0 0.0038798579258529746 -0.0053450879983132976 0 0.0027760294384646181 -0.0047506138795498781 0 0.0033994737129004614 -0.0047036279285640158 0 0.0031813268248491234 -0.0051437773188380033 0 0.0027760294384646181 -0.0047506138795498781 0 0.0031813268248491234 -0.0051437773188380033 0 0.0026141905628515481 -0.0054185028312717437 0 0.0027760294384646181 -0.0047506138795498781 0 0.002202022925312287 -0.0046056374261659386 0 0.0026141905628515481 -0.0054185028312717437 0 0.002202022925312287 -0.0046056374261659386 0 0.0026141905628515481 -0.0054185028312717437 0 0.0016947944214012565 -0.0056961502102197779 0 0.0026141905628515481 -0.0054185028312717437 0 0.0023115236549749374 -0.0063152055783075329 0 0.0016947944214012565 -0.0056961502102197779 0 0.0026141905628515481 -0.0054185028312717437 0 0.0030092923389491589 -0.0059874664952529561 0 0.0023115236549749374 -0.0063152055783075329 0 0.0026141905628515481 -0.0054185028312717437 0 0.003257597036783882 -0.0055515507109465592 0 0.0030092923389491589 -0.0059874664952529561 0 0.0031813268248491234 -0.0051437773188380033 0 0.0026141905628515481 -0.0054185028312717437 0 0.003257597036783882 -0.0055515507109465592 0 0.0031813268248491234 -0.0051437773188380033 0 0.003257597036783882 -0.0055515507109465592 0 0.0038798579258529746 -0.0053450879983132976 0 0.003257597036783882 -0.0055515507109465592 0 0.0035412397980327903 -0.006103457945534913 0 0.0030092923389491589 -0.0059874664952529561 0 0.003257597036783882 -0.0055515507109465592 0 0.0035412397980327903 -0.006103457945534913 0 0.0038251272153486536 -0.0057941348572506544 0 0.0030092923389491589 -0.0059874664952529561 0 0.0033153967149403452 -0.0066082026830554235 0 0.0023115236549749374 -0.0063152055783075329 0 0.0035412397980327903 -0.006103457945534913 0 0.0033153967149403452 -0.0066082026830554235 0 0.0040763970846927925 -0.0063842771791404367 0 0.0035412397980327903 -0.006103457945534913 0 0.0030092923389491589 -0.0059874664952529561 0 0.0033153967149403452 -0.0066082026830554235 0 0.0033153967149403452 -0.0066082026830554235 0 0.0037901038759206676 -0.0068999781934023108 0 0.0034544399826006013 -0.0074154799755059234 0 0.0033153967149403452 -0.0066082026830554235 0 0.0023115236549749374 -0.0063152055783075329 0 0.0024619760761782159 -0.0071742599982278065 0 0.0023115236549749374 -0.0063152055783075329 0 0.0024619760761782159 -0.0071742599982278065 0 0.0015008327193508527 -0.0072606701661090105 0 0.0049633585975321489 -0.0052880455402227735 0 0.0045892072847963051 -0.0057986170284921798 0 0.0038798579258529746 -0.0053450879983132976 0 0.0049633585975321489 -0.0052880455402227735 0 0.0045892072847963051 -0.0057986170284921798 0 0.0052997809781491559 -0.0062168265917668707 0 0.0045892072847963051 -0.0057986170284921798 0 0.0038251272153486536 -0.0057941348572506544 0 0.0040763970846927925 -0.0063842771791404367 0 0.0045892072847963051 -0.0057986170284921798 0 0.0038798579258529746 -0.0053450879983132976 0 0.0038251272153486536 -0.0057941348572506544 0 0.003257597036783882 -0.0055515507109465592 0 0.0038798579258529746 -0.0053450879983132976 0 0.0038251272153486536 -0.0057941348572506544 0 0.0035412397980327903 -0.006103457945534913 0 0.0038251272153486536 -0.0057941348572506544 0 0.0040763970846927925 -0.0063842771791404367 0 0.0040763970846927925 -0.0063842771791404367 0 0.0037901038759206676 -0.0068999781934023108 0 0.004294709425207305 -0.007192587607042159 0 0.0040763970846927925 -0.0063842771791404367 0 0.0046499793512518976 -0.0065962741507190987 0 0.004294709425207305 -0.007192587607042159 0 0.0045892072847963051 -0.0057986170284921798 0 0.0040763970846927925 -0.0063842771791404367 0 0.0046499793512518976 -0.0065962741507190987 0 0.0033153967149403452 -0.0066082026830554235 0 0.0040763970846927925 -0.0063842771791404367 0 0.0037901038759206676 -0.0068999781934023108 0 0.0045892072847963051 -0.0057986170284921798 0 0.0046499793512518976 -0.0065962741507190987 0 0.0052997809781491559 -0.0062168265917668707 0 0.0046499793512518976 -0.0065962741507190987 0 0.0049468820741852878 -0.007406822238159424 0 0.0052997809781491559 -0.0062168265917668707 0 0.0046499793512518976 -0.0065962741507190987 0 0.0049468820741852878 -0.007406822238159424 0 0.004294709425207305 -0.007192587607042159 0 0.0049468820741852878 -0.007406822238159424 0 0.004294709425207305 -0.007192587607042159 0 0.0046299321745822677 -0.0077515133754572406 0 0.004294709425207305 -0.007192587607042159 0 0.0043161174821298443 -0.007971784217822209 0 0.0046299321745822677 -0.0077515133754572406 0 0.0037901038759206676 -0.0068999781934023108 0 0.004294709425207305 -0.007192587607042159 0 0.0034544399826006013 -0.0074154799755059234 0 0.004294709425207305 -0.007192587607042159 0 0.0043161174821298443 -0.007971784217822209 0 0.0034544399826006013 -0.0074154799755059234 0 0.0043161174821298443 -0.007971784217822209 0 0.0034544399826006013 -0.0074154799755059234 0 0.0033991722842328003 -0.0086641527048785891 0 0.0043161174821298443 -0.007971784217822209 0 0.0033991722842328003 -0.0086641527048785891 0 0.0043196109489435433 -0.0089434945350509512 0 0.0043161174821298443 -0.007971784217822209 0 0.0052276627276217477 -0.0088784859138810925 0 0.0043196109489435433 -0.0089434945350509512 0 0.0047942306136315024 -0.0081890510149894361 0 0.0056210755617471147 -0.0072646023467113725 0 0.0048743928262762332 -0.0083784271095817577 0 0.0049468820741852878 -0.007406822238159424 0 0.0047942306136315024 -0.0081890510149894361 0 0.0056210755617471147 -0.0072646023467113725 0 0.0049468820741852878 -0.007406822238159424 0 0.0046299321745822677 -0.0077515133754572406 0 0.0047942306136315024 -0.0081890510149894361 0 0.0043161174821298443 -0.007971784217822209 0 0.0046299321745822677 -0.0077515133754572406 0 0.0047942306136315024 -0.0081890510149894361 0 0.0043161174821298443 -0.007971784217822209 0 0.0047942306136315024 -0.0081890510149894361 0 0.004794230573649914 -0.0082505466563969725 0 0.0045008408578529838 -0.0081079943935252995 0 0.0049672529185563752 -0.0080289943524496331 0 0.0049573721399882066 -0.0080611998414403876 0 0.0049672529185563752 -0.0080289943524496331 0 0.0024619760761782159 -0.0071742599982278065 0 0.0018416940214850009 -0.0080852872177677552 0 0.0015008327193508527 -0.0072606701661090105 0 0.0024619760761782159 -0.0071742599982278065 0 0.0027038181908616383 -0.008060775147175854 0 0.0018416940214850009 -0.0080852872177677552 0 0.0024619760761782159 -0.0071742599982278065 0 0.0034544399826006013 -0.0074154799755059234 0 0.0027038181908616383 -0.008060775147175854 0 0.0033153967149403452 -0.0066082026830554235 0 0.0024619760761782159 -0.0071742599982278065 0 0.0034544399826006013 -0.0074154799755059234 0 0.0033991722842328003 -0.0086641527048785891 0 0.0023775826320948331 -0.0089852397510933827 0 0.0027038181908616383 -0.008060775147175854 0 0.0034544399826006013 -0.0074154799755059234 0 0.0033991722842328003 -0.0086641527048785891 0 0.0027038181908616383 -0.008060775147175854 0 0.0023775826320948331 -0.0089852397510933827 0 0.0027038181908616383 -0.008060775147175854 0 0.0018416940214850009 -0.0080852872177677552 0 0.0023775826320948331 -0.0089852397510933827 0 0.0018416940214850009 -0.0080852872177677552 0 0.0012717747471238802 -0.0093216891619003622 0 0.0018416940214850009 -0.0080852872177677552 0 0.00074782947459796844 -0.0078304171371065597 0 0.0012717747471238802 -0.0093216891619003622 0 0.00024831510533659783 -0.0088368625457244734 0 0.00074782947459796844 -0.0078304171371065597 0 0.0012717747471238802 -0.0093216891619003622 0 0.00074782947459796844 -0.0078304171371065597 0 0.00055896859122327039 -0.0068535152074123253 0 -0.00018924437748926839 -0.007395208364145354 0 0.00074782947459796844 -0.0078304171371065597 0 0.0015008327193508527 -0.0072606701661090105 0 0.00055896859122327039 -0.0068535152074123253 0 0.00024831510533659783 -0.0088368625457244734 0 0.00074782947459796844 -0.0078304171371065597 0 -0.00018924437748926839 -0.007395208364145354 0 0.0018416940214850009 -0.0080852872177677552 0 0.00074782947459796844 -0.0078304171371065597 0 0.0015008327193508527 -0.0072606701661090105 0 0.0023115236549749374 -0.0063152055783075329 0 0.0015008327193508527 -0.0072606701661090105 0 0.0012585404813697867 -0.006450249877684007 0 0.0015008327193508527 -0.0072606701661090105 0 0.0012585404813697867 -0.006450249877684007 0 0.00055896859122327039 -0.0068535152074123253 0 0.0012585404813697867 -0.006450249877684007 0 0.00055896859122327039 -0.0068535152074123253 0 0.00058801283941124554 -0.0059733027198951598 0 0.00055896859122327039 -0.0068535152074123253 0 0.00058801283941124554 -0.0059733027198951598 0 -0.00013485462913482733 -0.0063555235850073282 0 8.8726679233006636e-05 -0.0054392053883834347 0 0.00058801283941124554 -0.0059733027198951598 0 -0.00013485462913482733 -0.0063555235850073282 0 0.00095840416397562035 -0.0051455821900653915 0 0.00058801283941124554 -0.0059733027198951598 0 0.0016947944214012565 -0.0056961502102197779 0 0.0012585404813697867 -0.006450249877684007 0 0.00058801283941124554 -0.0059733027198951598 0 0.0016947944214012565 -0.0056961502102197779 0 0.0023115236549749374 -0.0063152055783075329 0 0.0012585404813697867 -0.006450249877684007 0 0.0016947944214012565 -0.0056961502102197779 0 -0.00072820881718813025 -0.0059262269112508184 0 -0.0007530259790663737 -0.0066373844465596578 0 -0.0014319055569438572 -0.0061627716013399744 0 -0.001197585926785188 -0.0055615944205416957 0 -0.00072820881718813025 -0.0059262269112508184 0 -0.0014319055569438572 -0.0061627716013399744 0 8.8726679233006636e-05 -0.0054392053883834347 0 -0.00072820881718813025 -0.0059262269112508184 0 -0.00013485462913482733 -0.0063555235850073282 0 -0.00072820881718813025 -0.0059262269112508184 0 -0.00013485462913482733 -0.0063555235850073282 0 -0.0007530259790663737 -0.0066373844465596578 0 -0.00013485462913482733 -0.0063555235850073282 0 -0.0007530259790663737 -0.0066373844465596578 0 -0.00018924437748926839 -0.007395208364145354 0 0.00055896859122327039 -0.0068535152074123253 0 -0.00013485462913482733 -0.0063555235850073282 0 -0.00018924437748926839 -0.007395208364145354 0 -0.0011675905110625729 -0.0088906575968585883 0 -0.0016659427221274738 -0.006933600712667509 0 -0.0007530259790663737 -0.0066373844465596578 0 -0.0011658679980584505 -0.0073962812397470844 0 -0.0014319055569438572 -0.0061627716013399744 0 -0.0007530259790663737 -0.0066373844465596578 0 -0.0011658679980584505 -0.0073962812397470844 0 -0.00018924437748926839 -0.007395208364145354 0 -0.0013226306656406604 -0.0097917551233853706 0 -0.0015070725127733101 -0.010219687624115107 0 -0.0012896331865670468 -0.0099132779674645823 0 -0.0011658679980584505 -0.0073962812397470844 0 -0.00018924437748926839 -0.007395208364145354 0 -0.00084021896790729923 -0.0088226441818979821 0 -0.0011675905110625729 -0.0088906575968585883 0 -0.00087132120946635484 -0.0093220613573634509 0 0.00024831510533659783 -0.0088368625457244734 0 -0.00018924437748926839 -0.007395208364145354 0 -0.00084021896790729923 -0.0088226441818979821 0 -0.0013226306656406604 -0.0097917551233853706 0 -0.0009149555422777191 -0.0098471229054476264 0 -0.0013516039882024878 -0.0098109502948471837 0 -0.0016978367860681863 -0.011230909389023304 0 -0.001780936616928261 -0.010976356674287376 0 -0.0019121199323041561 -0.01120641419489629 0 -0.0016978367860681863 -0.011230909389023304 0 -0.001780936616928261 -0.010976356674287376 0 -0.0015986001152281006 -0.010750831441048027 0 -0.0015249443685428979 -0.010525292724551315 0 -0.0014622669132656394 -0.010326985231302242 0 -0.0013226306656406604 -0.0097917551233853706 0 -0.0013516039882024878 -0.0098109502948471837 0 -0.0012896331865670468 -0.0099132779674645823 0 -0.001780936616928261 -0.010976356674287376 0 -0.002050158495532407 -0.011041828491343999 0 -0.001749075725422173 -0.01049248918872858 0 -0.001780936616928261 -0.010976356674287376 0 -0.002050158495532407 -0.011041828491343999 0 -0.0019121199323041561 -0.01120641419489629 0 -0.002050158495532407 -0.011041828491343999 0 -0.0022494034553968327 -0.011520430455372679 0 -0.0020344892607468122 -0.011398317035560828 0 -0.0016978367860681863 -0.011230909389023304 0 -0.0019121199323041561 -0.01120641419489629 0 -0.0020344892607468122 -0.011398317035560828 0 -0.002050158495532407 -0.011041828491343999 0 -0.0019121199323041561 -0.01120641419489629 0 -0.0020344892607468122 -0.011398317035560828 0 -0.0010445318336409532 -0.021058636178384656 0 -0.0011135075974823018 -0.021135863400588199 0 -0.0010475974303897862 -0.021158660099137843 0 -0.00085898023155737816 -0.021418885983282499 0 -0.0013949538210007127 -0.017317455973147839 0 -0.0011139265901913354 -0.02075795499212027 0 -0.0010051650982434337 -0.020642544418815526 0 -0.0010833166073262771 -0.02040603812328905 0 -0.0015671171674539776 -0.015536542803409457 0 -0.0013949538210007127 -0.017317455973147839 0 -0.0010445318336409532 -0.021058636178384656 0 -0.0011830241642800366 -0.021074629667299106 0 -0.0011135075974823018 -0.021135863400588199 0 -0.0011830241642800366 -0.021074629667299106 0 -0.0011135075974823018 -0.021135863400588199 0 -0.0012158515922342133 -0.021189154245850907 0 -0.0011830241642800366 -0.021074629667299106 0 -0.0010669603811170616 -0.020858129235795286 0 -0.0012823536705658107 -0.020968332984309682 0 -0.0010445318336409532 -0.021058636178384656 0 -0.0011830241642800366 -0.021074629667299106 0 -0.0010669603811170616 -0.020858129235795286 0 -0.0010669603811170616 -0.020858129235795286 0 -0.0010854081372891613 -0.020808761041766481 0 -0.0012823536705658107 -0.020968332984309682 0 -0.00085898023155737816 -0.021418885983282499 0 -0.0011170610642630156 -0.020650592894108429 0 -0.0010051650982434337 -0.020642544418815526 0 -0.0010610528797460738 -0.020765723405553223 0 -0.0010669603811170616 -0.020858129235795286 0 -0.0011139265901913354 -0.02075795499212027 0 -0.0010051650982434337 -0.020642544418815526 0 -0.0010610528797460738 -0.020765723405553223 0 -0.0010610528797460738 -0.020765723405553223 0 -0.0010669603811170616 -0.020858129235795286 0 -0.0010603880878555542 -0.020803512310510541 0 -0.0011139265901913354 -0.02075795499212027 0 -0.0010610528797460738 -0.020765723405553223 0 -0.0010603880878555542 -0.020803512310510541 0 -0.0011139265901913354 -0.02075795499212027 0 -0.0010603880878555542 -0.020803512310510541 0 -0.001049203539826645 -0.020772907558454616 0 -0.0010603880878555542 -0.020803512310510541 0 -0.0010836634441033794 -0.020780707963337326 0 -0.001049203539826645 -0.020772907558454616 0 -0.0010603880878555542 -0.020803512310510541 0 -0.0010836634441033794 -0.020780707963337326 0 -0.0010854081372891613 -0.020808761041766481 0 -0.0010669603811170616 -0.020858129235795286 0 -0.0010603880878555542 -0.020803512310510541 0 -0.0010854081372891613 -0.020808761041766481 0 -0.0010836634441033794 -0.020780707963337326 0 -0.001049203539826645 -0.020772907558454616 0 -0.0010630801528198751 -0.020757920599802904 0 -0.0010854081372891613 -0.020808761041766481 0 -0.0011171988788789698 -0.020783136251440158 0 -0.0011593591252923568 -0.020789517097064756 0 -0.0010889694736248197 -0.020821473065815416 0 -0.0012221047512166513 -0.020907162706874559 0 -0.0010854081372891613 -0.020808761041766481 0 -0.0011777749033489919 -0.02085082174811824 0 -0.0011593591252923568 -0.020789517097064756 0 -0.0010836634441033794 -0.020780707963337326 0 -0.0010854081372891613 -0.020808761041766481 0 -0.0011171988788789698 -0.020783136251440158 0 -0.0010836634441033794 -0.020780707963337326 0 -0.0011171988788789698 -0.020783136251440158 0 -0.0011105284499833841 -0.020766705420759514 0 -0.0011608286733776852 -0.020769981885815657 0 -0.0011385746282047155 -0.020770587154336884 0 -0.0011593591252923568 -0.020789517097064756 0 -0.0011171988788789698 -0.020783136251440158 0 -0.0011385746282047155 -0.020770587154336884 0 -0.0011593591252923568 -0.020789517097064756 0 -0.0011608286733776852 -0.020769981885815657 0 -0.0011385746282047155 -0.020770587154336884 0 -0.0011524476468029734 -0.020761641636767532 0 -0.0011105284499833841 -0.020766705420759514 0 -0.001128717787696633 -0.020754807319624098 0 -0.0010874277613243822 -0.02074815394127329 0 -0.0011385746282047155 -0.020770587154336884 0 -0.0011105284499833841 -0.020766705420759514 0 -0.001128717787696633 -0.020754807319624098 0 -0.0011171988788789698 -0.020783136251440158 0 -0.0011385746282047155 -0.020770587154336884 0 -0.0011105284499833841 -0.020766705420759514 0 -0.0011114649294496474 -0.020732226138419539 0 -0.001128717787696633 -0.020754807319624098 0 -0.0011585567735539605 -0.020751765796968982 0 -0.0011114649294496474 -0.020732226138419539 0 -0.001128717787696633 -0.020754807319624098 0 -0.0010874277613243822 -0.02074815394127329 0 -0.001128717787696633 -0.020754807319624098 0 -0.0011524476468029734 -0.020761641636767532 0 -0.0011585567735539605 -0.020751765796968982 0 -0.0011385746282047155 -0.020770587154336884 0 -0.001128717787696633 -0.020754807319624098 0 -0.0011524476468029734 -0.020761641636767532 0 -0.0011524476468029734 -0.020761641636767532 0 -0.0011733101470077082 -0.020764250164222151 0 -0.0011585567735539605 -0.020751765796968982 0 -0.0011608286733776852 -0.020769981885815657 0 -0.0011524476468029734 -0.020761641636767532 0 -0.0011733101470077082 -0.020764250164222151 0 -0.0010630801528198751 -0.020757920599802904 0 -0.0010874277613243822 -0.02074815394127329 0 -0.0010288149164034591 -0.020721473525897042 0 -0.001049203539826645 -0.020772907558454616 0 -0.0010630801528198751 -0.020757920599802904 0 -0.0010288149164034591 -0.020721473525897042 0 -0.0010836634441033794 -0.020780707963337326 0 -0.0010630801528198751 -0.020757920599802904 0 -0.0010874277613243822 -0.02074815394127329 0 -0.0010836634441033794 -0.020780707963337326 0 -0.0011105284499833841 -0.020766705420759514 0 -0.0010874277613243822 -0.02074815394127329 0 -0.0011114649294496474 -0.020732226138419539 0 -0.0010874277613243822 -0.02074815394127329 0 -0.0010636584082173342 -0.020699726108911635 0 -0.0010874277613243822 -0.02074815394127329 0 -0.0010288149164034591 -0.020721473525897042 0 -0.0010636584082173342 -0.020699726108911635 0 -0.0010288149164034591 -0.020721473525897042 0 -0.00096361841517472236 -0.020652450432015926 0 -0.00096835023163168376 -0.020621274298293878 0 -0.001049203539826645 -0.020772907558454616 0 -0.0010288149164034591 -0.020721473525897042 0 -0.00097403712989688001 -0.020731887755894563 0 -0.0010288149164034591 -0.020721473525897042 0 -0.00097403712989688001 -0.020731887755894563 0 -0.00096361841517472236 -0.020652450432015926 0 -0.00097403712989688001 -0.020731887755894563 0 -0.00096361841517472236 -0.020652450432015926 0 -0.00087495352890590945 -0.020531882335398811 0 -0.0013620267812841284 -0.0160154731509244 0 -0.0015809164336398273 -0.013802433265497432 0 -0.001749075725422173 -0.01049248918872858 0 -0.001527736409500506 -0.010316884666988064 0 -0.0015986001152281006 -0.010750831441048027 0 -0.001527736409500506 -0.010316884666988064 0 -0.0015070725127733101 -0.010219687624115107 0 -0.0012896331865670468 -0.0099132779674645823 0 -0.001527736409500506 -0.010316884666988064 0 -0.0015070725127733101 -0.010219687624115107 0 -0.0014869525481251201 -0.010282144505866895 0 -0.001749075725422173 -0.01049248918872858 0 -0.001527736409500506 -0.010316884666988064 0 -0.0014869525481251201 -0.010282144505866895 0 -0.0015087336146712884 -0.010296470662282517 0 -0.0014622669132656394 -0.010326985231302242 0 -0.001780936616928261 -0.010976356674287376 0 -0.001749075725422173 -0.01049248918872858 0 -0.0015986001152281006 -0.010750831441048027 0 -0.0015671171674539776 -0.015536542803409457 0 -0.0013620267812841284 -0.0160154731509244 0 -0.0011139265901913354 -0.02075795499212027 0 -0.001049203539826645 -0.020772907558454616 0 -0.00097403712989688001 -0.020731887755894563 0 -0.0013918658374499067 -0.020936359071463677 0 -0.0013520138291392174 -0.020924296331292343 0 -0.0013160625621690769 -0.020844906089370081 0 -0.0014419317941189622 -0.021241619001522546 0 -0.0012832514895261633 -0.021086373315493789 0 -0.0013998310840105845 -0.021494353133314929 0 -0.0013853423751943486 -0.02140593666524631 0 -0.0012974324937711009 -0.021367475911886358 0 -0.0014419317941189622 -0.021241619001522546 0 -0.0014020442964716886 -0.02112559082174674 0 -0.0014897400994149691 -0.021394579181003622 0 -0.0014787624407510767 -0.021294388233322747 0 -0.0014675612822322513 -0.021336964139437819 0 -0.0014787624407510767 -0.021294388233322747 0 -0.0014675612822322513 -0.021336964139437819 0 -0.0014467147035168864 -0.021260266695349382 0 -0.0014787624407510767 -0.021294388233322747 0 -0.0014467147035168864 -0.021260266695349382 0 -0.0014077638432922891 -0.021128037179144337 0 -0.0014467147035168864 -0.021260266695349382 0 -0.0014256069675192876 -0.021275077180447171 0 -0.0014077638432922891 -0.021128037179144337 0 -0.0014675612822322513 -0.021336964139437819 0 -0.0014467147035168864 -0.021260266695349382 0 -0.0014256069675192876 -0.021275077180447171 0 -0.0012521825256863435 -0.020886506875506184 0 -0.0012582907406982725 -0.02082730131090894 0 -0.0013160625621690769 -0.020844906089370081 0 -0.0014020442964716886 -0.02112559082174674 0 -0.0013252291346410572 -0.021004683621200681 0 -0.0013520138291392174 -0.020924296331292343 0 -0.0012521825256863435 -0.020886506875506184 0 -0.0013160625621690769 -0.020844906089370081 0 -0.0014077638432922891 -0.021128037179144337 0 -0.001336366112373123 -0.021185809326720619 0 -0.0012823536705658107 -0.020968332984309682 0 -0.0012521825256863435 -0.020886506875506184 0 -0.0011777749033489919 -0.02085082174811824 0 -0.0012204379774111338 -0.020815879695405572 0 -0.0013252291346410572 -0.021004683621200681 0 -0.0012221047512166513 -0.020907162706874559 0 -0.0014256069675192876 -0.021275077180447171 0 -0.0014077638432922891 -0.021128037179144337 0 -0.001336366112373123 -0.021185809326720619 0 -0.0011830241642800366 -0.021074629667299106 0 -0.001336366112373123 -0.021185809326720619 0 -0.0012823536705658107 -0.020968332984309682 0 -0.0011830241642800366 -0.021074629667299106 0 -0.001336366112373123 -0.021185809326720619 0 -0.0012158515922342133 -0.021189154245850907 0 -0.0011777749033489919 -0.02085082174811824 0 -0.0011593591252923568 -0.020789517097064756 0 -0.0011909307074128824 -0.020786393198410767 0 -0.0011593591252923568 -0.020789517097064756 0 -0.0011773074554874787 -0.02077164595265352 0 -0.0011909307074128824 -0.020786393198410767 0 -0.0011608286733776852 -0.020769981885815657 0 -0.0011593591252923568 -0.020789517097064756 0 -0.0011773074554874787 -0.02077164595265352 0 -0.0011608286733776852 -0.020769981885815657 0 -0.0011773074554874787 -0.02077164595265352 0 -0.0011733101470077082 -0.020764250164222151 0 -0.0011773074554874787 -0.02077164595265352 0 -0.0011874765024851889 -0.020768683331607505 0 -0.0011733101470077082 -0.020764250164222151 0 -0.0011882469079371057 -0.020769181991640996 0 -0.0011853486918255421 -0.020759490761539101 0 -0.001190522039178359 -0.020768324634754715 0 -0.0011874765024851889 -0.020768683331607505 0 -0.0011882469079371057 -0.020769181991640996 0 -0.001190522039178359 -0.020768324634754715 0 -0.0011773074554874787 -0.02077164595265352 0 -0.0011874765024851889 -0.020768683331607505 0 -0.0011882469079371057 -0.020769181991640996 0 -0.0011773074554874787 -0.02077164595265352 0 -0.0011882469079371057 -0.020769181991640996 0 -0.0011909307074128824 -0.020786393198410767 0 -0.0011882469079371057 -0.020769181991640996 0 -0.0011909307074128824 -0.020786393198410767 0 -0.0012037246229067305 -0.020777457369960298 0 -0.0013721610455508634 -0.021234937886413844 0 -0.0013750280607997842 -0.021086066241393885 0 -0.001317400168339738 -0.0211240737278146 0 -0.0011909307074128824 -0.020786393198410767 0 -0.0012037246229067305 -0.020777457369960298 0 -0.0012204379774111338 -0.020815879695405572 0 -0.0011882469079371057 -0.020769181991640996 0 -0.0012037246229067305 -0.020777457369960298 0 -0.0011853486918255421 -0.020759490761539101 0 -0.0012037246229067305 -0.020777457369960298 0 -0.001244020453125307 -0.020776264473453852 0 -0.0011853486918255421 -0.020759490761539101 0 -0.0012878745305778866 -0.021066032035115433 0 -0.0013316170448304054 -0.021045261594815332 0 -0.0013748005769743709 -0.021023722090181947 0 -0.0012949433791730851 -0.020958200366381102 0 -0.0013158868438931037 -0.020953826302042525 0 -0.0012878745305778866 -0.021066032035115433 0 -0.0012348900158959055 -0.020848981673257737 0 -0.0012037246229067305 -0.020777457369960298 0 -0.0012204379774111338 -0.020815879695405572 0 -0.001244020453125307 -0.020776264473453852 0 -0.0011777749033489919 -0.02085082174811824 0 -0.0011909307074128824 -0.020786393198410767 0 -0.0012204379774111338 -0.020815879695405572 0 -0.0012521825256863435 -0.020886506875506184 0 -0.0012204379774111338 -0.020815879695405572 0 -0.0012582907406982725 -0.02082730131090894 0 -0.0012204379774111338 -0.020815879695405572 0 -0.0012582907406982725 -0.02082730131090894 0 -0.001244020453125307 -0.020776264473453852 0 -0.0012582907406982725 -0.02082730131090894 0 -0.001244020453125307 -0.020776264473453852 0 -0.0013160625621690769 -0.020844906089370081 0 -0.0012878745305778866 -0.021066032035115433 0 -0.0012832514895261633 -0.021086373315493789 0 -0.0011882715948856521 -0.021230656120968559 0 -0.0012974324937711009 -0.021367475911886358 0 -0.0012896482857936026 -0.021319711098507572 0 -0.0012878745305778866 -0.021066032035115433 0 -0.0013623709523705868 -0.021339990723548523 0 -0.0013721610455508634 -0.021234937886413844 0 -0.0014205646486638607 -0.021241615216685019 0 -0.0014261190993230641 -0.021133696395479372 0 -0.0013721610455508634 -0.021234937886413844 0 -0.0014205646486638607 -0.021241615216685019 0 -0.0014113341603980327 -0.021320633381030671 0 -0.0014205646486638607 -0.021241615216685019 0 -0.0014471316871104238 -0.021207202140714369 0 -0.0014261190993230641 -0.021133696395479372 0 -0.0014205646486638607 -0.021241615216685019 0 -0.0014468281280730236 -0.021272868632317546 0 -0.0014113341603980327 -0.021320633381030671 0 -0.0014205646486638607 -0.021241615216685019 0 -0.0014471316871104238 -0.021207202140714369 0 -0.0014468281280730236 -0.021272868632317546 0 -0.0014780492955201107 -0.021231867949332513 0 -0.0014471316871104238 -0.021207202140714369 0 -0.0014468281280730236 -0.021272868632317546 0 -0.0014243531428229301 -0.021406079387516853 0 -0.0014380456271562805 -0.021337822610940683 0 -0.0014113341603980327 -0.021320633381030671 0 -0.0013853423751943486 -0.02140593666524631 0 -0.0012974324937711009 -0.021367475911886358 0 -0.0012896482857936026 -0.021319711098507572 0 -0.0014052350152817766 -0.021405861454609692 0 -0.0013623709523705868 -0.021339990723548523 0 -0.0014468281280730236 -0.021272868632317546 0 -0.0014380456271562805 -0.021337822610940683 0 -0.0014113341603980327 -0.021320633381030671 0 -0.0014748420965899412 -0.021139505581535555 0 -0.0014520250035030032 -0.021052170531786762 0 -0.0014890033189216988 -0.021076320543083064 0 -0.0015148208385737524 -0.021170427498047709 0 -0.0014748420965899412 -0.021139505581535555 0 -0.0014890033189216988 -0.021076320543083064 0 -0.0014471316871104238 -0.021207202140714369 0 -0.0014748420965899412 -0.021139505581535555 0 -0.0014261190993230641 -0.021133696395479372 0 -0.0014780492955201107 -0.021231867949332513 0 -0.0014471316871104238 -0.021207202140714369 0 -0.0014748420965899412 -0.021139505581535555 0 -0.0014780492955201107 -0.021231867949332513 0 -0.0015039075985603769 -0.021222465865577217 0 -0.0014748420965899412 -0.021139505581535555 0 -0.0013721610455508634 -0.021234937886413844 0 -0.0014261190993230641 -0.021133696395479372 0 -0.0013750280607997842 -0.021086066241393885 0 -0.0014748420965899412 -0.021139505581535555 0 -0.0014261190993230641 -0.021133696395479372 0 -0.0014520250035030032 -0.021052170531786762 0 -0.0014261190993230641 -0.021133696395479372 0 -0.0014024297507975142 -0.020996205453046604 0 -0.0013750280607997842 -0.021086066241393885 0 -0.0014024297507975142 -0.020996205453046604 0 -0.0014520250035030032 -0.021052170531786762 0 -0.0014454278588421927 -0.02096851916171313 0 -0.0014024297507975142 -0.020996205453046604 0 -0.0013864876643624978 -0.020911403484169751 0 -0.0014454278588421927 -0.02096851916171313 0 -0.0014261190993230641 -0.021133696395479372 0 -0.0014024297507975142 -0.020996205453046604 0 -0.0014520250035030032 -0.021052170531786762 0 -0.0014520250035030032 -0.021052170531786762 0 -0.0014454278588421927 -0.02096851916171313 0 -0.0014890033189216988 -0.021076320543083064 0 -0.0014024297507975142 -0.020996205453046604 0 -0.0013864876643624978 -0.020911403484169751 0 -0.0013333032291136782 -0.020887853806488572 0 -0.0013864876643624978 -0.020911403484169751 0 -0.0013333032291136782 -0.020887853806488572 0 -0.0013464068110998634 -0.020811973397909234 0 -0.0013333032291136782 -0.020887853806488572 0 -0.0013429917757859075 -0.020977822522705261 0 -0.001258345499302206 -0.020874519071955654 0 -0.0014024297507975142 -0.020996205453046604 0 -0.0013333032291136782 -0.020887853806488572 0 -0.0013429917757859075 -0.020977822522705261 0 -0.0014024297507975142 -0.020996205453046604 0 -0.0013750280607997842 -0.021086066241393885 0 -0.0013429917757859075 -0.020977822522705261 0 -0.0013750280607997842 -0.021086066241393885 0 -0.0013263158840756311 -0.021017245977888472 0 -0.0013429917757859075 -0.020977822522705261 0 -0.0013750280607997842 -0.021086066241393885 0 -0.001317400168339738 -0.0211240737278146 0 -0.0013263158840756311 -0.021017245977888472 0 -0.0012949433791730851 -0.020958200366381102 0 -0.0013158868438931037 -0.020953826302042525 0 -0.001258345499302206 -0.020874519071955654 0 -0.001317400168339738 -0.0211240737278146 0 -0.0013263158840756311 -0.021017245977888472 0 -0.001258345499302206 -0.020874519071955654 0 -0.0013263158840756311 -0.021017245977888472 0 -0.0013429917757859075 -0.020977822522705261 0 -0.001258345499302206 -0.020874519071955654 0 -0.0013316170448304054 -0.021045261594815332 0 -0.0012594086484355609 -0.020912038750800277 0 -0.0012949433791730851 -0.020958200366381102 0 -0.001258345499302206 -0.020874519071955654 0 -0.0012137949289035852 -0.020821694854966283 0 -0.0012348900158959055 -0.020848981673257737 0 -0.0012239837980830271 -0.020835190675420452 0 -0.0011853486918255421 -0.020759490761539101 0 -0.0011977989936616334 -0.02078045971460054 0 -0.0012137949289035852 -0.020821694854966283 0 -0.0011853486918255421 -0.020759490761539101 0 -0.0011977989936616334 -0.02078045971460054 0 -0.001190522039178359 -0.020768324634754715 0 -0.0011874765024851889 -0.020768683331607505 0 -0.0011977989936616334 -0.02078045971460054 0 -0.001190522039178359 -0.020768324634754715 0 -0.0011874765024851889 -0.020768683331607505 0 -0.0011733101470077082 -0.020764250164222151 0 -0.0011920294169383042 -0.02077285329537407 0 -0.0011874765024851889 -0.020768683331607505 0 -0.0011977989936616334 -0.02078045971460054 0 -0.0011920294169383042 -0.02077285329537407 0 -0.0011977989936616334 -0.02078045971460054 0 -0.0011920294169383042 -0.02077285329537407 0 -0.0012137949289035852 -0.020821694854966283 0 -0.0011920294169383042 -0.02077285329537407 0 -0.0012137949289035852 -0.020821694854966283 0 -0.0011692089857458245 -0.020739849372633689 0 -0.001258345499302206 -0.020874519071955654 0 -0.0012137949289035852 -0.020821694854966283 0 -0.0012563373570924981 -0.020776744119676761 0 -0.0012137949289035852 -0.020821694854966283 0 -0.0012563373570924981 -0.020776744119676761 0 -0.0012006195968024742 -0.020753048948427857 0 -0.0013333032291136782 -0.020887853806488572 0 -0.001258345499302206 -0.020874519071955654 0 -0.0012563373570924981 -0.020776744119676761 0 -0.0013333032291136782 -0.020887853806488572 0 -0.0012563373570924981 -0.020776744119676761 0 -0.0013464068110998634 -0.020811973397909234 0 -0.0012563373570924981 -0.020776744119676761 0 -0.001223232850515127 -0.020649584387990087 0 -0.0013464068110998634 -0.020811973397909234 0 -0.0012679768299151818 -0.020671180966759715 0 -0.0013861121857128018 -0.020928491445669245 0 -0.0013464068110998634 -0.020811973397909234 0 -0.0012767546716565803 -0.02081595249018315 0 -0.0013610291539833668 -0.020827188939380018 0 -0.001223232850515127 -0.020649584387990087 0 -0.0013464068110998634 -0.020811973397909234 0 -0.0012571022059954615 -0.020410132815032241 0 -0.0012767546716565803 -0.02081595249018315 0 -0.0012881210795795586 -0.020723582801408465 0 -0.0013488182779721543 -0.020751035513891257 0 -0.0012881210795795586 -0.020723582801408465 0 -0.0013488182779721543 -0.020751035513891257 0 -0.0013211113589992349 -0.020650220102512783 0 -0.0012767546716565803 -0.02081595249018315 0 -0.0013488182779721543 -0.020751035513891257 0 -0.0013610291539833668 -0.020827188939380018 0 -0.0013488182779721543 -0.020751035513891257 0 -0.0013610291539833668 -0.020827188939380018 0 -0.0014057502419659318 -0.020803476592650926 0 -0.0013610291539833668 -0.020827188939380018 0 -0.0014057502419659318 -0.020803476592650926 0 -0.0014142793523795659 -0.020882284393792656 0 -0.0013488182779721543 -0.020751035513891257 0 -0.0014057502419659318 -0.020803476592650926 0 -0.0014227156837753256 -0.020713584859932081 0 -0.0014057502419659318 -0.020803476592650926 0 -0.0014661656782206771 -0.020811352189301021 0 -0.0014227156837753256 -0.020713584859932081 0 -0.0014057502419659318 -0.020803476592650926 0 -0.0014661656782206771 -0.020811352189301021 0 -0.0014142793523795659 -0.020882284393792656 0 -0.0013864876643624978 -0.020911403484169751 0 -0.0013464068110998634 -0.020811973397909234 0 -0.0014142793523795659 -0.020882284393792656 0 -0.0013864876643624978 -0.020911403484169751 0 -0.0014142793523795659 -0.020882284393792656 0 -0.0014454278588421927 -0.02096851916171313 0 -0.0013464068110998634 -0.020811973397909234 0 -0.0013610291539833668 -0.020827188939380018 0 -0.0014142793523795659 -0.020882284393792656 0 -0.0014454278588421927 -0.02096851916171313 0 -0.0014972179845677254 -0.020931544382007432 0 -0.0015180756024369298 -0.021052833151030508 0 -0.0014454278588421927 -0.02096851916171313 0 -0.0015180756024369298 -0.021052833151030508 0 -0.0014890033189216988 -0.021076320543083064 0 -0.0014142793523795659 -0.020882284393792656 0 -0.0014454278588421927 -0.02096851916171313 0 -0.0014972179845677254 -0.020931544382007432 0 -0.0014972179845677254 -0.020931544382007432 0 -0.0015545968848962228 -0.021044905383049584 0 -0.0015469182382059953 -0.02082755985034751 0 -0.0014661656782206771 -0.020811352189301021 0 -0.0014142793523795659 -0.020882284393792656 0 -0.0014972179845677254 -0.020931544382007432 0 -0.0014661656782206771 -0.020811352189301021 0 -0.0014972179845677254 -0.020931544382007432 0 -0.0015469182382059953 -0.02082755985034751 0 -0.0015297662211020008 -0.02120039900131639 0 -0.0015545968848962228 -0.021044905383049584 0 -0.0015180756024369298 -0.021052833151030508 0 -0.0014972179845677254 -0.020931544382007432 0 -0.0015545968848962228 -0.021044905383049584 0 -0.0015180756024369298 -0.021052833151030508 0 -0.0015148208385737524 -0.021170427498047709 0 -0.0015180756024369298 -0.021052833151030508 0 -0.0014890033189216988 -0.021076320543083064 0 -0.00093423311362905899 -0.020492207707328975 0 -0.0010301774076920227 -0.020507888022414551 0 -0.00087291452714617895 -0.020365541271901825 0 -0.00093423311362905899 -0.020492207707328975 0 -0.00081281524921870214 -0.020447965570907278 0 -0.00087291452714617895 -0.020365541271901825 0 -0.00090794086204056034 -0.020535500259229775 0 -0.00093423311362905899 -0.020492207707328975 0 -0.00081281524921870214 -0.020447965570907278 0 -0.00090794086204056034 -0.020535500259229775 0 -0.00093423311362905899 -0.020492207707328975 0 -0.0010261876291515885 -0.020607250951931937 0 -0.00081281524921870214 -0.020447965570907278 0 -0.00087291452714617895 -0.020365541271901825 0 -0.0007216657945645548 -0.020342296376615325 0 -0.0012602333434292008 -0.011099272831733212 0 -0.0016086022221928019 -0.013044494225680849 0 -0.00081281524921870214 -0.020447965570907278 0 -0.00080792516819314477 -0.020449013847738774 0 -0.0007216657945645548 -0.020342296376615325 0 -0.00090794086204056034 -0.020535500259229775 0 -0.00081281524921870214 -0.020447965570907278 0 -0.0007827599171036922 -0.020546794600846872 0 -0.00081281524921870214 -0.020447965570907278 0 -0.00080969115828342453 -0.020446386231011231 0 -0.00080792516819314477 -0.020449013847738774 0 -0.00015628298267205746 -0.020481125187003145 0 -0.0015809164336398273 -0.013802433265497432 0 -0.001197585926785188 -0.0055615944205416957 0 -0.0014319055569438572 -0.0061627716013399744 0 -0.0017612200595967182 -0.0050624758642428729 0 -0.0016659427221274738 -0.006933600712667509 0 -0.0015809164336398273 -0.013802433265497432 0 -0.0015809164336398273 -0.013802433265497432 0 -0.0012602333434292008 -0.011099272831733212 0 -0.001278727325227966 -0.0051585155955606241 0 -0.0017612200595967182 -0.0050624758642428729 0 -0.0017357991138648749 -0.0049764866971695092 0 -0.001197585926785188 -0.0055615944205416957 0 -0.001278727325227966 -0.0051585155955606241 0 -0.0017612200595967182 -0.0050624758642428729 0 -0.0010288149164034591 -0.020721473525897042 0 -0.00096835023163168376 -0.020621274298293878 0 -0.0010636584082173342 -0.020699726108911635 0 -0.00096361841517472236 -0.020652450432015926 0 -0.00087495352890590945 -0.020531882335398811 0 -0.00096835023163168376 -0.020621274298293878 0 -0.00090794086204056034 -0.020535500259229775 0 -0.0007827599171036922 -0.020546794600846872 0 -0.00096835023163168376 -0.020621274298293878 0 -0.0015809164336398273 -0.013802433265497432 0 -0.0014157150350801936 -0.020447190490395298 0 -0.00090794086204056034 -0.020535500259229775 0 -0.00096835023163168376 -0.020621274298293878 0 -0.0010261876291515885 -0.020607250951931937 0 -0.0011114649294496474 -0.020732226138419539 0 -0.0010636584082173342 -0.020699726108911635 0 -0.0011122990364088579 -0.020706073538952117 0 -0.0010636584082173342 -0.020699726108911635 0 -0.0011122990364088579 -0.020706073538952117 0 -0.0010261876291515885 -0.020607250951931937 0 -0.0011122990364088579 -0.020706073538952117 0 -0.0011097196807726614 -0.020667064284748519 0 -0.0010261876291515885 -0.020607250951931937 0 -0.00096835023163168376 -0.020621274298293878 0 -0.0010636584082173342 -0.020699726108911635 0 -0.0010261876291515885 -0.020607250951931937 0 -0.0011733101470077082 -0.020764250164222151 0 -0.0011920294169383042 -0.02077285329537407 0 -0.0011585567735539605 -0.020751765796968982 0 -0.0011920294169383042 -0.02077285329537407 0 -0.0011585567735539605 -0.020751765796968982 0 -0.0011692089857458245 -0.020739849372633689 0 -0.0011114649294496474 -0.020732226138419539 0 -0.0011122990364088579 -0.020706073538952117 0 -0.0011585567735539605 -0.020751765796968982 0 -0.0011122990364088579 -0.020706073538952117 0 -0.0011585567735539605 -0.020751765796968982 0 -0.0011692089857458245 -0.020739849372633689 0 -0.0011122990364088579 -0.020706073538952117 0 -0.0011692089857458245 -0.020739849372633689 0 -0.0011097196807726614 -0.020667064284748519 0 -0.0012137949289035852 -0.020821694854966283 0 -0.0011692089857458245 -0.020739849372633689 0 -0.0012006195968024742 -0.020753048948427857 0 -0.0011571921934308772 -0.020660727729250341 0 -0.0010301774076920227 -0.020507888022414551 0 -0.0011430805697746889 -0.02053754103282884 0 -0.0011692089857458245 -0.020739849372633689 0 -0.0012006195968024742 -0.020753048948427857 0 -0.0011571921934308772 -0.020660727729250341 0 -0.0012563373570924981 -0.020776744119676761 0 -0.0012006195968024742 -0.020753048948427857 0 -0.0011571921934308772 -0.020660727729250341 0 -0.0011692089857458245 -0.020739849372633689 0 -0.0011097196807726614 -0.020667064284748519 0 -0.0011571921934308772 -0.020660727729250341 0 -0.0012563373570924981 -0.020776744119676761 0 -0.001223232850515127 -0.020649584387990087 0 -0.0011571921934308772 -0.020660727729250341 0 -0.0011097196807726614 -0.020667064284748519 0 -0.0011571921934308772 -0.020660727729250341 0 -0.0010301774076920227 -0.020507888022414551 0 -0.0011097196807726614 -0.020667064284748519 0 -0.0010261876291515885 -0.020607250951931937 0 -0.0010301774076920227 -0.020507888022414551 0 -0.00093423311362905899 -0.020492207707328975 0 -0.0010261876291515885 -0.020607250951931937 0 -0.0010301774076920227 -0.020507888022414551 0 -0.0010301774076920227 -0.020507888022414551 0 -0.0010891317439101077 -0.020396608023051946 0 -0.0011430805697746889 -0.02053754103282884 0 -0.0010301774076920227 -0.020507888022414551 0 -0.0010891317439101077 -0.020396608023051946 0 -0.0009667435157954162 -0.020343601086622098 0 -0.0012571022059954615 -0.020410132815032241 0 -0.0010891317439101077 -0.020396608023051946 0 -0.0011430805697746889 -0.02053754103282884 0 -0.001223232850515127 -0.020649584387990087 0 -0.0011571921934308772 -0.020660727729250341 0 -0.0011430805697746889 -0.02053754103282884 0 -0.001223232850515127 -0.020649584387990087 0 -0.0012571022059954615 -0.020410132815032241 0 -0.0011430805697746889 -0.02053754103282884 0 -0.0013861121857128018 -0.020928491445669245 0 -0.0013846122198783266 -0.018173822523647371 0 -0.0012767546716565803 -0.02081595249018315 0 -0.0012881210795795586 -0.020723582801408465 0 -0.0011393795381448636 -0.020659959178487043 0 -0.0012571022059954615 -0.020410132815032241 0 -0.0010891317439101077 -0.020396608023051946 0 -0.001128291298168599 -0.020196551433593474 0 -0.0010509703526161837 -0.018141671285604125 0 -0.0013846122198783266 -0.018173822523647371 0 -0.00089475402641048252 -0.020186240123178486 0 -0.0009667435157954162 -0.020343601086622098 0 -0.001128291298168599 -0.020196551433593474 0 -0.0010891317439101077 -0.020396608023051946 0 -0.0009667435157954162 -0.020343601086622098 0 -0.001128291298168599 -0.020196551433593474 0 -0.00089475402641048252 -0.020186240123178486 0 -0.00087291452714617895 -0.020365541271901825 0 -0.00078488157661573755 -0.020253988659054121 0 -0.00089475402641048252 -0.020186240123178486 0 -0.00087291452714617895 -0.020365541271901825 0 -0.0009667435157954162 -0.020343601086622098 0 -0.0010301774076920227 -0.020507888022414551 0 -0.00087291452714617895 -0.020365541271901825 0 -0.0009667435157954162 -0.020343601086622098 0 -0.00087291452714617895 -0.020365541271901825 0 -0.00078488157661573755 -0.020253988659054121 0 -0.0007216657945645548 -0.020342296376615325 0 -0.00064073204003400506 -0.020111411280209501 0 -0.00078488157661573755 -0.020253988659054121 0 -0.0007216657945645548 -0.020342296376615325 0 0.00076282368502148456 -0.0096348890215847364 0 -0.00072041919911374212 -0.0087844448527532541 0 0.00087141840172845573 -0.0090307217197498069 0 0.00014837580626803659 -0.010846344512480816 0 -0.00097188453524774056 -0.011450039940675151 0 0.00014837580626803659 -0.010846344512480816 0 -0.0010509703526161837 -0.018141671285604125 0 -0.00064073204003400506 -0.020111411280209501 0 -0.00089475402641048252 -0.020186240123178486 0 -0.00078488157661573755 -0.020253988659054121 0 -0.00073714147192488954 -0.014508946947058952 0 -0.0010385323671577443 -0.014547713818869374 0 -0.00097058266614173183 -0.014449606244336565 0 -0.00072041919911374212 -0.0087844448527532541 0 0.00023359376723195268 -0.0083353148404864442 0 0.00087141840172845573 -0.0090307217197498069 0 -0.00072041919911374212 -0.0087844448527532541 0 0.00023359376723195268 -0.0083353148404864442 0 -0.00036787280813748802 -0.0076666988266386477 0 0.00023359376723195268 -0.0083353148404864442 0 -0.00036787280813748802 -0.0076666988266386477 0 0.00081715519733801384 -0.0077151864670973258 0 -0.00036787280813748802 -0.0076666988266386477 0 -0.0016982907090223223 -0.0073816802770133418 0 -2.8510300548579151e-05 -0.0064570719927045843 0 -0.00036787280813748802 -0.0076666988266386477 0 -2.8510300548579151e-05 -0.0064570719927045843 0 0.00081715519733801384 -0.0077151864670973258 0 -0.00072041919911374212 -0.0087844448527532541 0 -0.00036787280813748802 -0.0076666988266386477 0 -0.0016982907090223223 -0.0073816802770133418 0 -0.00072041919911374212 -0.0087844448527532541 0 -0.0016982907090223223 -0.0073816802770133418 0 -0.0021838866761793958 -0.0079770861286547565 0 -0.0010385323671577443 -0.014547713818869374 0 -0.00097058266614173183 -0.014449606244336565 0 -0.0012223647430750779 -0.014327889424364755 0 -0.00097188453524774056 -0.011450039940675151 0 -0.0014083048088504126 -0.013491135907261014 0 -0.0010385323671577443 -0.014547713818869374 0 -0.0013685943005962672 -0.014524445810149307 0 -0.0012223647430750779 -0.014327889424364755 0 -0.0012438388639633565 -0.017748221347847828 0 -0.00059374241100043764 -0.01695986344127564 0 -0.00083601610768525825 -0.016822790757185766 0 -0.0013846122198783266 -0.018173822523647371 0 -0.0014083048088504126 -0.013491135907261014 0 -0.0010123223087964901 -0.017223255414104455 0 -0.0016170110742534725 -0.019592320729693039 0 -0.0012438388639633565 -0.017748221347847828 0 -0.00083601610768525825 -0.016822790757185766 0 -0.0022341164177938342 -0.017556404548341543 0 -0.0013846122198783266 -0.018173822523647371 0 -0.0016170110742534725 -0.019592320729693039 0 -0.0012881210795795586 -0.020723582801408465 0 -0.0011393795381448636 -0.020659959178487043 0 -0.0012946072118684309 -0.0206361622798969 0 -0.0014194107011302637 -0.019889158688484287 0 -0.0013528384272666518 -0.019912080706375873 0 -0.0013762431118912641 -0.020376988862716643 0 -0.0013528384272666518 -0.019912080706375873 0 -0.0013260831679678853 -0.019909999960190529 0 -0.0013762431118912641 -0.020376988862716643 0 -0.0014194107011302637 -0.019889158688484287 0 -0.0013528384272666518 -0.019912080706375873 0 -0.0015466044286230639 -0.019366139727008881 0 -0.0014194107011302637 -0.019889158688484287 0 -0.0012470932168052405 -0.019856293869582247 0 -0.0013609292275698474 -0.020074671466461334 0 4.9976067233747714e-05 -0.014786152746484808 0 -0.0014083048088504126 -0.013491135907261014 0 6.7564755509950274e-05 -0.01504871836924792 0 -0.00080117256891300216 -0.016069427893681203 0 -0.0013454375416747141 -0.015754486394134223 0 4.9976067233747714e-05 -0.014786152746484808 0 -0.0010123223087964901 -0.017223255414104455 0 -0.0014083048088504126 -0.013491135907261014 0 -0.0010123223087964901 -0.017223255414104455 0 -0.00069564768368958311 -0.017975544473476168 0 -0.0010123223087964901 -0.017223255414104455 0 -0.0013528384272666518 -0.019912080706375873 0 -0.0010379034723619776 -0.020191870796098115 0 -0.00081279818770647471 -0.019511396590312386 0 -0.0013528384272666518 -0.019912080706375873 0 -0.00081279818770647471 -0.019511396590312386 0 -0.0015466044286230639 -0.019366139727008881 0 0.00031115874894382684 -0.019638178582650961 0 -0.0010379034723619776 -0.020191870796098115 0 -0.00081279818770647471 -0.019511396590312386 0 0.00031115874894382684 -0.019638178582650961 0 -0.00081279818770647471 -0.019511396590312386 0 -2.7166607003850779e-05 -0.017947979829425805 0 -2.7166607003850779e-05 -0.017947979829425805 0 -0.0015466044286230639 -0.019366139727008881 0 -0.00052008190663521193 -0.015626230197062378 0 -0.00081279818770647471 -0.019511396590312386 0 -2.7166607003850779e-05 -0.017947979829425805 0 -0.0015466044286230639 -0.019366139727008881 0 -0.0015708764658241546 -0.019223016152282151 0 -0.0017930434623353103 -0.017270421521411429 0 -0.0015466044286230639 -0.019366139727008881 0 -0.0012470932168052405 -0.019856293869582247 0 -0.0010573054552578424 -0.019929077165122353 0 -0.0014194107011302637 -0.019889158688484287 0 -0.0015466044286230639 -0.019366139727008881 0 -0.0012470932168052405 -0.019856293869582247 0 -0.0012470932168052405 -0.019856293869582247 0 -0.0010573054552578424 -0.019929077165122353 0 -0.0012104486362845737 -0.01996791227415385 0 -0.0015466044286230639 -0.019366139727008881 0 -0.0025958899829336989 -0.014608910501951136 0 -0.00052008190663521193 -0.015626230197062378 0 -0.0025958899829336989 -0.014608910501951136 0 -0.00052008190663521193 -0.015626230197062378 0 -0.0010068682944962622 -0.012751008513760037 0 0.0010560119624338387 -0.015815826198633479 0 0.0030334501428053769 -0.014722824894206654 0 0.00082563385054689159 -0.013914369977529156 0 -0.00052008190663521193 -0.015626230197062378 0 0.0010560119624338387 -0.015815826198633479 0 0.00082563385054689159 -0.013914369977529156 0 0.0030334501428053769 -0.014722824894206654 0 0.0029665159010202596 -0.016055198838461408 0 0.0039147153930568866 -0.01453951331552729 0 0.0010560119624338387 -0.015815826198633479 0 0.0030334501428053769 -0.014722824894206654 0 0.0018837485101114416 -0.017280625020235019 0 0.00304645476302141 -0.014868551816271022 0 0.0017205997504250233 -0.016940954703896713 0 0.0030334501428053769 -0.014722824894206654 0 0.0029665159010202596 -0.016055198838461408 0 0.0020397350152873074 -0.015853856064460693 0 4.9976067233747714e-05 -0.014786152746484808 0 0.0016165224150588699 -0.01142746542962964 0 0.001078347568370579 -0.016906818751094645 0 0.0029665159010202596 -0.016055198838461408 0 0.0020397350152873074 -0.015853856064460693 0 0.00031115874894382684 -0.019638178582650961 0 -2.7166607003850779e-05 -0.017947979829425805 0 0.0018837485101114416 -0.017280625020235019 0 4.9976067233747714e-05 -0.014786152746484808 0 0.0017205997504250233 -0.016940954703896713 0 -2.7166607003850779e-05 -0.017947979829425805 0 0.0010560119624338387 -0.015815826198633479 0 0.0018837485101114416 -0.017280625020235019 0 -2.7166607003850779e-05 -0.017947979829425805 0 -0.00052008190663521193 -0.015626230197062378 0 0.0010560119624338387 -0.015815826198633479 0 -0.0016395572504792279 -0.021008888861482132 0 -0.001661256427110678 -0.02084385775512107 0 -0.0015945108058890572 -0.020972673007296543 0 -0.0015545968848962228 -0.021044905383049584 0 -0.0015945108058890572 -0.020972673007296543 0 -0.0015469182382059953 -0.02082755985034751 0 -0.001661256427110678 -0.02084385775512107 0 -0.0015945108058890572 -0.020972673007296543 0 -0.0015469182382059953 -0.02082755985034751 0 -0.0014661656782206771 -0.020811352189301021 0 -0.0015469182382059953 -0.02082755985034751 0 -0.0014640880043033167 -0.020706232675303412 0 -0.0015469182382059953 -0.02082755985034751 0 -0.0015366769205916919 -0.020635570098640855 0 -0.0014766386024605369 -0.02060559645601779 0 -0.001661256427110678 -0.02084385775512107 0 -0.0015469182382059953 -0.02082755985034751 0 -0.0015366769205916919 -0.020635570098640855 0 -0.001661256427110678 -0.02084385775512107 0 -0.0015366769205916919 -0.020635570098640855 0 -0.0015409213372768169 -0.020452193722777845 0 -0.0015366769205916919 -0.020635570098640855 0 -0.0014168819989760913 -0.020378718538730772 0 -0.0015409213372768169 -0.020452193722777845 0 -0.0014168819989760913 -0.020378718538730772 0 -0.0014766386024605369 -0.02060559645601779 0 -0.0014169656654868838 -0.02046443681198647 0 -0.0014168819989760913 -0.020378718538730772 0 -0.0014169656654868838 -0.02046443681198647 0 -0.0013869270731045407 -0.020321567178289205 0 -0.0015366769205916919 -0.020635570098640855 0 -0.0014168819989760913 -0.020378718538730772 0 -0.0014766386024605369 -0.02060559645601779 0 -0.0015469182382059953 -0.02082755985034751 0 -0.0014766386024605369 -0.02060559645601779 0 -0.0014640880043033167 -0.020706232675303412 0 -0.0014766386024605369 -0.02060559645601779 0 -0.0014640880043033167 -0.020706232675303412 0 -0.0014315770683950512 -0.020598062008952193 0 -0.0014661656782206771 -0.020811352189301021 0 -0.0014640880043033167 -0.020706232675303412 0 -0.0014227156837753256 -0.020713584859932081 0 -0.0013488182779721543 -0.020751035513891257 0 -0.0013860697129632782 -0.02065736095053106 0 -0.0014227156837753256 -0.020713584859932081 0 -0.0014640880043033167 -0.020706232675303412 0 -0.0014227156837753256 -0.020713584859932081 0 -0.0014315770683950512 -0.020598062008952193 0 -0.0013860697129632782 -0.02065736095053106 0 -0.0014227156837753256 -0.020713584859932081 0 -0.0014315770683950512 -0.020598062008952193 0 -0.0013860697129632782 -0.02065736095053106 0 -0.0014315770683950512 -0.020598062008952193 0 -0.0013825870739921991 -0.020504201205171158 0 -0.0014766386024605369 -0.02060559645601779 0 -0.0014315770683950512 -0.020598062008952193 0 -0.0014169656654868838 -0.02046443681198647 0 -0.0014315770683950512 -0.020598062008952193 0 -0.0014169656654868838 -0.02046443681198647 0 -0.0013825870739921991 -0.020504201205171158 0 -0.0014169656654868838 -0.02046443681198647 0 -0.0013825870739921991 -0.020504201205171158 0 -0.0013869270731045407 -0.020321567178289205 0 -0.0013825870739921991 -0.020504201205171158 0 -0.0013762431118912641 -0.020376988862716643 0 -0.0013869270731045407 -0.020321567178289205 0 -0.0013860697129632782 -0.02065736095053106 0 -0.0013825870739921991 -0.020504201205171158 0 -0.0013211113589992349 -0.020650220102512783 0 -0.0013825870739921991 -0.020504201205171158 0 -0.0013211113589992349 -0.020650220102512783 0 -0.0011525382296427365 -0.020561951415018067 0 -0.0012923865772817681 -0.020038298226117288 0 -0.0016170110742534725 -0.019592320729693039 0 -0.0015887321985377384 -0.019930604702980491 0 -0.0016170110742534725 -0.019592320729693039 0 -0.0013488182779721543 -0.020751035513891257 0 -0.0013860697129632782 -0.02065736095053106 0 -0.0013211113589992349 -0.020650220102512783 0 -0.0012881210795795586 -0.020723582801408465 0 -0.0013211113589992349 -0.020650220102512783 0 -0.0012946072118684309 -0.0206361622798969 0 -0.0013762431118912641 -0.020376988862716643 0 -0.0013869270731045407 -0.020321567178289205 0 -0.0013609292275698474 -0.020074671466461334 0 -0.0014168819989760913 -0.020378718538730772 0 -0.0013609292275698474 -0.020074671466461334 0 -0.0013213172374986401 -0.020132867259524737 0 -0.0014168819989760913 -0.020378718538730772 0 -0.0013869270731045407 -0.020321567178289205 0 -0.0013609292275698474 -0.020074671466461334 0 -0.0014194107011302637 -0.019889158688484287 0 -0.0013762431118912641 -0.020376988862716643 0 -0.0013609292275698474 -0.020074671466461334 0 -0.0012470932168052405 -0.019856293869582247 0 -0.0013609292275698474 -0.020074671466461334 0 -0.0013213172374986401 -0.020132867259524737 0 -0.0012470932168052405 -0.019856293869582247 0 -0.0013213172374986401 -0.020132867259524737 0 -0.0012104486362845737 -0.01996791227415385 0 -0.0012104486362845737 -0.01996791227415385 0 -0.001372628611749079 -0.020060177027017463 0 -0.0012169176713307777 -0.019668223057865197 0 -0.0010573054552578424 -0.019929077165122353 0 -0.0012104486362845737 -0.01996791227415385 0 -0.0012169176713307777 -0.019668223057865197 0 -0.0013213172374986401 -0.020132867259524737 0 -0.0012104486362845737 -0.01996791227415385 0 -0.001372628611749079 -0.020060177027017463 0 -0.001372628611749079 -0.020060177027017463 0 -0.0015409213372768169 -0.020452193722777845 0 -0.0015653293645742662 -0.019879262461602838 0 -0.0013213172374986401 -0.020132867259524737 0 -0.001372628611749079 -0.020060177027017463 0 -0.0015409213372768169 -0.020452193722777845 0 -0.0014168819989760913 -0.020378718538730772 0 -0.0013213172374986401 -0.020132867259524737 0 -0.0015409213372768169 -0.020452193722777845 0 -0.0018201658899070149 -0.020766124612840463 0 -0.0021117361690245005 -0.019652916089441544 0 -0.0015653293645742662 -0.019879262461602838 0 -0.0026765572712629834 -0.020135231088983237 0 -0.0018201658899070149 -0.020766124612840463 0 -0.0021117361690245005 -0.019652916089441544 0 -0.001661256427110678 -0.02084385775512107 0 -0.0015409213372768169 -0.020452193722777845 0 -0.0018201658899070149 -0.020766124612840463 0 -0.0015409213372768169 -0.020452193722777845 0 -0.0018201658899070149 -0.020766124612840463 0 -0.0015653293645742662 -0.019879262461602838 0 -0.0016395572504792279 -0.021008888861482132 0 -0.001661256427110678 -0.02084385775512107 0 -0.0018201658899070149 -0.020766124612840463 0 -0.0021117361690245005 -0.019652916089441544 0 -0.0017712411236421091 -0.019296904473468247 0 -0.0021804158573558697 -0.018791769346202112 0 -0.0026820389081043208 -0.019298359107634284 0 -0.0021117361690245005 -0.019652916089441544 0 -0.0021804158573558697 -0.018791769346202112 0 -0.0021117361690245005 -0.019652916089441544 0 -0.0015653293645742662 -0.019879262461602838 0 -0.0017712411236421091 -0.019296904473468247 0 -0.0015653293645742662 -0.019879262461602838 0 -0.0017712411236421091 -0.019296904473468247 0 -0.0013983064373612514 -0.019324844304307136 0 -0.0017712411236421091 -0.019296904473468247 0 -0.0013983064373612514 -0.019324844304307136 0 -0.0015795884553558082 -0.018857593782745062 0 -0.0013983064373612514 -0.019324844304307136 0 -0.0012169176713307777 -0.019668223057865197 0 -0.0010825824596773996 -0.01924653185030873 0 -0.0013983064373612514 -0.019324844304307136 0 -0.0010825824596773996 -0.01924653185030873 0 -0.0011836085589933144 -0.018920278476690974 0 -0.0015653293645742662 -0.019879262461602838 0 -0.0013983064373612514 -0.019324844304307136 0 -0.0012169176713307777 -0.019668223057865197 0 -0.001372628611749079 -0.020060177027017463 0 -0.0015653293645742662 -0.019879262461602838 0 -0.0012169176713307777 -0.019668223057865197 0 -0.0010825824596773996 -0.01924653185030873 0 -0.00091344517491093083 -0.018937292614865389 0 -0.00075181982805915535 -0.019317795734107485 0 -0.0012169176713307777 -0.019668223057865197 0 -0.0010825824596773996 -0.01924653185030873 0 -0.00075181982805915535 -0.019317795734107485 0 -0.0010825824596773996 -0.01924653185030873 0 -0.00091344517491093083 -0.018937292614865389 0 -0.0011836085589933144 -0.018920278476690974 0 -0.00091344517491093083 -0.018937292614865389 0 -0.00099800685290570902 -0.018607871987373216 0 -0.0011836085589933144 -0.018920278476690974 0 -0.00091344517491093083 -0.018937292614865389 0 -0.00099800685290570902 -0.018607871987373216 0 -0.00059486787891481648 -0.018480030916043971 0 -0.00099800685290570902 -0.018607871987373216 0 -0.00059486787891481648 -0.018480030916043971 0 -0.00099458656177567957 -0.01816117061902783 0 -0.00099800685290570902 -0.018607871987373216 0 -0.001300703195019822 -0.018503697513962716 0 -0.00099458656177567957 -0.01816117061902783 0 -0.001300703195019822 -0.018503697513962716 0 -0.0013399513207749093 -0.018093497232030249 0 -0.00099458656177567957 -0.01816117061902783 0 -0.001300703195019822 -0.018503697513962716 0 -0.0017043323608137287 -0.018325652652189002 0 -0.0013399513207749093 -0.018093497232030249 0 -0.001300703195019822 -0.018503697513962716 0 -0.0011836085589933144 -0.018920278476690974 0 -0.0015795884553558082 -0.018857593782745062 0 -0.0013983064373612514 -0.019324844304307136 0 -0.0011836085589933144 -0.018920278476690974 0 -0.0015795884553558082 -0.018857593782745062 0 -0.00099800685290570902 -0.018607871987373216 0 -0.001300703195019822 -0.018503697513962716 0 -0.0011836085589933144 -0.018920278476690974 0 -0.0017712411236421091 -0.019296904473468247 0 -0.0015795884553558082 -0.018857593782745062 0 -0.0021804158573558697 -0.018791769346202112 0 -0.0015795884553558082 -0.018857593782745062 0 -0.0017043323608137287 -0.018325652652189002 0 -0.0021804158573558697 -0.018791769346202112 0 -0.001300703195019822 -0.018503697513962716 0 -0.0015795884553558082 -0.018857593782745062 0 -0.0017043323608137287 -0.018325652652189002 0 -0.0017043323608137287 -0.018325652652189002 0 -0.0021804158573558697 -0.018791769346202112 0 -0.002211173970765797 -0.017927762380453124 0 -0.0026889097778076908 -0.018238296237642445 0 -0.0021804158573558697 -0.018791769346202112 0 -0.002211173970765797 -0.017927762380453124 0 0.0001942930183629687 -0.011672200038879791 0 0.0012573149111800423 -0.010640413779852878 0 0.0021159741023371046 -0.01224305515410933 0 0.0001942930183629687 -0.011672200038879791 0 0.0012573149111800423 -0.010640413779852878 0 0.00021241198052382831 -0.0099891462614155446 0 0.0012573149111800423 -0.010640413779852878 0 0.0025044541603267863 -0.010207497253317132 0 0.0021159741023371046 -0.01224305515410933 0 0.0025044541603267863 -0.010207497253317132 0 0.0021159741023371046 -0.01224305515410933 0 0.0035346572258910048 -0.011152826201228414 0 0.0030334501428053769 -0.014722824894206654 0 0.0021159741023371046 -0.01224305515410933 0 0.0036978375742799442 -0.012870318644857914 0 0.0030334501428053769 -0.014722824894206654 0 0.0021159741023371046 -0.01224305515410933 0 0.00082563385054689159 -0.013914369977529156 0 0.0021159741023371046 -0.01224305515410933 0 0.0035346572258910048 -0.011152826201228414 0 0.0036978375742799442 -0.012870318644857914 0 0.0001942930183629687 -0.011672200038879791 0 0.00082563385054689159 -0.013914369977529156 0 -0.0010068682944962622 -0.012751008513760037 0 0.0001942930183629687 -0.011672200038879791 0 0.0021159741023371046 -0.01224305515410933 0 0.00082563385054689159 -0.013914369977529156 0 -0.00052008190663521193 -0.015626230197062378 0 0.00082563385054689159 -0.013914369977529156 0 -0.0010068682944962622 -0.012751008513760037 0 -0.0010573054552578424 -0.019929077165122353 0 -0.0012169176713307777 -0.019668223057865197 0 -0.00075181982805915535 -0.019317795734107485 0 -0.0017930434623353103 -0.017270421521411429 0 -0.0016671386165342042 -0.015195038116681983 0 -0.0025958899829336989 -0.014608910501951136 0 -0.0010068682944962622 -0.012751008513760037 0 -0.002610172598491149 -0.011008208868207758 0 -0.0010068682944962622 -0.012751008513760037 0 -0.002610172598491149 -0.011008208868207758 0 -0.0010746001785016993 -0.010558915806137289 0 0.0001942930183629687 -0.011672200038879791 0 -0.0010068682944962622 -0.012751008513760037 0 -0.0010746001785016993 -0.010558915806137289 0 0.0001942930183629687 -0.011672200038879791 0 -0.0010746001785016993 -0.010558915806137289 0 0.00021241198052382831 -0.0099891462614155446 0 -0.0010746001785016993 -0.010558915806137289 0 -0.0010065474097902115 -0.0091527342640022186 0 -0.0019660639465311405 -0.0090845981831326819 0 -0.0010746001785016993 -0.010558915806137289 0 -0.0010065474097902115 -0.0091527342640022186 0 0.00021241198052382831 -0.0099891462614155446 0 -0.002610172598491149 -0.011008208868207758 0 -0.0019660639465311405 -0.0090845981831326819 0 -0.0023257906264513004 -0.0087516845992600348 0 -0.00091344517491093083 -0.018937292614865389 0 -0.00075181982805915535 -0.019317795734107485 0 -0.00059486787891481648 -0.018480030916043971 0 -0.002610172598491149 -0.011008208868207758 0 -0.0010746001785016993 -0.010558915806137289 0 -0.0019660639465311405 -0.0090845981831326819 0 -0.0016671386165342042 -0.015195038116681983 0 -0.0015715262059645353 -0.013598525583166656 0 -0.0019233032212260979 -0.0090446007299180443 0 -0.0015113094689085185 -0.0081009978337868264 0 -0.0019660639465311405 -0.0090845981831326819 0 -0.0023257906264513004 -0.0087516845992600348 0 -0.0018800584288336591 -0.0082097126589409271 0 -0.0010065474097902115 -0.0091527342640022186 0 -0.001055213363183715 -0.008456830441035396 0 -0.00048198576611405841 -0.008079519352874159 0 -0.0019660639465311405 -0.0090845981831326819 0 -0.001055213363183715 -0.008456830441035396 0 -0.0011100479562003351 -0.007827566076105609 0 -0.00095102010761742985 -0.0090181144809697716 0 -7.6271116166579017e-05 -0.0073607788348961966 0 -0.0010065474097902115 -0.0091527342640022186 0 -0.0019660639465311405 -0.0090845981831326819 0 -0.001055213363183715 -0.008456830441035396 0 -0.0010065474097902115 -0.0091527342640022186 0 0.0012301406732952817 -0.0087455365228617556 0 0.00036035350555819979 -0.0065078137345942972 0 0.0012301406732952817 -0.0087455365228617556 0 0.0025243872431429714 -0.0069943143475315328 0 0.00036035350555819979 -0.0065078137345942972 0 0.0012573149111800423 -0.010640413779852878 0 0.0012301406732952817 -0.0087455365228617556 0 0.00021241198052382831 -0.0099891462614155446 0 -0.0010065474097902115 -0.0091527342640022186 0 0.0012301406732952817 -0.0087455365228617556 0 0.00021241198052382831 -0.0099891462614155446 0 0.0012573149111800423 -0.010640413779852878 0 0.0025044541603267863 -0.010207497253317132 0 0.0012301406732952817 -0.0087455365228617556 0 0.0025044541603267863 -0.010207497253317132 0 0.0012301406732952817 -0.0087455365228617556 0 0.0028614968037012551 -0.008586171419507016 0 0.0012301406732952817 -0.0087455365228617556 0 0.0028614968037012551 -0.008586171419507016 0 0.0025243872431429714 -0.0069943143475315328 0 0.0025243872431429714 -0.0069943143475315328 0 0.0038137698005331843 -0.0076485003927645673 0 0.0040752325521189172 -0.0061450022206473859 0 0.0028614968037012551 -0.008586171419507016 0 0.0025243872431429714 -0.0069943143475315328 0 0.0038137698005331843 -0.0076485003927645673 0 0.0038137698005331843 -0.0076485003927645673 0 0.0048749121341910588 -0.0070771450577003462 0 0.0040752325521189172 -0.0061450022206473859 0 0.0048749121341910588 -0.0070771450577003462 0 0.0054622067617314581 -0.0067995880628687186 0 0.0050594344369108103 -0.0060901332283069447 0 0.0054622067617314581 -0.0067995880628687186 0 0.0055368419600291411 -0.0060380273932480553 0 0.0050594344369108103 -0.0060901332283069447 0 0.0048749121341910588 -0.0070771450577003462 0 0.0054622067617314581 -0.0067995880628687186 0 0.0053754736551838494 -0.0075548365384895174 0 0.0053754736551838494 -0.0075548365384895174 0 0.0046413758520810738 -0.0081070486758279669 0 0.0056035561817093923 -0.0084835435498789337 0 0.0054622067617314581 -0.0067995880628687186 0 0.0053754736551838494 -0.0075548365384895174 0 0.0063897580376157436 -0.0073401324794673097 0 0.0053754736551838494 -0.0075548365384895174 0 0.0056035561817093923 -0.0084835435498789337 0 0.0063897580376157436 -0.0073401324794673097 0 0.0048749121341910588 -0.0070771450577003462 0 0.0053754736551838494 -0.0075548365384895174 0 0.0046413758520810738 -0.0081070486758279669 0 0.0038137698005331843 -0.0076485003927645673 0 0.0048749121341910588 -0.0070771450577003462 0 0.0046413758520810738 -0.0081070486758279669 0 0.0046413758520810738 -0.0081070486758279669 0 0.0056035561817093923 -0.0084835435498789337 0 0.004208793909398904 -0.0094246357861993979 0 0.0056035561817093923 -0.0084835435498789337 0 0.004208793909398904 -0.0094246357861993979 0 0.0062353525229903789 -0.0099748745187252918 0 0.0038137698005331843 -0.0076485003927645673 0 0.0046413758520810738 -0.0081070486758279669 0 0.004208793909398904 -0.0094246357861993979 0 0.0025044541603267863 -0.010207497253317132 0 0.0028614968037012551 -0.008586171419507016 0 0.004208793909398904 -0.0094246357861993979 0 0.0028614968037012551 -0.008586171419507016 0 0.0038137698005331843 -0.0076485003927645673 0 0.004208793909398904 -0.0094246357861993979 0 0.0033329215208770754 0.0035654981388551204 0 0.0031888908171433003 0.0037715532825207628 0 0.003158302533377805 0.0038654848666144536 0 0.0033329215208770754 0.0035654981388551204 0 0.003158302533377805 0.0038654848666144536 0 0.0032642852467742616 0.0037691186235186028 0 0.0033329215208770754 0.0035654981388551204 0 0.0034002629236374667 0.0034657241173855977 0 0.0032642852467742616 0.0037691186235186028 0 0.0033329215208770754 0.0035654981388551204 0 0.0034002629236374667 0.0034657241173855977 0 0.0034471967403838229 0.0032917489842326413 0 0.0033329215208770754 0.0035654981388551204 0 0.0034471967403838229 0.0032917489842326413 0 0.0031888908171433003 0.0037715532825207628 0 0.0046791797787939671 0.0013597894028551151 0 0.0038868300863694923 0.0027155672969280953 0 0.0048553623286477421 -0.0039246238196256273 0 0.004065100642895292 0.0027065201970478043 0 0.004011145855850713 0.00019899074604134165 0 0.0034002629236374667 0.0034657241173855977 0 0.0038868300863694923 0.0027155672969280953 0 0.0031260192899393983 0.0039056292031836993 0 0.0034002629236374667 0.0034657241173855977 0 0.0034471967403838229 0.0032917489842326413 0 0.0038868300863694923 0.0027155672969280953 0 0.0063897580376157436 -0.0073401324794673097 0 0.0056529331526432277 -0.0057323060985123636 0 0.0055368419600291411 -0.0060380273932480553 0 0.0054622067617314581 -0.0067995880628687186 0 0.0063897580376157436 -0.0073401324794673097 0 0.0055368419600291411 -0.0060380273932480553 0 0.0056035561817093923 -0.0084835435498789337 0 0.0063897580376157436 -0.0073401324794673097 0 0.0062353525229903789 -0.0099748745187252918 0 0.0038868300863694923 0.0027155672969280953 0 0.0037889795697039924 0.0040228805469035255 0 0.0040879486946402057 0.004311691314232733 0 0.0038868300863694923 0.0027155672969280953 0 0.0034540587567143803 0.003538746093160074 0 0.0037889795697039924 0.0040228805469035255 0 0.0054715908687336485 -0.0032086960058214926 0 0.0051469399651632858 -0.0029649964010985607 0 0.0046791797787939671 0.0013597894028551151 0 0.0038868300863694923 0.0027155672969280953 0 0.0040879486946402057 0.004311691314232733 0 0.0034471967403838229 0.0032917489842326413 0 0.0038868300863694923 0.0027155672969280953 0 0.0034540587567143803 0.003538746093160074 0 0.0032634717650409178 0.0036826508060575011 0 0.0031821509638960258 0.0037456963463990429 0 0.0031888908171433003 0.0037715532825207628 0 0.0034471967403838229 0.0032917489842326413 0 0.0034540587567143803 0.003538746093160074 0 0.0032634717650409178 0.0036826508060575011 0 0.0034540587567143803 0.003538746093160074 0 0.0032634717650409178 0.0036826508060575011 0 0.0033057786563943595 0.0037618564970115834 0 0.0034471967403838229 0.0032917489842326413 0 0.0032634717650409178 0.0036826508060575011 0 0.0031888908171433003 0.0037715532825207628 0 0.001875393609825179 0.0015260492325960746 0 0.0025005914111550292 0.0014444039194501461 0 0.0024168386905112317 0.0018731713056987715 0 0.0035842701478069352 0.0038353327786846622 0 0.0031671511359429453 0.0033457923997030617 0 0.0033057786563943595 0.0037618564970115834 0 0.0033743722369001684 0.0039467205400047266 0 0.0031821509638960258 0.0037456963463990429 0 0.0034540587567143803 0.003538746093160074 0 0.0033057786563943595 0.0037618564970115834 0 0.0033743722369001684 0.0039467205400047266 0 0.0031671511359429453 0.0033457923997030617 0 0.0026843709735250702 0.002646391595138577 0 0.0032634717650409178 0.0036826508060575011 0 0.0033057786563943595 0.0037618564970115834 0 0.0031821509638960258 0.0037456963463990429 0 0.0034540587567143803 0.003538746093160074 0 0.0037889795697039924 0.0040228805469035255 0 0.0038878269597994548 0.0042186667765283428 0 0.0037889795697039924 0.0040228805469035255 0 0.0039082840460790179 0.0041336899747321304 0 0.0038878269597994548 0.0042186667765283428 0 0.0037889795697039924 0.0040228805469035255 0 0.0039082840460790179 0.0041336899747321304 0 0.0040879486946402057 0.004311691314232733 0 0.0039710607195990759 0.0039296610069612823 0 0.0033824289946942526 0.0037940671084783864 0 0.0037267065573308618 0.003024949710455378 0 0.0039710607195990759 0.0039296610069612823 0 0.0043908517908085578 0.0034213037410964569 0 0.0037267065573308618 0.003024949710455378 0 0.0039082840460790179 0.0041336899747321304 0 0.0039710607195990759 0.0039296610069612823 0 0.0033824289946942526 0.0037940671084783864 0 0.0039082840460790179 0.0041336899747321304 0 0.0039710607195990759 0.0039296610069612823 0 0.0038878269597994548 0.0042186667765283428 0 0.0039710607195990759 0.0039296610069612823 0 0.0043489948223403487 0.0041447648467302835 0 0.0043908517908085578 0.0034213037410964569 0 0.003995118578534281 0.0039081774417418381 0 0.0031671511359429453 0.0033457923997030617 0 0.001875393609825179 0.0015260492325960746 0 0.0018964748859939739 0.0011527825183317358 0 0.0025005914111550292 0.0014444039194501461 0 0.0010071691951323816 0.00059065499855051487 0 0.0017452456885228189 0.00048434051502056172 0 0.0021002890683289983 0.0011618968088618598 0 0.002968165357213818 0.00014781938015887987 0 0.0020462176826537789 0.0013289670342462548 0 0.0031671511359429453 0.0033457923997030617 0 0.002968165357213818 0.00014781938015887987 0 0.004208793909398904 -0.0094246357861993979 0 0.0035346572258910048 -0.011152826201228414 0 0.0047545081174064675 -0.011369348642656513 0 0.0025044541603267863 -0.010207497253317132 0 0.004208793909398904 -0.0094246357861993979 0 0.0035346572258910048 -0.011152826201228414 0 0.0035346572258910048 -0.011152826201228414 0 0.0047545081174064675 -0.011369348642656513 0 0.0036978375742799442 -0.012870318644857914 0 0.0051469399651632858 -0.0029649964010985607 0 0.0047912925481206174 -0.0043703955714900168 0 0.0039082840460790179 0.0041336899747321304 0 0.0040879486946402057 0.004311691314232733 0 0.0033824289946942526 0.0037940671084783864 0 0.0062353525229903789 -0.0099748745187252918 0 0.0047545081174064675 -0.011369348642656513 0 0.005862925710747151 -0.012577691538530694 0 0.004208793909398904 -0.0094246357861993979 0 0.0062353525229903789 -0.0099748745187252918 0 0.0047545081174064675 -0.011369348642656513 0 0.0047545081174064675 -0.011369348642656513 0 0.005862925710747151 -0.012577691538530694 0 0.0047202428534457216 -0.013609324834987569 0 0.0047545081174064675 -0.011369348642656513 0 0.0047202428534457216 -0.013609324834987569 0 0.0036978375742799442 -0.012870318644857914 0 0.0047202428534457216 -0.013609324834987569 0 0.0036978375742799442 -0.012870318644857914 0 0.0039147153930568866 -0.01453951331552729 0 0.0030334501428053769 -0.014722824894206654 0 0.0036978375742799442 -0.012870318644857914 0 0.0039147153930568866 -0.01453951331552729 0 0.0029665159010202596 -0.016055198838461408 0 0.0039147153930568866 -0.01453951331552729 0 0.0052163541766847765 -0.014968324075695356 0 0.0047202428534457216 -0.013609324834987569 0 0.0039147153930568866 -0.01453951331552729 0 0.0052163541766847765 -0.014968324075695356 0 -2.8510300548579151e-05 -0.0064570719927045843 0 0.001483528270374336 -0.0061746626671308471 0 0.0016603498880487567 -0.0055274616329842154 0 -2.8510300548579151e-05 -0.0064570719927045843 0 0.001483528270374336 -0.0061746626671308471 0 0.0010046492125745108 -0.0068891157331493827 0 0.0016165224150588699 -0.01142746542962964 0 0.002124447871840819 -0.0061232795649792176 0 0.0019363978443618778 -0.0067295827976195403 0 0.0022863720010241509 -0.0059762960239898265 0 0.0028917696870651177 -0.0067979730956483153 0 0.0019363978443618778 -0.0067295827976195403 0 0.001483528270374336 -0.0061746626671308471 0 0.0022863720010241509 -0.0059762960239898265 0 0.0019363978443618778 -0.0067295827976195403 0 0.001483528270374336 -0.0061746626671308471 0 0.0010046492125745108 -0.0068891157331493827 0 0.001483528270374336 -0.0061746626671308471 0 0.0022863720010241509 -0.0059762960239898265 0 0.0016531932068027341 -0.0054305362279559836 0 0.0017906728559954903 -0.0060043125112448099 0 0.002124447871840819 -0.0061232795649792176 0 0.005862925710747151 -0.012577691538530694 0 0.0047202428534457216 -0.013609324834987569 0 0.0052163541766847765 -0.014968324075695356 0 0.0047912925481206174 -0.0043703955714900168 0 0.002124447871840819 -0.0061232795649792176 0 0.0022863720010241509 -0.0059762960239898265 0 0.0016531932068027341 -0.0054305362279559836 0 0.0027224129792911013 -0.0048459853726537609 0 0.0033824289946942526 0.0037940671084783864 0 0.0029387652601553086 0.0025448495738637422 0 0.0037267065573308618 0.003024949710455378 0 0.002124447871840819 -0.0061232795649792176 0 0.0036700796779017318 -0.00077589304604933974 0 0.0022863720010241509 -0.0059762960239898265 0 0.0027224129792911013 -0.0048459853726537609 0 0.0038564280409980568 -0.0060516657424734841 0 0.0038065501577114439 -0.0042653033554782994 0 0.0027224129792911013 -0.0048459853726537609 0 0.0038564280409980568 -0.0060516657424734841 0 0.002968165357213818 0.00014781938015887987 0 0.0036700796779017318 -0.00077589304604933974 0 0.002968165357213818 0.00014781938015887987 0 0.0025081574753586609 -0.0039726073786751533 0 0.0010071691951323816 0.00059065499855051487 0 0.0015866729546604934 -3.9290624008976345e-05 0 0.0010482917516107827 -0.00057841467919114448 0 0.0010071691951323816 0.00059065499855051487 0 0.0015866729546604934 -3.9290624008976345e-05 0 0.0017452456885228189 0.00048434051502056172 0 0.0015866729546604934 -3.9290624008976345e-05 0 0.0010482917516107827 -0.00057841467919114448 0 0.0018574385710446088 -0.00064501537759881298 0 0.0010482917516107827 -0.00057841467919114448 0 0.0015397516214399846 -0.001058811895975483 0 0.0018574385710446088 -0.00064501537759881298 0 0.0022863720010241509 -0.0059762960239898265 0 0.0038564280409980568 -0.0060516657424734841 0 0.0028917696870651177 -0.0067979730956483153 0 0.0028917696870651177 -0.0067979730956483153 0 0.0025331894583814894 -0.0074921382904778438 0 0.0038887213783939216 -0.0077346036102899076 0 0.0038564280409980568 -0.0060516657424734841 0 0.0028917696870651177 -0.0067979730956483153 0 0.0038887213783939216 -0.0077346036102899076 0 0.0025331894583814894 -0.0074921382904778438 0 0.0038887213783939216 -0.0077346036102899076 0 0.0024226905774904486 -0.0083644089835196566 0 0.00096343035239957787 -0.0018708078837850041 0 0.0016862940089385989 -0.0019397497611129816 0 0.0020540988956283561 -0.0013303359024966245 0 0.0010482917516107827 -0.00057841467919114448 0 0.0015397516214399846 -0.001058811895975483 0 0.001094132311702219 -0.0017458148629018462 0 0.0025081574753586609 -0.0039726073786751533 0 0.0014630169449246009 -0.0034463002951705636 0 0.0014630169449246009 -0.0034463002951705636 0 0.0021140126123750103 -0.0011356840273573613 0 0.0015397516214399846 -0.001058811895975483 0 0.001094132311702219 -0.0017458148629018462 0 0.0021578949604149451 -0.0012670770295050073 0 0.0013350893340782952 -0.0021681936445773122 0 0.0012965582657238402 -0.0024905618690223815 0 0.0017092212138408562 -0.0023215313836137119 0 0.00096343035239957787 -0.0018708078837850041 0 0.0013350893340782952 -0.0021681936445773122 0 0.0016862940089385989 -0.0019397497611129816 0 0.0013350893340782952 -0.0021681936445773122 0 0.0017092212138408562 -0.0023215313836137119 0 0.0016862940089385989 -0.0019397497611129816 0 0.0013350893340782952 -0.0021681936445773122 0 0.00099647673428720465 -0.0022604661791673312 0 0.0012965582657238402 -0.0024905618690223815 0 0.00096343035239957787 -0.0018708078837850041 0 0.0013350893340782952 -0.0021681936445773122 0 0.00099647673428720465 -0.0022604661791673312 0 0.0014630169449246009 -0.0034463002951705636 0 0.0012467234036600626 -0.0022745835713000825 0 0.0012125118563194785 -0.0028690487822354144 0 0.0012965582657238402 -0.0024905618690223815 0 0.00070299091702064932 -0.0026823110300363746 0 0.00099647673428720465 -0.0022604661791673312 0 0.0012965582657238402 -0.0024905618690223815 0 0.00070299091702064932 -0.0026823110300363746 0 0.0017533278906760432 -0.002945991306904993 0 0.0012965582657238402 -0.0024905618690223815 0 0.0017092212138408562 -0.0023215313836137119 0 0.0012125118563194785 -0.0028690487822354144 0 0.0017533278906760432 -0.002945991306904993 0 0.0012965582657238402 -0.0024905618690223815 0 0.00099647673428720465 -0.0022604661791673312 0 0.00070299091702064932 -0.0026823110300363746 0 -6.0293315187765516e-06 -0.0023564922859403408 0 0.00098334817428100216 -0.0019115347397601012 0 0.00099647673428720465 -0.0022604661791673312 0 -6.0293315187765516e-06 -0.0023564922859403408 0 0.0014630169449246009 -0.0034463002951705636 0 0.0012139788944012264 -0.0053788148287135318 0 0.00014875751911575734 -0.0030385144405737936 0 0.00070299091702064932 -0.0026823110300363746 0 -6.0293315187765516e-06 -0.0023564922859403408 0 0.0012139788944012264 -0.0053788148287135318 0 0.00087467010774111532 -0.0070334335089745556 0 0.0024226905774904486 -0.0083644089835196566 0 0.001510733018151337 -0.0080023004103099513 0 0.0011504084553515738 -0.0085285573651436419 0 0.0024226905774904486 -0.0083644089835196566 0 0.00099346168881001007 -0.0089696859573399432 0 0.0011504084553515738 -0.0085285573651436419 0 -0.00047816948961831163 -0.0030146560872380199 0 -6.0293315187765516e-06 -0.0023564922859403408 0 -0.0010288450974818286 -0.0028320254486966095 0 -0.00047816948961831163 -0.0030146560872380199 0 0.00014875751911575734 -0.0030385144405737936 0 -6.0293315187765516e-06 -0.0023564922859403408 0 0.00099419717481859476 -0.0089790985793125871 0 0.00087141840172845573 -0.0090307217197498069 0 0.00079636265892191432 -0.0086241527009085182 0 0.00087467010774111532 -0.0070334335089745556 0 0.00081177585582892556 -0.0071292156406658333 0 0.00087467010774111532 -0.0070334335089745556 0 0.00072283416189260154 -0.0082712976252898099 0 0.00099419717481859476 -0.0089790985793125871 0 0.0011504084553515738 -0.0085285573651436419 0 0.00079636265892191432 -0.0086241527009085182 0 0.00023359376723195268 -0.0083353148404864442 0 0.00087141840172845573 -0.0090307217197498069 0 0.00079636265892191432 -0.0086241527009085182 0 0.00023359376723195268 -0.0083353148404864442 0 0.00079636265892191432 -0.0086241527009085182 0 0.00081715519733801384 -0.0077151864670973258 0 0.001510733018151337 -0.0080023004103099513 0 0.0011504084553515738 -0.0085285573651436419 0 0.00081715519733801384 -0.0077151864670973258 0 0.0011504084553515738 -0.0085285573651436419 0 0.00079636265892191432 -0.0086241527009085182 0 0.00081715519733801384 -0.0077151864670973258 0 0.001510733018151337 -0.0080023004103099513 0 0.00081715519733801384 -0.0077151864670973258 0 0.0016595194832027742 -0.0074039325327739294 0 -2.8510300548579151e-05 -0.0064570719927045843 0 0.00081715519733801384 -0.0077151864670973258 0 0.0010046492125745108 -0.0068891157331493827 0 0.00081715519733801384 -0.0077151864670973258 0 0.0010046492125745108 -0.0068891157331493827 0 0.0016595194832027742 -0.0074039325327739294 0 0.0019363978443618778 -0.0067295827976195403 0 0.0010046492125745108 -0.0068891157331493827 0 0.0016595194832027742 -0.0074039325327739294 0 0.0019363978443618778 -0.0067295827976195403 0 0.0028917696870651177 -0.0067979730956483153 0 0.0025331894583814894 -0.0074921382904778438 0 0.0019363978443618778 -0.0067295827976195403 0 0.0025331894583814894 -0.0074921382904778438 0 0.0016595194832027742 -0.0074039325327739294 0 0.0025331894583814894 -0.0074921382904778438 0 0.0024226905774904486 -0.0083644089835196566 0 0.0016595194832027742 -0.0074039325327739294 0 0.0024226905774904486 -0.0083644089835196566 0 0.001510733018151337 -0.0080023004103099513 0 0.0016595194832027742 -0.0074039325327739294 0 0.0041087918090882873 -0.0015798619891261734 0 0.003267616749260978 -0.0021894550877208058 0 0.0028482030151558051 -0.0014732072445694784 0 0.0041087918090882873 -0.0015798619891261734 0 0.0028482030151558051 -0.0014732072445694784 0 0.0031912666379931543 -0.00080039495428487742 0 0.0041087918090882873 -0.0015798619891261734 0 0.0042323763986578276 -0.00052232888827409075 0 0.0047470520407589907 -0.00099307812173974621 0 0.0041087918090882873 -0.0015798619891261734 0 0.0047470520407589907 -0.00099307812173974621 0 0.0049898514217276355 -0.0016503986259510319 0 0.0041087918090882873 -0.0015798619891261734 0 0.0046121345950228499 -0.0022539512250802111 0 0.0049898514217276355 -0.0016503986259510319 0 0.0043875965983385598 -0.0026416723726478716 0 0.0041087918090882873 -0.0015798619891261734 0 0.0046121345950228499 -0.0022539512250802111 0 0.00398197469722245 -0.00091220442138010194 0 0.0044197465169662038 4.9816741411931264e-05 0 0.00398197469722245 -0.00091220442138010194 0 0.0033349186151022691 -0.0024852507783999873 0 0.0042175701143770785 -0.0027881625836051389 0 0.0032203133347413369 -0.0030467210164070654 0 0.0031456722664846139 -0.0023221802965661454 0 0.0043875965983385598 -0.0026416723726478716 0 0.0041087918090882873 -0.0015798619891261734 0 0.003267616749260978 -0.0021894550877208058 0 0.0033349186151022691 -0.0024852507783999873 0 0.0020962442138351724 -0.0017522342537717017 0 0.0024537845500682059 -0.0030009703271766833 0 0.0031456722664846139 -0.0023221802965661454 0 0.0021896086992078249 -0.0024239758899922657 0 0.0031456722664846139 -0.0023221802965661454 0 0.0021896086992078249 -0.0024239758899922657 0 0.0021062534767758616 -0.0017964497463829417 0 0.0017533278906760432 -0.002945991306904993 0 0.0021896086992078249 -0.0024239758899922657 0 0.0017092212138408562 -0.0023215313836137119 0 0.0021896086992078249 -0.0024239758899922657 0 0.0019230288756709299 -0.0021214623770834293 0 0.0021062534767758616 -0.0017964497463829417 0 0.0021896086992078249 -0.0024239758899922657 0 0.0019230288756709299 -0.0021214623770834293 0 0.0017092212138408562 -0.0023215313836137119 0 0.0019230288756709299 -0.0021214623770834293 0 0.0017092212138408562 -0.0023215313836137119 0 0.0016862940089385989 -0.0019397497611129816 0 0.0016862940089385989 -0.0019397497611129816 0 0.0021062534767758616 -0.0017964497463829417 0 0.0020540988956283561 -0.0013303359024966245 0 0.0019230288756709299 -0.0021214623770834293 0 0.0016862940089385989 -0.0019397497611129816 0 0.0021062534767758616 -0.0017964497463829417 0 0.0021062534767758616 -0.0017964497463829417 0 0.0020540988956283561 -0.0013303359024966245 0 0.0028482030151558051 -0.0014732072445694784 0 0.0020540988956283561 -0.0013303359024966245 0 0.0028482030151558051 -0.0014732072445694784 0 0.0031912666379931543 -0.00080039495428487742 0 0.003267616749260978 -0.0021894550877208058 0 0.0021062534767758616 -0.0017964497463829417 0 0.0028482030151558051 -0.0014732072445694784 0 0.0021140126123750103 -0.0011356840273573613 0 0.0031081089568355939 -0.0008724287491101878 0 0.0021578949604149451 -0.0012670770295050073 0 0.0031912666379931543 -0.00080039495428487742 0 0.0024854672323757947 -0.00055224340510259102 0 0.0031912666379931543 -0.00080039495428487742 0 0.0028974614581891225 -1.3695337503592817e-06 0 0.0036136977909196448 2.3491281985821255e-05 0 0.0031912666379931543 -0.00080039495428487742 0 0.0024854672323757947 -0.00055224340510259102 0 0.0028974614581891225 -1.3695337503592817e-06 0 0.0015397516214399846 -0.001058811895975483 0 0.0021578949604149451 -0.0012670770295050073 0 0.0018574385710446088 -0.00064501537759881298 0 0.0021578949604149451 -0.0012670770295050073 0 0.0024854672323757947 -0.00055224340510259102 0 0.0018574385710446088 -0.00064501537759881298 0 0.0024854672323757947 -0.00055224340510259102 0 0.0018574385710446088 -0.00064501537759881298 0 0.0022736425720925454 -4.9722604121688671e-05 0 0.0015866729546604934 -3.9290624008976345e-05 0 0.0018574385710446088 -0.00064501537759881298 0 0.0022736425720925454 -4.9722604121688671e-05 0 0.0022736425720925454 -4.9722604121688671e-05 0 0.0017452456885228189 0.00048434051502056172 0 0.0024411034963202284 0.00057300398417600988 0 0.0015866729546604934 -3.9290624008976345e-05 0 0.0022736425720925454 -4.9722604121688671e-05 0 0.0017452456885228189 0.00048434051502056172 0 0.0024854672323757947 -0.00055224340510259102 0 0.0022736425720925454 -4.9722604121688671e-05 0 0.0028974614581891225 -1.3695337503592817e-06 0 0.0022736425720925454 -4.9722604121688671e-05 0 0.0028974614581891225 -1.3695337503592817e-06 0 0.0024411034963202284 0.00057300398417600988 0 0.0028974614581891225 -1.3695337503592817e-06 0 0.0024411034963202284 0.00057300398417600988 0 0.0031113014702980352 0.00075076577224698936 0 0.0028974614581891225 -1.3695337503592817e-06 0 0.0036136977909196448 2.3491281985821255e-05 0 0.0031113014702980352 0.00075076577224698936 0 0.0036136977909196448 2.3491281985821255e-05 0 0.0044378597571717634 0.00038338997428639693 0 0.0038913738081514291 0.0010550401570269038 0 0.0031912666379931543 -0.00080039495428487742 0 0.0036136977909196448 2.3491281985821255e-05 0 0.0042323763986578276 -0.00052232888827409075 0 0.0041087918090882873 -0.0015798619891261734 0 0.0031912666379931543 -0.00080039495428487742 0 0.0042323763986578276 -0.00052232888827409075 0 0.0042323763986578276 -0.00052232888827409075 0 0.0047470520407589907 -0.00099307812173974621 0 0.0050559261426906324 -0.00020696585998646497 0 0.0042323763986578276 -0.00052232888827409075 0 0.0044378597571717634 0.00038338997428639693 0 0.0050559261426906324 -0.00020696585998646497 0 0.0036136977909196448 2.3491281985821255e-05 0 0.0042323763986578276 -0.00052232888827409075 0 0.0044378597571717634 0.00038338997428639693 0 0.0044378597571717634 0.00038338997428639693 0 0.0046998388927276379 0.0012065714206659318 0 0.0038913738081514291 0.0010550401570269038 0 0.0038913738081514291 0.0010550401570269038 0 0.0031113014702980352 0.00075076577224698936 0 0.0032335957803851486 0.0017356744424331353 0 0.0036136977909196448 2.3491281985821255e-05 0 0.0038913738081514291 0.0010550401570269038 0 0.0031113014702980352 0.00075076577224698936 0 0.0038913738081514291 0.0010550401570269038 0 0.0032335957803851486 0.0017356744424331353 0 0.0042346112201616902 0.0020682835769458723 0 0.0046998388927276379 0.0012065714206659318 0 0.0038913738081514291 0.0010550401570269038 0 0.0042346112201616902 0.0020682835769458723 0 0.0017452456885228189 0.00048434051502056172 0 0.0024411034963202284 0.00057300398417600988 0 0.0021002890683289983 0.0011618968088618598 0 0.0024411034963202284 0.00057300398417600988 0 0.0021002890683289983 0.0011618968088618598 0 0.0027217291809245475 0.0010542324319329432 0 0.0027217291809245475 0.0010542324319329432 0 0.0031113014702980352 0.00075076577224698936 0 0.0032335957803851486 0.0017356744424331353 0 0.0024411034963202284 0.00057300398417600988 0 0.0027217291809245475 0.0010542324319329432 0 0.0031113014702980352 0.00075076577224698936 0 0.0020462176826537789 0.0013289670342462548 0 0.0032762692598115174 0.0017312913514634131 0 0.0021002890683289983 0.0011618968088618598 0 0.0027217291809245475 0.0010542324319329432 0 0.0032335957803851486 0.0017356744424331353 0 0.0032335957803851486 0.0017356744424331353 0 0.0024168386905112317 0.0018731713056987715 0 0.0030684839148761561 0.0023253841315288002 0 0.0025005914111550292 0.0014444039194501461 0 0.0032335957803851486 0.0017356744424331353 0 0.0024168386905112317 0.0018731713056987715 0 0.0031821509638960258 0.0037456963463990429 0 0.0031888908171433003 0.0037715532825207628 0 0.0031963648940611087 0.0037571224659683684 0 0.0031877684231661394 0.0038972956401360872 0 0.0029226997154919148 0.0037727035272338686 0 0.0026843709735250702 0.002646391595138577 0 0.0029226997154919148 0.0037727035272338686 0 0.0028761618633002398 0.0043944368555316159 0 0.0028308789981398405 0.0043946183005811618 0 0.0029780685446971463 0.0041321704640061704 0 0.0028308789981398405 0.0043946183005811618 0 0.0027912078820198347 0.0045971180400015185 0 0.0028632246147839136 0.0043383478759149718 0 0.0028308789981398405 0.0043946183005811618 0 0.0029780685446971463 0.0041321704640061704 0 0.0028632246147839136 0.0043383478759149718 0 0.0031888908171433003 0.0037715532825207628 0 0.0028761618633002398 0.0043944368555316159 0 0.0029780685446971463 0.0041321704640061704 0 0.0029780685446971463 0.0041321704640061704 0 0.003158302533377805 0.0038654848666144536 0 0.0029336457585443071 0.0041590595527982886 0 0.0031888908171433003 0.0037715532825207628 0 0.0029780685446971463 0.0041321704640061704 0 0.003158302533377805 0.0038654848666144536 0 0.0027975249407655445 0.004336907522727947 0 0.0027380645726288472 0.0045769249278809297 0 0.0030811614464668659 0.0047130337387797728 0 0.0029226997154919148 0.0037727035272338686 0 0.002724600201843438 0.0046476158466975176 0 0.0032335957803851486 0.0017356744424331353 0 0.0030684839148761561 0.0023253841315288002 0 0.0042346112201616902 0.0020682835769458723 0 0.0029226997154919148 0.0037727035272338686 0 0.0034961883140357422 0.0031592699544148433 0 0.0025156082322299834 0.0044349492441298375 0 0.0027975249407655445 0.004336907522727947 0 0.0027380645726288472 0.0045769249278809297 0 0.0027380645726288472 0.0045769249278809297 0 0.0028148241091030513 0.0048930012324641592 0 0.0027912078820198347 0.0045971180400015185 0 0.0028308789981398405 0.0043946183005811618 0 0.0027380645726288472 0.0045769249278809297 0 0.0027912078820198347 0.0045971180400015185 0 0.0028761618633002398 0.0043944368555316159 0 0.0028308789981398405 0.0043946183005811618 0 0.0027380645726288472 0.0045769249278809297 0 0.0027380645726288472 0.0045769249278809297 0 0.0028148241091030513 0.0048930012324641592 0 0.0030811614464668659 0.0047130337387797728 0 0.0028148241091030513 0.0048930012324641592 0 0.0028023703834078027 0.0049522347588168607 0 0.0028823765795561785 0.0053492153989305241 0 0.0028148241091030513 0.0048930012324641592 0 0.0027912078820198347 0.0045971180400015185 0 0.0028023703834078027 0.0049522347588168607 0 0.0027912078820198347 0.0045971180400015185 0 0.0028023703834078027 0.0049522347588168607 0 0.0027986835200963086 0.0044810678991104398 0 0.0028023703834078027 0.0049522347588168607 0 0.0027512892017203211 0.0047161416957583312 0 0.0027986835200963086 0.0044810678991104398 0 0.0028023703834078027 0.0049522347588168607 0 0.0028823765795561785 0.0053492153989305241 0 0.0026725470738355782 0.0052353195355040946 0 0.0028023703834078027 0.0049522347588168607 0 0.0027012136206347685 0.0051227807767403885 0 0.0026725470738355782 0.0052353195355040946 0 0.0028023703834078027 0.0049522347588168607 0 0.0027182206854158022 0.0050033972956871524 0 0.0027512892017203211 0.0047161416957583312 0 0.0028023703834078027 0.0049522347588168607 0 0.0027182206854158022 0.0050033972956871524 0 0.0027012136206347685 0.0051227807767403885 0 0.0027012136206347685 0.0051227807767403885 0 0.0026069987507214244 0.0052022484092341436 0 0.0026454763435951279 0.0051732681070422778 0 0.0027182206854158022 0.0050033972956871524 0 0.0027012136206347685 0.0051227807767403885 0 0.0026454763435951279 0.0051732681070422778 0 0.0027012136206347685 0.0051227807767403885 0 0.0026223599570511578 0.0052101267278899842 0 0.0026725470738355782 0.0052353195355040946 0 0.0027012136206347685 0.0051227807767403885 0 0.0026223599570511578 0.0052101267278899842 0 0.0026069987507214244 0.0052022484092341436 0 0.0026803439263198658 0.0026941523929341089 0 0.0024083264746901458 0.0034149316578880743 0 0.0029812746370223033 0.0033891217377693354 0 0.0026803439263198658 0.0026941523929341089 0 0.0029812746370223033 0.0033891217377693354 0 0.003270599558720329 0.0028631531302730105 0 0.0027479402125973108 0.0033983058484102183 0 0.0025627671949723292 0.0038226800916521873 0 0.0024073398601916363 0.0033426681861482132 0 0.0026315547937395818 0.0041655991447387122 0 0.0025342913138883412 0.0043039577509556863 0 0.0025385339459999853 0.0033750997490208478 0 0.0026315547937395818 0.0041655991447387122 0 0.0027182206854158022 0.0050033972956871524 0 0.0025886058118805995 0.0049885842916051306 0 0.0026454763435951279 0.0051732681070422778 0 0.0026315547937395818 0.0041655991447387122 0 0.0025981416634095556 0.0049120602429251706 0 0.0027182206854158022 0.0050033972956871524 0 0.0025886058118805995 0.0049885842916051306 0 0.0027512892017203211 0.0047161416957583312 0 0.0024083264746901458 0.0034149316578880743 0 0.0029812746370223033 0.0033891217377693354 0 0.0030190211137488747 0.0037996946980670839 0 0.0030190211137488747 0.0037996946980670839 0 0.0027984209948670063 0.004233926919015708 0 0.003218325307648511 0.0038933027447943082 0 0.0024083264746901458 0.0034149316578880743 0 0.0030190211137488747 0.0037996946980670839 0 0.0027984209948670063 0.004233926919015708 0 0.0026217580426127892 0.0049575200389739352 0 0.0027984209948670063 0.004233926919015708 0 0.0027512892017203211 0.0047161416957583312 0 0.0026315547937395818 0.0041655991447387122 0 0.0027311371575603921 0.004263747949409198 0 0.0027984209948670063 0.004233926919015708 0 0.0027512892017203211 0.0047161416957583312 0 0.0027986835200963086 0.0044810678991104398 0 0.0027984209948670063 0.004233926919015708 0 0.0027986835200963086 0.0044810678991104398 0 0.0029336457585443071 0.0041590595527982886 0 0.0029780685446971463 0.0041321704640061704 0 0.0028632246147839136 0.0043383478759149718 0 0.0029336457585443071 0.0041590595527982886 0 0.0027986835200963086 0.0044810678991104398 0 0.0028632246147839136 0.0043383478759149718 0 0.0029336457585443071 0.0041590595527982886 0 0.0027912078820198347 0.0045971180400015185 0 0.0027986835200963086 0.0044810678991104398 0 0.0028632246147839136 0.0043383478759149718 0 0.0027984209948670063 0.004233926919015708 0 0.0031171409871494386 0.0039810536926765351 0 0.003218325307648511 0.0038933027447943082 0 0.0027984209948670063 0.004233926919015708 0 0.0031171409871494386 0.0039810536926765351 0 0.0029336457585443071 0.0041590595527982886 0 0.003158302533377805 0.0038654848666144536 0 0.0031171409871494386 0.0039810536926765351 0 0.0029336457585443071 0.0041590595527982886 0 0.003158302533377805 0.0038654848666144536 0 0.0031171409871494386 0.0039810536926765351 0 0.0032642852467742616 0.0037691186235186028 0 0.0031171409871494386 0.0039810536926765351 0 0.003227466551440432 0.0038750940358114349 0 0.0032642852467742616 0.0037691186235186028 0 0.0031171409871494386 0.0039810536926765351 0 0.003227466551440432 0.0038750940358114349 0 0.003218325307648511 0.0038933027447943082 0 0.003227466551440432 0.0038750940358114349 0 0.0031260192899393983 0.0039056292031836993 0 0.003218325307648511 0.0038933027447943082 0 0.0034002629236374667 0.0034657241173855977 0 0.0032618009433909869 0.0037605440095917677 0 0.0031260192899393983 0.0039056292031836993 0 0.003227466551440432 0.0038750940358114349 0 0.0032618009433909869 0.0037605440095917677 0 0.0031260192899393983 0.0039056292031836993 0 0.003227466551440432 0.0038750940358114349 0 0.0032618009433909869 0.0037605440095917677 0 0.0032642852467742616 0.0037691186235186028 0 0.0034002629236374667 0.0034657241173855977 0 0.0032618009433909869 0.0037605440095917677 0 0.0032642852467742616 0.0037691186235186028 0 0.0063897580376157436 -0.0073401324794673097 0 0.0056529331526432277 -0.0057323060985123636 0 0.0054563462691555736 -0.0045496787710215779 0 0.0054715908687336485 -0.0032086960058214926 0 0.0053550028240018591 -0.0046354428713546525 0 0.0046791797787939671 0.0013597894028551151 0 0.0054563462691555736 -0.0045496787710215779 0 0.0048553623286477421 -0.0039246238196256273 0 0.0056529331526432277 -0.0057323060985123636 0 0.0055368419600291411 -0.0060380273932480553 0 0.0053859052037235171 -0.0051957099446084598 0 0.0055368419600291411 -0.0060380273932480553 0 0.0053859052037235171 -0.0051957099446084598 0 0.0050594344369108103 -0.0060901332283069447 0 0.0053859052037235171 -0.0051957099446084598 0 0.0054563462691555736 -0.0045496787710215779 0 0.005370450918819103 -0.0049389652176444789 0 0.0053859052037235171 -0.0051957099446084598 0 0.005370450918819103 -0.0049389652176444789 0 0.0049348778475502243 -0.0052543810800385936 0 0.0056529331526432277 -0.0057323060985123636 0 0.0053859052037235171 -0.0051957099446084598 0 0.0054563462691555736 -0.0045496787710215779 0 0.0054563462691555736 -0.0045496787710215779 0 0.0048553623286477421 -0.0039246238196256273 0 0.0054847741572801234 -0.0048171580731915286 0 0.0054847741572801234 -0.0048171580731915286 0 0.005370450918819103 -0.0049389652176444789 0 0.0052697869848845041 -0.0046862807898707956 0 0.0054563462691555736 -0.0045496787710215779 0 0.0054847741572801234 -0.0048171580731915286 0 0.005370450918819103 -0.0049389652176444789 0 0.0054847741572801234 -0.0048171580731915286 0 0.0055297355161793415 -0.004956970526078873 0 0.0052697869848845041 -0.0046862807898707956 0 0.005370450918819103 -0.0049389652176444789 0 0.0049348778475502243 -0.0052543810800385936 0 0.0052697869848845041 -0.0046862807898707956 0 0.004011145855850713 0.00019899074604134165 0 0.0043995424865846669 -0.00058236199891863313 0 0.0031260192899393983 0.0039056292031836993 0 0.003218325307648511 0.0038933027447943082 0 0.0033471514172468703 0.003728148457401697 0 0.0048553623286477421 -0.0039246238196256273 0 0.0054847741572801234 -0.0048171580731915286 0 0.0055297355161793415 -0.004956970526078873 0 0.0030190211137488747 0.0037996946980670839 0 0.003218325307648511 0.0038933027447943082 0 0.0033471514172468703 0.003728148457401697 0 0.0025243872431429714 -0.0069943143475315328 0 0.0030402166476838129 -0.0053733855435025889 0 0.0040752325521189172 -0.0061450022206473859 0 0.0030402166476838129 -0.0053733855435025889 0 0.0040752325521189172 -0.0061450022206473859 0 0.0040836353467799229 -0.0049298310081938709 0 0.0040752325521189172 -0.0061450022206473859 0 0.0049348778475502243 -0.0052543810800385936 0 0.0040836353467799229 -0.0049298310081938709 0 0.0040752325521189172 -0.0061450022206473859 0 0.0050594344369108103 -0.0060901332283069447 0 0.0049348778475502243 -0.0052543810800385936 0 0.0048749121341910588 -0.0070771450577003462 0 0.0040752325521189172 -0.0061450022206473859 0 0.0050594344369108103 -0.0060901332283069447 0 0.0053859052037235171 -0.0051957099446084598 0 0.0050594344369108103 -0.0060901332283069447 0 0.0049348778475502243 -0.0052543810800385936 0 0.0049348778475502243 -0.0052543810800385936 0 0.0040836353467799229 -0.0049298310081938709 0 0.0049747725703100498 -0.0039979382592252033 0 0.0049198659319582448 -0.005210820428874643 0 0.0050967209367922166 -0.0043724150866606753 0 0.0040836353467799229 -0.0049298310081938709 0 0.0037177723765657276 -0.0040590080919013219 0 0.0049747725703100498 -0.0039979382592252033 0 0.0030402166476838129 -0.0053733855435025889 0 0.0040836353467799229 -0.0049298310081938709 0 0.0037177723765657276 -0.0040590080919013219 0 0.0037177723765657276 -0.0040590080919013219 0 0.0044083921272448949 -0.0032269961239746294 0 0.0037581295262266502 -0.0033435656179545605 0 0.0037177723765657276 -0.0040590080919013219 0 0.0037581295262266502 -0.0033435656179545605 0 0.0029069521410256347 -0.0032758967440433885 0 0.0037177723765657276 -0.0040590080919013219 0 0.0044083921272448949 -0.0032269961239746294 0 0.0049747725703100498 -0.0039979382592252033 0 0.0044083921272448949 -0.0032269961239746294 0 0.0040991859195474616 -0.0029058836451789486 0 0.0044130291077791716 -0.0026491654641593058 0 0.0044083921272448949 -0.0032269961239746294 0 0.0040991859195474616 -0.0029058836451789486 0 0.0037581295262266502 -0.0033435656179545605 0 -0.00031529478619787105 -0.0074577262473275452 0 -0.00027734298950809431 -0.0074162823934795594 0 -0.00026053708432618848 -0.0073659167857422301 0 0.003744336111913972 -0.0027454579446302401 0 0.0037161184476089239 -0.00234651342670038 0 0.0029069521410256347 -0.0032758967440433885 0 0.002727140897906496 -0.0040868047069752876 0 0.0011338413810053018 -0.0055491947367251335 0 0.0040991859195474616 -0.0029058836451789486 0 0.0037581295262266502 -0.0033435656179545605 0 0.003744336111913972 -0.0027454579446302401 0 0.0040991859195474616 -0.0029058836451789486 0 0.003744336111913972 -0.0027454579446302401 0 0.0040488826356320515 -0.0026231893875180226 0 0.0037581295262266502 -0.0033435656179545605 0 0.003744336111913972 -0.0027454579446302401 0 0.0029069521410256347 -0.0032758967440433885 0 0.0029812746370223033 0.0033891217377693354 0 0.0033471514172468703 0.003728148457401697 0 0.003270599558720329 0.0028631531302730105 0 0.0043995424865846669 -0.00058236199891863313 0 0.0046390413859843903 -0.00071802923269718738 0 0.0029812746370223033 0.0033891217377693354 0 0.0030190211137488747 0.0037996946980670839 0 0.0033471514172468703 0.003728148457401697 0 0.0055297355161793415 -0.004956970526078873 0 0.0052697869848845041 -0.0046862807898707956 0 0.0052518316918551142 -0.0041056285729590223 0 0.0044083921272448949 -0.0032269961239746294 0 0.0049747725703100498 -0.0039979382592252033 0 0.0049889565275327155 -0.0029857485029942 0 0.0050967209367922166 -0.0043724150866606753 0 0.0051322737598250888 -0.0035478960719952067 0 0.0044083921272448949 -0.0032269961239746294 0 0.0049889565275327155 -0.0029857485029942 0 0.0044130291077791716 -0.0026491654641593058 0 0.0055297355161793415 -0.004956970526078873 0 0.0052518316918551142 -0.0041056285729590223 0 0.0059393442052607893 -0.0040241833921666539 0 0.0059393442052607893 -0.0040241833921666539 0 0.0055270511775046185 -0.0030660775146481617 0 0.0062845910783147435 -0.0028837413028899605 0 0.0052518316918551142 -0.0041056285729590223 0 0.0059393442052607893 -0.0040241833921666539 0 0.0055270511775046185 -0.0030660775146481617 0 0.0051322737598250888 -0.0035478960719952067 0 0.0052872326510949638 -0.0026867973244685643 0 0.0049889565275327155 -0.0029857485029942 0 0.0050086464860109861 -0.0022952246189314111 0 0.0046994876437757944 -0.0024206231689598446 0 0.0049889565275327155 -0.0029857485029942 0 0.0046994876437757944 -0.0024206231689598446 0 0.0044130291077791716 -0.0026491654641593058 0 0.0046994876437757944 -0.0024206231689598446 0 0.0044130291077791716 -0.0026491654641593058 0 0.0044191094058981641 -0.002224522103645848 0 0.0050086464860109861 -0.0022952246189314111 0 0.0046994876437757944 -0.0024206231689598446 0 0.0046791181221889138 -0.0020505883762756607 0 0.0050086464860109861 -0.0022952246189314111 0 0.0046791181221889138 -0.0020505883762756607 0 0.0049132724613056809 -0.00196509894780554 0 0.0046994876437757944 -0.0024206231689598446 0 0.0046791181221889138 -0.0020505883762756607 0 0.0044191094058981641 -0.002224522103645848 0 0.0046791181221889138 -0.0020505883762756607 0 0.0043477959798629041 -0.0018630351212840744 0 0.0047014086077307336 -0.0018160427248625631 0 0.0046791181221889138 -0.0020505883762756607 0 0.0044191094058981641 -0.002224522103645848 0 0.0043477959798629041 -0.0018630351212840744 0 0.0046791181221889138 -0.0020505883762756607 0 0.0049132724613056809 -0.00196509894780554 0 0.0047014086077307336 -0.0018160427248625631 0 0.0052872326510949638 -0.0026867973244685643 0 0.0052965399544419181 -0.0018804095157977467 0 0.0055270511775046185 -0.0030660775146481617 0 0.0058954047506097201 -0.0020057270218970433 0 0.0062845910783147435 -0.0028837413028899605 0 0.0050086464860109861 -0.0022952246189314111 0 0.0049132724613056809 -0.00196509894780554 0 0.0050362829040158843 -0.0017517077541267605 0 -0.00031529478619787105 -0.0074577262473275452 0 -0.00028833136672044309 -0.0074900062857463003 0 -0.00028541065535985774 -0.0075195998658636491 0 0.003744336111913972 -0.0027454579446302401 0 0.0037956780278666532 -0.0025065231521277298 0 0.0040488826356320515 -0.0026231893875180226 0 0.0031651322410792852 -0.0027081627485544481 0 0.002727140897906496 -0.0040868047069752876 0 0.0037956780278666532 -0.0025065231521277298 0 0.0041571232282186805 -0.0024038228660657997 0 0.0041252797433134081 -0.0020801582976502446 0 0.0037956780278666532 -0.0025065231521277298 0 0.0041571232282186805 -0.0024038228660657997 0 0.0040488826356320515 -0.0026231893875180226 0 0.0041571232282186805 -0.0024038228660657997 0 0.0040488826356320515 -0.0026231893875180226 0 0.0044130291077791716 -0.0026491654641593058 0 0.0040991859195474616 -0.0029058836451789486 0 0.0040488826356320515 -0.0026231893875180226 0 0.0044130291077791716 -0.0026491654641593058 0 0.0041571232282186805 -0.0024038228660657997 0 0.0044130291077791716 -0.0026491654641593058 0 0.0044191094058981641 -0.002224522103645848 0 0.0041252797433134081 -0.0020801582976502446 0 0.0037443284509200616 -0.0020782991667951216 0 0.0043477959798629041 -0.0018630351212840744 0 0.0044191094058981641 -0.002224522103645848 0 0.0041252797433134081 -0.0020801582976502446 0 0.0043477959798629041 -0.0018630351212840744 0 0.0041571232282186805 -0.0024038228660657997 0 0.0044191094058981641 -0.002224522103645848 0 0.0041252797433134081 -0.0020801582976502446 0 0.002727140897906496 -0.0040868047069752876 0 0.0044348470178937373 -0.0015410893109535423 0 0.0038091823826564846 -0.0026897649791028798 0 0.0041252797433134081 -0.0020801582976502446 0 0.0037443284509200616 -0.0020782991667951216 0 0.002727140897906496 -0.0040868047069752876 0 0.0014725226370622976 -0.0055403187583911622 0 0.0014725226370622976 -0.0055403187583911622 0 -0.00093852229739488705 -0.008245461671883253 0 0.001714315338519648 -0.0057395171140336414 0 0.0024782041655928401 -0.0049274692020577059 0 0.0015571685136389405 -0.0047181036520301594 0 0.0014725226370622976 -0.0055403187583911622 0 0.00068094498085726428 -0.0067739674641365405 0 0.0014725226370622976 -0.0055403187583911622 0 0.0033885712483507748 -0.0031007301721675943 0 0.0037443284509200616 -0.0020782991667951216 0 0.0043477959798629041 -0.0018630351212840744 0 0.0043525798821936346 -0.0015168066910004265 0 0.0011372143712889791 -0.0052075619228658439 0 0.0011822231059622317 -0.0053436972316972036 0 0.00096160276497535757 -0.0052496375792168704 0 0.0011372143712889791 -0.0052075619228658439 0 0.0011822231059622317 -0.0053436972316972036 0 0.0013974045930600283 -0.0051749581572470412 0 0.0033885712483507748 -0.0031007301721675943 0 0.00068094498085726428 -0.0067739674641365405 0 0.0011372143712889791 -0.0052075619228658439 0 0.00096160276497535757 -0.0052496375792168704 0 0.0010059988217169706 -0.0051607159140132112 0 0.0049198431453463835 -0.0017057987552873504 0 0.0050362829040158843 -0.0017517077541267605 0 0.0048607848616534256 -0.0017361653323658842 0 0.0047872079477834593 -0.0012026519951984138 0 0.0045736334996454488 -0.0016880150229349133 0 0.0045319361481608216 -0.0013881862933029113 0 0.0052965399544419181 -0.0018804095157977467 0 0.0048041574324705801 -0.0016010524818007678 0 0.0047091230303142181 -0.0013673030123230337 0 0.0048607848616534256 -0.0017361653323658842 0 0.0045736334996454488 -0.0016880150229349133 0 0.0052965399544419181 -0.0018804095157977467 0 0.0049047018659222688 -0.0015933869958516303 0 0.0049132724613056809 -0.00196509894780554 0 0.0050362829040158843 -0.0017517077541267605 0 0.0049161968331522489 -0.0018156599346874436 0 0.0049132724613056809 -0.00196509894780554 0 0.0049161968331522489 -0.0018156599346874436 0 0.0047014086077307336 -0.0018160427248625631 0 0.0049198431453463835 -0.0017057987552873504 0 0.0049161968331522489 -0.0018156599346874436 0 0.0047014086077307336 -0.0018160427248625631 0 0.0049198431453463835 -0.0017057987552873504 0 0.0050362829040158843 -0.0017517077541267605 0 0.0049161968331522489 -0.0018156599346874436 0 0.0043525798821936346 -0.0015168066910004265 0 0.0049198431453463835 -0.0017057987552873504 0 0.0047014086077307336 -0.0018160427248625631 0 0.0033885712483507748 -0.0031007301721675943 0 0.005413579778895887 -0.0014216757606946647 0 0.0043477959798629041 -0.0018630351212840744 0 0.0043525798821936346 -0.0015168066910004265 0 0.0047014086077307336 -0.0018160427248625631 0 0.0052148052188193909 -0.0017838469984711774 0 0.0049426865051741455 -0.001841120912618477 0 0.0050525779735627711 -0.0020321128066765684 0 0.0052148052188193909 -0.0017838469984711774 0 0.0049198431453463835 -0.0017057987552873504 0 0.0049426865051741455 -0.001841120912618477 0 0.0033885712483507748 -0.0031007301721675943 0 0.0033358521834791115 -0.0035469554864437907 0 0.0049426865051741455 -0.001841120912618477 0 0.0047267410116062147 -0.0021009781448611147 0 0.0050525779735627711 -0.0020321128066765684 0 0.0049426865051741455 -0.001841120912618477 0 0.0047012537514196182 -0.0018879339187770003 0 0.0047267410116062147 -0.0021009781448611147 0 0.0049426865051741455 -0.001841120912618477 0 0.0048607848616534256 -0.0017361653323658842 0 0.0047012537514196182 -0.0018879339187770003 0 0.0049198431453463835 -0.0017057987552873504 0 0.0049426865051741455 -0.001841120912618477 0 0.0048607848616534256 -0.0017361653323658842 0 0.0048607848616534256 -0.0017361653323658842 0 0.0047012537514196182 -0.0018879339187770003 0 0.0045736334996454488 -0.0016880150229349133 0 0.0047012537514196182 -0.0018879339187770003 0 0.0043534975660689968 -0.002065141684041857 0 0.0047267410116062147 -0.0021009781448611147 0 0.0025979478865170635 0.0013116314577464559 0 0.0015316029675357561 0.0018813184029365659 0 0.0034363527204122717 -0.00097862958468212884 0 0.0025979478865170635 0.0013116314577464559 0 0.0047012537514196182 -0.0018879339187770003 0 0.0043534975660689968 -0.002065141684041857 0 0.0045736334996454488 -0.0016880150229349133 0 0.0023158331174605389 0.00062806857059239838 0 0.0022393752280055737 0.00099512649647833244 0 0.0021177952324016843 0.00058610202253894133 0 0.0043534975660689968 -0.002065141684041857 0 0.0043817283294648977 -0.0016162957432338471 0 0.0041684100975630045 -0.0015007511129252859 0 0.0043534975660689968 -0.002065141684041857 0 0.0043817283294648977 -0.0016162957432338471 0 0.0045736334996454488 -0.0016880150229349133 0 0.0045319361481608216 -0.0013881862933029113 0 0.0042415502892747953 -0.0014448965648928762 0 0.0044319930454297012 -0.00040858156935098989 0 0.0042415502892747953 -0.0014448965648928762 0 0.0041576765261623514 -0.0014347663010876963 0 0.0044319930454297012 -0.00040858156935098989 0 0.0047872079477834593 -0.0012026519951984138 0 0.0045319361481608216 -0.0013881862933029113 0 0.0044319930454297012 -0.00040858156935098989 0 0.0043817283294648977 -0.0016162957432338471 0 0.0045736334996454488 -0.0016880150229349133 0 0.0045319361481608216 -0.0013881862933029113 0 0.0043817283294648977 -0.0016162957432338471 0 0.0045319361481608216 -0.0013881862933029113 0 0.0042415502892747953 -0.0014448965648928762 0 0.0026718698964281183 0.002635095387934403 0 0.0026780281634642316 0.0026541041456323846 0 0.0025873248800299853 0.0027475787874251655 0 0.0043817283294648977 -0.0016162957432338471 0 0.0041684100975630045 -0.0015007511129252859 0 0.0042415502892747953 -0.0014448965648928762 0 0.0025979478865170635 0.0013116314577464559 0 0.0027330892203196156 0.0011367319984833344 0 0.0041391839381994958 -0.0014916375397853265 0 0.0042415502892747953 -0.0014448965648928762 0 0.0041576765261623514 -0.0014347663010876963 0 0.0025979478865170635 0.0013116314577464559 0 0.002788276803507302 0.0014071882095106317 0 0.002788276803507302 0.0014071882095106317 0 0.0026565931480451899 0.0028774479410877381 0 0.0026780281634642316 0.0026541041456323846 0 0.0025873248800299853 0.0027475787874251655 0 0.0026551424577048455 0.0028649441271105616 0 0.0026718698964281183 0.002635095387934403 0 0.0024534448621709869 0.0027278521663589923 0 0.0025873248800299853 0.0027475787874251655 0 0.0026718698964281183 0.002635095387934403 0 0.0024534448621709869 0.0027278521663589923 0 0.0023936544206060949 0.0025143022405594174 0 0.0024534448621709869 0.0027278521663589923 0 0.0025873248800299853 0.0027475787874251655 0 0.0025210318098190503 0.0029314618958108571 0 0.0011607152421276828 0.0034199276535408878 0 0.00079044414700970233 0.0032629145727746389 0 0.0010450000805087613 0.0030751479300222847 0 0.0025979478865170635 0.0013116314577464559 0 0.0014793913628479724 0.0029622203276720538 0 0.0014793913628479724 0.0029622203276720538 0 0.0015834148042584604 0.0032642855264496074 0 0.0023936544206060949 0.0025143022405594174 0 0.0022324819993259195 0.0026606512006888297 0 0.002134787279502844 0.0023982747104770883 0 0.0026047972439918353 0.0049797377814982105 0 0.0025218765027246442 0.0044404501924317653 0 0.0020933838577139657 0.0046971455624491443 0 0.0024950726924334423 0.0038701188765464236 0 0.0015834148042584604 0.0032642855264496074 0 0.0026047972439918353 0.0049797377814982105 0 0.0022747380941456541 0.0050128663950734969 0 0.0020933838577139657 0.0046971455624491443 0 0.0026047972439918353 0.0049797377814982105 0 0.0024961505546314115 0.0051622827399762502 0 0.0022747380941456541 0.0050128663950734969 0 0.0024534448621709869 0.0027278521663589923 0 0.0022324819993259195 0.0026606512006888297 0 0.0023152123847911261 0.0029505144804710432 0 0.0024534448621709869 0.0027278521663589923 0 0.0023936544206060949 0.0025143022405594174 0 0.0022324819993259195 0.0026606512006888297 0 0.0024950726924334423 0.0038701188765464236 0 0.0024666348924191868 0.0040270831286788262 0 0.0026047972439918353 0.0049797377814982105 0 0.0026415957377790293 0.0051438699737890682 0 0.0024961505546314115 0.0051622827399762502 0 0.0026415957377790293 0.0051438699737890682 0 0.0024961505546314115 0.0051622827399762502 0 0.0026069987507214244 0.0052022484092341436 0 0.0024961505546314115 0.0051622827399762502 0 0.0026069987507214244 0.0052022484092341436 0 0.0024989061281832869 0.005229540307566968 0 0.0026223599570511578 0.0052101267278899842 0 0.0026069987507214244 0.0052022484092341436 0 0.0024989061281832869 0.005229540307566968 0 0.0026415957377790293 0.0051438699737890682 0 0.0026069987507214244 0.0052022484092341436 0 0.0026454763435951279 0.0051732681070422778 0 0.0024666348924191868 0.0040270831286788262 0 0.0025342913138883412 0.0043039577509556863 0 0.0027479402125973108 0.0033983058484102183 0 0.0024073398601916363 0.0033426681861482132 0 0.002651752870777103 0.0030923069074920632 0 0.0023152123847911261 0.0029505144804710432 0 0.0024073398601916363 0.0033426681861482132 0 0.0025210318098190503 0.0029314618958108571 0 0.0024073398601916363 0.0033426681861482132 0 0.002651752870777103 0.0030923069074920632 0 0.0025210318098190503 0.0029314618958108571 0 0.0027479402125973108 0.0033983058484102183 0 0.002651752870777103 0.0030923069074920632 0 0.0030251161234190055 0.0028793738593104511 0 0.0046390413859843903 -0.00071802923269718738 0 0.0041146159290003006 0.00024215986202338197 0 0.0025385339459999853 0.0033750997490208478 0 0.0041146159290003006 0.00024215986202338197 0 0.0026803439263198658 0.0026941523929341089 0 0.003270599558720329 0.0028631531302730105 0 0.0030325690644053484 0.0018877850491346524 0 0.002651752870777103 0.0030923069074920632 0 0.0030251161234190055 0.0028793738593104511 0 0.0027106208238043103 0.0025849895748705307 0 0.0052965399544419181 -0.0018804095157977467 0 0.0041146159290003006 0.00024215986202338197 0 0.0028164054382204613 0.0020493883733859251 0 0.0030251161234190055 0.0028793738593104511 0 0.0027106208238043103 0.0025849895748705307 0 0.002788276803507302 0.0014071882095106317 0 0.0041146159290003006 0.00024215986202338197 0 0.002655717840046742 0.0029965708055333402 0 0.0026565931480451899 0.0028774479410877381 0 0.0024534448621709869 0.0027278521663589923 0 0.0023152123847911261 0.0029505144804710432 0 0.0025210318098190503 0.0029314618958108571 0 0.0025873248800299853 0.0027475787874251655 0 0.0026551424577048455 0.0028649441271105616 0 0.0025210318098190503 0.0029314618958108571 0 0.002651752870777103 0.0030923069074920632 0 0.0026551424577048455 0.0028649441271105616 0 0.0025210318098190503 0.0029314618958108571 0 -0.002466847490626884 -0.016639151917360515 0 -0.0018754067931255241 -0.016402043432834496 0 -0.0023602413340712662 -0.01618678346906665 0 -0.002466847490626884 -0.016639151917360515 0 -0.0018754067931255241 -0.016402043432834496 0 -0.0020398858477247246 -0.016873489808072035 0 -0.0018754067931255241 -0.016402043432834496 0 -0.0016117669349862192 -0.016817822334386889 0 -0.0012602155602921576 -0.016441380900521954 0 -0.0018754067931255241 -0.016402043432834496 0 -0.0012602155602921576 -0.016441380900521954 0 -0.0016488549096967853 -0.01601206372173955 0 -0.0018754067931255241 -0.016402043432834496 0 -0.0016117669349862192 -0.016817822334386889 0 -0.0020398858477247246 -0.016873489808072035 0 -0.0016117669349862192 -0.016817822334386889 0 -0.0018446134152355744 -0.017287047616503994 0 -0.0011914582443525897 -0.017096212196955264 0 -0.0016117669349862192 -0.016817822334386889 0 -0.0020398858477247246 -0.016873489808072035 0 -0.0018446134152355744 -0.017287047616503994 0 -0.0024249694127902077 -0.017231490369996116 0 -0.0020398858477247246 -0.016873489808072035 0 -0.0018446134152355744 -0.017287047616503994 0 -0.0024249694127902077 -0.017231490369996116 0 -0.002466847490626884 -0.016639151917360515 0 -0.0020398858477247246 -0.016873489808072035 0 -0.0024249694127902077 -0.017231490369996116 0 -0.002211173970765797 -0.017927762380453124 0 -0.0018446134152355744 -0.017287047616503994 0 -0.0017043323608137287 -0.018325652652189002 0 -0.002211173970765797 -0.017927762380453124 0 -0.0015793422693740297 -0.017744821793248669 0 -0.0017043323608137287 -0.018325652652189002 0 -0.0015793422693740297 -0.017744821793248669 0 -0.0013399513207749093 -0.018093497232030249 0 -0.0015793422693740297 -0.017744821793248669 0 -0.0018446134152355744 -0.017287047616503994 0 -0.0011914582443525897 -0.017096212196955264 0 -0.002211173970765797 -0.017927762380453124 0 -0.0015793422693740297 -0.017744821793248669 0 -0.0018446134152355744 -0.017287047616503994 0 -0.0015793422693740297 -0.017744821793248669 0 -0.0011914582443525897 -0.017096212196955264 0 -0.0011090937456075156 -0.01770297417885814 0 -0.0015793422693740297 -0.017744821793248669 0 -0.0011090937456075156 -0.01770297417885814 0 -0.0013399513207749093 -0.018093497232030249 0 -0.0011090937456075156 -0.01770297417885814 0 -0.0013399513207749093 -0.018093497232030249 0 -0.00099458656177567957 -0.01816117061902783 0 -0.0011090937456075156 -0.01770297417885814 0 -0.00099458656177567957 -0.01816117061902783 0 -0.00042803455830067559 -0.017568813613527964 0 -0.0014607398948113591 -0.019403832569933922 0 -0.00084216268011479633 -0.012995497337220921 0 -0.00059486787891481648 -0.018480030916043971 0 -0.00099458656177567957 -0.01816117061902783 0 -0.00064668357561987935 -0.01759750984985918 0 -0.0011914582443525897 -0.017096212196955264 0 -0.00042803455830067559 -0.017568813613527964 0 -0.00045990300002723538 -0.016530447586462143 0 -0.00084216268011479633 -0.012995497337220921 0 -0.00054471201467015781 -0.012992284247290544 0 -0.0011914582443525897 -0.017096212196955264 0 -0.0011090937456075156 -0.01770297417885814 0 -0.00042803455830067559 -0.017568813613527964 0 -0.0011983176794713995 -0.017036055385237094 0 -0.0013132943905151727 -0.016145334480509813 0 -0.0011914582443525897 -0.017096212196955264 0 -0.00045990300002723538 -0.016530447586462143 0 -0.0013830356758546098 -0.015825153619072919 0 -0.0016117669349862192 -0.016817822334386889 0 -0.0011914582443525897 -0.017096212196955264 0 -0.0012602155602921576 -0.016441380900521954 0 -0.00045990300002723538 -0.016530447586462143 0 -0.0013830356758546098 -0.015825153619072919 0 -0.00062464662925298627 -0.015313599525426441 0 -0.00054471201467015781 -0.012992284247290544 0 -0.00065498914709115829 -0.011963926501341935 0 -0.00071590100576039587 -0.009152281073101098 0 -0.00047702468119725457 -0.0089700397661945982 0 -0.0006703795859256895 -0.0086458695550600904 0 -0.00047702468119725457 -0.0089700397661945982 0 -0.00039593737802332582 -0.0087433739601985548 0 -0.0006703795859256895 -0.0086458695550600904 0 -0.00047702468119725457 -0.0089700397661945982 0 -0.00028148526901209471 -0.0088993460197195999 0 -0.00027172550226704903 -0.0091843728891254431 0 -0.00047702468119725457 -0.0089700397661945982 0 -0.00039593737802332582 -0.0087433739601985548 0 -0.00028148526901209471 -0.0088993460197195999 0 -0.00039593737802332582 -0.0087433739601985548 0 -0.0002550391873789756 -0.0087154254534651254 0 -0.00028148526901209471 -0.0088993460197195999 0 -0.0002550391873789756 -0.0087154254534651254 0 -8.4359485410963103e-05 -0.0086696822000952179 0 -0.00028148526901209471 -0.0088993460197195999 0 -0.00063481478640721098 -0.0079383381353099521 0 -0.0010562588163582419 -0.0076821581193594352 0 -0.00063481478640721098 -0.0079383381353099521 0 -0.0011815344213195445 -0.0074042566056433182 0 -0.00027246292986210518 -0.0073757126841543334 0 -0.00057674231172289445 -0.0073859945416778648 0 -0.00030974035943953182 -0.0073722200965284672 0 -8.4359485410963103e-05 -0.0086696822000952179 0 -0.00028148526901209471 -0.0088993460197195999 0 -0.00027172550226704903 -0.0091843728891254431 0 -0.0015680869214192339 -0.007160027616067724 0 -0.0017298460891392916 -0.0076700581491389915 0 -0.0019130356569573945 -0.007590790655186171 0 -0.0017298460891392916 -0.0076700581491389915 0 -0.0019130356569573945 -0.007590790655186171 0 -0.0019534302648941816 -0.0079075743874442318 0 -0.00071590100576039587 -0.009152281073101098 0 -0.00047702468119725457 -0.0089700397661945982 0 -0.00027172550226704903 -0.0091843728891254431 0 -0.00064757466198975223 -0.0098168148237464895 0 -0.00071590100576039587 -0.009152281073101098 0 -0.00027172550226704903 -0.0091843728891254431 0 -0.00084216268011479633 -0.012995497337220921 0 -0.0010562588163582419 -0.0076821581193594352 0 -0.0023055304449736479 -0.0080700794737154895 0 -0.0019130356569573945 -0.007590790655186171 0 -0.0019534302648941816 -0.0079075743874442318 0 -0.0023055304449736479 -0.0080700794737154895 0 -0.0019534302648941816 -0.0079075743874442318 0 -0.0018800584288336591 -0.0082097126589409271 0 -0.0015715262059645353 -0.013598525583166656 0 -0.00084216268011479633 -0.012995497337220921 0 -0.0023257906264513004 -0.0087516845992600348 0 -0.0023055304449736479 -0.0080700794737154895 0 -0.0018800584288336591 -0.0082097126589409271 0 -0.0011100479562003351 -0.007827566076105609 0 -0.00059571502804196678 -0.0076376861785433106 0 -0.00048198576611405841 -0.008079519352874159 0 -0.001055213363183715 -0.008456830441035396 0 -0.0011100479562003351 -0.007827566076105609 0 -0.00048198576611405841 -0.008079519352874159 0 -0.00057674231172289445 -0.0073859945416778648 0 -0.0011100479562003351 -0.007827566076105609 0 -0.00059571502804196678 -0.0076376861785433106 0 -0.0017298460891392916 -0.0076700581491389915 0 -0.0019534302648941816 -0.0079075743874442318 0 -0.0018800584288336591 -0.0082097126589409271 0 -0.00057674231172289445 -0.0073859945416778648 0 -0.00059571502804196678 -0.0076376861785433106 0 -0.00044102745585706643 -0.0074673561338321854 0 -0.0011815344213195445 -0.0074042566056433182 0 -0.0015113094689085185 -0.0081009978337868264 0 -0.00059571502804196678 -0.0076376861785433106 0 -0.00044102745585706643 -0.0074673561338321854 0 -0.0002687025019862617 -0.0075133117592407596 0 -0.00059571502804196678 -0.0076376861785433106 0 -0.00048198576611405841 -0.008079519352874159 0 -0.0002687025019862617 -0.0075133117592407596 0 0.00036035350555819979 -0.0065078137345942972 0 0.0019431166732258197 -0.0058312259188735118 0 0.0018020227255712922 -0.0045578198631625686 0 -7.6271116166579017e-05 -0.0073607788348961966 0 0.00078575567436649056 -0.0060136921343500547 0 0.0025243872431429714 -0.0069943143475315328 0 0.0030402166476838129 -0.0053733855435025889 0 0.0019431166732258197 -0.0058312259188735118 0 0.0025243872431429714 -0.0069943143475315328 0 0.00036035350555819979 -0.0065078137345942972 0 0.0019431166732258197 -0.0058312259188735118 0 0.0030402166476838129 -0.0053733855435025889 0 0.0037177723765657276 -0.0040590080919013219 0 0.0018020227255712922 -0.0045578198631625686 0 0.0030402166476838129 -0.0053733855435025889 0 0.0019431166732258197 -0.0058312259188735118 0 0.0018020227255712922 -0.0045578198631625686 0 -0.0002687025019862617 -0.0075133117592407596 0 -0.00033238936721960953 -0.0073906412223544993 0 -0.00026053708432618848 -0.0073659167857422301 0 0.0037177723765657276 -0.0040590080919013219 0 0.0018020227255712922 -0.0045578198631625686 0 0.0029069521410256347 -0.0032758967440433885 0 0.00078575567436649056 -0.0060136921343500547 0 0.0011338413810053018 -0.0055491947367251335 0 -0.00057674231172289445 -0.0073859945416778648 0 -0.00033238936721960953 -0.0073906412223544993 0 -0.00030974035943953182 -0.0073722200965284672 0 -0.00057674231172289445 -0.0073859945416778648 0 -0.00044102745585706643 -0.0074673561338321854 0 -0.00033238936721960953 -0.0073906412223544993 0 -0.00044102745585706643 -0.0074673561338321854 0 -0.0002687025019862617 -0.0075133117592407596 0 -0.00033238936721960953 -0.0073906412223544993 0 -0.00033238936721960953 -0.0073906412223544993 0 -0.00030974035943953182 -0.0073722200965284672 0 -0.00027904492927150658 -0.0073799167940380413 0 -0.00027246292986210518 -0.0073757126841543334 0 -0.00030974035943953182 -0.0073722200965284672 0 -0.00024276605972847374 -0.0074165772198270339 0 -0.00030974035943953182 -0.0073722200965284672 0 -0.00027904492927150658 -0.0073799167940380413 0 -0.00024276605972847374 -0.0074165772198270339 0 -0.00033238936721960953 -0.0073906412223544993 0 -0.00026053708432618848 -0.0073659167857422301 0 -0.00027904492927150658 -0.0073799167940380413 0 -0.00027734298950809431 -0.0074162823934795594 0 -0.00027904492927150658 -0.0073799167940380413 0 -0.00024276605972847374 -0.0074165772198270339 0 -0.00027734298950809431 -0.0074162823934795594 0 -0.00026053708432618848 -0.0073659167857422301 0 -0.00027904492927150658 -0.0073799167940380413 0 -0.00028541065535985774 -0.0075195998658636491 0 -0.00024276605972847374 -0.0074165772198270339 0 -0.0001293713865904699 -0.0075515488385857754 0 -0.00031529478619787105 -0.0074577262473275452 0 -0.00027734298950809431 -0.0074162823934795594 0 -0.00028541065535985774 -0.0075195998658636491 0 -0.00027734298950809431 -0.0074162823934795594 0 -0.00028541065535985774 -0.0075195998658636491 0 -0.00024276605972847374 -0.0074165772198270339 0 -0.0001200589683070567 -0.0085686077266939973 0 -0.00011305466934924382 -0.0084432876138812885 0 -6.8281817063633107e-05 -0.0083569804637332896 0 -0.00063481478640721098 -0.0079383381353099521 0 -9.5601097507227561e-05 -0.0079505782973738458 0 -0.00027246292986210518 -0.0073757126841543334 0 -0.00024276605972847374 -0.0074165772198270339 0 -0.0001293713865904699 -0.0075515488385857754 0 -0.00063481478640721098 -0.0079383381353099521 0 -0.00031391858297841619 -0.008529921509523801 0 -0.00011305466934924382 -0.0084432876138812885 0 -0.0001380099014045373 -0.0083318198607972606 0 -0.00020861451499678489 -0.0083915990354360565 0 -0.00011305466934924382 -0.0084432876138812885 0 -6.8281817063633107e-05 -0.0083569804637332896 0 -0.0001380099014045373 -0.0083318198607972606 0 -6.8281817063633107e-05 -0.0083569804637332896 0 -0.00013324375332302994 -0.0082119443076424693 0 -0.00017670067995935392 -0.0080205701722797784 0 -6.8281817063633107e-05 -0.0083569804637332896 0 -0.0001380099014045373 -0.0083318198607972606 0 -0.00013324375332302994 -0.0082119443076424693 0 -0.00013324375332302994 -0.0082119443076424693 0 -0.00014348882710712923 -0.008152661380848459 0 -0.00017557839362334387 -0.0082543144159917519 0 -0.0001380099014045373 -0.0083318198607972606 0 -0.00013324375332302994 -0.0082119443076424693 0 -0.00017557839362334387 -0.0082543144159917519 0 -0.00013324375332302994 -0.0082119443076424693 0 -0.00017670067995935392 -0.0080205701722797784 0 -0.00014348882710712923 -0.008152661380848459 0 -0.00028541065535985774 -0.0075195998658636491 0 -0.0001293713865904699 -0.0075515488385857754 0 -0.00017670067995935392 -0.0080205701722797784 0 -0.00044489222680679352 -0.0078898702051870065 0 -0.00028541065535985774 -0.0075195998658636491 0 -0.00017670067995935392 -0.0080205701722797784 0 -9.5601097507227561e-05 -0.0079505782973738458 0 -0.00019288377079022036 -0.0080557031267345109 0 -0.00044489222680679352 -0.0078898702051870065 0 -0.00027427139297999059 -0.0082098079384797292 0 -0.00017670067995935392 -0.0080205701722797784 0 -0.00027427139297999059 -0.0082098079384797292 0 -0.00017670067995935392 -0.0080205701722797784 0 -0.00016059663901172867 -0.0081391581007982453 0 0.0011659623138207047 -0.0083252199462532147 0 0.00050967663892509765 -0.0081926048852519681 0 0.00072161246768715284 -0.0078584805228919391 0 0.00068094498085726428 -0.0067739674641365405 0 0.00015701491972033036 -0.0083355852157845842 0 -0.00027427139297999059 -0.0082098079384797292 0 -0.00016059663901172867 -0.0081391581007982453 0 -0.00013901220036149651 -0.0081391558774471066 0 -0.00016059663901172867 -0.0081391581007982453 0 -0.00013901220036149651 -0.0081391558774471066 0 -0.00016502602196518992 -0.0081498992335749063 0 -0.00016502602196518992 -0.0081498992335749063 0 -0.00014348882710712923 -0.008152661380848459 0 -0.00021609570939181135 -0.00820696970305646 0 -0.00016059663901172867 -0.0081391581007982453 0 -0.00016502602196518992 -0.0081498992335749063 0 -0.00014348882710712923 -0.008152661380848459 0 -0.00017670067995935392 -0.0080205701722797784 0 -0.00016059663901172867 -0.0081391581007982453 0 -0.00014348882710712923 -0.008152661380848459 0 -0.00014348882710712923 -0.008152661380848459 0 -0.00021609570939181135 -0.00820696970305646 0 -0.00017557839362334387 -0.0082543144159917519 0 -0.00021609570939181135 -0.00820696970305646 0 -0.00035427779003795678 -0.0082793500467112403 0 -0.00026183096634033079 -0.0083063878338538438 0 -0.00021609570939181135 -0.00820696970305646 0 -0.00029253453319920257 -0.008199345057316754 0 -0.00035427779003795678 -0.0082793500467112403 0 -0.00021609570939181135 -0.00820696970305646 0 -0.00022587826370077185 -0.0081330297920603287 0 -0.00029253453319920257 -0.008199345057316754 0 -0.00016502602196518992 -0.0081498992335749063 0 -0.00021609570939181135 -0.00820696970305646 0 -0.00022587826370077185 -0.0081330297920603287 0 0.00015701491972033036 -0.0083355852157845842 0 -0.00020150220201636649 -0.0080033426683309098 0 -0.00013901220036149651 -0.0081391558774471066 0 -0.00016502602196518992 -0.0081498992335749063 0 -0.00022587826370077185 -0.0081330297920603287 0 -0.00013901220036149651 -0.0081391558774471066 0 -0.00022587826370077185 -0.0081330297920603287 0 -0.00021896159880810433 -0.0080321415609295801 0 -0.00022587826370077185 -0.0081330297920603287 0 -0.00039269171689765894 -0.0080752023574982533 0 -0.0003866121384680441 -0.0081784797241881996 0 -0.00022587826370077185 -0.0081330297920603287 0 -0.00039269171689765894 -0.0080752023574982533 0 -0.00021896159880810433 -0.0080321415609295801 0 -0.00022587826370077185 -0.0081330297920603287 0 -0.0003866121384680441 -0.0081784797241881996 0 -0.00029253453319920257 -0.008199345057316754 0 -0.0003866121384680441 -0.0081784797241881996 0 -0.00029253453319920257 -0.008199345057316754 0 -0.00035427779003795678 -0.0082793500467112403 0 -0.0003866121384680441 -0.0081784797241881996 0 -0.00035427779003795678 -0.0082793500467112403 0 -0.00047078537786583317 -0.0082690169780325149 0 -0.00035427779003795678 -0.0082793500467112403 0 -0.00048244067242085543 -0.0084099185791788912 0 -0.00047078537786583317 -0.0082690169780325149 0 -0.00048244067242085543 -0.0084099185791788912 0 -0.00034855024789703964 -0.0084121386986682426 0 -0.00043034321613901052 -0.0085458997167433999 0 -0.00035427779003795678 -0.0082793500467112403 0 -0.00034855024789703964 -0.0084121386986682426 0 -0.00026183096634033079 -0.0083063878338538438 0 -0.00035427779003795678 -0.0082793500467112403 0 -0.00048244067242085543 -0.0084099185791788912 0 -0.00034855024789703964 -0.0084121386986682426 0 -0.00021609570939181135 -0.00820696970305646 0 -0.00026183096634033079 -0.0083063878338538438 0 -0.00017557839362334387 -0.0082543144159917519 0 -0.0001380099014045373 -0.0083318198607972606 0 -0.00017557839362334387 -0.0082543144159917519 0 -0.00020861451499678489 -0.0083915990354360565 0 -0.00026183096634033079 -0.0083063878338538438 0 -0.00017557839362334387 -0.0082543144159917519 0 -0.00020861451499678489 -0.0083915990354360565 0 -0.00034855024789703964 -0.0084121386986682426 0 -0.00026183096634033079 -0.0083063878338538438 0 -0.00020861451499678489 -0.0083915990354360565 0 -0.00034855024789703964 -0.0084121386986682426 0 -0.00020861451499678489 -0.0083915990354360565 0 -0.00026029523690643491 -0.0085531779525674766 0 -0.00011305466934924382 -0.0084432876138812885 0 -0.00020861451499678489 -0.0083915990354360565 0 -0.00026029523690643491 -0.0085531779525674766 0 -8.4359485410963103e-05 -0.0086696822000952179 0 -0.00011305466934924382 -0.0084432876138812885 0 -0.00026029523690643491 -0.0085531779525674766 0 -0.0002550391873789756 -0.0087154254534651254 0 -8.4359485410963103e-05 -0.0086696822000952179 0 -0.00026029523690643491 -0.0085531779525674766 0 -0.00039593737802332582 -0.0087433739601985548 0 -0.0002550391873789756 -0.0087154254534651254 0 -0.00026029523690643491 -0.0085531779525674766 0 -0.00039593737802332582 -0.0087433739601985548 0 -0.00026029523690643491 -0.0085531779525674766 0 -0.00043034321613901052 -0.0085458997167433999 0 -0.00039593737802332582 -0.0087433739601985548 0 -0.00043034321613901052 -0.0085458997167433999 0 -0.0006703795859256895 -0.0086458695550600904 0 -0.00034855024789703964 -0.0084121386986682426 0 -0.00026029523690643491 -0.0085531779525674766 0 -0.00043034321613901052 -0.0085458997167433999 0 -0.00048244067242085543 -0.0084099185791788912 0 -0.00043034321613901052 -0.0085458997167433999 0 -0.0006703795859256895 -0.0086458695550600904 0 -0.0012602155602921576 -0.016441380900521954 0 -0.0012909618439398295 -0.01568513620345123 0 -0.0016488549096967853 -0.01601206372173955 0 -0.0013132943905151727 -0.016145334480509813 0 -0.0013692232197457992 -0.015190118684542725 0 -0.0013830356758546098 -0.015825153619072919 0 -0.00062464662925298627 -0.015313599525426441 0 -0.0014547904654940507 -0.014696025377213847 0 -0.0014547904654940507 -0.014696025377213847 0 -0.00082012898573643426 -0.014313025000611702 0 -0.0014782407908124782 -0.01384133936136518 0 -0.00062464662925298627 -0.015313599525426441 0 -0.0014547904654940507 -0.014696025377213847 0 -0.00082012898573643426 -0.014313025000611702 0 -0.00065498914709115829 -0.011963926501341935 0 -0.00070834459597076977 -0.011329168304175501 0 -0.00048244067242085543 -0.0084099185791788912 0 -0.0006703795859256895 -0.0086458695550600904 0 -0.00059383131996086527 -0.0083456958994776297 0 -0.00048244067242085543 -0.0084099185791788912 0 -0.00059383131996086527 -0.0083456958994776297 0 -0.00047078537786583317 -0.0082690169780325149 0 -0.00070834459597076977 -0.011329168304175501 0 -0.00077649412642867544 -0.01093928209026218 0 -0.00059383131996086527 -0.0083456958994776297 0 -0.00047078537786583317 -0.0082690169780325149 0 -0.00058648051477249732 -0.0081370850975462945 0 -0.0003866121384680441 -0.0081784797241881996 0 -0.00047078537786583317 -0.0082690169780325149 0 -0.00058648051477249732 -0.0081370850975462945 0 -0.00039269171689765894 -0.0080752023574982533 0 -0.0003866121384680441 -0.0081784797241881996 0 -0.00058648051477249732 -0.0081370850975462945 0 -0.00039269171689765894 -0.0080752023574982533 0 -0.00058648051477249732 -0.0081370850975462945 0 -0.00051402163159960359 -0.0080031392036168641 0 -0.00096231434390995816 -0.013573992400069582 0 -0.0014782407908124782 -0.01384133936136518 0 -0.0012055343130905739 -0.013291646295536584 0 -0.0013692232197457992 -0.015190118684542725 0 -0.0014036789414649201 -0.014232496596271902 0 -0.00082012898573643426 -0.014313025000611702 0 -0.00096231434390995816 -0.013573992400069582 0 -0.0014782407908124782 -0.01384133936136518 0 -0.001765667894198801 -0.015012297284504796 0 -0.0013020047268253786 -0.01465348142473573 0 -0.0021914758563855142 -0.014159927627326438 0 -0.0012909618439398295 -0.01568513620345123 0 -0.001765667894198801 -0.015012297284504796 0 -0.0013020047268253786 -0.01465348142473573 0 -0.0014036789414649201 -0.014232496596271902 0 -0.001527025375730321 -0.013280728683765775 0 -0.0013020047268253786 -0.01465348142473573 0 -0.0019227040677867095 -0.013664393551311601 0 -0.0021914758563855142 -0.014159927627326438 0 -0.0013020047268253786 -0.01465348142473573 0 -0.0019227040677867095 -0.013664393551311601 0 -0.0015370288510824102 -0.013213954508335631 0 -0.0014782407908124782 -0.01384133936136518 0 -0.0015370288510824102 -0.013213954508335631 0 -0.0012055343130905739 -0.013291646295536584 0 -0.0028617666826347911 -0.013867559399043564 0 -0.0021914758563855142 -0.014159927627326438 0 -0.002452663993677807 -0.013412198530249624 0 -0.0019227040677867095 -0.013664393551311601 0 -0.0021914758563855142 -0.014159927627326438 0 -0.002452663993677807 -0.013412198530249624 0 -0.0028617666826347911 -0.013867559399043564 0 -0.0021914758563855142 -0.014159927627326438 0 -0.0027656239606259716 -0.014528718740149471 0 -0.001765667894198801 -0.015012297284504796 0 -0.0021914758563855142 -0.014159927627326438 0 -0.0027656239606259716 -0.014528718740149471 0 -0.0018120885173326514 -0.015002413080846383 0 -0.0025565079162130373 -0.014718453297413928 0 -0.001765667894198801 -0.015012297284504796 0 -0.0023389814442422185 -0.01492176322337674 0 -0.0021973444316164817 -0.015346032157079637 0 -0.002616686500544441 -0.015866986768616365 0 -0.0021973444316164817 -0.015346032157079637 0 -0.0020571658673260835 -0.015870257908455084 0 -0.001765667894198801 -0.015012297284504796 0 -0.0021973444316164817 -0.015346032157079637 0 -0.0017752759455344498 -0.01561411353045835 0 -0.0021973444316164817 -0.015346032157079637 0 -0.0017752759455344498 -0.01561411353045835 0 -0.0020571658673260835 -0.015870257908455084 0 -0.0012909618439398295 -0.01568513620345123 0 -0.001765667894198801 -0.015012297284504796 0 -0.0017752759455344498 -0.01561411353045835 0 -0.0012909618439398295 -0.01568513620345123 0 -0.0017752759455344498 -0.01561411353045835 0 -0.0016488549096967853 -0.01601206372173955 0 -0.0018754067931255241 -0.016402043432834496 0 -0.0016488549096967853 -0.01601206372173955 0 -0.0020571658673260835 -0.015870257908455084 0 -0.0017752759455344498 -0.01561411353045835 0 -0.0016488549096967853 -0.01601206372173955 0 -0.0020571658673260835 -0.015870257908455084 0 -0.0018754067931255241 -0.016402043432834496 0 -0.0023602413340712662 -0.01618678346906665 0 -0.0020571658673260835 -0.015870257908455084 0 -0.002616686500544441 -0.015866986768616365 0 -0.0023602413340712662 -0.01618678346906665 0 -0.0020571658673260835 -0.015870257908455084 0 -0.0018942280999214407 -0.010928364380018528 0 -0.0013156951345367181 -0.011062397515285049 0 -0.0018439498876981384 -0.010333912268031027 0 -0.0018942280999214407 -0.010928364380018528 0 -0.0013156951345367181 -0.011062397515285049 0 -0.0019319107983073039 -0.011541567298762967 0 -0.0024865672593461672 -0.011004802118157764 0 -0.0018942280999214407 -0.010928364380018528 0 -0.0019319107983073039 -0.011541567298762967 0 -0.0024235732564363253 -0.010410812610532068 0 -0.0024865672593461672 -0.011004802118157764 0 -0.0018942280999214407 -0.010928364380018528 0 -0.0013156951345367181 -0.011062397515285049 0 -0.00079142997586167897 -0.010542218220734435 0 -0.0012929824346875143 -0.010192876161289709 0 -0.0013156951345367181 -0.011062397515285049 0 -0.0012338196864941533 -0.011686575295934851 0 -0.0019319107983073039 -0.011541567298762967 0 -0.0013156951345367181 -0.011062397515285049 0 -0.0012338196864941533 -0.011686575295934851 0 -0.00067065316679763766 -0.011398492363701882 0 -0.00094135986389835965 -0.011306061473705047 0 -0.0007971393479243897 -0.0092862025614030043 0 -0.0012338196864941533 -0.011686575295934851 0 -0.0019319107983073039 -0.011541567298762967 0 -0.001712550473701035 -0.01221609426104662 0 -0.0023759369018791061 -0.012121406909906889 0 -0.0017642137066845103 -0.012120038021682765 0 -0.0027919679512171044 -0.012644154140143008 0 -0.0021442023269916842 -0.012517964806323672 0 -0.0020576577479056299 -0.013000066786075525 0 -0.0023938938683293197 -0.012080231348636297 0 -0.0019319107983073039 -0.011541567298762967 0 -0.001712550473701035 -0.01221609426104662 0 -0.0027919679512171044 -0.012644154140143008 0 -0.0020576577479056299 -0.013000066786075525 0 -0.002452663993677807 -0.013412198530249624 0 -0.0019227040677867095 -0.013664393551311601 0 -0.0020576577479056299 -0.013000066786075525 0 -0.002452663993677807 -0.013412198530249624 0 -0.0019227040677867095 -0.013664393551311601 0 -0.0020576577479056299 -0.013000066786075525 0 -0.0015370288510824102 -0.013213954508335631 0 -0.0020576577479056299 -0.013000066786075525 0 -0.0015370288510824102 -0.013213954508335631 0 -0.0014736397215787686 -0.012720400154106673 0 -0.0015370288510824102 -0.013213954508335631 0 -0.0014736397215787686 -0.012720400154106673 0 -0.0013036196294517039 -0.013039395949866651 0 -0.0012338196864941533 -0.011686575295934851 0 -0.001712550473701035 -0.01221609426104662 0 -0.00055004673509472836 -0.012203245717750336 0 -0.0015488259040455654 -0.010980481953045788 0 -0.0012524211705407901 -0.011039054235876101 0 -0.00097716870081544457 -0.01096342819028916 0 -0.0017642137066845103 -0.012120038021682765 0 -0.00077112957807194725 -0.0098384440262925584 0 -0.0021442023269916842 -0.012517964806323672 0 -0.0020576577479056299 -0.013000066786075525 0 -0.0014736397215787686 -0.012720400154106673 0 -0.0017642137066845103 -0.012120038021682765 0 -0.001348482662908914 -0.011813597495045531 0 -0.00066656735199129924 -0.0077225399675307279 0 -0.00059299432615953689 -0.0076600024721891211 0 -0.00069542867170711777 -0.0075327230312039663 0 -0.00077112957807194725 -0.0098384440262925584 0 -0.00073332845352120258 -0.0099873744140562791 0 -0.0012524211705407901 -0.011039054235876101 0 -0.00097716870081544457 -0.01096342819028916 0 -0.00095625294632247122 -0.011098858584050235 0 -0.001348482662908914 -0.011813597495045531 0 -0.00073332845352120258 -0.0099873744140562791 0 -0.00077649412642867544 -0.01093928209026218 0 -0.00073332845352120258 -0.0099873744140562791 0 -0.0014736397215787686 -0.012720400154106673 0 -0.0013036196294517039 -0.013039395949866651 0 -0.0010289554538373887 -0.012895054656939233 0 -0.0013036196294517039 -0.013039395949866651 0 -0.0010289554538373887 -0.012895054656939233 0 -0.0012055343130905739 -0.013291646295536584 0 -0.00096231434390995816 -0.013573992400069582 0 -0.0010289554538373887 -0.012895054656939233 0 -0.0012055343130905739 -0.013291646295536584 0 -0.0015370288510824102 -0.013213954508335631 0 -0.0013036196294517039 -0.013039395949866651 0 -0.0012055343130905739 -0.013291646295536584 0 -0.00073332845352120258 -0.0099873744140562791 0 -0.00058184436495206605 -0.0077015098684261596 0 -0.00062551510757346857 -0.0078980970261070052 0 -0.00051402163159960359 -0.0080031392036168641 0 -0.00043379894061377225 -0.0079097676062374282 0 -0.00058648051477249732 -0.0081370850975462945 0 -0.00062551510757346857 -0.0078980970261070052 0 -0.00051402163159960359 -0.0080031392036168641 0 -0.00039269171689765894 -0.0080752023574982533 0 -0.00051402163159960359 -0.0080031392036168641 0 -0.00043379894061377225 -0.0079097676062374282 0 -0.00073384145710170116 -0.0078448819784805099 0 -0.00043379894061377225 -0.0079097676062374282 0 -0.00052017780781051014 -0.0077239827388264539 0 -0.00077112957807194725 -0.0098384440262925584 0 -0.00055236392049236424 -0.0079990212875287511 0 -0.00074991660331277983 -0.007737629267927165 0 -0.00073384145710170116 -0.0078448819784805099 0 -0.00052017780781051014 -0.0077239827388264539 0 -0.00066656735199129924 -0.0077225399675307279 0 -0.00052017780781051014 -0.0077239827388264539 0 -0.00059299432615953689 -0.0076600024721891211 0 -0.00052017780781051014 -0.0077239827388264539 0 -0.00059299432615953689 -0.0076600024721891211 0 -0.00051053384875795441 -0.0075910509596224052 0 -0.00050363902610804732 -0.0072282152675911667 0 -0.00061007982353489221 -0.0069359384611475117 0 -0.00090666432466318843 -0.0070233896720456124 0 -0.00059299432615953689 -0.0076600024721891211 0 -0.00051053384875795441 -0.0075910509596224052 0 -0.00069542867170711777 -0.0075327230312039663 0 -0.00062223691392251641 -0.0072442785313835863 0 -0.0007971393479243897 -0.0092862025614030043 0 -0.00050363902610804732 -0.0072282152675911667 0 -0.00061007982353489221 -0.0069359384611475117 0 -0.00031981772685641389 -0.0069983053328734543 0 -0.00077112957807194725 -0.0098384440262925584 0 -0.0007971393479243897 -0.0092862025614030043 0 -0.0012338196864941533 -0.011686575295934851 0 -0.00055004673509472836 -0.012203245717750336 0 -0.00067065316679763766 -0.011398492363701882 0 -0.00090666432466318843 -0.0070233896720456124 0 -0.00072641763243372034 -0.0067121884872276662 0 -0.00097332489441753376 -0.0065440007960794458 0 -0.0007971393479243897 -0.0092862025614030043 0 -0.00087056220269552873 -0.008600809070159407 0 -0.00061007982353489221 -0.0069359384611475117 0 -0.00090666432466318843 -0.0070233896720456124 0 -0.00072641763243372034 -0.0067121884872276662 0 -0.0013156951345367181 -0.011062397515285049 0 -0.00067274613776332093 -0.011370490031905106 0 -0.00079142997586167897 -0.010542218220734435 0 -0.00072641763243372034 -0.0067121884872276662 0 -0.00049194064715770802 -0.0066886254221905014 0 -0.00064852608743363625 -0.006366116331267253 0 -0.00061007982353489221 -0.0069359384611475117 0 -0.00049194064715770802 -0.0066886254221905014 0 -0.00031981772685641389 -0.0069983053328734543 0 -0.00061007982353489221 -0.0069359384611475117 0 -0.00072641763243372034 -0.0067121884872276662 0 -0.00049194064715770802 -0.0066886254221905014 0 -0.00019553729334421645 -0.0066614532502324054 0 9.8455049676540434e-05 -0.0066961299065090903 0 -6.2322323385050834e-07 -0.0070159423970611017 0 -0.00019553729334421645 -0.0066614532502324054 0 -6.2322323385050834e-07 -0.0070159423970611017 0 -0.00031981772685641389 -0.0069983053328734543 0 -0.00049194064715770802 -0.0066886254221905014 0 -0.00019553729334421645 -0.0066614532502324054 0 -0.00031981772685641389 -0.0069983053328734543 0 -0.00049194064715770802 -0.0066886254221905014 0 -0.00019553729334421645 -0.0066614532502324054 0 -0.00031050992842666605 -0.0063389391703939195 0 -0.00019553729334421645 -0.0066614532502324054 0 9.8455049676540434e-05 -0.0066961299065090903 0 3.4503137836345316e-05 -0.0063780801041880449 0 9.8455049676540434e-05 -0.0066961299065090903 0 0.00037558893866521158 -0.0064728088859399941 0 3.4503137836345316e-05 -0.0063780801041880449 0 9.8455049676540434e-05 -0.0066961299065090903 0 -6.2322323385050834e-07 -0.0070159423970611017 0 0.00039116267667770467 -0.0069379546506553643 0 9.8455049676540434e-05 -0.0066961299065090903 0 0.00039116267667770467 -0.0069379546506553643 0 0.00037558893866521158 -0.0064728088859399941 0 -6.2322323385050834e-07 -0.0070159423970611017 0 -0.00011004900151582364 -0.007458062304576271 0 0.00022632516373543297 -0.0073227365233357279 0 -6.2322323385050834e-07 -0.0070159423970611017 0 0.00022632516373543297 -0.0073227365233357279 0 0.00039116267667770467 -0.0069379546506553643 0 -6.2322323385050834e-07 -0.0070159423970611017 0 -0.00031981772685641389 -0.0069983053328734543 0 -0.00011004900151582364 -0.007458062304576271 0 -0.00050363902610804732 -0.0072282152675911667 0 -0.00031981772685641389 -0.0069983053328734543 0 -0.00011004900151582364 -0.007458062304576271 0 -0.00062223691392251641 -0.0072442785313835863 0 -0.00011723301101265725 -0.0075794141549080981 0 -0.00052017780781051014 -0.0077239827388264539 0 -0.00051053384875795441 -0.0075910509596224052 0 -0.0002265926217309278 -0.0076383364283583999 0 -0.00043379894061377225 -0.0079097676062374282 0 -0.00052017780781051014 -0.0077239827388264539 0 -0.0002265926217309278 -0.0076383364283583999 0 -0.00043379894061377225 -0.0079097676062374282 0 -0.0002265926217309278 -0.0076383364283583999 0 -0.00021896159880810433 -0.0080321415609295801 0 -0.00039269171689765894 -0.0080752023574982533 0 -0.00043379894061377225 -0.0079097676062374282 0 -0.00021896159880810433 -0.0080321415609295801 0 0.00050967663892509765 -0.0081926048852519681 0 -0.00021896159880810433 -0.0080321415609295801 0 0.00026443310741147919 -0.0077336493699868732 0 -0.0002265926217309278 -0.0076383364283583999 0 -0.00021896159880810433 -0.0080321415609295801 0 0.00026443310741147919 -0.0077336493699868732 0 -0.00011723301101265725 -0.0075794141549080981 0 0.00022196301046968761 -0.007721597432804035 0 -0.00011004900151582364 -0.007458062304576271 0 0.00026443310741147919 -0.0077336493699868732 0 0.00022632516373543297 -0.0073227365233357279 0 0.00026443310741147919 -0.0077336493699868732 0 0.00022632516373543297 -0.0073227365233357279 0 0.00063738482859881777 -0.0074515807902243115 0 0.00026443310741147919 -0.0077336493699868732 0 0.00063738482859881777 -0.0074515807902243115 0 0.00072161246768715284 -0.0078584805228919391 0 0.00050967663892509765 -0.0081926048852519681 0 0.00026443310741147919 -0.0077336493699868732 0 0.00072161246768715284 -0.0078584805228919391 0 0.0011659623138207047 -0.0083252199462532147 0 0.00072161246768715284 -0.0078584805228919391 0 0.0010808238034012633 -0.007722816844856417 0 0.0010880654473258331 -0.0064797853748733841 0 0.0010239385573579333 -0.0062578309646679287 0 0.00063738482859881777 -0.0074515807902243115 0 0.0010808238034012633 -0.007722816844856417 0 0.0010028233785429816 -0.007122534908460142 0 0.00063738482859881777 -0.0074515807902243115 0 0.00072161246768715284 -0.0078584805228919391 0 0.0010808238034012633 -0.007722816844856417 0 0.00022632516373543297 -0.0073227365233357279 0 0.00063738482859881777 -0.0074515807902243115 0 0.00039116267667770467 -0.0069379546506553643 0 0.00063738482859881777 -0.0074515807902243115 0 0.0010028233785429816 -0.007122534908460142 0 0.00039116267667770467 -0.0069379546506553643 0 0.00039116267667770467 -0.0069379546506553643 0 0.00094451799592536287 -0.0065392513163025322 0 0.00037558893866521158 -0.0064728088859399941 0 0.0010028233785429816 -0.007122534908460142 0 0.00039116267667770467 -0.0069379546506553643 0 0.00094451799592536287 -0.0065392513163025322 0 0.0010556847838358427 -0.0054022825771892734 0 0.0010212741259118215 -0.0056217992841538396 0 0.00092730443252422292 -0.0055721536337891503 0 0.0010239385573579333 -0.0062578309646679287 0 0.00097308991798632563 -0.0060689570223996453 0 0.0010212741259118215 -0.0056217992841538396 0 0.00086718731209202199 -0.0058594737977392163 0 0.00091742501854693399 -0.0057240648156471263 0 0.00094451799592536287 -0.0065392513163025322 0 0.00062362825017606583 -0.0062045408387050669 0 0.00086718731209202199 -0.0058594737977392163 0 0.00097308991798632563 -0.0060689570223996453 0 0.00088638797037508452 -0.0058608920515797764 0 0.00062362825017606583 -0.0062045408387050669 0 0.00037558893866521158 -0.0064728088859399941 0 0.00035476515410651254 -0.0060254133080384371 0 0.00094451799592536287 -0.0065392513163025322 0 0.00062362825017606583 -0.0062045408387050669 0 0.00037558893866521158 -0.0064728088859399941 0 0.00062362825017606583 -0.0062045408387050669 0 0.00086718731209202199 -0.0058594737977392163 0 0.00035476515410651254 -0.0060254133080384371 0 0.00086718731209202199 -0.0058594737977392163 0 0.00057760829746028868 -0.0055920773445892521 0 0.00035476515410651254 -0.0060254133080384371 0 0.00086718731209202199 -0.0058594737977392163 0 0.00057760829746028868 -0.0055920773445892521 0 0.00095338564199791886 -0.0057610154127475076 0 0.00086718731209202199 -0.0058594737977392163 0 0.00091742501854693399 -0.0057240648156471263 0 0.00095338564199791886 -0.0057610154127475076 0 0.00022698752810285138 -0.0062923847154097191 0 0.000477391822602631 -0.0057407567256916306 0 -6.3505771333312227e-06 -0.0064232947760545257 0 1.5128565892415755e-05 -0.0069469808074861276 0 4.0627331290041443e-05 -0.0057777980651933913 0 -6.3505771333312227e-06 -0.0064232947760545257 0 -1.4540357217597142e-07 -0.0063362050353168442 0 -4.7911751687984288e-07 -0.0078055761041939935 0 -6.3505771333312227e-06 -0.0064232947760545257 0 -4.7911751687984288e-07 -0.0078055761041939935 0 1.5128565892415755e-05 -0.0069469808074861276 0 0.00022698752810285138 -0.0062923847154097191 0 -7.7108190803676157e-05 -0.006564916936267191 0 0.00057760829746028868 -0.0055920773445892521 0 0.00018086722383188657 -0.005766922619331912 0 -0.00011019199464004896 -0.0054816404177246113 0 -4.7911751687984288e-07 -0.0078055761041939935 0 1.5128565892415755e-05 -0.0069469808074861276 0 -5.5722593616045255e-05 -0.008122485356406162 0 -4.7911751687984288e-07 -0.0078055761041939935 0 1.3150683115238554e-06 -0.0092717644496343489 0 -5.5722593616045255e-05 -0.008122485356406162 0 -0.00011019199464004896 -0.0054816404177246113 0 -0.00010218899468345742 -0.0059537764509446992 0 -0.00042986000739557412 -0.0057086250418593963 0 0.00018086722383188657 -0.005766922619331912 0 -0.00011019199464004896 -0.0054816404177246113 0 -0.00010218899468345742 -0.0059537764509446992 0 -0.00010218899468345742 -0.0059537764509446992 0 -0.00031050992842666605 -0.0063389391703939195 0 -0.0004503836084875325 -0.0059886133997975165 0 -0.00010218899468345742 -0.0059537764509446992 0 -0.0004503836084875325 -0.0059886133997975165 0 -0.00042986000739557412 -0.0057086250418593963 0 0.00018086722383188657 -0.005766922619331912 0 -0.00010218899468345742 -0.0059537764509446992 0 0.00035476515410651254 -0.0060254133080384371 0 0.00057760829746028868 -0.0055920773445892521 0 0.00018086722383188657 -0.005766922619331912 0 0.00035476515410651254 -0.0060254133080384371 0 -0.00010218899468345742 -0.0059537764509446992 0 0.00035476515410651254 -0.0060254133080384371 0 3.4503137836345316e-05 -0.0063780801041880449 0 0.00037558893866521158 -0.0064728088859399941 0 0.00035476515410651254 -0.0060254133080384371 0 3.4503137836345316e-05 -0.0063780801041880449 0 -0.00010218899468345742 -0.0059537764509446992 0 3.4503137836345316e-05 -0.0063780801041880449 0 -0.00031050992842666605 -0.0063389391703939195 0 -0.00019553729334421645 -0.0066614532502324054 0 3.4503137836345316e-05 -0.0063780801041880449 0 -0.00031050992842666605 -0.0063389391703939195 0 -0.00031050992842666605 -0.0063389391703939195 0 -0.00064852608743363625 -0.006366116331267253 0 -0.0004503836084875325 -0.0059886133997975165 0 -0.00049194064715770802 -0.0066886254221905014 0 -0.00031050992842666605 -0.0063389391703939195 0 -0.00064852608743363625 -0.006366116331267253 0 -0.00064852608743363625 -0.006366116331267253 0 -0.00097332489441753376 -0.0065440007960794458 0 -0.0010318230037805931 -0.0060684899942705581 0 -0.00072641763243372034 -0.0067121884872276662 0 -0.00064852608743363625 -0.006366116331267253 0 -0.00097332489441753376 -0.0065440007960794458 0 -0.00087056220269552873 -0.008600809070159407 0 -0.0010543917296280039 -0.007490467924259437 0 -0.0010318230037805931 -0.0060684899942705581 0 -0.0004503836084875325 -0.0059886133997975165 0 -0.00074589099286211731 -0.0057416656794056905 0 -0.00064852608743363625 -0.006366116331267253 0 -0.0010318230037805931 -0.0060684899942705581 0 -0.0004503836084875325 -0.0059886133997975165 0 -0.00042986000739557412 -0.0057086250418593963 0 -0.00072812710552586958 -0.0053909370586056413 0 -0.00074589099286211731 -0.0057416656794056905 0 -0.00011019199464004896 -0.0054816404177246113 0 -0.00042986000739557412 -0.0057086250418593963 0 -0.00072812710552586958 -0.0053909370586056413 0 -0.0004503836084875325 -0.0059886133997975165 0 -0.00042986000739557412 -0.0057086250418593963 0 -0.00074589099286211731 -0.0057416656794056905 0 -7.7108190803676157e-05 -0.006564916936267191 0 -4.9883172104052719e-05 -0.0085030683670392956 0 1.0863223540835592e-07 -0.0092746460585475549 0 -4.9883172104052719e-05 -0.0085030683670392956 0 2.0279000178527597e-07 -0.0092748713490609386 0 -2.0487547334120285e-07 -0.010224439384291541 0 1.018464430980715e-05 -0.010335605721071022 0 1.3150683115238554e-06 -0.0092717644496343489 0 -5.5722593616045255e-05 -0.008122485356406162 0 0.001026277788267762 -0.0086534092846183783 0 -2.0487547334120285e-07 -0.010224439384291541 0 2.1160661278371696e-07 -0.011173360353801119 0 -1.8239161593941115e-05 -0.010877506516685264 0 -2.0487547334120285e-07 -0.010224439384291541 0 1.018464430980715e-05 -0.010335605721071022 0 -1.8239161593941115e-05 -0.010877506516685264 0 -0.00026306841696276226 -0.0096678451966821406 0 4.2052163739757433e-05 -0.0094904534159630221 0 8.4557618125610711e-05 -0.0097631638358679877 0 -4.9883172104052719e-05 -0.0085030683670392956 0 0.00031204592312116723 -0.011338429709917415 0 -0.00072812710552586958 -0.0053909370586056413 0 -0.00074589099286211731 -0.0057416656794056905 0 -0.0010895037967745538 -0.0056187530775089114 0 -4.9883172104052719e-05 -0.0085030683670392956 0 -0.00038605909365278768 -0.0091783622963726545 0 -0.0010318230037805931 -0.0060684899942705581 0 -0.00074589099286211731 -0.0057416656794056905 0 -0.0010895037967745538 -0.0056187530775089114 0 -0.0010543917296280039 -0.007490467924259437 0 -0.00038605909365278768 -0.0091783622963726545 0 0.00098553372528865598 -0.013082034941372413 0 0.00038484690115602805 -0.012912234490248193 0 6.167296195615357e-05 -0.01359237492072104 0 -0.00038605909365278768 -0.0091783622963726545 0 -0.00097661224441386195 -0.011812438915969895 0 -0.00038605909365278768 -0.0091783622963726545 0 0.00031204592312116723 -0.011338429709917415 0 0.00098553372528865598 -0.013082034941372413 0 0.00098186255086783378 -0.012384488755785612 0 0.00038484690115602805 -0.012912234490248193 0 0.00098186255086783378 -0.012384488755785612 0 5.3239426729327536e-05 -0.012059789340136564 0 0.00038484690115602805 -0.012912234490248193 0 6.442494235836861e-07 -0.011175486616054275 0 1.0503031753545542e-05 -0.011233860537277651 0 5.3239426729327536e-05 -0.012059789340136564 0 0.00031204592312116723 -0.011338429709917415 0 0.00013364531013065602 -0.011931145897053547 0 3.6504477402031338e-07 -0.011174388907285279 0 0.00031204592312116723 -0.011338429709917415 0 -7.8842297426180648e-08 -0.012575654363734534 0 6.442494235836861e-07 -0.011175486616054275 0 5.3239426729327536e-05 -0.012059789340136564 0 -7.8842297426180648e-08 -0.012575654363734534 0 5.3239426729327536e-05 -0.012059789340136564 0 -2.6231989638396974e-05 -0.013025617581588381 0 5.3239426729327536e-05 -0.012059789340136564 0 -2.6231989638396974e-05 -0.013025617581588381 0 0.00038484690115602805 -0.012912234490248193 0 -2.6231989638396974e-05 -0.013025617581588381 0 0.00038484690115602805 -0.012912234490248193 0 6.167296195615357e-05 -0.01359237492072104 0 -0.00091346182987680732 -0.0096894886814942408 0 -0.0010365185970079172 -0.008845983630560399 0 -0.0020504153755204939 -0.009453703059937436 0 -0.00091346182987680732 -0.0096894886814942408 0 -0.0020504153755204939 -0.009453703059937436 0 -0.0012929824346875143 -0.010192876161289709 0 -0.00079142997586167897 -0.010542218220734435 0 -0.00091346182987680732 -0.0096894886814942408 0 -0.0012929824346875143 -0.010192876161289709 0 -0.0013156951345367181 -0.011062397515285049 0 -0.0012929824346875143 -0.010192876161289709 0 -0.0018439498876981384 -0.010333912268031027 0 -0.0020504153755204939 -0.009453703059937436 0 -0.0012929824346875143 -0.010192876161289709 0 -0.0018439498876981384 -0.010333912268031027 0 -0.0024235732564363253 -0.010410812610532068 0 -0.0020504153755204939 -0.009453703059937436 0 -0.0018439498876981384 -0.010333912268031027 0 -0.0024235732564363253 -0.010410812610532068 0 -0.0018942280999214407 -0.010928364380018528 0 -0.0018439498876981384 -0.010333912268031027 0 0.001125365538092279 0.001822302356525308 0 0.00077920695498689095 0.0017058669851986678 0 0.0008843467418794209 0.0012209023034042276 0 0.001125365538092279 0.001822302356525308 0 0.00077920695498689095 0.0017058669851986678 0 0.0009129079861063021 0.0020870627786851721 0 0.00077920695498689095 0.0017058669851986678 0 0.0009129079861063021 0.0020870627786851721 0 0.00060739405864362233 0.0021191279812998952 0 0.0009129079861063021 0.0020870627786851721 0 0.0011926386885537019 0.0022385902028548232 0 0.00094439469638782239 0.0024594157381614508 0 0.0009129079861063021 0.0020870627786851721 0 0.00060739405864362233 0.0021191279812998952 0 0.00094439469638782239 0.0024594157381614508 0 0.001125365538092279 0.001822302356525308 0 0.0011926386885537019 0.0022385902028548232 0 0.0015084626878276765 0.0019578595910903275 0 0.001125365538092279 0.001822302356525308 0 0.0009129079861063021 0.0020870627786851721 0 0.0011926386885537019 0.0022385902028548232 0 0.0011926386885537019 0.0022385902028548232 0 0.0015084626878276765 0.0019578595910903275 0 0.001560234351315715 0.0023733865580696182 0 0.0015084626878276765 0.0019578595910903275 0 0.0021701233426578452 0.0019131048066314391 0 0.001560234351315715 0.0023733865580696182 0 0.0015084626878276765 0.0019578595910903275 0 0.0021701233426578452 0.0019131048066314391 0 0.0015569581662818828 0.0013855639432793555 0 0.001125365538092279 0.001822302356525308 0 0.0015084626878276765 0.0019578595910903275 0 0.0015569581662818828 0.0013855639432793555 0 0.0021701233426578452 0.0019131048066314391 0 0.0015569581662818828 0.0013855639432793555 0 0.0026212290683629313 0.00053356668601294932 0 0.0015569581662818828 0.0013855639432793555 0 0.0013521814678345327 0.00050097000319769363 0 0.0026212290683629313 0.00053356668601294932 0 0.0013521814678345327 0.00050097000319769363 0 0.0008843467418794209 0.0012209023034042276 0 0.0006839999914231181 0.0003850574776895219 0 0.0015569581662818828 0.0013855639432793555 0 0.0013521814678345327 0.00050097000319769363 0 0.0008843467418794209 0.0012209023034042276 0 0.001125365538092279 0.001822302356525308 0 0.0015569581662818828 0.0013855639432793555 0 0.0008843467418794209 0.0012209023034042276 0 0.00077920695498689095 0.0017058669851986678 0 0.0008843467418794209 0.0012209023034042276 0 0.00045249655225160641 0.0012761649936039018 0 0.0008843467418794209 0.0012209023034042276 0 0.00045249655225160641 0.0012761649936039018 0 0.0006839999914231181 0.0003850574776895219 0 0.00045249655225160641 0.0012761649936039018 0 0.00022354320962032813 0.0020564851493107563 0 0.0001208210944415254 0.0012856880321067614 0 0.00022354320962032813 0.0020564851493107563 0 0.00060739405864362233 0.0021191279812998952 0 0.00037548841434609622 0.0025707283631076511 0 0.00022354320962032813 0.0020564851493107563 0 0.00037548841434609622 0.0025707283631076511 0 0.00017797261896652057 0.0026579094577302031 0 0.00045249655225160641 0.0012761649936039018 0 0.00022354320962032813 0.0020564851493107563 0 0.00060739405864362233 0.0021191279812998952 0 0.00077920695498689095 0.0017058669851986678 0 0.00045249655225160641 0.0012761649936039018 0 0.00060739405864362233 0.0021191279812998952 0 0.00060739405864362233 0.0021191279812998952 0 0.00037548841434609622 0.0025707283631076511 0 0.00094439469638782239 0.0024594157381614508 0 0.00037548841434609622 0.0025707283631076511 0 0.00096914153728967117 0.0025292242572198557 0 0.00094439469638782239 0.0024594157381614508 0 0.00037548841434609622 0.0025707283631076511 0 0.00044312211144416537 0.0028831525142897114 0 0.00069357215605915718 0.0029177314978862568 0 0.00037548841434609622 0.0025707283631076511 0 0.00069357215605915718 0.0029177314978862568 0 0.00094267873309762976 0.0026862902404391231 0 0.00021985334528311465 0.0027173861810388306 0 0.0014511858855203771 0.0018893855998226993 0 0.00037548841434609622 0.0025707283631076511 0 0.00017797261896652057 0.0026579094577302031 0 0.00027291605064036273 0.0029440845789576132 0 0.00037548841434609622 0.0025707283631076511 0 0.00032637097688010717 0.0028884224722396886 0 0.00027291605064036273 0.0029440845789576132 0 0.00037548841434609622 0.0025707283631076511 0 0.00032637097688010717 0.0028884224722396886 0 0.00044312211144416537 0.0028831525142897114 0 0.00032637097688010717 0.0028884224722396886 0 0.00038488951909261039 0.003011683630615756 0 0.00027850182209049589 0.0029735684168143168 0 0.00032637097688010717 0.0028884224722396886 0 0.00044312211144416537 0.0028831525142897114 0 0.00038488951909261039 0.003011683630615756 0 0.00044312211144416537 0.0028831525142897114 0 0.00038488951909261039 0.003011683630615756 0 0.00054307504370497927 0.003002453545718028 0 0.00040962020448990095 0.0030848392364097137 0 0.00038488951909261039 0.003011683630615756 0 0.00054307504370497927 0.003002453545718028 0 0.0015834148042584604 0.0032642855264496074 0 0.0013599939186238388 0.0030614785699318594 0 0.0025218765027246442 0.0044404501924317653 0 0.001803278363751837 0.0038454851590716392 0 0.0020933838577139657 0.0046971455624491443 0 0.0015834148042584604 0.0032642855264496074 0 0.0010086271765097782 0.0034532188930642142 0 0.00039618638269980618 0.003041764022932721 0 0.00038488951909261039 0.003011683630615756 0 0.00027850182209049589 0.0029735684168143168 0 0.00079044414700970233 0.0032629145727746389 0 0.00069357215605915718 0.0029177314978862568 0 0.00054307504370497927 0.003002453545718028 0 0.00079044414700970233 0.0032629145727746389 0 0.00040962020448990095 0.0030848392364097137 0 0.00054307504370497927 0.003002453545718028 0 0.00044312211144416537 0.0028831525142897114 0 0.00069357215605915718 0.0029177314978862568 0 0.00054307504370497927 0.003002453545718028 0 0.00079044414700970233 0.0032629145727746389 0 0.00069357215605915718 0.0029177314978862568 0 0.0010450000805087613 0.0030751479300222847 0 0.00069357215605915718 0.0029177314978862568 0 0.0010450000805087613 0.0030751479300222847 0 0.00094267873309762976 0.0026862902404391231 0 0.0015316029675357561 0.0018813184029365659 0 0.0014511858855203771 0.0018893855998226993 0 0.00099565771276198902 0.0026463070216207873 0 0.0013202810340591058 0.0025192602996972546 0 0.00094439469638782239 0.0024594157381614508 0 0.0011926386885537019 0.0022385902028548232 0 0.0013202810340591058 0.0025192602996972546 0 0.00094439469638782239 0.0024594157381614508 0 0.0011926386885537019 0.0022385902028548232 0 0.0013202810340591058 0.0025192602996972546 0 0.001560234351315715 0.0023733865580696182 0 0.0014511858855203771 0.0018893855998226993 0 0.0014232835249259994 0.0020904507333957896 0 0.00099565771276198902 0.0026463070216207873 0 0.0013202810340591058 0.0025192602996972546 0 0.0019012960436804907 0.0028665167235916327 0 0.00058739750247101068 -0.0053466771300588216 0 0.00056692412136634016 -0.005169797083169175 0 0.00063248551404896216 -0.0052760974837594947 0 0.0021701233426578452 0.0019131048066314391 0 0.001560234351315715 0.0023733865580696182 0 0.0019012960436804907 0.0028665167235916327 0 0.0014511858855203771 0.0018893855998226993 0 0.0021461478491700543 -0.001347687972225755 0 0.0013200956510254405 -0.001657043508504629 0 0.0021461478491700543 -0.001347687972225755 0 0.0013202810340591058 0.0025192602996972546 0 0.001560234351315715 0.0023733865580696182 0 0.0019012960436804907 0.0028665167235916327 0 0.0034363527204122717 -0.00097862958468212884 0 0.0021461478491700543 -0.001347687972225755 0 0.0023158331174605389 0.00062806857059239838 0 0.0021177952324016843 0.00058610202253894133 0 0.0023744348559846104 0.00026510430219053356 0 0.0021177952324016843 0.00058610202253894133 0 0.0019978949197086279 0.0001950916757214882 0 0.0023744348559846104 0.00026510430219053356 0 0.0043534975660689968 -0.002065141684041857 0 0.0044314505017169032 -0.0025066685604831136 0 0.0045572457432749647 -0.0022807986096872288 0 0.0043534975660689968 -0.002065141684041857 0 0.0047267410116062147 -0.0021009781448611147 0 0.0045572457432749647 -0.0022807986096872288 0 0.0044314505017169032 -0.0025066685604831136 0 0.0045572457432749647 -0.0022807986096872288 0 0.0047207620962222115 -0.0024452326383219191 0 0.0047267410116062147 -0.0021009781448611147 0 0.0045572457432749647 -0.0022807986096872288 0 0.0047207620962222115 -0.0024452326383219191 0 0.0020525699780763571 -0.0041189172957061381 0 0.0033358521834791115 -0.0035469554864437907 0 0.0047267410116062147 -0.0021009781448611147 0 0.0047207620962222115 -0.0024452326383219191 0 0.0050525779735627711 -0.0020321128066765684 0 0.0016553822123199136 -0.0049120727139040027 0 0.001290547113424387 -0.0050148362057527811 0 0.0013974045930600283 -0.0051749581572470412 0 0.0020525699780763571 -0.0041189172957061381 0 0.000838082253987798 -0.0051965681300081053 0 0.0011372143712889791 -0.0052075619228658439 0 0.001290547113424387 -0.0050148362057527811 0 0.0013974045930600283 -0.0051749581572470412 0 0.00065647832980726293 -0.0051819710977763934 0 0.0008003981066683596 -0.005170499859509365 0 0.00076184949612123675 -0.0052498218018596915 0 0.0008003981066683596 -0.005170499859509365 0 0.00076184949612123675 -0.0052498218018596915 0 0.00090405756375245498 -0.0052190986215581965 0 0.00076184949612123675 -0.0052498218018596915 0 0.00087616537990995249 -0.0053143379533951022 0 0.00076299830674416043 -0.0053444771339752591 0 0.00076184949612123675 -0.0052498218018596915 0 0.00070022910885130635 -0.0052921904051867899 0 0.00076299830674416043 -0.0053444771339752591 0 0.00076184949612123675 -0.0052498218018596915 0 0.00070022910885130635 -0.0052921904051867899 0 0.00067580343187179288 -0.0052386610660342383 0 0.00070022910885130635 -0.0052921904051867899 0 0.00063248551404896216 -0.0052760974837594947 0 0.00067580343187179288 -0.0052386610660342383 0 0.00065647832980726293 -0.0051819710977763934 0 0.00076184949612123675 -0.0052498218018596915 0 0.00067580343187179288 -0.0052386610660342383 0 0.00063248551404896216 -0.0052760974837594947 0 0.0006289150255129319 -0.0051971449091600137 0 0.00067580343187179288 -0.0052386610660342383 0 0.00065647832980726293 -0.0051819710977763934 0 0.0006289150255129319 -0.0051971449091600137 0 0.00067580343187179288 -0.0052386610660342383 0 0.00056692412136634016 -0.005169797083169175 0 0.0006767960224253345 -0.0051430113421295194 0 0.0006289150255129319 -0.0051971449091600137 0 0.00056692412136634016 -0.005169797083169175 0 0.00063248551404896216 -0.0052760974837594947 0 0.0006289150255129319 -0.0051971449091600137 0 0.0021461478491700543 -0.001347687972225755 0 0.0020525699780763571 -0.0041189172957061381 0 0.0020525699780763571 -0.0041189172957061381 0 0.0010476506844110806 -0.0050482167102779869 0 0.00068094498085726428 -0.0067739674641365405 0 0.0010880654473258331 -0.0064797853748733841 0 0.0010283378996762979 -0.0052042845716413662 0 0.0010059988217169706 -0.0051607159140132112 0 0.00096247239148630282 -0.0052783626290974859 0 0.0010059988217169706 -0.0051607159140132112 0 0.00090405756375245498 -0.0052190986215581965 0 0.00096247239148630282 -0.0052783626290974859 0 0.00096160276497535757 -0.0052496375792168704 0 0.0010283378996762979 -0.0052042845716413662 0 0.0010059988217169706 -0.0051607159140132112 0 0.000838082253987798 -0.0051965681300081053 0 0.0010939869088292353 -0.0051185306913673154 0 0.0008003981066683596 -0.005170499859509365 0 0.0010059988217169706 -0.0051607159140132112 0 0.00090405756375245498 -0.0052190986215581965 0 0.0011372143712889791 -0.0052075619228658439 0 0.001290547113424387 -0.0050148362057527811 0 0.0010059988217169706 -0.0051607159140132112 0 0.00087616537990995249 -0.0053143379533951022 0 0.00096247239148630282 -0.0052783626290974859 0 0.00092639018798812683 -0.0054243549831683169 0 0.00076184949612123675 -0.0052498218018596915 0 0.00090405756375245498 -0.0052190986215581965 0 0.00087616537990995249 -0.0053143379533951022 0 0.00090405756375245498 -0.0052190986215581965 0 0.00087616537990995249 -0.0053143379533951022 0 0.00096247239148630282 -0.0052783626290974859 0 0.0010283378996762979 -0.0052042845716413662 0 0.0010556847838358427 -0.0054022825771892734 0 0.00096247239148630282 -0.0052783626290974859 0 0.0010556847838358427 -0.0054022825771892734 0 0.00096247239148630282 -0.0052783626290974859 0 0.00092639018798812683 -0.0054243549831683169 0 0.0010556847838358427 -0.0054022825771892734 0 0.00092639018798812683 -0.0054243549831683169 0 0.00092730443252422292 -0.0055721536337891503 0 0.00092639018798812683 -0.0054243549831683169 0 0.00083328993182647001 -0.0054164015351586955 0 0.00083557827117008738 -0.0055339009787384857 0 0.00087616537990995249 -0.0053143379533951022 0 0.00092639018798812683 -0.0054243549831683169 0 0.00083328993182647001 -0.0054164015351586955 0 0.00087616537990995249 -0.0053143379533951022 0 0.00083328993182647001 -0.0054164015351586955 0 0.00076299830674416043 -0.0053444771339752591 0 0.00092639018798812683 -0.0054243549831683169 0 0.00083557827117008738 -0.0055339009787384857 0 0.00092730443252422292 -0.0055721536337891503 0 0.00083557827117008738 -0.0055339009787384857 0 0.00092730443252422292 -0.0055721536337891503 0 0.00082571898863783135 -0.0056498924043659141 0 0.00058739750247101068 -0.0053466771300588216 0 0.00067382033426950812 -0.0053678395145635334 0 0.00061138549160008029 -0.0055164491339930906 0 0.00058739750247101068 -0.0053466771300588216 0 0.00063248551404896216 -0.0052760974837594947 0 0.00067382033426950812 -0.0053678395145635334 0 0.00070022910885130635 -0.0052921904051867899 0 0.00063248551404896216 -0.0052760974837594947 0 0.00067382033426950812 -0.0053678395145635334 0 0.00070022910885130635 -0.0052921904051867899 0 0.00067382033426950812 -0.0053678395145635334 0 0.00076299830674416043 -0.0053444771339752591 0 0.00067382033426950812 -0.0053678395145635334 0 0.00076299830674416043 -0.0053444771339752591 0 0.00071479593514577554 -0.0054607911781604738 0 0.00083328993182647001 -0.0054164015351586955 0 0.00076299830674416043 -0.0053444771339752591 0 0.00071479593514577554 -0.0054607911781604738 0 0.00083557827117008738 -0.0055339009787384857 0 0.00071479593514577554 -0.0054607911781604738 0 0.0007406265940111831 -0.0055734061218866504 0 0.00083328993182647001 -0.0054164015351586955 0 0.00083557827117008738 -0.0055339009787384857 0 0.00071479593514577554 -0.0054607911781604738 0 0.00071479593514577554 -0.0054607911781604738 0 0.00068704398322792304 -0.0055358274377050711 0 0.0007406265940111831 -0.0055734061218866504 0 0.0013200956510254405 -0.001657043508504629 0 0.0016335808278522049 -0.0026075382457783117 0 0.00071479593514577554 -0.0054607911781604738 0 0.00068704398322792304 -0.0055358274377050711 0 0.00061138549160008029 -0.0055164491339930906 0 0.00067382033426950812 -0.0053678395145635334 0 0.00071479593514577554 -0.0054607911781604738 0 0.00061138549160008029 -0.0055164491339930906 0 0.0026212290683629313 0.00053356668601294932 0 0.003025429584044231 -0.001827388026330653 0 0.0014532358953307292 -0.0014276926704891529 0 0.00061138549160008029 -0.0055164491339930906 0 0.00068006466429362204 -0.0055903051157739142 0 0.00064312164434771849 -0.0056687212514073496 0 0.0016335808278522049 -0.0026075382457783117 0 0.0016593319359834559 -0.003365802098295382 0 0.00068006466429362204 -0.0055903051157739142 0 0.00074333296490667906 -0.0056450501819629009 0 0.00064312164434771849 -0.0056687212514073496 0 0.00068704398322792304 -0.0055358274377050711 0 0.00061138549160008029 -0.0055164491339930906 0 0.00068006466429362204 -0.0055903051157739142 0 0.00068704398322792304 -0.0055358274377050711 0 0.00068006466429362204 -0.0055903051157739142 0 0.0007406265940111831 -0.0055734061218866504 0 0.00074333296490667906 -0.0056450501819629009 0 0.00082571898863783135 -0.0056498924043659141 0 0.00081913975531742078 -0.0057369798319870397 0 0.00068006466429362204 -0.0055903051157739142 0 0.0007406265940111831 -0.0055734061218866504 0 0.00074333296490667906 -0.0056450501819629009 0 0.0007406265940111831 -0.0055734061218866504 0 0.00074333296490667906 -0.0056450501819629009 0 0.00082571898863783135 -0.0056498924043659141 0 0.0010496565475300167 -0.0037386393593362268 0 0.0012983742380863214 -0.0032327347653207401 0 0.00050048957292652167 -0.0047576733467651778 0 0.0016593319359834559 -0.003365802098295382 0 0.00046297593629142673 -0.0053376052271117058 0 0.00074333296490667906 -0.0056450501819629009 0 0.00064312164434771849 -0.0056687212514073496 0 0.00081913975531742078 -0.0057369798319870397 0 0.0010496565475300167 -0.0037386393593362268 0 0.0012593891757141863 -0.003196111198455343 0 0.0012969525849138132 -0.0032446000913110575 0 0.0010496565475300167 -0.0037386393593362268 0 0.0012593891757141863 -0.003196111198455343 0 0.0011072177452896514 -0.0035393982206543858 0 0.0012969525849138132 -0.0032446000913110575 0 0.0013700274576121199 -0.0027168471270876235 0 0.0013440763335820735 -0.0031292527271087759 0 0.0012593891757141863 -0.003196111198455343 0 0.0012969525849138132 -0.0032446000913110575 0 0.0013700274576121199 -0.0027168471270876235 0 0.0016462007943967186 -0.0033420737897137806 0 0.0016593319359834559 -0.003365802098295382 0 0.0010496565475300167 -0.0037386393593362268 0 0.0012969525849138132 -0.0032446000913110575 0 0.0012983742380863214 -0.0032327347653207401 0 0.0010212741259118215 -0.0056217992841538396 0 0.00092730443252422292 -0.0055721536337891503 0 0.00091742501854693399 -0.0057240648156471263 0 0.00092730443252422292 -0.0055721536337891503 0 0.00091742501854693399 -0.0057240648156471263 0 0.00082571898863783135 -0.0056498924043659141 0 0.00083557827117008738 -0.0055339009787384857 0 0.0007406265940111831 -0.0055734061218866504 0 0.00082571898863783135 -0.0056498924043659141 0 0.00091742501854693399 -0.0057240648156471263 0 0.00082571898863783135 -0.0056498924043659141 0 0.00081913975531742078 -0.0057369798319870397 0 0.00046297593629142673 -0.0053376052271117058 0 0.000477391822602631 -0.0057407567256916306 0 0.00091742501854693399 -0.0057240648156471263 0 0.00081913975531742078 -0.0057369798319870397 0 0.00095338564199791886 -0.0057610154127475076 0 -6.3505771333312227e-06 -0.0064232947760545257 0 4.0627331290041443e-05 -0.0057777980651933913 0 0.00013515508253431294 -0.005295734445552017 0 0.00050048957292652167 -0.0047576733467651778 0 4.0627331290041443e-05 -0.0057777980651933913 0 0.00013515508253431294 -0.005295734445552017 0 0.00050048957292652167 -0.0047576733467651778 0 0.00013515508253431294 -0.005295734445552017 0 0.00053880105022017209 -0.0046412229502666843 0 0.00013515508253431294 -0.005295734445552017 0 1.1419678306080195e-06 -0.0048691085938837933 0 0.00053880105022017209 -0.0046412229502666843 0 -6.3505771333312227e-06 -0.0064232947760545257 0 -1.4540357217597142e-07 -0.0063362050353168442 0 0.00013515508253431294 -0.005295734445552017 0 -1.4540357217597142e-07 -0.0063362050353168442 0 0.00013515508253431294 -0.005295734445552017 0 1.1419678306080195e-06 -0.0048691085938837933 0 0.0008667115380855988 -0.0042551676064528018 0 0.0011072177452896514 -0.0035393982206543858 0 0.0010968097739391159 -0.0030410761035139736 0 0.0010496565475300167 -0.0037386393593362268 0 0.0008667115380855988 -0.0042551676064528018 0 0.0011072177452896514 -0.0035393982206543858 0 0.00052198994010765616 -0.0035410471705406882 0 0.00068900912660188325 -0.0020875174006190042 0 0.0010496565475300167 -0.0037386393593362268 0 0.0008667115380855988 -0.0042551676064528018 0 0.00053880105022017209 -0.0046412229502666843 0 0.0010496565475300167 -0.0037386393593362268 0 0.00050048957292652167 -0.0047576733467651778 0 0.00053880105022017209 -0.0046412229502666843 0 7.6426029431938499e-07 -0.0048670039937878549 0 0.00026773088672204305 -0.0028386659899713334 0 2.6964972814722211e-07 -0.0033880695757338851 0 1.1419678306080195e-06 -0.0048691085938837933 0 0.0008667115380855988 -0.0042551676064528018 0 0.00053880105022017209 -0.0046412229502666843 0 1.5528715462762921e-07 -0.0048676230188582402 0 0.00052198994010765616 -0.0035410471705406882 0 0.00026773088672204305 -0.0028386659899713334 0 2.6964972814722211e-07 -0.0033880695757338851 0 0.00010186178980569547 -0.002230275282286752 0 2.6964972814722211e-07 -0.0033880695757338851 0 0.00010186178980569547 -0.002230275282286752 0 5.5158057123572669e-08 -0.0019088626038303998 0 0.00010186178980569547 -0.002230275282286752 0 5.5158057123572669e-08 -0.0019088626038303998 0 0.00010947979605304065 -0.0014722349001224978 0 5.5158057123572669e-08 -0.0019088626038303998 0 6.5588805607889923e-05 -0.00082904966379617384 0 0.00010947979605304065 -0.0014722349001224978 0 6.5588805607889923e-05 -0.00082904966379617384 0 0.00010947979605304065 -0.0014722349001224978 0 0.00025242999412778045 -0.0012204750388081578 0 0.00026773088672204305 -0.0028386659899713334 0 0.00010186178980569547 -0.002230275282286752 0 0.00025242999412778045 -0.0012204750388081578 0 0.00010186178980569547 -0.002230275282286752 0 0.00010947979605304065 -0.0014722349001224978 0 0.00025242999412778045 -0.0012204750388081578 0 0.0012593891757141863 -0.003196111198455343 0 0.0011072177452896514 -0.0035393982206543858 0 0.0010968097739391159 -0.0030410761035139736 0 0.0013700274576121199 -0.0027168471270876235 0 0.0010968097739391159 -0.0030410761035139736 0 0.0014532358953307292 -0.0014276926704891529 0 0.0012593891757141863 -0.003196111198455343 0 0.0013700274576121199 -0.0027168471270876235 0 0.0010968097739391159 -0.0030410761035139736 0 0.0016593319359834559 -0.003365802098295382 0 0.0013818685796284922 -0.0019078467424588816 0 0.0013700274576121199 -0.0027168471270876235 0 0.0013440763335820735 -0.0031292527271087759 0 0.0014532358953307292 -0.0014276926704891529 0 0.0010968097739391159 -0.0030410761035139736 0 0.00026413176597989358 -0.00017831208828894042 0 0.0014532358953307292 -0.0014276926704891529 0 0.00068900912660188325 -0.0020875174006190042 0 0.00024015118505820216 -0.00045869072460935715 0 6.5588805607889923e-05 -0.00082904966379617384 0 0.00025242999412778045 -0.0012204750388081578 0 0.00026413176597989358 -0.00017831208828894042 0 0.00045249655225160641 0.0012761649936039018 0 0.00026413176597989358 -0.00017831208828894042 0 0.0006839999914231181 0.0003850574776895219 0 0.00026413176597989358 -0.00017831208828894042 0 0.0006839999914231181 0.0003850574776895219 0 0.0014532358953307292 -0.0014276926704891529 0 0.0013521814678345327 0.00050097000319769363 0 0.0006839999914231181 0.0003850574776895219 0 0.0014532358953307292 -0.0014276926704891529 0 0.0013521814678345327 0.00050097000319769363 0 0.0026212290683629313 0.00053356668601294932 0 0.0014532358953307292 -0.0014276926704891529 0 0.0001208210944415254 0.0012856880321067614 0 4.5670612669408467e-05 0.00028270769702638842 0 -2.5874953364830579e-05 0.001531397151382078 0 0.00045249655225160641 0.0012761649936039018 0 0.00026413176597989358 -0.00017831208828894042 0 0.0001208210944415254 0.0012856880321067614 0 0.00026413176597989358 -0.00017831208828894042 0 0.0001208210944415254 0.0012856880321067614 0 4.5670612669408467e-05 0.00028270769702638842 0 6.5588805607889923e-05 -0.00082904966379617384 0 0.00026413176597989358 -0.00017831208828894042 0 4.5670612669408467e-05 0.00028270769702638842 0 6.5588805607889923e-05 -0.00082904966379617384 0 4.5670612669408467e-05 0.00028270769702638842 0 -7.7531920999484832e-08 -0.00042937115202333739 0 4.5670612669408467e-05 0.00028270769702638842 0 -7.7531920999484832e-08 -0.00042937115202333739 0 -5.5345169302782507e-05 0.00057137627746782916 0 5.5158057123572669e-08 -0.0019088626038303998 0 6.5588805607889923e-05 -0.00082904966379617384 0 -7.7531920999484832e-08 -0.00042937115202333739 0 -7.7531920999484832e-08 -0.00042937115202333739 0 -3.8624230016524255e-07 0.0010478786724558318 0 -5.5345169302782507e-05 0.00057137627746782916 0 -3.8624230016524255e-07 0.0010478786724558318 0 -8.7822941279391752e-05 0.0011748479552434537 0 -5.5345169302782507e-05 0.00057137627746782916 0 -3.8624230016524255e-07 0.0010478786724558318 0 -8.7822941279391752e-05 0.0011748479552434537 0 -0.00031023644056363183 0.0014573311343599369 0 -8.7822941279391752e-05 0.0011748479552434537 0 -0.00027239389433550486 0.0021437045929427142 0 -7.0661174771145167e-05 0.0012313675960480821 0 -8.7822941279391752e-05 0.0011748479552434537 0 -5.5345169302782507e-05 0.00057137627746782916 0 -7.0661174771145167e-05 0.0012313675960480821 0 4.5670612669408467e-05 0.00028270769702638842 0 -5.5345169302782507e-05 0.00057137627746782916 0 -7.0661174771145167e-05 0.0012313675960480821 0 7.5295193679236315e-08 0.0023764407878243809 0 -6.0079286325353108e-05 0.0033732346066668753 0 0.00014951700846867566 0.002846072610513639 0 7.5295193679236315e-08 0.0023764407878243809 0 -6.0079286325353108e-05 0.0033732346066668753 0 -3.9493613948600218e-07 0.0037027610178999608 0 -1.4166149521539956e-07 0.0010499062697507491 0 -0.0001340433660500548 0.002186525991738097 0 5.6154430543819337e-07 0.0010503754418970509 0 7.5295193679236315e-08 0.0023764407878243809 0 0.00014951700846867566 0.002846072610513639 0 -8.7822941279391752e-05 0.0011748479552434537 0 -0.00031023644056363183 0.0014573311343599369 0 -0.00027239389433550486 0.0021437045929427142 0 -0.00031023644056363183 0.0014573311343599369 0 -0.00027239389433550486 0.0021437045929427142 0 -0.00058216251397692331 0.0027139607691353393 0 -6.0079286325353108e-05 0.0033732346066668753 0 0.00014951700846867566 0.002846072610513639 0 -0.00012106389210562763 0.0040692551212288992 0 -0.0001340433660500548 0.002186525991738097 0 -0.00030929042874420809 0.0033682811663715796 0 -0.00027239389433550486 0.0021437045929427142 0 -0.00047264509221204594 0.0034674092254912072 0 -0.00058216251397692331 0.0027139607691353393 0 -0.00027239389433550486 0.0021437045929427142 0 -0.00020086276473864727 0.0024126384065110643 0 -0.00047264509221204594 0.0034674092254912072 0 4.5670612669408467e-05 0.00028270769702638842 0 -7.0661174771145167e-05 0.0012313675960480821 0 -2.5874953364830579e-05 0.001531397151382078 0 -0.00027239389433550486 0.0021437045929427142 0 -0.00020086276473864727 0.0024126384065110643 0 -7.0661174771145167e-05 0.0012313675960480821 0 -0.00020086276473864727 0.0024126384065110643 0 -7.0661174771145167e-05 0.0012313675960480821 0 -2.5874953364830579e-05 0.001531397151382078 0 -0.00020086276473864727 0.0024126384065110643 0 -2.5874953364830579e-05 0.001531397151382078 0 -4.1422244012155985e-05 0.0023105367532523314 0 0.0001208210944415254 0.0012856880321067614 0 -2.5874953364830579e-05 0.001531397151382078 0 -4.1422244012155985e-05 0.0023105367532523314 0 0.00022354320962032813 0.0020564851493107563 0 0.0001208210944415254 0.0012856880321067614 0 1.4184081091778171e-05 0.0023507412299532504 0 0.00015713001154220462 0.0014573740416084393 0 -2.3731327986694445e-05 0.0022948774245241245 0 0.00022354320962032813 0.0020564851493107563 0 0.00017797261896652057 0.0026579094577302031 0 1.4184081091778171e-05 0.0023507412299532504 0 0.00017797261896652057 0.0026579094577302031 0 0.00014602544942892353 0.0030624364393769363 0 0.00027291605064036273 0.0029440845789576132 0 0.00014602544942892353 0.0030624364393769363 0 1.4184081091778171e-05 0.0023507412299532504 0 -0.00015939739425725958 0.0031523635052693429 0 0.00017797261896652057 0.0026579094577302031 0 0.00014602544942892353 0.0030624364393769363 0 1.4184081091778171e-05 0.0023507412299532504 0 -0.00020086276473864727 0.0024126384065110643 0 -4.1422244012155985e-05 0.0023105367532523314 0 -0.0002909540266276691 0.0033060983943034483 0 -2.3731327986694445e-05 0.0022948774245241245 0 -0.00022690853402849008 0.0032484991337731169 0 -0.00020086276473864727 0.0024126384065110643 0 -0.00047264509221204594 0.0034674092254912072 0 -0.0002909540266276691 0.0033060983943034483 0 -0.00047264509221204594 0.0034674092254912072 0 -0.0002909540266276691 0.0033060983943034483 0 -0.00039840442335803091 0.0040806412356206119 0 -0.00022690853402849008 0.0032484991337731169 0 -0.00041102320023364726 0.0039419419923028276 0 -0.00015939739425725958 0.0031523635052693429 0 -0.00010876093368218507 0.0036275691246002045 0 -0.00039840442335803091 0.0040806412356206119 0 0.00014602544942892353 0.0030624364393769363 0 -0.00015939739425725958 0.0031523635052693429 0 -0.00010876093368218507 0.0036275691246002045 0 -0.00010876093368218507 0.0036275691246002045 0 -0.00021999423099378461 0.0042418945227704384 0 9.2408419692942807e-05 0.0039265600366360943 0 -0.00010876093368218507 0.0036275691246002045 0 -0.00036171320040412862 0.0043609138335946604 0 -0.00039840442335803091 0.0040806412356206119 0 -0.00010876093368218507 0.0036275691246002045 0 -0.00021999423099378461 0.0042418945227704384 0 -0.00036171320040412862 0.0043609138335946604 0 -0.00021999423099378461 0.0042418945227704384 0 -0.00019822010948120932 0.0046444029330953993 0 -0.00035040471601113083 0.0046739936219988738 0 -0.00021999423099378461 0.0042418945227704384 0 -0.00036171320040412862 0.0043609138335946604 0 -0.00035040471601113083 0.0046739936219988738 0 -0.00021999423099378461 0.0042418945227704384 0 9.2408419692942807e-05 0.0039265600366360943 0 6.4316707078686413e-05 0.004468762005752849 0 -0.00021999423099378461 0.0042418945227704384 0 6.4316707078686413e-05 0.004468762005752849 0 -0.00019822010948120932 0.0046444029330953993 0 9.2408419692942807e-05 0.0039265600366360943 0 0.00067461008680077942 0.0041811607696855971 0 6.4316707078686413e-05 0.004468762005752849 0 9.2408419692942807e-05 0.0039265600366360943 0 0.00067461008680077942 0.0041811607696855971 0 0.00041513972744463195 0.0033404202370409248 0 0.00067461008680077942 0.0041811607696855971 0 0.001803278363751837 0.0038454851590716392 0 0.0020933838577139657 0.0046971455624491443 0 0.0010086271765097782 0.0034532188930642142 0 0.00050562388240467794 0.0033013956783494126 0 0.00067461008680077942 0.0041811607696855971 0 0.001803278363751837 0.0038454851590716392 0 0.00041513972744463195 0.0033404202370409248 0 0.00027850182209049589 0.0029735684168143168 0 0.00027291605064036273 0.0029440845789576132 0 0.00041513972744463195 0.0033404202370409248 0 0.00032637097688010717 0.0028884224722396886 0 0.00027850182209049589 0.0029735684168143168 0 0.00027291605064036273 0.0029440845789576132 0 0.00014602544942892353 0.0030624364393769363 0 -0.00010876093368218507 0.0036275691246002045 0 0.00041513972744463195 0.0033404202370409248 0 -0.00010876093368218507 0.0036275691246002045 0 9.2408419692942807e-05 0.0039265600366360943 0 0.00041513972744463195 0.0033404202370409248 0 0.00014602544942892353 0.0030624364393769363 0 0.00027291605064036273 0.0029440845789576132 0 0.00041513972744463195 0.0033404202370409248 0 -7.9866351982278106e-05 0.0052939130066295935 0 -0.00033047703687336713 0.0047451166164044038 0 -0.00015990611177401509 0.0052963072060438765 0 -7.9866351982278106e-05 0.0052939130066295935 0 -0.00015990611177401509 0.0052963072060438765 0 0.00011888579077047678 0.0057084830940728271 0 -7.9866351982278106e-05 0.0052939130066295935 0 0.00011888579077047678 0.0057084830940728271 0 0.00042769775496290951 0.0056745215187707816 0 -7.9866351982278106e-05 0.0052939130066295935 0 -0.00022196836046726101 0.0049956893418769532 0 -0.00011406034979444269 0.0049795736443879503 0 -7.9866351982278106e-05 0.0052939130066295935 0 -0.00022196836046726101 0.0049956893418769532 0 -0.00034289712999631508 0.0047607142278592298 0 -0.00022196836046726101 0.0049956893418769532 0 -0.00034289712999631508 0.0047607142278592298 0 -0.00033045613151285727 0.004825355394565441 0 -0.00034289712999631508 0.0047607142278592298 0 -0.00035040471601113083 0.0046739936219988738 0 -0.00033045613151285727 0.004825355394565441 0 -0.00034289712999631508 0.0047607142278592298 0 -0.00036171320040412862 0.0043609138335946604 0 -0.00035040471601113083 0.0046739936219988738 0 -0.00036171320040412862 0.0043609138335946604 0 -0.00033047703687336713 0.0047451166164044038 0 -0.00039840442335803091 0.0040806412356206119 0 -0.00034289712999631508 0.0047607142278592298 0 -0.00036171320040412862 0.0043609138335946604 0 -0.00033047703687336713 0.0047451166164044038 0 -7.9866351982278106e-05 0.0052939130066295935 0 -0.00034289712999631508 0.0047607142278592298 0 -0.00033047703687336713 0.0047451166164044038 0 -0.00033047703687336713 0.0047451166164044038 0 -0.00039840442335803091 0.0040806412356206119 0 -0.0003767851249458445 0.0046012467866293986 0 -0.00047264509221204594 0.0034674092254912072 0 -0.00039840442335803091 0.0040806412356206119 0 -0.0003767851249458445 0.0046012467866293986 0 -0.0003767851249458445 0.0046012467866293986 0 -0.00015990611177401509 0.0052963072060438765 0 -0.00015930962166481414 0.0055747002118732335 0 -0.00033047703687336713 0.0047451166164044038 0 -0.0003767851249458445 0.0046012467866293986 0 -0.00015990611177401509 0.0052963072060438765 0 -0.0003767851249458445 0.0046012467866293986 0 -0.00015930962166481414 0.0055747002118732335 0 -0.00029057928351578367 0.0050421601466003598 0 -0.00015930962166481414 0.0055747002118732335 0 -0.00029057928351578367 0.0050421601466003598 0 -0.00017861448092816235 0.005732592031222887 0 -0.0003767851249458445 0.0046012467866293986 0 -0.00029057928351578367 0.0050421601466003598 0 -0.0004336825207045124 0.0043451612961098026 0 -0.00029057928351578367 0.0050421601466003598 0 -0.0004336825207045124 0.0043451612961098026 0 -0.00021641004954563818 0.0051001598923874408 0 -0.00029057928351578367 0.0050421601466003598 0 -0.00017861448092816235 0.005732592031222887 0 -0.00021641004954563818 0.0051001598923874408 0 -0.00047264509221204594 0.0034674092254912072 0 -0.0003767851249458445 0.0046012467866293986 0 -0.0004336825207045124 0.0043451612961098026 0 -0.00047264509221204594 0.0034674092254912072 0 -0.0004336825207045124 0.0043451612961098026 0 -0.00058216251397692331 0.0027139607691353393 0 -0.00041856133287628569 0.0041697047220034594 0 -0.00030929042874420809 0.0033682811663715796 0 -0.0004336825207045124 0.0043451612961098026 0 -0.00012106389210562763 0.0040692551212288992 0 -0.00023002931785366502 0.004337998095491527 0 -6.0079286325353108e-05 0.0033732346066668753 0 -0.00012106389210562763 0.0040692551212288992 0 -0.00023002931785366502 0.004337998095491527 0 -0.0004336825207045124 0.0043451612961098026 0 -0.00023002931785366502 0.004337998095491527 0 -0.00021641004954563818 0.0051001598923874408 0 -0.00023002931785366502 0.004337998095491527 0 -3.9493613948600218e-07 0.0037027610178999608 0 -4.0485900377551628e-07 0.0050291354987803249 0 -6.0079286325353108e-05 0.0033732346066668753 0 -0.00023002931785366502 0.004337998095491527 0 -3.9493613948600218e-07 0.0037027610178999608 0 -0.00017861448092816235 0.005732592031222887 0 -0.0001327650943935424 0.0058234786044334139 0 -0.00021641004954563818 0.0051001598923874408 0 -0.00023002931785366502 0.004337998095491527 0 -0.00021641004954563818 0.0051001598923874408 0 -4.0485900377551628e-07 0.0050291354987803249 0 -0.0001327650943935424 0.0058234786044334139 0 -0.00021641004954563818 0.0051001598923874408 0 -4.0485900377551628e-07 0.0050291354987803249 0 -0.0001327650943935424 0.0058234786044334139 0 -4.0485900377551628e-07 0.0050291354987803249 0 -7.2959597425991961e-08 0.0063552814677181532 0 -0.0001327650943935424 0.0058234786044334139 0 -7.2959597425991961e-08 0.0063552814677181532 0 -0.00011596100671167612 0.0065304934060291782 0 -7.2959597425991961e-08 0.0063552814677181532 0 -0.00011596100671167612 0.0065304934060291782 0 -7.1269332792731029e-07 0.0076822953689446539 0 -0.00017861448092816235 0.005732592031222887 0 -0.0001327650943935424 0.0058234786044334139 0 -0.00011596100671167612 0.0065304934060291782 0 -0.00011596100671167612 0.0065304934060291782 0 -7.1269332792731029e-07 0.0076822953689446539 0 5.6382422022024909e-06 0.0069805300368792561 0 -7.1269332792731029e-07 0.0076822953689446539 0 1.5649715196541229e-06 0.0090055725842010954 0 5.1664753540922374e-05 0.0076381171213824291 0 -1.85019459927848e-08 0.0090089252375949291 0 0.0001377253876048124 0.0091136738640422172 0 1.5649715196541229e-06 0.0090055725842010954 0 5.1664753540922374e-05 0.0076381171213824291 0 0.00048477517908998769 0.0076331638363610977 0 5.1664753540922374e-05 0.0076381171213824291 0 0.00025489032744682244 0.007300695511735635 0 0.00048477517908998769 0.0076331638363610977 0 5.1664753540922374e-05 0.0076381171213824291 0 5.6382422022024909e-06 0.0069805300368792561 0 0.00025489032744682244 0.007300695511735635 0 -7.1269332792731029e-07 0.0076822953689446539 0 5.1664753540922374e-05 0.0076381171213824291 0 5.6382422022024909e-06 0.0069805300368792561 0 5.6382422022024909e-06 0.0069805300368792561 0 0.00025489032744682244 0.007300695511735635 0 8.2556268450902323e-05 0.0067694798307704586 0 5.6382422022024909e-06 0.0069805300368792561 0 8.2556268450902323e-05 0.0067694798307704586 0 -8.4580117368362486e-05 0.0063079782119338469 0 0.00025489032744682244 0.007300695511735635 0 8.2556268450902323e-05 0.0067694798307704586 0 8.3114518213530021e-05 0.0073072963435333437 0 8.2556268450902323e-05 0.0067694798307704586 0 -8.4580117368362486e-05 0.0063079782119338469 0 -1.8359684979400947e-05 0.0062469287433205142 0 -0.00015930962166481414 0.0055747002118732335 0 -8.4580117368362486e-05 0.0063079782119338469 0 -1.8359684979400947e-05 0.0062469287433205142 0 -0.00015930962166481414 0.0055747002118732335 0 -0.00017861448092816235 0.005732592031222887 0 -8.4580117368362486e-05 0.0063079782119338469 0 -0.00017861448092816235 0.005732592031222887 0 -0.00011596100671167612 0.0065304934060291782 0 -8.4580117368362486e-05 0.0063079782119338469 0 -0.00011596100671167612 0.0065304934060291782 0 5.6382422022024909e-06 0.0069805300368792561 0 -8.4580117368362486e-05 0.0063079782119338469 0 -0.0002220208602415916 0.011012310473328506 0 -7.3580892034375537e-07 0.010594175068057101 0 -1.2154177120707579e-06 0.012750519003404086 0 -0.0002220208602415916 0.011012310473328506 0 -0.00017560965568751648 0.011098185399673116 0 -1.2154177120707579e-06 0.012750519003404086 0 -0.00017560965568751648 0.011098185399673116 0 -1.2154177120707579e-06 0.012750519003404086 0 -0.0001668589419959217 0.011832804502162626 0 9.5380649889636811e-07 0.0090106610445649209 0 -7.3580892034375537e-07 0.010594175068057101 0 -3.1708007942127237e-05 0.010521627927853864 0 -0.0002220208602415916 0.011012310473328506 0 -0.00045121431523591167 0.010915907373756195 0 -0.00017560965568751648 0.011098185399673116 0 -0.0002220208602415916 0.011012310473328506 0 -3.1708007942127237e-05 0.010521627927853864 0 -0.00045121431523591167 0.010915907373756195 0 -0.0002220208602415916 0.011012310473328506 0 -7.3580892034375537e-07 0.010594175068057101 0 -3.1708007942127237e-05 0.010521627927853864 0 0.0001377253876048124 0.0091136738640422172 0 -6.7901865339639136e-05 0.0092123157383824771 0 0.00025489032744682244 0.007300695511735635 0 0.00016789184440756474 0.0079160606328803548 0 0.00017691556277885261 0.0075577102255379646 0 0.00025489032744682244 0.007300695511735635 0 0.00048477517908998769 0.0076331638363610977 0 0.00017691556277885261 0.0075577102255379646 0 0.00025489032744682244 0.007300695511735635 0 0.00016789184440756474 0.0079160606328803548 0 8.3114518213530021e-05 0.0073072963435333437 0 0.00016789184440756474 0.0079160606328803548 0 8.1228291138087409e-05 0.0078960205167251211 0 8.3114518213530021e-05 0.0073072963435333437 0 0.00016789184440756474 0.0079160606328803548 0 -2.8080666908204214e-05 0.0092771802026162167 0 8.1228291138087409e-05 0.0078960205167251211 0 0.00016789184440756474 0.0079160606328803548 0 0.00017691556277885261 0.0075577102255379646 0 -2.8080666908204214e-05 0.0092771802026162167 0 -0.00045121431523591167 0.010915907373756195 0 -0.00017560965568751648 0.011098185399673116 0 -0.0001346666837272834 0.010508387179451625 0 -6.7901865339639136e-05 0.0092123157383824771 0 -4.0649588677484476e-06 0.009189400273969037 0 -0.00045121431523591167 0.010915907373756195 0 -0.0001346666837272834 0.010508387179451625 0 -2.8080666908204214e-05 0.0092771802026162167 0 -0.00017560965568751648 0.011098185399673116 0 -9.2475434587306393e-05 0.010560811670889216 0 -0.00020973424129517844 0.010974080312584409 0 -0.00017560965568751648 0.011098185399673116 0 -9.2475434587306393e-05 0.010560811670889216 0 -0.0001346666837272834 0.010508387179451625 0 -9.2475434587306393e-05 0.010560811670889216 0 -0.0001346666837272834 0.010508387179451625 0 3.2805412269448813e-05 0.00970109269263204 0 3.2805412269448813e-05 0.00970109269263204 0 -2.8080666908204214e-05 0.0092771802026162167 0 0.00056888938227660864 0.0074285597475281231 0 -0.0001346666837272834 0.010508387179451625 0 3.2805412269448813e-05 0.00970109269263204 0 -2.8080666908204214e-05 0.0092771802026162167 0 3.2805412269448813e-05 0.00970109269263204 0 -0.00026279142431300998 0.01040506445301507 0 -0.00023919621173391158 0.010459816560847842 0 -0.00026279142431300998 0.01040506445301507 0 -0.00023919621173391158 0.010459816560847842 0 -0.00037553909286592343 0.010699876020413729 0 -9.2475434587306393e-05 0.010560811670889216 0 3.2805412269448813e-05 0.00970109269263204 0 -0.00023919621173391158 0.010459816560847842 0 -9.2475434587306393e-05 0.010560811670889216 0 -0.00023919621173391158 0.010459816560847842 0 -0.00020973424129517844 0.010974080312584409 0 -0.00023919621173391158 0.010459816560847842 0 -0.00032494994595144548 0.010831225993707175 0 -0.00020973424129517844 0.010974080312584409 0 -0.00023919621173391158 0.010459816560847842 0 -0.00032494994595144548 0.010831225993707175 0 -0.00037553909286592343 0.010699876020413729 0 -0.00032494994595144548 0.010831225993707175 0 -0.00036529549298780148 0.010942298039493476 0 -0.00029047484692814994 0.01128198190584161 0 -0.00032494994595144548 0.010831225993707175 0 -0.00020973424129517844 0.010974080312584409 0 -0.00029047484692814994 0.01128198190584161 0 -0.00017560965568751648 0.011098185399673116 0 -0.00020973424129517844 0.010974080312584409 0 -0.0001668589419959217 0.011832804502162626 0 -0.00020973424129517844 0.010974080312584409 0 -0.0001668589419959217 0.011832804502162626 0 -0.00029047484692814994 0.01128198190584161 0 -0.00040862201564845782 0.010669240218479406 0 -0.0003591275973576643 0.010533058769742023 0 -0.00034725312522581345 0.010803709285654748 0 -0.00040862201564845782 0.010669240218479406 0 -0.00040273846224238551 0.010791016493947377 0 -0.00038812723748880617 0.010766501990865455 0 -0.00040862201564845782 0.010669240218479406 0 -0.00040273846224238551 0.010791016493947377 0 -0.00034725312522581345 0.010803709285654748 0 -0.00040273846224238551 0.010791016493947377 0 -0.00036529549298780148 0.010942298039493476 0 -0.00034725312522581345 0.010803709285654748 0 -0.00032494994595144548 0.010831225993707175 0 -0.00036529549298780148 0.010942298039493476 0 -0.00037553909286592343 0.010699876020413729 0 -0.00040273846224238551 0.010791016493947377 0 -0.00036529549298780148 0.010942298039493476 0 -0.00037553909286592343 0.010699876020413729 0 -0.00040273846224238551 0.010791016493947377 0 -0.00037553909286592343 0.010699876020413729 0 -0.00038812723748880617 0.010766501990865455 0 -0.00037553909286592343 0.010699876020413729 0 -0.00025685381508328058 0.010838194690661267 0 -0.00038812723748880617 0.010766501990865455 0 7.1665699233012866e-05 0.0095711619003514617 0 9.6505303005701678e-05 0.009098306843960997 0 3.2805412269448813e-05 0.00970109269263204 0 -0.00026279142431300998 0.01040506445301507 0 -0.00025685381508328058 0.010838194690661267 0 -0.00026279142431300998 0.01040506445301507 0 -0.00037553909286592343 0.010699876020413729 0 -0.00025685381508328058 0.010838194690661267 0 -0.00025685381508328058 0.010838194690661267 0 -0.00038812723748880617 0.010766501990865455 0 -0.00063210477560928793 0.010586448456154054 0 -0.00040862201564845782 0.010669240218479406 0 -0.00038812723748880617 0.010766501990865455 0 -0.00046513538821327932 0.010600700688046071 0 -0.00038812723748880617 0.010766501990865455 0 -0.00063210477560928793 0.010586448456154054 0 -0.00046513538821327932 0.010600700688046071 0 9.6505303005701678e-05 0.009098306843960997 0 -8.3137833107555924e-05 0.0087815322509382406 0 0.0001849519717127813 0.0071255557808189342 0 0.00020270319003582457 0.0067835534524723247 0 0.00041197696668786706 0.0068725382345106332 0 0.00056888938227660864 0.0074285597475281231 0 0.0001849519717127813 0.0071255557808189342 0 0.00041197696668786706 0.0068725382345106332 0 0.00056888938227660864 0.0074285597475281231 0 0.0001849519717127813 0.0071255557808189342 0 8.1228291138087409e-05 0.0078960205167251211 0 -2.8080666908204214e-05 0.0092771802026162167 0 0.00056888938227660864 0.0074285597475281231 0 8.1228291138087409e-05 0.0078960205167251211 0 0.0001849519717127813 0.0071255557808189342 0 8.1228291138087409e-05 0.0078960205167251211 0 8.3114518213530021e-05 0.0073072963435333437 0 0.0001849519717127813 0.0071255557808189342 0 0.00010893468481321884 0.0067528900852002411 0 0.00020270319003582457 0.0067835534524723247 0 0.0001849519717127813 0.0071255557808189342 0 8.3114518213530021e-05 0.0073072963435333437 0 0.00010893468481321884 0.0067528900852002411 0 0.00010893468481321884 0.0067528900852002411 0 0.00020270319003582457 0.0067835534524723247 0 0.00015777201205179089 0.0067507564220454326 0 -0.00017250934601991213 0.007254024765348469 0 0.00015777201205179089 0.0067507564220454326 0 6.2276366845247415e-05 0.0073032380266100181 0 0.00020270319003582457 0.0067835534524723247 0 0.00029982317296861356 0.0066799524683748192 0 0.00015777201205179089 0.0067507564220454326 0 -0.00027486609540196359 0.0081103997502684558 0 0.00035595490032097919 0.0064782292466971821 0 -0.00017250934601991213 0.007254024765348469 0 -0.00012128341496682089 0.0076594482580659715 0 6.2276366845247415e-05 0.0073032380266100181 0 -0.00013978901882332265 0.0079924089612467102 0 -6.2456620255297644e-05 0.0079715903971485699 0 -0.00012128341496682089 0.0076594482580659715 0 -0.00027486609540196359 0.0081103997502684558 0 -0.00019376744179092583 0.0075770987614114322 0 -0.00076819416323109198 0.010090848417471219 0 -0.00063210477560928793 0.010586448456154054 0 -0.00059655319066558975 0.010246964165435952 0 -0.00027486609540196359 0.0081103997502684558 0 -8.3137833107555924e-05 0.0087815322509382406 0 0.00020270319003582457 0.0067835534524723247 0 0.00029982317296861356 0.0066799524683748192 0 0.00041197696668786706 0.0068725382345106332 0 -0.00063210477560928793 0.010586448456154054 0 -0.00052555002440619533 0.010456812426512868 0 -0.00046513538821327932 0.010600700688046071 0 -0.00052555002440619533 0.010456812426512868 0 -0.00046513538821327932 0.010600700688046071 0 -0.00044739753130676647 0.010444290559490898 0 -0.00052555002440619533 0.010456812426512868 0 -0.00059655319066558975 0.010246964165435952 0 -0.00044739753130676647 0.010444290559490898 0 -0.00063210477560928793 0.010586448456154054 0 -0.00052555002440619533 0.010456812426512868 0 -0.00059655319066558975 0.010246964165435952 0 -0.00013978901882332265 0.0079924089612467102 0 -6.2456620255297644e-05 0.0079715903971485699 0 -1.6205978642837498e-05 0.0081883124124693986 0 -0.00076819416323109198 0.010090848417471219 0 -0.00059655319066558975 0.010246964165435952 0 -0.00034650445415945036 0.0098567434532883386 0 -0.00027486609540196359 0.0081103997502684558 0 -0.00019870315020603738 0.009080882070531265 0 -1.6205978642837498e-05 0.0081883124124693986 0 -2.0567500249313993e-05 0.0083769803114162635 0 7.8555548508167169e-06 0.0086363794379364211 0 -0.00019870315020603738 0.009080882070531265 0 6.0295011433541029e-05 0.0090890462180434426 0 -0.00059655319066558975 0.010246964165435952 0 -0.00034650445415945036 0.0098567434532883386 0 -0.00012758187889628513 0.0097868114153030518 0 -0.00060525651096258743 0.010226406381381555 0 -0.00027273403128544115 0.010057936835308767 0 -0.00034650445415945036 0.0098567434532883386 0 -0.00012758187889628513 0.0097868114153030518 0 -3.1252216995898624e-05 0.0095453231244342525 0 -0.00059655319066558975 0.010246964165435952 0 -0.00036391549008608226 0.010351095117753928 0 -0.00044739753130676647 0.010444290559490898 0 -0.00036391549008608226 0.010351095117753928 0 -0.00044739753130676647 0.010444290559490898 0 -0.0003591275973576643 0.010533058769742023 0 -0.00040862201564845782 0.010669240218479406 0 -0.00044739753130676647 0.010444290559490898 0 -0.0003591275973576643 0.010533058769742023 0 -0.00040862201564845782 0.010669240218479406 0 -0.00046513538821327932 0.010600700688046071 0 -0.00044739753130676647 0.010444290559490898 0 6.4917488929147498e-06 0.0058928544170397616 0 4.7328588989256847e-05 0.0064704454352167966 0 0.00015618384965304413 0.0061378999781574288 0 -0.00015990611177401509 0.0052963072060438765 0 6.4917488929147498e-06 0.0058928544170397616 0 0.00011888579077047678 0.0057084830940728271 0 -0.00015990611177401509 0.0052963072060438765 0 -0.00015930962166481414 0.0055747002118732335 0 6.4917488929147498e-06 0.0058928544170397616 0 -0.00015930962166481414 0.0055747002118732335 0 6.4917488929147498e-06 0.0058928544170397616 0 -1.8359684979400947e-05 0.0062469287433205142 0 6.4917488929147498e-06 0.0058928544170397616 0 -1.8359684979400947e-05 0.0062469287433205142 0 4.7328588989256847e-05 0.0064704454352167966 0 8.2556268450902323e-05 0.0067694798307704586 0 -1.8359684979400947e-05 0.0062469287433205142 0 4.7328588989256847e-05 0.0064704454352167966 0 8.2556268450902323e-05 0.0067694798307704586 0 8.3114518213530021e-05 0.0073072963435333437 0 4.7328588989256847e-05 0.0064704454352167966 0 0.00010893468481321884 0.0067528900852002411 0 4.7328588989256847e-05 0.0064704454352167966 0 0.00013225664132303391 0.006484949402384154 0 8.3114518213530021e-05 0.0073072963435333437 0 0.00010893468481321884 0.0067528900852002411 0 4.7328588989256847e-05 0.0064704454352167966 0 4.7328588989256847e-05 0.0064704454352167966 0 0.00013225664132303391 0.006484949402384154 0 0.00015618384965304413 0.0061378999781574288 0 0.00010893468481321884 0.0067528900852002411 0 0.00013225664132303391 0.006484949402384154 0 0.00015777201205179089 0.0067507564220454326 0 0.00013225664132303391 0.006484949402384154 0 0.00015777201205179089 0.0067507564220454326 0 0.00027829837629461668 0.006551066897965808 0 0.00013225664132303391 0.006484949402384154 0 0.00015618384965304413 0.0061378999781574288 0 0.00027829837629461668 0.006551066897965808 0 0.00027536234703446261 0.0060636800971034409 0 0.00015618384965304413 0.0061378999781574288 0 0.00011888579077047678 0.0057084830940728271 0 0.00027536234703446261 0.0060636800971034409 0 0.00015618384965304413 0.0061378999781574288 0 0.00027829837629461668 0.006551066897965808 0 6.4917488929147498e-06 0.0058928544170397616 0 0.00015618384965304413 0.0061378999781574288 0 0.00011888579077047678 0.0057084830940728271 0 0.00027536234703446261 0.0060636800971034409 0 0.00011888579077047678 0.0057084830940728271 0 0.00042769775496290951 0.0056745215187707816 0 0.00042769775496290951 0.0056745215187707816 0 0.00069621923268901225 0.0062092036365903359 0 0.00038826915541380108 0.0062925167007660014 0 0.00027536234703446261 0.0060636800971034409 0 0.00042769775496290951 0.0056745215187707816 0 0.00038826915541380108 0.0062925167007660014 0 0.00069621923268901225 0.0062092036365903359 0 0.00038826915541380108 0.0062925167007660014 0 0.00054019286629291847 0.0066026512482961165 0 0.00040740495885965177 0.0068069422086624136 0 0.00038826915541380108 0.0062925167007660014 0 0.00054019286629291847 0.0066026512482961165 0 0.00040740495885965177 0.0068069422086624136 0 0.00038826915541380108 0.0062925167007660014 0 0.00027829837629461668 0.006551066897965808 0 0.00027536234703446261 0.0060636800971034409 0 0.00038826915541380108 0.0062925167007660014 0 0.00027829837629461668 0.006551066897965808 0 0.00015777201205179089 0.0067507564220454326 0 0.00027829837629461668 0.006551066897965808 0 0.00019902058554430136 0.0073113394748528142 0 0.00027829837629461668 0.006551066897965808 0 0.00032854704622327585 0.0070194536275223597 0 0.00019902058554430136 0.0073113394748528142 0 0.00032854704622327585 0.0070194536275223597 0 0.00019902058554430136 0.0073113394748528142 0 0.00026460148004288977 0.0076630426900373624 0 0.00040740495885965177 0.0068069422086624136 0 0.00027829837629461668 0.006551066897965808 0 0.00032854704622327585 0.0070194536275223597 0 0.00040740495885965177 0.0068069422086624136 0 0.00032854704622327585 0.0070194536275223597 0 0.00047642979702005635 0.0072469974353783859 0 0.00047642979702005635 0.0072469974353783859 0 0.0004956322406217328 0.0070173446134136315 0 0.00047307571499146848 0.0068826592532580484 0 0.00032854704622327585 0.0070194536275223597 0 0.00047642979702005635 0.0072469974353783859 0 0.00026460148004288977 0.0076630426900373624 0 0.00047642979702005635 0.0072469974353783859 0 0.00043050071197854736 0.0081207621756448963 0 0.00026460148004288977 0.0076630426900373624 0 0.00049329622384446179 0.0073053229643154282 0 0.00053416727333322216 0.0075491214697970509 0 0.00047642979702005635 0.0072469974353783859 0 0.00065404653080505858 0.0070089027109004219 0 0.0004956322406217328 0.0070173446134136315 0 0.0004956322406217328 0.0070173446134136315 0 0.0005177455691575849 0.006999549130335782 0 0.00056176535364671075 0.0069231561851658737 0 0.0004956322406217328 0.0070173446134136315 0 0.00056176535364671075 0.0069231561851658737 0 0.00047307571499146848 0.0068826592532580484 0 0.0005177455691575849 0.006999549130335782 0 0.00056176535364671075 0.0069231561851658737 0 0.00088488206084643176 0.0070087231768807346 0 0.00056176535364671075 0.0069231561851658737 0 0.00072489327037796166 0.0066571499481472571 0 0.00088488206084643176 0.0070087231768807346 0 0.00056176535364671075 0.0069231561851658737 0 0.00072489327037796166 0.0066571499481472571 0 0.00047307571499146848 0.0068826592532580484 0 0.00069621923268901225 0.0062092036365903359 0 0.00054019286629291847 0.0066026512482961165 0 0.00072489327037796166 0.0066571499481472571 0 0.00054019286629291847 0.0066026512482961165 0 0.00072489327037796166 0.0066571499481472571 0 0.00047307571499146848 0.0068826592532580484 0 0.00040740495885965177 0.0068069422086624136 0 0.00054019286629291847 0.0066026512482961165 0 0.00047307571499146848 0.0068826592532580484 0 0.00040740495885965177 0.0068069422086624136 0 0.00047642979702005635 0.0072469974353783859 0 0.00047307571499146848 0.0068826592532580484 0 -3.5775691565784885e-05 0.0083600184445348016 0 -9.4874830466384029e-05 0.0082836469279997764 0 4.3272239194986783e-05 0.008565704703293717 0 -3.5775691565784885e-05 0.0083600184445348016 0 -5.3147159206985863e-05 0.0080950246204113483 0 -9.4874830466384029e-05 0.0082836469279997764 0 -3.5775691565784885e-05 0.0083600184445348016 0 -2.0567500249313993e-05 0.0083769803114162635 0 1.3048399252611009e-05 0.008562868163862411 0 -1.6205978642837498e-05 0.0081883124124693986 0 -2.0567500249313993e-05 0.0083769803114162635 0 -5.3147159206985863e-05 0.0080950246204113483 0 -3.5775691565784885e-05 0.0083600184445348016 0 -2.0567500249313993e-05 0.0083769803114162635 0 -5.3147159206985863e-05 0.0080950246204113483 0 -5.3147159206985863e-05 0.0080950246204113483 0 -3.4610052858328753e-05 0.0079272780099342525 0 -0.00012128341496682089 0.0076594482580659715 0 -6.2456620255297644e-05 0.0079715903971485699 0 -5.3147159206985863e-05 0.0080950246204113483 0 -0.00012128341496682089 0.0076594482580659715 0 -6.2456620255297644e-05 0.0079715903971485699 0 -1.6205978642837498e-05 0.0081883124124693986 0 -5.3147159206985863e-05 0.0080950246204113483 0 -3.4610052858328753e-05 0.0079272780099342525 0 0.00011403242954458199 0.0080889488947767495 0 -9.4874830466384029e-05 0.0082836469279997764 0 -5.3147159206985863e-05 0.0080950246204113483 0 -3.4610052858328753e-05 0.0079272780099342525 0 -9.4874830466384029e-05 0.0082836469279997764 0 -3.4610052858328753e-05 0.0079272780099342525 0 4.0438646141036022e-05 0.0076554161890517568 0 0.00011403242954458199 0.0080889488947767495 0 -3.4610052858328753e-05 0.0079272780099342525 0 -0.00012128341496682089 0.0076594482580659715 0 4.0438646141036022e-05 0.0076554161890517568 0 -0.00012128341496682089 0.0076594482580659715 0 4.0438646141036022e-05 0.0076554161890517568 0 6.2276366845247415e-05 0.0073032380266100181 0 0.00015777201205179089 0.0067507564220454326 0 6.2276366845247415e-05 0.0073032380266100181 0 0.00019902058554430136 0.0073113394748528142 0 4.0438646141036022e-05 0.0076554161890517568 0 6.2276366845247415e-05 0.0073032380266100181 0 0.00019902058554430136 0.0073113394748528142 0 4.0438646141036022e-05 0.0076554161890517568 0 0.00019902058554430136 0.0073113394748528142 0 0.00011403242954458199 0.0080889488947767495 0 0.00019902058554430136 0.0073113394748528142 0 0.00026460148004288977 0.0076630426900373624 0 0.00011403242954458199 0.0080889488947767495 0 0.00026460148004288977 0.0076630426900373624 0 0.00023364870887967532 0.0081995787040567789 0 0.00011403242954458199 0.0080889488947767495 0 0.00043050071197854736 0.0081207621756448963 0 0.00026460148004288977 0.0076630426900373624 0 0.00023364870887967532 0.0081995787040567789 0 0.00023364870887967532 0.0081995787040567789 0 0.00043244518246432083 0.0085316458041018051 0 0.00034084601224984091 0.0083945175571683416 0 0.00023364870887967532 0.0081995787040567789 0 0.00011403242954458199 0.0080889488947767495 0 0.00043244518246432083 0.0085316458041018051 0 0.00015381307169346907 0.0081699600630839708 0 0.00028492735766421436 0.0085374982668856257 0 0.00011403242954458199 0.0080889488947767495 0 0.00043244518246432083 0.0085316458041018051 0 0.00062950307459130959 0.0088444616001027484 0 0.00043244518246432083 0.0085316458041018051 0 0.00072375046918536656 0.0087266933402715581 0 0.00087328035207481032 0.0088969173222190959 0 0.00043244518246432083 0.0085316458041018051 0 0.00062950307459130959 0.0088444616001027484 0 0.00087328035207481032 0.0088969173222190959 0 0.00076245048412538086 0.0082960765419138691 0 0.00063474539125950389 0.0084855806494906951 0 0.0010968140367693194 0.0089407444143064559 0 0.00068281644073598703 0.0083766946802826814 0 0.00063474539125950389 0.0084855806494906951 0 0.00056335284606316455 0.0083846152563751847 0 0.00068281644073598703 0.0083766946802826814 0 0.00056335284606316455 0.0083846152563751847 0 0.00053636206334407269 0.0082659637000188756 0 0.0014625929008704433 0.008939471554385332 0 0.0011174424034795587 0.0087254848990470351 0 0.0014625929008704433 0.008939471554385332 0 0.0010247940386217691 0.0088236415698153964 0 0.00063474539125950389 0.0084855806494906951 0 0.00072375046918536656 0.0087266933402715581 0 0.0010968140367693194 0.0089407444143064559 0 0.00072375046918536656 0.0087266933402715581 0 0.00087328035207481032 0.0088969173222190959 0 0.0010968140367693194 0.0089407444143064559 0 0.00063474539125950389 0.0084855806494906951 0 0.00072375046918536656 0.0087266933402715581 0 0.00047484853824939963 0.0085110475130311027 0 0.00043244518246432083 0.0085316458041018051 0 0.00047484853824939963 0.0085110475130311027 0 0.00034084601224984091 0.0083945175571683416 0 0.00043244518246432083 0.0085316458041018051 0 0.00072375046918536656 0.0087266933402715581 0 0.00047484853824939963 0.0085110475130311027 0 0.00047484853824939963 0.0085110475130311027 0 0.00050445794219842587 0.0084450823141283375 0 0.00036203444612537607 0.0083932220218058285 0 0.00047484853824939963 0.0085110475130311027 0 0.00036203444612537607 0.0083932220218058285 0 0.00034084601224984091 0.0083945175571683416 0 0.00047698901428150863 0.0083631691503509731 0 0.00036203444612537607 0.0083932220218058285 0 0.00042008927404098788 0.0083103574731994839 0 0.00050445794219842587 0.0084450823141283375 0 0.00047698901428150863 0.0083631691503509731 0 0.00036203444612537607 0.0083932220218058285 0 0.00063474539125950389 0.0084855806494906951 0 0.00050445794219842587 0.0084450823141283375 0 0.00056335284606316455 0.0083846152563751847 0 0.00063474539125950389 0.0084855806494906951 0 0.00047484853824939963 0.0085110475130311027 0 0.00050445794219842587 0.0084450823141283375 0 0.00050445794219842587 0.0084450823141283375 0 0.00056335284606316455 0.0083846152563751847 0 0.00047698901428150863 0.0083631691503509731 0 0.00056335284606316455 0.0083846152563751847 0 0.00047698901428150863 0.0083631691503509731 0 0.00053636206334407269 0.0082659637000188756 0 0.00037068745394435088 0.0084218507005134075 0 0.00046272347913161514 0.0082478475611829551 0 0.00035066289159794794 0.0083754814679442725 0 0.00036203444612537607 0.0083932220218058285 0 0.00037400572253142489 0.0083691014573918105 0 0.00035066289159794794 0.0083754814679442725 0 0.00036203444612537607 0.0083932220218058285 0 0.00031100162346045344 0.0083299546411091455 0 0.00023364870887967532 0.0081995787040567789 0 0.00034084601224984091 0.0083945175571683416 0 0.00031100162346045344 0.0083299546411091455 0 0.00036203444612537607 0.0083932220218058285 0 0.00034084601224984091 0.0083945175571683416 0 0.00031100162346045344 0.0083299546411091455 0 0.00043050071197854736 0.0081207621756448963 0 0.00031100162346045344 0.0083299546411091455 0 0.00036292580848287922 0.0083758250338833891 0 0.00043050071197854736 0.0081207621756448963 0 0.00023364870887967532 0.0081995787040567789 0 0.00031100162346045344 0.0083299546411091455 0 0.00035066289159794794 0.0083754814679442725 0 0.00036292580848287922 0.0083758250338833891 0 0.00036317836019058761 0.0083603164503280245 0 0.00035066289159794794 0.0083754814679442725 0 0.00031100162346045344 0.0083299546411091455 0 0.00036292580848287922 0.0083758250338833891 0 0.00064970537384923086 0.0069827178530777866 0 0.00064873176380975345 0.0069736506111108309 0 0.00063845273221177609 0.0069819335342858604 0 0.00064970537384923086 0.0069827178530777866 0 0.00064873176380975345 0.0069736506111108309 0 0.00066445645179330688 0.0069772570948487571 0 0.0010465583124755025 0.0066842126028723997 0 0.0012122668491179852 0.0077365319988169411 0 0.00041477739947041407 0.0076972089995750361 0 0.0012122668491179852 0.0077365319988169411 0 0.0013789421810380066 0.0065274835954858895 0 0.0013573691164961044 0.0066013256332449486 0 0.0013838523420223285 0.006581232156281246 0 0.0039370309499038893 0.0096167742582996575 0 0.0039235323764469799 0.0071474577038542911 0 0.0061867078628037872 0.0095857614790765284 0 0.0068811477481700248 0.0080548625454135159 0 0.0071540930350274005 0.0090184501600231587 0 0.0061867078628037872 0.0095857614790765284 0 0.0042468692617725129 0.0092822907175013382 0 0.0068811477481700248 0.0080548625454135159 0 0.0013670777887286446 0.0066505089216962153 0 0.0013573691164961044 0.0066013256332449486 0 0.0013838523420223285 0.006581232156281246 0 0.0033803281882814219 0.0091845800996490194 0 0.0012122668491179852 0.0077365319988169411 0 0.0013670777887286446 0.0066505089216962153 0 0.0013628021405369093 0.0066473178587125974 0 0.0013573691164961044 0.0066013256332449486 0 0.0041615221760809874 0.010314036417357984 0 0.0039370309499038893 0.0096167742582996575 0 0.0041615221760809874 0.010314036417357984 0 0.0033803281882814219 0.0091845800996490194 0 0.0040456181335204342 0.0097401335980390521 0 0.0035968404223475697 0.0099737330140604961 0 0.0037963894985716816 0.010172895768803541 0 0.0039370309499038893 0.0096167742582996575 0 0.0033803281882814219 0.0091845800996490194 0 0.0038363763981340616 0.010673856650259205 0 0.0039181797091407244 0.010526576792241744 0 0.003739969183269153 0.010538480825042809 0 0.0039181797091407244 0.010526576792241744 0 0.003739969183269153 0.010538480825042809 0 0.0037321885523061977 0.010453987474638575 0 0.0038363763981340616 0.010673856650259205 0 0.003739969183269153 0.010538480825042809 0 0.0035699898544190155 0.010521364937044499 0 0.003739969183269153 0.010538480825042809 0 0.0037321885523061977 0.010453987474638575 0 0.0036466870809241901 0.010496218057574204 0 0.0022773001638502622 0.0086788490590643027 0 0.0022961378038315731 0.0086990437434629718 0 0.0022440179498495012 0.00871923782649516 0 0.0037321885523061977 0.010453987474638575 0 0.003664934492837365 0.010407390104628262 0 0.0036466870809241901 0.010496218057574204 0 0.00038901767115410849 0.0083522416428261845 0 0.00036317836019058761 0.0083603164503280245 0 0.00039086038177610924 0.0083552342812826426 0 0.0033803281882814219 0.0091845800996490194 0 0.0023204111064544569 0.0093881028888722039 0 0.0023204111064544569 0.0093881028888722039 0 0.0012122668491179852 0.0077365319988169411 0 0.0037321885523061977 0.010453987474638575 0 0.0036911718691414065 0.010301518076488934 0 0.003664934492837365 0.010407390104628262 0 0.0039181797091407244 0.010526576792241744 0 0.0037321885523061977 0.010453987474638575 0 0.0036911718691414065 0.010301518076488934 0 0.00035066289159794794 0.0083754814679442725 0 0.00036317836019058761 0.0083603164503280245 0 0.00037400572253142489 0.0083691014573918105 0 0.00036317836019058761 0.0083603164503280245 0 0.00037400572253142489 0.0083691014573918105 0 0.00039086038177610924 0.0083552342812826426 0 0.00046272347913161514 0.0082478475611829551 0 0.0020094487077276955 0.0091726909460499145 0 0.00042008927404098788 0.0083103574731994839 0 0.00053636206334407269 0.0082659637000188756 0 0.00045575596806310956 0.0081923096760897884 0 0.00047698901428150863 0.0083631691503509731 0 0.00042008927404098788 0.0083103574731994839 0 0.00053636206334407269 0.0082659637000188756 0 0.002812217727038567 0.0097884042721632699 0 0.0028132336925724222 0.010075840427520182 0 0.0025931299324640543 0.0098894631383866574 0 0.002812217727038567 0.0097884042721632699 0 0.0030874363238010643 0.010064762972109648 0 0.0028132336925724222 0.010075840427520182 0 0.0016695075264014378 0.0090176468386581818 0 0.0020094487077276955 0.0091726909460499145 0 0.0030874363238010643 0.010064762972109648 0 0.003075727355040709 0.010147361678987655 0 0.0028132336925724222 0.010075840427520182 0 0.0020094487077276955 0.0091726909460499145 0 0.0028215660884865499 0.0099547159717990989 0 0.0024619944101335412 0.0096460444929727246 0 0.002560905014606017 0.0097445065403367302 0 0.0025880417333637401 0.0095763255881238709 0 0.0023204111064544569 0.0093881028888722039 0 0.0020094487077276955 0.0091726909460499145 0 0.0023204111064544569 0.0093881028888722039 0 0.0028215660884865499 0.0099547159717990989 0 0.0036911718691414065 0.010301518076488934 0 0.003592494280268508 0.010357736011515016 0 0.003664934492837365 0.010407390104628262 0 0.0028215660884865499 0.0099547159717990989 0 0.0039547429675867605 0.011421896020759631 0 0.003592494280268508 0.010357736011515016 0 0.0036466870809241901 0.010496218057574204 0 0.0035689730527810287 0.010521110396448763 0 0.003592494280268508 0.010357736011515016 0 0.003664934492837365 0.010407390104628262 0 0.0036466870809241901 0.010496218057574204 0 0.003739969183269153 0.010538480825042809 0 0.0036466870809241901 0.010496218057574204 0 0.0035699898544190155 0.010521364937044499 0 0.0053524065029052631 0.0131257248595092 0 0.0052651680701858179 0.013170309342418928 0 0.0053487232360801508 0.013182158247724941 0 0.003463791499940758 0.011214618800946305 0 0.0034812785877118332 0.011114634508992659 0 0.0038619295868990594 0.011011800138511808 0 0.0039376405776212721 0.011389110864589692 0 0.0039547429675867605 0.011421896020759631 0 0.0038363763981340616 0.010673856650259205 0 0.0035699898544190155 0.010521364937044499 0 0.0035234937434661614 0.010845157217980949 0 0.0039547429675867605 0.011421896020759631 0 0.0047055603634659389 0.012135699432917653 0 0.0041615221760809874 0.010314036417357984 0 0.0047055603634659389 0.012135699432917653 0 0.0028215660884865499 0.0099547159717990989 0 0.0042403621886657515 0.011918936734520637 0 0.0039547429675867605 0.011421896020759631 0 0.0042403621886657515 0.011918936734520637 0 0.003075727355040709 0.010147361678987655 0 0.0028132336925724222 0.010075840427520182 0 0.0027112722205459854 0.010363475172139709 0 0.0028132336925724222 0.010075840427520182 0 0.0027112722205459854 0.010363475172139709 0 0.0025129370166415148 0.010163798798207556 0 0.0025845939415832962 0.010404855847161229 0 0.0025129370166415148 0.010163798798207556 0 0.002060956624801115 0.010305909707632656 0 0.0028132336925724222 0.010075840427520182 0 0.0025129370166415148 0.010163798798207556 0 0.0025931299324640543 0.0098894631383866574 0 0.0025845939415832962 0.010404855847161229 0 0.0027112722205459854 0.010363475172139709 0 0.0025129370166415148 0.010163798798207556 0 0.0038102357156022848 0.012072104831768826 0 0.0042403621886657515 0.011918936734520637 0 0.0025129370166415148 0.010163798798207556 0 0.0025931299324640543 0.0098894631383866574 0 0.0022951153710696324 0.0099080080761489442 0 0.0025311558513033401 0.0095086826935994653 0 0.002812217727038567 0.0097884042721632699 0 0.0025931299324640543 0.0098894631383866574 0 0.0014625929008704433 0.008939471554385332 0 0.0016695075264014378 0.0090176468386581818 0 0.0014625929008704433 0.008939471554385332 0 0.0018231111827014302 0.0097273780408688604 0 0.0025311558513033401 0.0095086826935994653 0 0.0025931299324640543 0.0098894631383866574 0 0.0022951153710696324 0.0099080080761489442 0 0.0020829703261274033 0.0060599932031151693 0 0.0021184479208264328 0.0058390076078419211 0 0.0013861333594471816 0.0064469125464868922 0 0.00044261889315551383 0.0070389054676795 0 0.00071183673060630232 0.0069248652671952968 0 0.0013861333594471816 0.0064469125464868922 0 0.0041523897463646396 0.006447416589110886 0 0.0049619887160599193 0.0072405039943153129 0 0.0020829703261274033 0.0060599932031151693 0 0.0022936870632905121 0.0061053785097680774 0 0.001522104739721052 0.0065392470793141392 0 0.0077137850963964472 0.0080913389549636394 0 0.0081091536020020394 0.0077866230592235743 0 0.0078912897600828293 0.0078409803160062498 0 0.0025502108419940216 0.0061060445985940785 0 0.0041523897463646396 0.006447416589110886 0 0.0020829703261274033 0.0060599932031151693 0 0.0021720226632660961 0.0059777261869384275 0 0.0021484080748829012 0.0059297958757918538 0 0.0077137850963964472 0.0080913389549636394 0 0.0078912897600828293 0.0078409803160062498 0 0.0077265783014726086 0.0078658003082416779 0 0.0077137850963964472 0.0080913389549636394 0 0.0074897308874599415 0.0077770865439582663 0 0.0077265783014726086 0.0078658003082416779 0 0.0077137850963964472 0.0080913389549636394 0 0.0074897308874599415 0.0077770865439582663 0 0.0071018528380257561 0.0078940191428320938 0 0.0041523897463646396 0.006447416589110886 0 0.004803864367701592 0.0068767839170505813 0 0.0023055877671996831 0.0057878852819231762 0 0.0021991719341326581 0.0058299931228831987 0 0.0021021903799001832 0.0057021829954517905 0 0.0021720226632660961 0.0059777261869384275 0 0.0021736614396971627 0.0058539984074147565 0 0.0021484080748829012 0.0059297958757918538 0 0.0041523897463646396 0.006447416589110886 0 0.0020661005528243761 0.0062774665163262758 0 0.0021720226632660961 0.0059777261869384275 0 0.0021736614396971627 0.0058539984074147565 0 0.0021991719341326581 0.0058299931228831987 0 0.0021736614396971627 0.0058539984074147565 0 0.0021991719341326581 0.0058299931228831987 0 0.0021962484165754044 0.0058644696848094459 0 0.0013032715510456836 0.0064487060842469413 0 0.0015296616976826338 0.0064124426732834229 0 0.0021736614396971627 0.0058539984074147565 0 0.0021184479208264328 0.0058390076078419211 0 0.0021484080748829012 0.0059297958757918538 0 0.0005177455691575849 0.006999549130335782 0 0.00044261889315551383 0.0070389054676795 0 0.00088488206084643176 0.0070087231768807346 0 0.0021736614396971627 0.0058539984074147565 0 0.0021184479208264328 0.0058390076078419211 0 0.0021962484165754044 0.0058644696848094459 0 0.0005177455691575849 0.006999549130335782 0 0.00044261889315551383 0.0070389054676795 0 0.00059232839092373168 0.0070015685185120498 0 0.0020829703261274033 0.0060599932031151693 0 0.0021184479208264328 0.0058390076078419211 0 0.0021484080748829012 0.0059297958757918538 0 0.00044261889315551383 0.0070389054676795 0 0.00071183673060630232 0.0069248652671952968 0 0.00059232839092373168 0.0070015685185120498 0 0.0004956322406217328 0.0070173446134136315 0 0.0005177455691575849 0.006999549130335782 0 0.00059232839092373168 0.0070015685185120498 0 0.00065404653080505858 0.0070089027109004219 0 0.0004956322406217328 0.0070173446134136315 0 0.00060766636194650248 0.0069763127444194325 0 0.0004956322406217328 0.0070173446134136315 0 0.00059232839092373168 0.0070015685185120498 0 0.00060766636194650248 0.0069763127444194325 0 0.00060766636194650248 0.0069763127444194325 0 0.00062615162039871366 0.0069661286408809284 0 0.00063390370047396291 0.0069783564134649799 0 0.00060766636194650248 0.0069763127444194325 0 0.00062615162039871366 0.0069661286408809284 0 0.00064538148450405427 0.0069498665397385775 0 0.00071183673060630232 0.0069248652671952968 0 0.00059232839092373168 0.0070015685185120498 0 0.00064538148450405427 0.0069498665397385775 0 0.00059232839092373168 0.0070015685185120498 0 0.00060766636194650248 0.0069763127444194325 0 0.00064538148450405427 0.0069498665397385775 0 0.00065404653080505858 0.0070089027109004219 0 0.00064970537384923086 0.0069827178530777866 0 0.00063390370047396291 0.0069783564134649799 0 0.00053416727333322216 0.0075491214697970509 0 0.00041477739947041407 0.0076972089995750361 0 0.00065404653080505858 0.0070089027109004219 0 0.00060766636194650248 0.0069763127444194325 0 0.00063390370047396291 0.0069783564134649799 0 0.0010465583124755025 0.0066842126028723997 0 0.00097984011111403274 0.0067693300078100951 0 0.00064873176380975345 0.0069736506111108309 0 0.00063845273221177609 0.0069819335342858604 0 0.00062101891681189049 0.0069868259530032843 0 0.0013789421810380066 0.0065274835954858895 0 0.0013861333594471816 0.0064469125464868922 0 0.0013945424517022654 0.0065115223922606108 0 0.00064970537384923086 0.0069827178530777866 0 0.00063390370047396291 0.0069783564134649799 0 0.00063845273221177609 0.0069819335342858604 0 0.00063390370047396291 0.0069783564134649799 0 0.00063845273221177609 0.0069819335342858604 0 0.00062101891681189049 0.0069868259530032843 0 0.00071183673060630232 0.0069248652671952968 0 0.00064538148450405427 0.0069498665397385775 0 0.00062101891681189049 0.0069868259530032843 0 0.0013032715510456836 0.0064487060842469413 0 0.0013758185160918325 0.0064357217632939091 0 0.0020829703261274033 0.0060599932031151693 0 0.0013861333594471816 0.0064469125464868922 0 0.001522104739721052 0.0065392470793141392 0 0.00071183673060630232 0.0069248652671952968 0 0.0013861333594471816 0.0064469125464868922 0 0.0013945424517022654 0.0065115223922606108 0 0.00074403046230555182 0.0069036721720584088 0 0.00097984011111403274 0.0067693300078100951 0 0.00062615162039871366 0.0069661286408809284 0 0.00063390370047396291 0.0069783564134649799 0 0.00062101891681189049 0.0069868259530032843 0 0.00062615162039871366 0.0069661286408809284 0 0.00064538148450405427 0.0069498665397385775 0 0.00062101891681189049 0.0069868259530032843 0 0.0081091536020020394 0.0077866230592235743 0 0.0080347307317142781 0.0079146764243318932 0 0.0078912897600828293 0.0078409803160062498 0 0.0081091536020020394 0.0077866230592235743 0 0.0079141003376018305 0.008070864873752949 0 0.0080347307317142781 0.0079146764243318932 0 0.0013861333594471816 0.0064469125464868922 0 0.001522104739721052 0.0065392470793141392 0 0.0013838523420223285 0.006581232156281246 0 0.0049619887160599193 0.0072405039943153129 0 0.0039235323764469799 0.0071474577038542911 0 0.0013789421810380066 0.0065274835954858895 0 0.0013861333594471816 0.0064469125464868922 0 0.0013838523420223285 0.006581232156281246 0 0.0081091536020020394 0.0077866230592235743 0 0.0079141003376018305 0.008070864873752949 0 0.0068811477481700248 0.0080548625454135159 0 0.0080611135787050699 0.0083637164898477355 0 0.00861339395581915 0.010372924315946176 0 0.0074496460605090386 0.010180176384542146 0 0.0079141003376018305 0.008070864873752949 0 0.0068811477481700248 0.0080548625454135159 0 0.0080611135787050699 0.0083637164898477355 0 0.0068811477481700248 0.0080548625454135159 0 0.0071540930350274005 0.0090184501600231587 0 0.0080611135787050699 0.0083637164898477355 0 0.0071540930350274005 0.0090184501600231587 0 0.0080611135787050699 0.0083637164898477355 0 0.0074496460605090386 0.010180176384542146 0 0.0061867078628037872 0.0095857614790765284 0 0.0071540930350274005 0.0090184501600231587 0 0.0074496460605090386 0.010180176384542146 0 0.0080347307317142781 0.0079146764243318932 0 0.0080611135787050699 0.0083637164898477355 0 0.0080105888477608935 0.0076022733558087337 0 0.0080611135787050699 0.0083637164898477355 0 0.009711213805231194 0.0095651923966358805 0 0.00861339395581915 0.010372924315946176 0 0.0079141003376018305 0.008070864873752949 0 0.0080347307317142781 0.0079146764243318932 0 0.0080611135787050699 0.0083637164898477355 0 0.0081227737330921961 0.0082905190120452429 0 0.0088901667574373937 0.008648221348614862 0 0.0080347307317142781 0.0079146764243318932 0 0.0077431158747029534 0.0075154940122373805 0 0.0077582033649343249 0.0077324563867222978 0 0.0080347307317142781 0.0079146764243318932 0 0.0080105888477608935 0.0076022733558087337 0 0.0077431158747029534 0.0075154940122373805 0 0.0080347307317142781 0.0079146764243318932 0 0.0077582033649343249 0.0077324563867222978 0 0.0078912897600828293 0.0078409803160062498 0 0.0077582033649343249 0.0077324563867222978 0 0.0078912897600828293 0.0078409803160062498 0 0.0077265783014726086 0.0078658003082416779 0 0.0077582033649343249 0.0077324563867222978 0 0.0074897308874599415 0.0077770865439582663 0 0.0077265783014726086 0.0078658003082416779 0 0.0077582033649343249 0.0077324563867222978 0 0.0074897308874599415 0.0077770865439582663 0 0.0075054776923614225 0.0075255713094089551 0 0.0074897308874599415 0.0077770865439582663 0 0.0075054776923614225 0.0075255713094089551 0 0.0071781916619086672 0.007438814475735394 0 0.0077431158747029534 0.0075154940122373805 0 0.0075054776923614225 0.0075255713094089551 0 0.0073189163759590156 0.0071580748742655909 0 0.0077431158747029534 0.0075154940122373805 0 0.0077582033649343249 0.0077324563867222978 0 0.0075054776923614225 0.0075255713094089551 0 0.0067647991458738791 0.0069915559253517978 0 0.0071781916619086672 0.007438814475735394 0 0.0073189163759590156 0.0071580748742655909 0 0.0075054776923614225 0.0075255713094089551 0 0.0071781916619086672 0.007438814475735394 0 0.0073189163759590156 0.0071580748742655909 0 0.0067239946886202386 0.0066378627684568056 0 0.0073248184716487247 0.0063760788390629861 0 0.0067647991458738791 0.0069915559253517978 0 0.0067666980838219639 0.0074196447507323586 0 0.0071781916619086672 0.007438814475735394 0 0.0067666980838219639 0.0074196447507323586 0 0.0071018528380257561 0.0078940191428320938 0 0.0062165986161827926 0.0074841842039192977 0 0.0067647991458738791 0.0069915559253517978 0 0.0067666980838219639 0.0074196447507323586 0 0.0059925802654687615 0.0067204233639718272 0 0.0074897308874599415 0.0077770865439582663 0 0.0071781916619086672 0.007438814475735394 0 0.0071018528380257561 0.0078940191428320938 0 0.0067666980838219639 0.0074196447507323586 0 0.0071781916619086672 0.007438814475735394 0 0.0071018528380257561 0.0078940191428320938 0 0.0021991719341326581 0.0058299931228831987 0 0.0021021903799001832 0.0057021829954517905 0 0.0021360593207139316 0.0057953272155760209 0 0.004803864367701592 0.0068767839170505813 0 0.0040715647466336106 0.0065629919960111024 0 0.0021021903799001832 0.0057021829954517905 0 0.0020053217875357385 0.005709350996369135 0 0.0019930319386322992 0.005678131401392921 0 0.0021021903799001832 0.0057021829954517905 0 0.0020053217875357385 0.005709350996369135 0 0.0020384327504436913 0.0057706445398666081 0 0.0020053217875357385 0.005709350996369135 0 0.0020384327504436913 0.0057706445398666081 0 0.0019328920823937239 0.0057525151185362873 0 0.0020384327504436913 0.0057706445398666081 0 0.0019328920823937239 0.0057525151185362873 0 0.0019402070098030893 0.0058601845567758009 0 0.0021991719341326581 0.0058299931228831987 0 0.0021360593207139316 0.0057953272155760209 0 0.0021962484165754044 0.0058644696848094459 0 0.0021021903799001832 0.0057021829954517905 0 0.0020384327504436913 0.0057706445398666081 0 0.0021360593207139316 0.0057953272155760209 0 0.0020384327504436913 0.0057706445398666081 0 0.0021360593207139316 0.0057953272155760209 0 0.0021962484165754044 0.0058644696848094459 0 0.0019750890850836911 0.0056687639082999685 0 0.0020205156276109767 0.0056373664847659526 0 0.002042551265430805 0.0055840512965804022 0 0.0019750890850836911 0.0056687639082999685 0 0.0019782282076102192 0.0056846009500639049 0 0.0020205156276109767 0.0056373664847659526 0 0.0020053217875357385 0.005709350996369135 0 0.0019328920823937239 0.0057525151185362873 0 0.0019782282076102192 0.0056846009500639049 0 0.0019750890850836911 0.0056687639082999685 0 0.0019328920823937239 0.0057525151185362873 0 0.0019782282076102192 0.0056846009500639049 0 0.0019782282076102192 0.0056846009500639049 0 0.0020205156276109767 0.0056373664847659526 0 0.0019930319386322992 0.005678131401392921 0 0.0020053217875357385 0.005709350996369135 0 0.0019782282076102192 0.0056846009500639049 0 0.0019930319386322992 0.005678131401392921 0 0.0020205156276109767 0.0056373664847659526 0 0.0019930319386322992 0.005678131401392921 0 0.0021026062885955051 0.0056614217723488054 0 0.0040715647466336106 0.0065629919960111024 0 0.0036012572914927298 0.0062758885983662371 0 0.0062165986161827926 0.0074841842039192977 0 0.0059925802654687615 0.0067204233639718272 0 0.0050466553712903107 0.0068859401464361229 0 0.0067666980838219639 0.0074196447507323586 0 0.0062165986161827926 0.0074841842039192977 0 0.0059925802654687615 0.0067204233639718272 0 0.0067757676882663521 0.0062310423635658484 0 0.0059925802654687615 0.0067204233639718272 0 0.0059303263894825899 0.0057385708016358429 0 0.0067239946886202386 0.0066378627684568056 0 0.0060289648888653697 0.0067550338298263497 0 0.0059925802654687615 0.0067204233639718272 0 0.0051105507020004926 0.0060232524330418842 0 0.0050466553712903107 0.0068859401464361229 0 0.0059925802654687615 0.0067204233639718272 0 0.0051105507020004926 0.0060232524330418842 0 0.0059303263894825899 0.0057385708016358429 0 0.0051105507020004926 0.0060232524330418842 0 0.0039000415185049446 0.0061983444580987895 0 0.0045847324391349179 0.0054017548573666247 0 0.0039000415185049446 0.0061983444580987895 0 0.0038512303345050896 0.0051129038553116126 0 0.0045847324391349179 0.0054017548573666247 0 0.0023879035064193594 0.0055815553910728635 0 0.0021026062885955051 0.0056614217723488054 0 0.0022701750668120543 0.0054893690710206668 0 0.0023879035064193594 0.0055815553910728635 0 0.0024863890705846157 0.0053897694537362196 0 0.0022701750668120543 0.0054893690710206668 0 0.0051105507020004926 0.0060232524330418842 0 0.0039000415185049446 0.0061983444580987895 0 0.0050466553712903107 0.0068859401464361229 0 0.0031582179372249804 0.0058661739187914202 0 0.0036012572914927298 0.0062758885983662371 0 0.0028148241091030513 0.0048930012324641592 0 0.0028823765795561785 0.0053492153989305241 0 0.0030811614464668659 0.0047130337387797728 0 0.0031582179372249804 0.0058661739187914202 0 0.0028948431302800513 0.0054406652456475474 0 0.0039000415185049446 0.0061983444580987895 0 0.0028823765795561785 0.0053492153989305241 0 0.0038512303345050896 0.0051129038553116126 0 0.0023879035064193594 0.0055815553910728635 0 0.0028823765795561785 0.0053492153989305241 0 0.0024863890705846157 0.0053897694537362196 0 0.0028823765795561785 0.0053492153989305241 0 0.0026725470738355782 0.0052353195355040946 0 0.0024863890705846157 0.0053897694537362196 0 0.0024863890705846157 0.0053897694537362196 0 0.0023842088622211054 0.0053604381723673846 0 0.0022701750668120543 0.0054893690710206668 0 0.0026725470738355782 0.0052353195355040946 0 0.0024863890705846157 0.0053897694537362196 0 0.0023842088622211054 0.0053604381723673846 0 0.0023842088622211054 0.0053604381723673846 0 0.0025032365997169309 0.0052675550538875352 0 0.0023702403400419282 0.0052817183336998901 0 0.0026725470738355782 0.0052353195355040946 0 0.0023842088622211054 0.0053604381723673846 0 0.0025032365997169309 0.0052675550538875352 0 0.0026223599570511578 0.0052101267278899842 0 0.0026725470738355782 0.0052353195355040946 0 0.0025032365997169309 0.0052675550538875352 0 0.0026223599570511578 0.0052101267278899842 0 0.0025032365997169309 0.0052675550538875352 0 0.0024989061281832869 0.005229540307566968 0 0.0021026062885955051 0.0056614217723488054 0 0.0021164367312748521 0.0055572689152941415 0 0.0022701750668120543 0.0054893690710206668 0 0.0020205156276109767 0.0056373664847659526 0 0.0021026062885955051 0.0056614217723488054 0 0.0021164367312748521 0.0055572689152941415 0 0.0023842088622211054 0.0053604381723673846 0 0.0022701750668120543 0.0054893690710206668 0 0.002173734333490935 0.0054647635524405838 0 0.0023842088622211054 0.0053604381723673846 0 0.002173734333490935 0.0054647635524405838 0 0.0022631184621143118 0.0053615476810474402 0 0.0021164367312748521 0.0055572689152941415 0 0.0022701750668120543 0.0054893690710206668 0 0.002173734333490935 0.0054647635524405838 0 0.0021164367312748521 0.0055572689152941415 0 0.002173734333490935 0.0054647635524405838 0 0.002042551265430805 0.0055840512965804022 0 0.0020205156276109767 0.0056373664847659526 0 0.0021164367312748521 0.0055572689152941415 0 0.002042551265430805 0.0055840512965804022 0 0.002173734333490935 0.0054647635524405838 0 0.0021577972445695304 0.0053917183170282181 0 0.0020415014288044059 0.0055256393017091687 0 0.002173734333490935 0.0054647635524405838 0 0.002042551265430805 0.0055840512965804022 0 0.0020415014288044059 0.0055256393017091687 0 0.002173734333490935 0.0054647635524405838 0 0.0022631184621143118 0.0053615476810474402 0 0.0021577972445695304 0.0053917183170282181 0 0.0022631184621143118 0.0053615476810474402 0 0.0021577972445695304 0.0053917183170282181 0 0.0022473318710291255 0.0052701258086007763 0 0.0021158091619541803 0.005270575030236797 0 0.0022473318710291255 0.0052701258086007763 0 0.0022158875596463888 0.0051101992542027111 0 0.0021577972445695304 0.0053917183170282181 0 0.0021158091619541803 0.005270575030236797 0 0.0020415014288044059 0.0055256393017091687 0 0.0021577972445695304 0.0053917183170282181 0 0.0021158091619541803 0.005270575030236797 0 0.0022473318710291255 0.0052701258086007763 0 0.0020415014288044059 0.0055256393017091687 0 0.0019965200675853409 0.005460441159004098 0 0.0019439073307126388 0.0056499475802814824 0 0.0021158091619541803 0.005270575030236797 0 0.0020415014288044059 0.0055256393017091687 0 0.0019965200675853409 0.005460441159004098 0 0.0025032365997169309 0.0052675550538875352 0 0.0024989061281832869 0.005229540307566968 0 0.0023702403400419282 0.0052817183336998901 0 0.0024989061281832869 0.005229540307566968 0 0.0023702403400419282 0.0052817183336998901 0 0.0023448389026509073 0.005176351804372069 0 0.0023842088622211054 0.0053604381723673846 0 0.0022631184621143118 0.0053615476810474402 0 0.0023702403400419282 0.0052817183336998901 0 0.0022631184621143118 0.0053615476810474402 0 0.0023702403400419282 0.0052817183336998901 0 0.0022473318710291255 0.0052701258086007763 0 0.0022473318710291255 0.0052701258086007763 0 0.0023448389026509073 0.005176351804372069 0 0.0022158875596463888 0.0051101992542027111 0 0.0023702403400419282 0.0052817183336998901 0 0.0022473318710291255 0.0052701258086007763 0 0.0023448389026509073 0.005176351804372069 0 0.0024961505546314115 0.0051622827399762502 0 0.0024989061281832869 0.005229540307566968 0 0.0023448389026509073 0.005176351804372069 0 0.0024961505546314115 0.0051622827399762502 0 0.0023448389026509073 0.005176351804372069 0 0.0022747380941456541 0.0050128663950734969 0 0.0023448389026509073 0.005176351804372069 0 0.0022747380941456541 0.0050128663950734969 0 0.0022158875596463888 0.0051101992542027111 0 0.0022158875596463888 0.0051101992542027111 0 0.0021888826165010612 0.00494326925225124 0 0.0020973112158091298 0.0050620589476138254 0 0.0022747380941456541 0.0050128663950734969 0 0.0022158875596463888 0.0051101992542027111 0 0.0021888826165010612 0.00494326925225124 0 0.0014606229357946019 0.0049057888987693084 0 0.00095984451710235774 0.004975925499492097 0 0.00067461008680077942 0.0041811607696855971 0 0.00060161740874205727 0.0049345762065949334 0 6.4316707078686413e-05 0.004468762005752849 0 0.0014606229357946019 0.0049057888987693084 0 0.0020554416198382375 0.0047063774052763041 0 0.0022747380941456541 0.0050128663950734969 0 0.0021888826165010612 0.00494326925225124 0 0.0020933838577139657 0.0046971455624491443 0 0.00067461008680077942 0.0041811607696855971 0 0.00060161740874205727 0.0049345762065949334 0 0.0020933838577139657 0.0046971455624491443 0 0.001286875751473811 0.0053628162777779329 0 0.00095984451710235774 0.004975925499492097 0 0.0021158091619541803 0.005270575030236797 0 0.0017860907607297638 0.0051781845889178005 0 0.0020973112158091298 0.0050620589476138254 0 0.0023161431023091222 0.0053414798190412208 0 0.001286875751473811 0.0053628162777779329 0 -0.00028507774233730589 0.0048666895267245264 0 -3.9772721201537643e-05 0.0048890301585305862 0 -0.00019822010948120932 0.0046444029330953993 0 0.0021158091619541803 0.005270575030236797 0 0.0022158875596463888 0.0051101992542027111 0 0.0020973112158091298 0.0050620589476138254 0 0.00060161740874205727 0.0049345762065949334 0 -3.9772721201537643e-05 0.0048890301585305862 0 6.4316707078686413e-05 0.004468762005752849 0 -3.9772721201537643e-05 0.0048890301585305862 0 6.4316707078686413e-05 0.004468762005752849 0 -0.00019822010948120932 0.0046444029330953993 0 -0.00028507774233730589 0.0048666895267245264 0 -0.00019822010948120932 0.0046444029330953993 0 -0.00035040471601113083 0.0046739936219988738 0 -0.00035040471601113083 0.0046739936219988738 0 -0.00034567013018144658 0.0047904954383573154 0 -0.00033045613151285727 0.004825355394565441 0 0.001286875751473811 0.0053628162777779329 0 0.00065126933661437841 0.0052870807748794215 0 0.0018886829964126594 0.00581960949366219 0 0.0018436310169275851 0.0058026340743121763 0 0.0018552982017206307 0.0058478333573067512 0 -0.00028507774233730589 0.0048666895267245264 0 -0.00035040471601113083 0.0046739936219988738 0 -0.00034567013018144658 0.0047904954383573154 0 0.001286875751473811 0.0053628162777779329 0 0.0020886235643201925 0.0057957876444658532 0 0.00065126933661437841 0.0052870807748794215 0 0.00064082376099765064 0.0053918604236733005 0 0.0018436310169275851 0.0058026340743121763 0 0.0014000304469421409 0.0057265012326157549 0 0.0016781588214264294 0.005956752465524932 0 0.0018436310169275851 0.0058026340743121763 0 0.0016781588214264294 0.005956752465524932 0 0.0018552982017206307 0.0058478333573067512 0 -0.00034567013018144658 0.0047904954383573154 0 -0.00033045613151285727 0.004825355394565441 0 -0.00011406034979444269 0.0049795736443879503 0 -0.00022196836046726101 0.0049956893418769532 0 -0.00033045613151285727 0.004825355394565441 0 -0.00011406034979444269 0.0049795736443879503 0 0.00042769775496290951 0.0056745215187707816 0 0.00069621923268901225 0.0062092036365903359 0 0.0014000304469421409 0.0057265012326157549 0 -7.9866351982278106e-05 0.0052939130066295935 0 0.00042769775496290951 0.0056745215187707816 0 -0.00011406034979444269 0.0049795736443879503 0 0.00043842513883582027 0.0055842191121398986 0 0.00064082376099765064 0.0053918604236733005 0 0.00069621923268901225 0.0062092036365903359 0 0.0014000304469421409 0.0057265012326157549 0 0.0012168469603940602 0.0062430619229952812 0 0.0014000304469421409 0.0057265012326157549 0 0.0016781588214264294 0.005956752465524932 0 0.0012168469603940602 0.0062430619229952812 0 0.001783427001212666 0.0061259283306757109 0 0.0012168469603940602 0.0062430619229952812 0 0.00088488206084643176 0.0070087231768807346 0 0.0016781588214264294 0.005956752465524932 0 0.001783427001212666 0.0061259283306757109 0 0.0012168469603940602 0.0062430619229952812 0 0.00069621923268901225 0.0062092036365903359 0 0.00072489327037796166 0.0066571499481472571 0 0.0012168469603940602 0.0062430619229952812 0 0.00072489327037796166 0.0066571499481472571 0 0.0012168469603940602 0.0062430619229952812 0 0.00088488206084643176 0.0070087231768807346 0 0.0020384327504436913 0.0057706445398666081 0 0.0021962484165754044 0.0058644696848094459 0 0.0019402070098030893 0.0058601845567758009 0 0.0017700726385151625 0.0061659275360195697 0 0.0015296616976826338 0.0064124426732834229 0 0.001783427001212666 0.0061259283306757109 0 0.0021962484165754044 0.0058644696848094459 0 0.0019402070098030893 0.0058601845567758009 0 0.0019328920823937239 0.0057525151185362873 0 0.0019402070098030893 0.0058601845567758009 0 0.0018575972873323466 0.0058820476814615275 0 0.001783427001212666 0.0061259283306757109 0 0.0019402070098030893 0.0058601845567758009 0 0.0018575972873323466 0.0058820476814615275 0 0.0019750890850836911 0.0056687639082999685 0 0.0019328920823937239 0.0057525151185362873 0 0.0019268190250792869 0.0057165801902597513 0 0.0019328920823937239 0.0057525151185362873 0 0.0018575972873323466 0.0058820476814615275 0 0.0019268190250792869 0.0057165801902597513 0 0.002042551265430805 0.0055840512965804022 0 0.0020415014288044059 0.0055256393017091687 0 0.0019268190250792869 0.0057165801902597513 0 0.0019750890850836911 0.0056687639082999685 0 0.002042551265430805 0.0055840512965804022 0 0.0019268190250792869 0.0057165801902597513 0 0.0020415014288044059 0.0055256393017091687 0 0.0019268190250792869 0.0057165801902597513 0 0.0019439073307126388 0.0056499475802814824 0 0.0019965200675853409 0.005460441159004098 0 0.0019439073307126388 0.0056499475802814824 0 0.0018552982017206307 0.0058478333573067512 0 0.0019268190250792869 0.0057165801902597513 0 0.0019439073307126388 0.0056499475802814824 0 0.0018552982017206307 0.0058478333573067512 0 0.001783427001212666 0.0061259283306757109 0 0.0018575972873323466 0.0058820476814615275 0 0.0018552982017206307 0.0058478333573067512 0 0.0018575972873323466 0.0058820476814615275 0 0.0019268190250792869 0.0057165801902597513 0 0.0018552982017206307 0.0058478333573067512 0 0.0016781588214264294 0.005956752465524932 0 0.001783427001212666 0.0061259283306757109 0 0.0018552982017206307 0.0058478333573067512 0 3.2882366874520639e-05 0.024969785357724393 0 0.00010730780374167938 0.024927309656871125 0 4.0963750350248522e-05 0.024916357383365079 0 3.2882366874520639e-05 0.024969785357724393 0 -7.5325513138691841e-08 0.024999889041997132 0 4.0963750350248522e-05 0.024916357383365079 0 3.2882366874520639e-05 0.024969785357724393 0 -7.5325513138691841e-08 0.024999889041997132 0 3.2164698747701586e-08 0.025000000595236136 0 3.2882366874520639e-05 0.024969785357724393 0 3.2164698747701586e-08 0.025000000595236136 0 2.7693702552696941e-05 0.025016011727719598 0 3.2882366874520639e-05 0.024969785357724393 0 9.4462051767551201e-05 0.024999957155247578 0 2.7693702552696941e-05 0.025016011727719598 0 3.2882366874520639e-05 0.024969785357724393 0 9.4462051767551201e-05 0.024999957155247578 0 0.00010730780374167938 0.024927309656871125 0 1.3132953224960408e-05 0.025080002699535687 0 4.1075364107608974e-05 0.022498749910906286 0 0.00012256013746775841 0.024718092634878199 0 0.00029709458717693525 0.024577447879618741 0 0.00020532550012293736 0.024821979656904435 0 9.4462051767551201e-05 0.024999957155247578 0 0.000183394027794598 0.024944986615962245 0 0.00010730780374167938 0.024927309656871125 0 -0.00017851260894638217 0.019438500085912847 0 -0.00023544459327772327 0.019385876032766931 0 -0.00022467517894310689 0.019298986385659855 0 4.1075364107608974e-05 0.022498749910906286 0 3.3633545910542223e-05 0.021937785671678558 0 -0.00017851260894638217 0.019438500085912847 0 -0.00020146933750200604 0.019464047887256336 0 -0.00023544459327772327 0.019385876032766931 0 4.1075364107608974e-05 0.022498749910906286 0 0.00038556969900803239 0.021775492774727716 0 0.000183394027794598 0.024944986615962245 0 0.00020967789826019338 0.024875406923465185 0 0.00010730780374167938 0.024927309656871125 0 4.1075364107608974e-05 0.022498749910906286 0 5.8838172134725813e-05 0.022115230412856519 0 -0.00016537512712734508 0.019444723879870146 0 -0.00020146933750200604 0.019464047887256336 0 -0.00020054779003369865 0.019605438984604651 0 0.00020967789826019338 0.024875406923465185 0 0.00010730780374167938 0.024927309656871125 0 0.00011573819467098113 0.024830563242534243 0 0.00010730780374167938 0.024927309656871125 0 0.00011573819467098113 0.024830563242534243 0 4.0963750350248522e-05 0.024916357383365079 0 0.00020967789826019338 0.024875406923465185 0 0.00011573819467098113 0.024830563242534243 0 0.00023063762613687548 0.024806700032812247 0 -0.00018476989595590828 0.024509903898850778 0 1.2990756423327098e-05 0.022975253473578847 0 -0.0004733533596405054 0.023584776159261401 0 -0.00050331642096056921 0.023057155186574061 0 -0.00049416406869238984 0.02324498762561 0 -0.000358779174394763 0.023844314084259535 0 -0.0004733533596405054 0.023584776159261401 0 -0.00049239949769043587 0.023299793749902698 0 -0.0004733533596405054 0.023584776159261401 0 -0.00049416406869238984 0.02324498762561 0 -0.00049239949769043587 0.023299793749902698 0 -0.000358779174394763 0.023844314084259535 0 -0.0004733533596405054 0.023584776159261401 0 -0.00016603939982373064 0.024441924411076493 0 -0.000358779174394763 0.023844314084259535 0 -3.5002935453344277e-05 0.024811208838130237 0 -0.00016603939982373064 0.024441924411076493 0 0.00011573819467098113 0.024830563242534243 0 4.0963750350248522e-05 0.024916357383365079 0 -3.5002935453344277e-05 0.024811208838130237 0 -0.00018476989595590828 0.024509903898850778 0 -7.0286586204783795e-05 0.02468969510444035 0 -7.5325513138691841e-08 0.024999889041997132 0 4.0963750350248522e-05 0.024916357383365079 0 -3.5002935453344277e-05 0.024811208838130237 0 -7.5325513138691841e-08 0.024999889041997132 0 -3.5002935453344277e-05 0.024811208838130237 0 -8.6666809337910149e-08 0.024999176425764519 0 -3.5002935453344277e-05 0.024811208838130237 0 -8.6666809337910149e-08 0.024999176425764519 0 -0.00016603939982373064 0.024441924411076493 0 -8.6666809337910149e-08 0.024999176425764519 0 -0.00016603939982373064 0.024441924411076493 0 -1.0222314323267577e-07 0.024999503743767946 0 -4.1346769973679529e-07 0.024998646637987867 0 -0.00024192992900572117 0.022661605814697131 0 -1.6827031584523304e-07 0.019686597284054547 0 -0.00016603939982373064 0.024441924411076493 0 -0.00029048253712279541 0.024205590854007582 0 -1.0222314323267577e-07 0.024999503743767946 0 -0.00022380499998648216 0.024011308532610201 0 -1.0139485889322503e-07 0.024999669605480581 0 -0.00011946995049690946 0.02382618577189748 0 -4.1346769973679529e-07 0.024998646637987867 0 -0.00024192992900572117 0.022661605814697131 0 -0.00011946995049690946 0.02382618577189748 0 7.5720641485928629e-08 0.024998032496502485 0 -4.1346769973679529e-07 0.024998646637987867 0 -0.00022380499998648216 0.024011308532610201 0 -0.00037081362832390669 0.022868378026174419 0 -0.0004733533596405054 0.023584776159261401 0 -0.00029048253712279541 0.024205590854007582 0 -0.00054268577487650281 0.02313972880124783 0 -0.0004733533596405054 0.023584776159261401 0 -0.00016603939982373064 0.024441924411076493 0 -0.00029048253712279541 0.024205590854007582 0 -0.0004733533596405054 0.023584776159261401 0 -0.00054268577487650281 0.02313972880124783 0 -0.00050331642096056921 0.023057155186574061 0 -0.00054268577487650281 0.02313972880124783 0 -0.00050331642096056921 0.023057155186574061 0 -0.00015415270545595329 0.021683733428935429 0 -0.00022701876047811885 0.022503801361873858 0 -0.00015415270545595329 0.021683733428935429 0 0.00013109726264030157 0.021641404321997744 0 -0.00050331642096056921 0.023057155186574061 0 -0.00022701876047811885 0.022503801361873858 0 -0.00015415270545595329 0.021683733428935429 0 -0.00037081362832390669 0.022868378026174419 0 -0.00013966838826690609 0.021869247137907846 0 -0.00024192992900572117 0.022661605814697131 0 -0.00015415270545595329 0.021683733428935429 0 -1.6827031584523304e-07 0.019686597284054547 0 -0.00015415270545595329 0.021683733428935429 0 -1.6827031584523304e-07 0.019686597284054547 0 0.00014731591310170112 0.020386141621354381 0 -1.6827031584523304e-07 0.019686597284054547 0 0.00014731591310170112 0.020386141621354381 0 0.00037297967258002911 0.01915700264274697 0 0.00014731591310170112 0.020386141621354381 0 0.00066011878054933785 0.02114238074111972 0 0.00013109726264030157 0.021641404321997744 0 0.00014731591310170112 0.020386141621354381 0 0.00066011878054933785 0.02114238074111972 0 0.00037297967258002911 0.01915700264274697 0 -0.00015415270545595329 0.021683733428935429 0 0.00014731591310170112 0.020386141621354381 0 0.00013109726264030157 0.021641404321997744 0 -0.00022701876047811885 0.022503801361873858 0 0.00013109726264030157 0.021641404321997744 0 -2.3368585087851117e-05 0.022709253367728579 0 0.00013109726264030157 0.021641404321997744 0 0.00047213117999301212 0.022417943041583267 0 -2.3368585087851117e-05 0.022709253367728579 0 0.0003118818997540457 0.019232532693010989 0 0.00023688929750289764 0.019321855171043317 0 0.00034733794531324427 0.019310549206201622 0 0.0004428327021804074 0.020127203518464455 0 0.00030835796258959537 0.021207044717231616 0 0.00066011878054933785 0.02114238074111972 0 0.00013109726264030157 0.021641404321997744 0 0.00047213117999301212 0.022417943041583267 0 -0.0013724000013577914 0.015962557099634348 0 0.00066582234260063791 0.018901473236036366 0 0.00023688929750289764 0.019321855171043317 0 0.00025029723319799793 0.019391119149423906 0 0.00034733794531324427 0.019310549206201622 0 0.00023688929750289764 0.019321855171043317 0 0.00025029723319799793 0.019391119149423906 0 0.00016886251806914334 0.019389355149914862 0 0.00083293853368868621 0.017289764388657244 0 0.00086417965951173501 0.017217256889286409 0 0.00051997645696326162 0.017577181845285787 0 0.0010013669121176018 0.011456654822505848 0 0.00074908075199014632 0.011201079472304169 0 0.00053029697037016105 0.011452157052449797 0 -0.0040400640378656935 0.013195827679574754 0 -0.00391139346444354 0.012992810019625057 0 -0.0035231356713173565 0.012949408154987222 0 -0.0013724000013577914 0.015962557099634348 0 -0.00081111422816495355 0.013514872387507365 0 -0.0013724000013577914 0.015962557099634348 0 -0.00086015652035646944 0.018934411841899871 0 -0.0040400640378656935 0.013195827679574754 0 -0.0035231356713173565 0.012949408154987222 0 -0.0030008498423691994 0.013250543249658209 0 -0.00391139346444354 0.012992810019625057 0 -0.0035231356713173565 0.012949408154987222 0 -0.0031390511692172014 0.012351953175413212 0 -0.0035231356713173565 0.012949408154987222 0 -0.0030008498423691994 0.013250543249658209 0 -0.0031390511692172014 0.012351953175413212 0 -0.00081111422816495355 0.013514872387507365 0 -0.0032492076965024612 0.012393620283797598 0 0.00030835796258959537 0.021207044717231616 0 -0.00086015652035646944 0.018934411841899871 0 0.00047213117999301212 0.022417943041583267 0 0.00010918546322110043 0.023172002021747202 0 -2.3368585087851117e-05 0.022709253367728579 0 -0.00022701876047811885 0.022503801361873858 0 -2.3368585087851117e-05 0.022709253367728579 0 -0.00036378097268401077 0.022966817929413266 0 -2.3368585087851117e-05 0.022709253367728579 0 -0.00036378097268401077 0.022966817929413266 0 -0.00033105017759844636 0.023199790061924238 0 -0.00050331642096056921 0.023057155186574061 0 -0.00022701876047811885 0.022503801361873858 0 -0.00036378097268401077 0.022966817929413266 0 -0.00050331642096056921 0.023057155186574061 0 -0.00036378097268401077 0.022966817929413266 0 -0.00049416406869238984 0.02324498762561 0 -0.00036378097268401077 0.022966817929413266 0 -0.00049416406869238984 0.02324498762561 0 -0.00033105017759844636 0.023199790061924238 0 1.2990756423327098e-05 0.022975253473578847 0 -0.00034283436620480788 0.021479642353007217 0 -0.00024879871866429138 0.019784371347347146 0 -0.00044223290105742873 0.019759059456913638 0 -0.00032948502952848542 0.019616741693684873 0 -0.00049416406869238984 0.02324498762561 0 -0.00050691611508557383 0.023285674635019144 0 -0.00033105017759844636 0.023199790061924238 0 -0.00020826128892294127 0.023252695949629001 0 1.2990756423327098e-05 0.022975253473578847 0 5.8838172134725813e-05 0.022115230412856519 0 1.2990756423327098e-05 0.022975253473578847 0 -0.00020054779003369865 0.019605438984604651 0 -0.00024879871866429138 0.019784371347347146 0 -0.00032948502952848542 0.019616741693684873 0 0.00010918546322110043 0.023172002021747202 0 -2.3368585087851117e-05 0.022709253367728579 0 -0.00033105017759844636 0.023199790061924238 0 -0.00086015652035646944 0.018934411841899871 0 -0.00034283436620480788 0.021479642353007217 0 -0.00064435343208264675 0.019736606791643338 0 -0.00044223290105742873 0.019759059456913638 0 -0.00046242878159779107 0.019468962592416601 0 -0.0022350111006953052 0.011755084062374428 0 -0.0023853212693277972 0.011684080689689397 0 -0.0031390511692172014 0.012351953175413212 0 -0.00086015652035646944 0.018934411841899871 0 -0.0013872151036413809 0.015189042556053691 0 -0.00044223290105742873 0.019759059456913638 0 -0.00046242878159779107 0.019468962592416601 0 -0.00032948502952848542 0.019616741693684873 0 -0.00046242878159779107 0.019468962592416601 0 -0.00032948502952848542 0.019616741693684873 0 -0.00029505449109257204 0.019475839126039961 0 -0.00020054779003369865 0.019605438984604651 0 -0.00032948502952848542 0.019616741693684873 0 -0.00029505449109257204 0.019475839126039961 0 -0.00020146933750200604 0.019464047887256336 0 -0.00020054779003369865 0.019605438984604651 0 -0.00029505449109257204 0.019475839126039961 0 -0.0013872151036413809 0.015189042556053691 0 -0.0010841495311623643 0.015069765386187057 0 -0.00029505449109257204 0.019475839126039961 0 -0.00023544459327772327 0.019385876032766931 0 -0.00028454730350579039 0.019275089360744582 0 -0.00046242878159779107 0.019468962592416601 0 -0.00029505449109257204 0.019475839126039961 0 -0.00028454730350579039 0.019275089360744582 0 -0.00020146933750200604 0.019464047887256336 0 -0.00029505449109257204 0.019475839126039961 0 -0.00023544459327772327 0.019385876032766931 0 -0.0023853212693277972 0.011684080689689397 0 -0.0029787881918626954 0.011681554486010236 0 -0.0024952458169700182 0.010738556278173357 0 -0.0022350111006953052 0.011755084062374428 0 -0.0023853212693277972 0.011684080689689397 0 -0.0024952458169700182 0.010738556278173357 0 -0.0022350111006953052 0.011755084062374428 0 -0.0024952458169700182 0.010738556278173357 0 -0.0017601755607877571 0.010617546519871653 0 -0.00082496453274424788 0.011051772217189105 0 -0.00041809127635411341 0.010584695073042948 0 0.0012756436873294231 0.010914396115112935 0 0.0012333472344843519 0.01050395629712542 0 0.0015027193039554043 0.010436393222872991 0 0.00098944656626764166 0.010710249179753455 0 0.0012756436873294231 0.010914396115112935 0 0.0012333472344843519 0.01050395629712542 0 0.00098944656626764166 0.010710249179753455 0 0.0010366594403998916 0.010365090081583858 0 0.0012333472344843519 0.01050395629712542 0 0.00098944656626764166 0.010710249179753455 0 0.00066240968190362187 0.010579723539645971 0 0.0010366594403998916 0.010365090081583858 0 0.00098944656626764166 0.010710249179753455 0 0.00096632194261789272 0.011053122959117685 0 0.00075565003106766089 0.010907715876356798 0 0.00098944656626764166 0.010710249179753455 0 0.00075565003106766089 0.010907715876356798 0 0.00066240968190362187 0.010579723539645971 0 0.00098944656626764166 0.010710249179753455 0 0.00096632194261789272 0.011053122959117685 0 0.0012756436873294231 0.010914396115112935 0 0.0010013669121176018 0.011456654822505848 0 0.00096632194261789272 0.011053122959117685 0 0.0012756436873294231 0.010914396115112935 0 0.00096632194261789272 0.011053122959117685 0 0.00074908075199014632 0.011201079472304169 0 0.00075565003106766089 0.010907715876356798 0 0.0010013669121176018 0.011456654822505848 0 0.00096632194261789272 0.011053122959117685 0 0.00074908075199014632 0.011201079472304169 0 -0.00081111422816495355 0.013514872387507365 0 -0.00082496453274424788 0.011051772217189105 0 -0.0030008498423691994 0.013250543249658209 0 -0.0022350111006953052 0.011755084062374428 0 -0.0031390511692172014 0.012351953175413212 0 -0.0033656987505156213 0.012429206328268508 0 -0.0029319451150528401 0.012053814155278722 0 -0.0029787881918626954 0.011681554486010236 0 -0.0023853212693277972 0.011684080689689397 0 -0.0029319451150528401 0.012053814155278722 0 -0.0029787881918626954 0.011681554486010236 0 -0.0023723906305419397 0.011691162844175616 0 -0.0032492076965024612 0.012393620283797598 0 0.00082734629499758264 0.010514655888946249 0 0.00082826877625690322 0.010989851322777178 0 0.00046421482960888475 0.011066785884836838 0 0.00016485371031360358 0.010814804463420591 0 -2.8469502465833926e-05 0.011586170529061399 0 0.0015351802447494641 0.010024818783140425 0 0.0011485322810694586 0.010278018783524882 0 0.0016070701688862656 0.011023614327310541 0 0.00074908075199014632 0.011201079472304169 0 0.00046421482960888475 0.011066785884836838 0 0.00053029697037016105 0.011452157052449797 0 0.00074908075199014632 0.011201079472304169 0 0.00075565003106766089 0.010907715876356798 0 0.00046421482960888475 0.011066785884836838 0 0.00066240968190362187 0.010579723539645971 0 0.00016485371031360358 0.010814804463420591 0 0.00039203192573919373 0.010126017481329705 0 0.00046421482960888475 0.011066785884836838 0 0.00066240968190362187 0.010579723539645971 0 0.00016485371031360358 0.010814804463420591 0 0.00075565003106766089 0.010907715876356798 0 0.00046421482960888475 0.011066785884836838 0 0.00066240968190362187 0.010579723539645971 0 0.00061463202886756724 0.01012370625138395 0 0.0011485322810694586 0.010278018783524882 0 0.0011214347341420407 0.0095736643344994446 0 0.0015351802447494641 0.010024818783140425 0 0.0011485322810694586 0.010278018783524882 0 0.0011214347341420407 0.0095736643344994446 0 0.00081261362062774701 0.009932070765543621 0 0.0011196523947332084 0.0095961569271123138 0 0.0010054436046249928 0.0097182908546602793 0 0.0009327833870004991 0.0094940273595164829 0 0.0011214347341420407 0.0095736643344994446 0 0.00061463202886756724 0.01012370625138395 0 0.0011485322810694586 0.010278018783524882 0 0.00092838841680922769 0.010741270950953154 0 0.00061463202886756724 0.01012370625138395 0 0.00092838841680922769 0.010741270950953154 0 0.00051336596655235183 0.010667948131951573 0 0.0011485322810694586 0.010278018783524882 0 0.00092838841680922769 0.010741270950953154 0 0.0016070701688862656 0.011023614327310541 0 0.00092838841680922769 0.010741270950953154 0 0.0011403974066484706 0.011417392697285395 0 0.0016070701688862656 0.011023614327310541 0 0.00092838841680922769 0.010741270950953154 0 0.00068939714645168109 0.011347115626411441 0 0.00051336596655235183 0.010667948131951573 0 0.00092838841680922769 0.010741270950953154 0 0.00068939714645168109 0.011347115626411441 0 0.0011403974066484706 0.011417392697285395 0 0.00068939714645168109 0.011347115626411441 0 0.0009189798712921967 0.011958269424194742 0 0.00037639799444728336 0.011933053539326891 0 0.00068939714645168109 0.011347115626411441 0 0.0011403974066484706 0.011417392697285395 0 0.0009189798712921967 0.011958269424194742 0 0.0011403974066484706 0.011417392697285395 0 0.0016070701688862656 0.011023614327310541 0 0.0015864701818881877 0.012117977553936713 0 0.0011403974066484706 0.011417392697285395 0 0.0015864701818881877 0.012117977553936713 0 0.0009189798712921967 0.011958269424194742 0 0.00082826877625690322 0.010989851322777178 0 0.00058114251512439658 0.013715329985621338 0 0.0006209234098835595 0.0150543372584884 0 0.00058114251512439658 0.013715329985621338 0 -2.8469502465833926e-05 0.011586170529061399 0 0.00043969638162998673 0.011936559304587336 0 -0.00018755749709689103 0.012429814947173278 0 -2.8469502465833926e-05 0.011586170529061399 0 0.00053029697037016105 0.011452157052449797 0 0.00043969638162998673 0.011936559304587336 0 0.00046421482960888475 0.011066785884836838 0 -2.8469502465833926e-05 0.011586170529061399 0 0.00053029697037016105 0.011452157052449797 0 0.0010013669121176018 0.011456654822505848 0 0.00053029697037016105 0.011452157052449797 0 0.00043969638162998673 0.011936559304587336 0 -0.00081111422816495355 0.013514872387507365 0 0.0006209234098835595 0.0150543372584884 0 0.00083293853368868621 0.017289764388657244 0 0.00051997645696326162 0.017577181845285787 0 0.00061197846580476835 0.017739816428716835 0 0.00051997645696326162 0.017577181845285787 0 0.00061197846580476835 0.017739816428716835 0 0.00045911088597388902 0.017831525710394126 0 -1.6827031584523304e-07 0.019686597284054547 0 2.3708407101005063e-06 0.015686623586068895 0 0.00028970464359069805 0.016589577789985228 0 -1.6827031584523304e-07 0.019686597284054547 0 0.00028970464359069805 0.016589577789985228 0 0.00035757848887531631 0.017460564954201781 0 0.00066582234260063791 0.018901473236036366 0 0.00037409485398171108 0.018455759110721132 0 0.0003118818997540457 0.019232532693010989 0 0.00034733794531324427 0.019310549206201622 0 0.00046593524500771795 0.019191407439697144 0 0.00045911088597388902 0.017831525710394126 0 0.00039906090729851471 0.017975118670870985 0 0.00036531156819013101 0.017855925205568841 0 0.00051997645696326162 0.017577181845285787 0 0.00045911088597388902 0.017831525710394126 0 0.00036531156819013101 0.017855925205568841 0 0.00061197846580476835 0.017739816428716835 0 0.00045911088597388902 0.017831525710394126 0 0.00039906090729851471 0.017975118670870985 0 0.0004428327021804074 0.020127203518464455 0 0.00041616562191145709 0.019387114293798996 0 0.0003118818997540457 0.019232532693010989 0 0.00046593524500771795 0.019191407439697144 0 0.00037297967258002911 0.01915700264274697 0 -1.6827031584523304e-07 0.019686597284054547 0 0.00037297967258002911 0.01915700264274697 0 0.00035757848887531631 0.017460564954201781 0 0.00046593524500771795 0.019191407439697144 0 0.00037297967258002911 0.01915700264274697 0 0.00035757848887531631 0.017460564954201781 0 0.00037409485398171108 0.018455759110721132 0 0.00041126620713180132 0.017643128305348487 0 2.3708407101005063e-06 0.015686623586068895 0 0.00028970464359069805 0.016589577789985228 0 0.00045700254991762085 0.014796792491240381 0 0.00028970464359069805 0.016589577789985228 0 0.00035757848887531631 0.017460564954201781 0 0.00054225374044564927 0.017925380744155273 0 0.00028970464359069805 0.016589577789985228 0 0.00045700254991762085 0.014796792491240381 0 0.0017818194528890371 0.013747032542226895 0 0.00039906090729851471 0.017975118670870985 0 0.00035757848887531631 0.017460564954201781 0 0.00054225374044564927 0.017925380744155273 0 0.00046452084506157226 0.016443880402129803 0 0.0011084937882437278 0.016056113609164993 0 2.3708407101005063e-06 0.015686623586068895 0 0.00045700254991762085 0.014796792491240381 0 0.00016904903930932161 0.013880141397940362 0 0.00045700254991762085 0.014796792491240381 0 0.00075943206335766632 0.013505554207938151 0 0.0017818194528890371 0.013747032542226895 0 0.00045700254991762085 0.014796792491240381 0 0.00075943206335766632 0.013505554207938151 0 0.00016904903930932161 0.013880141397940362 0 0.00075943206335766632 0.013505554207938151 0 0.00052653844711230509 0.012713008912915597 0 0.00016904903930932161 0.013880141397940362 0 0.00075943206335766632 0.013505554207938151 0 0.001129328293597799 0.012602531236097104 0 0.00052653844711230509 0.012713008912915597 0 0.0011084937882437278 0.016056113609164993 0 0.00058114251512439658 0.013715329985621338 0 0.00039906090729851471 0.017975118670870985 0 0.00054225374044564927 0.017925380744155273 0 0.00036531156819013101 0.017855925205568841 0 0.001129328293597799 0.012602531236097104 0 0.0017818194528890371 0.013747032542226895 0 0.0020885952669036046 0.011910377336083121 0 0.00075943206335766632 0.013505554207938151 0 0.001129328293597799 0.012602531236097104 0 0.0017818194528890371 0.013747032542226895 0 0.001129328293597799 0.012602531236097104 0 0.0015864701818881877 0.012117977553936713 0 0.0009189798712921967 0.011958269424194742 0 0.0017225710140312538 0.012191167864460419 0 0.00058114251512439658 0.013715329985621338 0 0.00052653844711230509 0.012713008912915597 0 0.0009189798712921967 0.011958269424194742 0 0.00037639799444728336 0.011933053539326891 0 0.001129328293597799 0.012602531236097104 0 0.00052653844711230509 0.012713008912915597 0 0.0009189798712921967 0.011958269424194742 0 0.00037639799444728336 0.011933053539326891 0 1.2970361373567422e-05 0.011928069287802509 0 5.2587509665417674e-05 0.012639767002444173 0 0.00052653844711230509 0.012713008912915597 0 0.00037639799444728336 0.011933053539326891 0 5.2587509665417674e-05 0.012639767002444173 0 1.2970361373567422e-05 0.011928069287802509 0 5.2587509665417674e-05 0.012639767002444173 0 -0.00012782287497292783 0.012212865446507142 0 5.2587509665417674e-05 0.012639767002444173 0 -0.00014458689280154175 0.013017200811251945 0 -0.00012782287497292783 0.012212865446507142 0 0.00052653844711230509 0.012713008912915597 0 5.2587509665417674e-05 0.012639767002444173 0 0.00016904903930932161 0.013880141397940362 0 2.3708407101005063e-06 0.015686623586068895 0 0.00016904903930932161 0.013880141397940362 0 -0.00014458689280154175 0.013017200811251945 0 2.3708407101005063e-06 0.015686623586068895 0 -1.2154177120707579e-06 0.012750519003404086 0 -0.00014458689280154175 0.013017200811251945 0 5.2587509665417674e-05 0.012639767002444173 0 0.00016904903930932161 0.013880141397940362 0 -0.00014458689280154175 0.013017200811251945 0 -1.2154177120707579e-06 0.012750519003404086 0 -0.00014458689280154175 0.013017200811251945 0 -0.0001668589419959217 0.011832804502162626 0 -0.0001668589419959217 0.011832804502162626 0 -0.00019944766111258886 0.012022821938378201 0 -0.00029047484692814994 0.01128198190584161 0 -0.00014458689280154175 0.013017200811251945 0 -0.00019944766111258886 0.012022821938378201 0 -0.00012782287497292783 0.012212865446507142 0 -0.00014458689280154175 0.013017200811251945 0 -0.0001668589419959217 0.011832804502162626 0 -0.00019944766111258886 0.012022821938378201 0 1.2970361373567422e-05 0.011928069287802509 0 -0.00012782287497292783 0.012212865446507142 0 -0.00021160479864826089 0.011462438312458814 0 -0.00019944766111258886 0.012022821938378201 0 -0.00012782287497292783 0.012212865446507142 0 -0.00021160479864826089 0.011462438312458814 0 -0.00021160479864826089 0.011462438312458814 0 -0.00029047484692814994 0.01128198190584161 0 -0.00028616336208936818 0.011062773537573452 0 -0.00019944766111258886 0.012022821938378201 0 -0.00021160479864826089 0.011462438312458814 0 -0.00029047484692814994 0.01128198190584161 0 -0.00036529549298780148 0.010942298039493476 0 -0.00028616336208936818 0.011062773537573452 0 -0.00034725312522581345 0.010803709285654748 0 -0.00036529549298780148 0.010942298039493476 0 -0.00029047484692814994 0.01128198190584161 0 -0.00028616336208936818 0.011062773537573452 0 -0.00034725312522581345 0.010803709285654748 0 -0.00013389095632987513 0.010928498381419283 0 -0.00022112736928550547 0.01048068169180408 0 -0.00028616336208936818 0.011062773537573452 0 -0.00034725312522581345 0.010803709285654748 0 -0.00013389095632987513 0.010928498381419283 0 -0.00021160479864826089 0.011462438312458814 0 -0.00028616336208936818 0.011062773537573452 0 -0.00013389095632987513 0.010928498381419283 0 -0.00021160479864826089 0.011462438312458814 0 -0.00013389095632987513 0.010928498381419283 0 0.00010573399870539776 0.011298916898257023 0 0.00037639799444728336 0.011933053539326891 0 1.2970361373567422e-05 0.011928069287802509 0 0.00010573399870539776 0.011298916898257023 0 1.2970361373567422e-05 0.011928069287802509 0 -0.00021160479864826089 0.011462438312458814 0 0.00010573399870539776 0.011298916898257023 0 0.00068939714645168109 0.011347115626411441 0 0.00037639799444728336 0.011933053539326891 0 0.00010573399870539776 0.011298916898257023 0 0.00068939714645168109 0.011347115626411441 0 0.00010573399870539776 0.011298916898257023 0 0.00036715680837271121 0.011049843166568825 0 0.00036715680837271121 0.011049843166568825 0 0.00010933712325766532 0.010678584291409081 0 0.00051336596655235183 0.010667948131951573 0 0.00010573399870539776 0.011298916898257023 0 0.00036715680837271121 0.011049843166568825 0 0.00010933712325766532 0.010678584291409081 0 0.00068939714645168109 0.011347115626411441 0 0.00036715680837271121 0.011049843166568825 0 0.00051336596655235183 0.010667948131951573 0 -0.00013389095632987513 0.010928498381419283 0 0.00010573399870539776 0.011298916898257023 0 0.00010933712325766532 0.010678584291409081 0 -0.00011151775636795916 0.010902731776041565 0 0.00029776388946178937 0.010533645429641882 0 0.00051193312398193052 0.010407576980152853 0 0.00030299559150012408 0.010121818125602831 0 0.00070058872736016161 0.0096401658552542051 0 -0.00013389095632987513 0.010928498381419283 0 0.00051193312398193052 0.010407576980152853 0 7.0625507435015009e-05 0.010369160486303165 0 0.00051193312398193052 0.010407576980152853 0 0.00030299559150012408 0.010121818125602831 0 7.0625507435015009e-05 0.010369160486303165 0 0.00061463202886756724 0.01012370625138395 0 0.00010933712325766532 0.010678584291409081 0 0.00051336596655235183 0.010667948131951573 0 0.00081261362062774701 0.009932070765543621 0 0.00029776388946178937 0.010533645429641882 0 0.0010054436046249928 0.0097182908546602793 0 0.00051193312398193052 0.010407576980152853 0 0.00070058872736016161 0.0096401658552542051 0 0.00070058872736016161 0.0096401658552542051 0 0.00050279384807834688 0.0093300259581448105 0 0.00072181769600802349 0.0093493695593233981 0 0.00070058872736016161 0.0096401658552542051 0 0.00072181769600802349 0.0093493695593233981 0 0.0009327833870004991 0.0094940273595164829 0 0.0010054436046249928 0.0097182908546602793 0 0.00070058872736016161 0.0096401658552542051 0 0.0009327833870004991 0.0094940273595164829 0 0.00030299559150012408 0.010121818125602831 0 0.00070058872736016161 0.0096401658552542051 0 -2.3883808799219955e-05 0.010079055954666885 0 0.00070058872736016161 0.0096401658552542051 0 0.00025461661815606067 0.0093917412200310996 0 0.00050279384807834688 0.0093300259581448105 0 0.00070295270356848035 0.0096403440595533088 0 0.00014552142351701716 0.0097566048084463605 0 0.00026142037822613097 0.0092012269075018895 0 0.00025461661815606067 0.0093917412200310996 0 0.00050279384807834688 0.0093300259581448105 0 0.00026142037822613097 0.0092012269075018895 0 0.00025461661815606067 0.0093917412200310996 0 -3.1252216995898624e-05 0.0095453231244342525 0 -0.00012758187889628513 0.0097868114153030518 0 0.00025461661815606067 0.0093917412200310996 0 -3.1252216995898624e-05 0.0095453231244342525 0 0.00028453354844431406 0.0091608108828608401 0 6.0295011433541029e-05 0.0090890462180434426 0 -0.00036391549008608226 0.010351095117753928 0 -2.3883808799219955e-05 0.010079055954666885 0 -0.00022112736928550547 0.01048068169180408 0 -0.00027273403128544115 0.010057936835308767 0 0.00014552142351701716 0.0097566048084463605 0 -0.0003591275973576643 0.010533058769742023 0 -0.00034725312522581345 0.010803709285654748 0 -0.00022112736928550547 0.01048068169180408 0 -0.00036391549008608226 0.010351095117753928 0 -0.0003591275973576643 0.010533058769742023 0 -0.00022112736928550547 0.01048068169180408 0 -2.3883808799219955e-05 0.010079055954666885 0 -0.00022112736928550547 0.01048068169180408 0 7.0625507435015009e-05 0.010369160486303165 0 -0.00013389095632987513 0.010928498381419283 0 -0.00022112736928550547 0.01048068169180408 0 7.0625507435015009e-05 0.010369160486303165 0 0.00030299559150012408 0.010121818125602831 0 -2.3883808799219955e-05 0.010079055954666885 0 7.0625507435015009e-05 0.010369160486303165 0 4.3272239194986783e-05 0.008565704703293717 0 0.0003218710057195173 0.0088969850368193215 0 0.00017527459723721704 0.0085266100306662408 0 -9.4874830466384029e-05 0.0082836469279997764 0 4.3272239194986783e-05 0.008565704703293717 0 0.00017527459723721704 0.0085266100306662408 0 0.00026142037822613097 0.0092012269075018895 0 7.8555548508167169e-06 0.0086363794379364211 0 0.0001038920444285155 0.0087992559022712913 0 4.3272239194986783e-05 0.008565704703293717 0 1.3048399252611009e-05 0.008562868163862411 0 0.0001038920444285155 0.0087992559022712913 0 -3.5775691565784885e-05 0.0083600184445348016 0 4.3272239194986783e-05 0.008565704703293717 0 1.3048399252611009e-05 0.008562868163862411 0 -2.0567500249313993e-05 0.0083769803114162635 0 7.8555548508167169e-06 0.0086363794379364211 0 1.3048399252611009e-05 0.008562868163862411 0 7.8555548508167169e-06 0.0086363794379364211 0 1.3048399252611009e-05 0.008562868163862411 0 0.0001038920444285155 0.0087992559022712913 0 4.3272239194986783e-05 0.008565704703293717 0 0.0001038920444285155 0.0087992559022712913 0 0.0003218710057195173 0.0088969850368193215 0 0.00026142037822613097 0.0092012269075018895 0 0.0001038920444285155 0.0087992559022712913 0 0.0003218710057195173 0.0088969850368193215 0 0.00026142037822613097 0.0092012269075018895 0 0.0003218710057195173 0.0088969850368193215 0 0.00050279384807834688 0.0093300259581448105 0 0.0003218710057195173 0.0088969850368193215 0 0.00050279384807834688 0.0093300259581448105 0 0.00062183066444401421 0.0091237091296723655 0 0.00050279384807834688 0.0093300259581448105 0 0.00062183066444401421 0.0091237091296723655 0 0.00072181769600802349 0.0093493695593233981 0 0.00062183066444401421 0.0091237091296723655 0 0.00072181769600802349 0.0093493695593233981 0 0.00090521787739139591 0.0092670831541160886 0 0.00072181769600802349 0.0093493695593233981 0 0.00090521787739139591 0.0092670831541160886 0 0.0009327833870004991 0.0094940273595164829 0 0.00062183066444401421 0.0091237091296723655 0 0.00066005480521797843 0.0088522117687636296 0 0.00090521787739139591 0.0092670831541160886 0 0.00066005480521797843 0.0088522117687636296 0 0.0010261190955392653 0.0093062829293967027 0 0.00090521787739139591 0.0092670831541160886 0 0.0003218710057195173 0.0088969850368193215 0 0.00066005480521797843 0.0088522117687636296 0 0.00017527459723721704 0.0085266100306662408 0 0.0003218710057195173 0.0088969850368193215 0 0.00062183066444401421 0.0091237091296723655 0 0.00066005480521797843 0.0088522117687636296 0 0.00089245764246738012 0.0090846926181735472 0 0.00059831788798424994 0.0088426597847313555 0 0.0011625291532837436 0.0093086831382951651 0 0.0011300453721684281 0.0095905043934462232 0 0.0010261190955392653 0.0093062829293967027 0 0.00089245764246738012 0.0090846926181735472 0 0.000997233415734143 0.0092703012160634344 0 0.0011625291532837436 0.0093086831382951651 0 0.00113181403229745 0.0093818646421610918 0 0.0011300453721684281 0.0095905043934462232 0 0.0011625291532837436 0.0093086831382951651 0 0.00113181403229745 0.0093818646421610918 0 0.0010946023213337199 0.0091752239253486186 0 0.0011625291532837436 0.0093086831382951651 0 0.0010946023213337199 0.0091752239253486186 0 0.0010298139387115901 0.0091591173287274407 0 0.00028492735766421436 0.0085374982668856257 0 0.00059831788798424994 0.0088426597847313555 0 0.00062950307459130959 0.0088444616001027484 0 0.0010298139387115901 0.0091591173287274407 0 0.00087328035207481032 0.0088969173222190959 0 0.0010946023213337199 0.0091752239253486186 0 0.0010298139387115901 0.0091591173287274407 0 0.00087328035207481032 0.0088969173222190959 0 0.0010946023213337199 0.0091752239253486186 0 0.00087328035207481032 0.0088969173222190959 0 0.0010968140367693194 0.0089407444143064559 0 0.0010946023213337199 0.0091752239253486186 0 0.0010968140367693194 0.0089407444143064559 0 0.0010945070103362592 0.0092922693391891791 0 0.0010946023213337199 0.0091752239253486186 0 0.0010945070103362592 0.0092922693391891791 0 0.001123993858683719 0.0095181694256524906 0 0.0010945070103362592 0.0092922693391891791 0 0.0011544761345637486 0.0094044521220710102 0 0.0011017288034290262 0.0095748842712589238 0 0.0010945070103362592 0.0092922693391891791 0 0.0011017288034290262 0.0095748842712589238 0 0.001123993858683719 0.0095181694256524906 0 0.0010968140367693194 0.0089407444143064559 0 0.0010945070103362592 0.0092922693391891791 0 0.0011544761345637486 0.0094044521220710102 0 0.0015210631597613747 0.0093367718874300537 0 0.0010968140367693194 0.0089407444143064559 0 0.0011544761345637486 0.0094044521220710102 0 0.0015210631597613747 0.0093367718874300537 0 0.0011544761345637486 0.0094044521220710102 0 0.0013309766908562648 0.0096389650118165159 0 0.0011544761345637486 0.0094044521220710102 0 0.0013309766908562648 0.0096389650118165159 0 0.0011615004837653713 0.0096490997851598134 0 0.0011544761345637486 0.0094044521220710102 0 0.0011615004837653713 0.0096490997851598134 0 0.0011017288034290262 0.0095748842712589238 0 0.0011615004837653713 0.0096490997851598134 0 0.0011017288034290262 0.0095748842712589238 0 0.0010959137972289439 0.0097990622086970413 0 0.0030252526802315291 0.011299856821683555 0 0.0028361057348406694 0.011127739466147341 0 0.0011615004837653713 0.0096490997851598134 0 0.0012298992779594456 0.0097812726039997726 0 0.0010959137972289439 0.0097990622086970413 0 0.0050835744262978577 0.012569378486759028 0 0.0044764439665803601 0.012444252548609076 0 0.0049082551211165702 0.012880811883931394 0 0.0038102357156022848 0.012072104831768826 0 0.0030252526802315291 0.011299856821683555 0 0.0013309766908562648 0.0096389650118165159 0 0.0011615004837653713 0.0096490997851598134 0 0.0012298992779594456 0.0097812726039997726 0 0.0025129370166415148 0.010163798798207556 0 0.0022951153710696324 0.0099080080761489442 0 0.002060956624801115 0.010305909707632656 0 0.0018231111827014302 0.0097273780408688604 0 0.0030252526802315291 0.011299856821683555 0 0.0028361057348406694 0.011127739466147341 0 0.0022772951943347808 0.011123960718605889 0 0.0042881423595152084 0.012683041956462793 0 0.0036802368298968322 0.012419584560083572 0 0.0037909399353340421 0.012285081514728935 0 0.0068812101286061097 0.014202994730643754 0 0.0052221474669925686 0.013386973881232937 0 0.0042881423595152084 0.012683041956462793 0 0.0044764439665803601 0.012444252548609076 0 0.0037909399353340421 0.012285081514728935 0 0.0089986337437183081 0.015515583401518885 0 0.0065427169685064231 0.014242934199336602 0 0.0068519538115201896 0.016277967140471764 0 0.0042881423595152084 0.012683041956462793 0 0.0044764439665803601 0.012444252548609076 0 0.0048242133905871927 0.012909515007023071 0 0.0011017288034290262 0.0095748842712589238 0 0.0010959137972289439 0.0097990622086970413 0 0.0011068778831940188 0.0098031964872893982 0 0.0011068778831940188 0.0098031964872893982 0 0.0011247670080074238 0.0099521329666440519 0 0.0011050749893392582 0.01010202379736275 0 0.0010959137972289439 0.0097990622086970413 0 0.0011068778831940188 0.0098031964872893982 0 0.0011050749893392582 0.01010202379736275 0 0.0011068778831940188 0.0098031964872893982 0 0.001123993858683719 0.0095181694256524906 0 0.0011247670080074238 0.0099521329666440519 0 0.0011017288034290262 0.0095748842712589238 0 0.0011068778831940188 0.0098031964872893982 0 0.001123993858683719 0.0095181694256524906 0 0.00113181403229745 0.0093818646421610918 0 0.0010946023213337199 0.0091752239253486186 0 0.001123993858683719 0.0095181694256524906 0 0.001123993858683719 0.0095181694256524906 0 0.0011247670080074238 0.0099521329666440519 0 0.0011300453721684281 0.0095905043934462232 0 0.00113181403229745 0.0093818646421610918 0 0.001123993858683719 0.0095181694256524906 0 0.0011300453721684281 0.0095905043934462232 0 0.0010561709335391461 0.010049551965684208 0 0.0011247670080074238 0.0099521329666440519 0 0.0011300453721684281 0.0095905043934462232 0 0.0010561709335391461 0.010049551965684208 0 0.00099409845292176596 0.009661771413545666 0 0.0011300453721684281 0.0095905043934462232 0 0.0010561709335391461 0.010049551965684208 0 0.00071917487064765623 0.009793410902526032 0 0.00099409845292176596 0.009661771413545666 0 0.0010561709335391461 0.010049551965684208 0 0.0010558646170192004 0.010516031546633373 0 0.00084316999234105693 0.010661037297326025 0 0.0010558646170192004 0.010516031546633373 0 0.0009423239203725127 0.010954927229256672 0 0.00084316999234105693 0.010661037297326025 0 0.0010561709335391461 0.010049551965684208 0 0.0011247670080074238 0.0099521329666440519 0 0.0010558646170192004 0.010516031546633373 0 0.0025640659973826694 0.011931881086435822 0 0.0022772951943347808 0.011123960718605889 0 0.0011247670080074238 0.0099521329666440519 0 0.0010558646170192004 0.010516031546633373 0 0.0011050749893392582 0.01010202379736275 0 0.0010558646170192004 0.010516031546633373 0 0.0010239544399242746 0.0107170432910753 0 0.0011050749893392582 0.01010202379736275 0 0.0010558646170192004 0.010516031546633373 0 0.0010239544399242746 0.0107170432910753 0 0.0009423239203725127 0.010954927229256672 0 0.0037967623097392672 0.01274904886041176 0 0.0043595294968032964 0.015482490833810937 0 0.0020867429561814391 0.014036355461433026 0 0.0037967623097392672 0.01274904886041176 0 0.0043595294968032964 0.015482490833810937 0 0.0065427169685064231 0.014242934199336602 0 0.0025640659973826694 0.011931881086435822 0 0.0052221474669925686 0.013386973881232937 0 0.0030031354721576828 0.012102150717246877 0 0.0036802368298968322 0.012419584560083572 0 0.0037909399353340421 0.012285081514728935 0 0.0043595294968032964 0.015482490833810937 0 0.0065427169685064231 0.014242934199336602 0 0.0068519538115201896 0.016277967140471764 0 -0.00039753302541006066 0.014173655283218544 0 0.0020867429561814391 0.014036355461433026 0 0.0018221695868104741 0.016159201491004284 0 -0.00039753302541006066 0.014173655283218544 0 0.0020867429561814391 0.014036355461433026 0 0.00074016182501933066 0.011890697182550111 0 0.0043595294968032964 0.015482490833810937 0 0.0020867429561814391 0.014036355461433026 0 0.0018221695868104741 0.016159201491004284 0 0.0010239544399242746 0.0107170432910753 0 0.0009423239203725127 0.010954927229256672 0 0.00074016182501933066 0.011890697182550111 0 0.0037967623097392672 0.01274904886041176 0 0.0020867429561814391 0.014036355461433026 0 0.00074016182501933066 0.011890697182550111 0 0.0025640659973826694 0.011931881086435822 0 0.00070470907493092711 0.011739057440831886 0 0.0009423239203725127 0.010954927229256672 0 0.00074016182501933066 0.011890697182550111 0 0.00084316999234105693 0.010661037297326025 0 -0.00039753302541006066 0.014173655283218544 0 0.00074016182501933066 0.011890697182550111 0 -0.001114304120949748 0.012037813934400026 0 0.00074016182501933066 0.011890697182550111 0 -0.00021519334170548061 0.010757526056570601 0 -0.001114304120949748 0.012037813934400026 0 0.00074016182501933066 0.011890697182550111 0 -0.00021519334170548061 0.010757526056570601 0 0.00084316999234105693 0.010661037297326025 0 -0.00021519334170548061 0.010757526056570601 0 0.00084316999234105693 0.010661037297326025 0 0.00071917487064765623 0.009793410902526032 0 0.0010561709335391461 0.010049551965684208 0 0.00084316999234105693 0.010661037297326025 0 0.00071917487064765623 0.009793410902526032 0 -0.00021519334170548061 0.010757526056570601 0 0.00071917487064765623 0.009793410902526032 0 -0.00078752218992390627 0.010019746817576745 0 0.00071576957980384328 0.0097986397512181515 0 4.0506086031982741e-05 0.0095100510865835739 0 0.00071917487064765623 0.009793410902526032 0 0.00076386613724945397 0.0095235095630947699 0 0.00071324474264282183 0.0095470925403969877 0 0.00071917487064765623 0.009793410902526032 0 -0.00069473901304735474 0.0094382311299646554 0 -0.00078752218992390627 0.010019746817576745 0 0.00076386613724945397 0.0095235095630947699 0 0.00071324474264282183 0.0095470925403969877 0 0.00083710776032236759 0.0098302771724085806 0 0.00071324474264282183 0.0095470925403969877 0 0.00099033808898550484 0.0093932254115258983 0 0.00089402582466249552 0.0095314207813989287 0 0.00071917487064765623 0.009793410902526032 0 0.00071324474264282183 0.0095470925403969877 0 0.00089402582466249552 0.0095314207813989287 0 0.00071917487064765623 0.009793410902526032 0 0.00089402582466249552 0.0095314207813989287 0 0.00099409845292176596 0.009661771413545666 0 0.00089402582466249552 0.0095314207813989287 0 0.00099409845292176596 0.009661771413545666 0 0.0010261190955392653 0.0093062829293967027 0 0.00099409845292176596 0.009661771413545666 0 0.0011300453721684281 0.0095905043934462232 0 0.0010261190955392653 0.0093062829293967027 0 0.00099033808898550484 0.0093932254115258983 0 0.00089402582466249552 0.0095314207813989287 0 0.0010261190955392653 0.0093062829293967027 0 0.00099033808898550484 0.0093932254115258983 0 0.0010261190955392653 0.0093062829293967027 0 0.0010419110877037843 0.009354488783385807 0 0.0010261190955392653 0.0093062829293967027 0 0.0010419110877037843 0.009354488783385807 0 0.00090521787739139591 0.0092670831541160886 0 0.00090521787739139591 0.0092670831541160886 0 0.0009327833870004991 0.0094940273595164829 0 0.0011214347341420407 0.0095736643344994446 0 0.0010419110877037843 0.009354488783385807 0 0.00090521787739139591 0.0092670831541160886 0 0.0011214347341420407 0.0095736643344994446 0 0.0010419110877037843 0.009354488783385807 0 0.0011214347341420407 0.0095736643344994446 0 0.0011749049496535442 0.0093748185558738071 0 0.0015351802447494641 0.010024818783140425 0 0.0011214347341420407 0.0095736643344994446 0 0.0011749049496535442 0.0093748185558738071 0 0.00082734629499758264 0.010514655888946249 0 0.00078511608642563768 0.009768483646217397 0 0.00066240968190362187 0.010579723539645971 0 0.00039203192573919373 0.010126017481329705 0 0.00080360675937725737 0.010186693568849428 0 0.00039203192573919373 0.010126017481329705 0 0.00083710776032236759 0.0098302771724085806 0 0.00080360675937725737 0.010186693568849428 0 0.00071324474264282183 0.0095470925403969877 0 0.00039203192573919373 0.010126017481329705 0 0.00083710776032236759 0.0098302771724085806 0 0.00072060763405538953 0.0095887700108627724 0 0.00078511608642563768 0.009768483646217397 0 0.00099033808898550484 0.0093932254115258983 0 0.0010419110877037843 0.009354488783385807 0 0.0011749049496535442 0.0093748185558738071 0 0.00071324474264282183 0.0095470925403969877 0 0.00099033808898550484 0.0093932254115258983 0 0.0011749049496535442 0.0093748185558738071 0 0.0013477534575879837 0.010132421277794259 0 0.0010707424583319832 0.010057100598847509 0 0.0012360963446722344 0.0097314888381413653 0 0.00083710776032236759 0.0098302771724085806 0 0.0010707424583319832 0.010057100598847509 0 0.00080360675937725737 0.010186693568849428 0 0.00083710776032236759 0.0098302771724085806 0 0.0010707424583319832 0.010057100598847509 0 0.0012360963446722344 0.0097314888381413653 0 0.00066240968190362187 0.010579723539645971 0 0.00080360675937725737 0.010186693568849428 0 0.0010366594403998916 0.010365090081583858 0 0.0010707424583319832 0.010057100598847509 0 0.00080360675937725737 0.010186693568849428 0 0.0010366594403998916 0.010365090081583858 0 0.0013477534575879837 0.010132421277794259 0 0.0010707424583319832 0.010057100598847509 0 0.0010366594403998916 0.010365090081583858 0 0.0013477534575879837 0.010132421277794259 0 0.0010366594403998916 0.010365090081583858 0 0.0012333472344843519 0.01050395629712542 0 0.0013477534575879837 0.010132421277794259 0 0.0012333472344843519 0.01050395629712542 0 0.0015027193039554043 0.010436393222872991 0 -0.0024952458169700182 0.010738556278173357 0 -0.0017601755607877571 0.010617546519871653 0 -0.0020543662788359706 0.0099596578735942562 0 -0.00041809127635411341 0.010584695073042948 0 -0.0008740919654527411 0.01006713891038203 0 0.0013477534575879837 0.010132421277794259 0 0.0015027193039554043 0.010436393222872991 0 0.0017266496073299487 0.010022279268094953 0 -0.0017601755607877571 0.010617546519871653 0 -0.0019137529631066351 0.010057335952481672 0 -0.0020543662788359706 0.0099596578735942562 0 -0.00023544459327772327 0.019385876032766931 0 -0.00028454730350579039 0.019275089360744582 0 -0.00022467517894310689 0.019298986385659855 0 -0.0017601755607877571 0.010617546519871653 0 -0.0018320510704432301 0.0099271833695650253 0 -0.0017648780462508466 0.0098174082592082674 0 -0.0018210785732243155 0.0097223994652029036 0 -0.0018669849861755287 0.0097920042378332583 0 -0.0017807729767122865 0.0097865295699918562 0 -0.0017601755607877571 0.010617546519871653 0 -0.0019137529631066351 0.010057335952481672 0 -0.0018320510704432301 0.0099271833695650253 0 -0.0010841495311623643 0.015069765386187057 0 -0.00085619857194009323 0.014450831895475689 0 -0.0019137529631066351 0.010057335952481672 0 -0.0020403582149439129 0.009972327736723921 0 -0.0019041487769491849 0.0099274057220122176 0 -0.0019137529631066351 0.010057335952481672 0 -0.0019041487769491849 0.0099274057220122176 0 -0.0018320510704432301 0.0099271833695650253 0 -0.0014235009423619947 0.0098726243074408228 0 -0.0008740919654527411 0.01006713891038203 0 -0.0020403582149439129 0.009972327736723921 0 -0.0018669849861755287 0.0097920042378332583 0 -0.0019041487769491849 0.0099274057220122176 0 -0.0008740919654527411 0.01006713891038203 0 -0.0013063586139741143 0.010118664362609428 0 -0.0018669849861755287 0.0097920042378332583 0 -0.0019041487769491849 0.0099274057220122176 0 -0.0018320510704432301 0.0099271833695650253 0 -0.0018669849861755287 0.0097920042378332583 0 -0.0018320510704432301 0.0099271833695650253 0 -0.0018438977123153594 0.0098118648414547427 0 -0.0018320510704432301 0.0099271833695650253 0 -0.0018438977123153594 0.0098118648414547427 0 -0.0017648780462508466 0.0098174082592082674 0 -0.0008740919654527411 0.01006713891038203 0 5.436623393433472e-05 0.0096547971352325696 0 0.0013477534575879837 0.010132421277794259 0 0.0017266496073299487 0.010022279268094953 0 0.0012360963446722344 0.0097314888381413653 0 -0.0018210785732243155 0.0097223994652029036 0 -0.0017807729767122865 0.0097865295699918562 0 -0.0014925611286336505 0.0095615882459861197 0 -0.0017807729767122865 0.0097865295699918562 0 -0.0016097300483846222 0.0098655890853745088 0 -0.0014925611286336505 0.0095615882459861197 0 -0.0018669849861755287 0.0097920042378332583 0 -0.0017807729767122865 0.0097865295699918562 0 -0.0018438977123153594 0.0098118648414547427 0 -0.0017807729767122865 0.0097865295699918562 0 -0.0018438977123153594 0.0098118648414547427 0 -0.0018989478890701465 0.0098764906173614032 0 -0.0018989478890701465 0.0098764906173614032 0 -0.0017801342263589952 0.010010031966580478 0 -0.0020373015126620522 0.010145601093228934 0 -0.0017807729767122865 0.0097865295699918562 0 -0.0018989478890701465 0.0098764906173614032 0 -0.0017801342263589952 0.010010031966580478 0 -0.0017801342263589952 0.010010031966580478 0 -0.0016097300483846222 0.0098655890853745088 0 -0.0015480827695402775 0.010161749266628384 0 -0.0017807729767122865 0.0097865295699918562 0 -0.0017801342263589952 0.010010031966580478 0 -0.0016097300483846222 0.0098655890853745088 0 -0.0016097300483846222 0.0098655890853745088 0 -0.0014257874642369191 0.0098710692706263682 0 -0.0015480827695402775 0.010161749266628384 0 -0.0016097300483846222 0.0098655890853745088 0 -0.0014257874642369191 0.0098710692706263682 0 -0.0014925611286336505 0.0095615882459861197 0 4.0506086031982741e-05 0.0095100510865835739 0 5.436623393433472e-05 0.0096547971352325696 0 0.00076386613724945397 0.0095235095630947699 0 0.00083710776032236759 0.0098302771724085806 0 0.0012360963446722344 0.0097314888381413653 0 -0.00069473901304735474 0.0094382311299646554 0 -0.0014257874642369191 0.0098710692706263682 0 -0.0014925611286336505 0.0095615882459861197 0 -0.00069473901304735474 0.0094382311299646554 0 -0.0014257874642369191 0.0098710692706263682 0 -0.00078752218992390627 0.010019746817576745 0 -0.0014257874642369191 0.0098710692706263682 0 -0.00078752218992390627 0.010019746817576745 0 -0.002312919322213875 0.010914996073934723 0 -0.0014257874642369191 0.0098710692706263682 0 -0.0012753839106381672 0.010484915101309672 0 -0.0015480827695402775 0.010161749266628384 0 -0.001482055133126215 0.0099000798167448931 0 -0.0018190239952573307 0.010905499569441379 0 -0.00021519334170548061 0.010757526056570601 0 -0.002312919322213875 0.010914996073934723 0 -0.001114304120949748 0.012037813934400026 0 -0.00021519334170548061 0.010757526056570601 0 -0.00078752218992390627 0.010019746817576745 0 -0.002312919322213875 0.010914996073934723 0 -0.00039753302541006066 0.014173655283218544 0 -0.001114304120949748 0.012037813934400026 0 -0.0034020124122797028 0.013343377144066972 0 -0.0018190239952573307 0.010905499569441379 0 -0.0023075190895330343 0.011601707396752318 0 -0.002312919322213875 0.010914996073934723 0 -0.001114304120949748 0.012037813934400026 0 -0.0034020124122797028 0.013343377144066972 0 -0.0012734077076316944 0.011104731396732528 0 -0.0015031925455190739 0.011774781167643161 0 -0.0013268356385626263 0.011856193630918594 0 -0.0034020124122797028 0.013343377144066972 0 -0.002130294521173577 0.015698138744016252 0 -0.0042129492803600014 0.016673867721260286 0 -0.0023075190895330343 0.011601707396752318 0 -0.0024977367240331433 0.017428887227993645 0 -0.00039753302541006066 0.014173655283218544 0 -0.002130294521173577 0.015698138744016252 0 -0.00045959340162500176 0.016543107823099434 0 -0.00039753302541006066 0.014173655283218544 0 -0.0034020124122797028 0.013343377144066972 0 -0.002130294521173577 0.015698138744016252 0 -0.001487636115132111 0.017766192419607016 0 -0.0015856459457980272 0.017889906946388399 0 -0.0013434728205739114 0.017969780505015673 0 -0.001487636115132111 0.017766192419607016 0 -0.0015856459457980272 0.017889906946388399 0 -0.0016145166453885188 0.017722936666022742 0 -0.0012734077076316944 0.011104731396732528 0 -0.001913649799725048 0.011116890812545077 0 -0.0015031925455190739 0.011774781167643161 0 -0.0016709446036598202 0.014005571981771383 0 -0.002242427313906112 0.017736695546577589 0 -0.0012734077076316944 0.011104731396732528 0 -0.001913649799725048 0.011116890812545077 0 -0.0017693898971834065 0.010438514813034625 0 -0.0016709446036598202 0.014005571981771383 0 -0.001970658658668265 0.013884165661921636 0 -0.001913649799725048 0.011116890812545077 0 -0.0017693898971834065 0.010438514813034625 0 -0.0021509210168723443 0.010591199169910928 0 -0.001487636115132111 0.017766192419607016 0 -0.0016622635847159807 0.017494278187960052 0 -0.0016145166453885188 0.017722936666022742 0 -0.0017693898971834065 0.010438514813034625 0 -0.0020373015126620522 0.010145601093228934 0 -0.0021509210168723443 0.010591199169910928 0 -0.0012753839106381672 0.010484915101309672 0 -0.0012734077076316944 0.011104731396732528 0 -0.0017693898971834065 0.010438514813034625 0 -0.0012753839106381672 0.010484915101309672 0 -0.0017693898971834065 0.010438514813034625 0 -0.0015480827695402775 0.010161749266628384 0 -0.0017801342263589952 0.010010031966580478 0 -0.0017693898971834065 0.010438514813034625 0 -0.0015480827695402775 0.010161749266628384 0 -0.0017801342263589952 0.010010031966580478 0 -0.0017693898971834065 0.010438514813034625 0 -0.0020373015126620522 0.010145601093228934 0 -0.0020373015126620522 0.010145601093228934 0 -0.0023220847805091541 0.010238952191173422 0 -0.0021509210168723443 0.010591199169910928 0 -0.0019812499222425011 0.015027494484355662 0 -0.0014516873613512925 0.018993109873524802 0 -0.00053337122312633125 0.01807880399663642 0 -0.0011725576886494774 0.019545266060990288 0 -0.001114904801038379 0.017909091236695533 0 -0.00063683145031277093 0.019861448698581328 0 -0.00058458270663287043 0.019189407787263579 0 -0.00053337122312633125 0.01807880399663642 0 -0.001114904801038379 0.017909091236695533 0 -0.00097513145784224465 0.017551338792827303 0 -0.00020697933766830549 0.021234220531170845 0 -0.00019994615362576624 0.02013611169061981 0 8.642824485820662e-05 0.02048097058914319 0 -0.0019812499222425011 0.015027494484355662 0 -0.00058458270663287043 0.019189407787263579 0 -0.0019108729869682232 0.017154796867206529 0 -0.0018088835844625127 0.017397843997873034 0 -0.0016622635847159807 0.017494278187960052 0 -0.0019812499222425011 0.015027494484355662 0 -0.001970658658668265 0.013884165661921636 0 -0.0019108729869682232 0.017154796867206529 0 -0.0018088835844625127 0.017397843997873034 0 -0.0020372411601106244 0.017446812820316644 0 -0.0018822725752067563 0.01757884371798922 0 -0.0014516873613512925 0.018993109873524802 0 -0.0018088835844625127 0.017397843997873034 0 -0.001849393232644577 0.017615331511989425 0 -0.0020036729774919643 0.017466790538043345 0 -0.0018088835844625127 0.017397843997873034 0 -0.0016622635847159807 0.017494278187960052 0 -0.001849393232644577 0.017615331511989425 0 -0.0016622635847159807 0.017494278187960052 0 -0.0017188345871766238 0.017723001887435197 0 -0.001849393232644577 0.017615331511989425 0 -0.0016622635847159807 0.017494278187960052 0 -0.0016145166453885188 0.017722936666022742 0 -0.0017188345871766238 0.017723001887435197 0 -0.0017188345871766238 0.017723001887435197 0 -0.001849393232644577 0.017615331511989425 0 -0.0019198306063922196 0.017804969644313336 0 -0.001849393232644577 0.017615331511989425 0 -0.0019198306063922196 0.017804969644313336 0 -0.0020943128449402914 0.01772378379156702 0 -0.001849393232644577 0.017615331511989425 0 -0.0020943128449402914 0.01772378379156702 0 -0.0020036729774919643 0.017466790538043345 0 -0.00015869554893597056 0.024529326469261415 0 4.6528846027414484e-06 0.024323956707468512 0 -0.00036856868057934798 0.024157903885216613 0 -0.0010988591078630373 0.02453372327462373 0 -0.00015869554893597056 0.024529326469261415 0 7.6646234537289856e-05 0.024565238779384435 0 -0.00015869554893597056 0.024529326469261415 0 -6.612713933937241e-05 0.024499887291243708 0 4.6528846027414484e-06 0.024323956707468512 0 0.0001108985140228645 0.023170246035801877 0 -0.00094591105491291137 0.021926663330412457 0 -0.0010988591078630373 0.02453372327462373 0 -0.00015869554893597056 0.024529326469261415 0 -0.00036856868057934798 0.024157903885216613 0 -0.0013163736475230673 0.021559145371327769 0 -0.00094591105491291137 0.021926663330412457 0 -0.0015856459457980272 0.017889906946388399 0 -0.0017188345871766238 0.017723001887435197 0 -0.0019198306063922196 0.017804969644313336 0 -0.0015856459457980272 0.017889906946388399 0 -0.0016145166453885188 0.017722936666022742 0 -0.0017188345871766238 0.017723001887435197 0 1.8535195526569969e-05 0.024768349069258351 0 0.00010814957448972291 0.024640321583584517 0 2.7843336537327934e-05 0.024902634948225939 0 6.0587905710983525e-06 0.024997290965096949 0 -1.2318487139810869e-08 0.024999968438463829 0 5.0169944840499025e-09 0.025000010105548955 0 -7.5657932801614892e-05 0.024962719375462093 0 -0.00049134178807518102 0.02367636314563646 0 6.0587905710983525e-06 0.024997290965096949 0 -1.2318487139810869e-08 0.024999968438463829 0 6.0201693448937072e-06 0.024983269775278198 0 -6.612713933937241e-05 0.024499887291243708 0 4.6528846027414484e-06 0.024323956707468512 0 8.3572282024888529e-05 0.02448854755901066 0 4.6528846027414484e-06 0.024323956707468512 0 8.3572282024888529e-05 0.02448854755901066 0 9.6362914023573324e-05 0.024224841263320741 0 -0.00075489336136592023 0.023130019067741363 0 0.0001390942315488078 0.024831728630056456 0 -0.0010337960079264054 0.021151258919056289 0 -0.0014516873613512925 0.018993109873524802 0 1.8535195526569969e-05 0.024768349069258351 0 0.00010814957448972291 0.024640321583584517 0 5.7561052689407342e-05 0.024620065624111398 0 -0.0011792218847223267 0.02153958229578145 0 -0.0015244705244110395 0.021351245677980784 0 -0.0011672142197053318 0.020408711669274819 0 -0.0013495963893800449 0.021860468659761483 0 -0.0015656128880603619 0.022350033937161635 0 -0.00077364979682132144 0.022411210892130742 0 -0.0010337960079264054 0.021151258919056289 0 -0.00058360668743468369 0.022533717554985528 0 -0.0015656128880603619 0.022350033937161635 0 -0.00077364979682132144 0.022411210892130742 0 -0.00024010917038416794 0.023079052096446125 0 -0.00075489336136592023 0.023130019067741363 0 -0.0010337960079264054 0.021151258919056289 0 -0.00075489336136592023 0.023130019067741363 0 -0.00049134178807518102 0.02367636314563646 0 -0.00077364979682132144 0.022411210892130742 0 2.6061468574476766e-05 0.022388114952490584 0 -0.00024010917038416794 0.023079052096446125 0 -0.0013495963893800449 0.021860468659761483 0 -0.00077364979682132144 0.022411210892130742 0 2.6061468574476766e-05 0.022388114952490584 0 -0.00049134178807518102 0.02367636314563646 0 -0.00058360668743468369 0.022533717554985528 0 -0.00094591105491291137 0.021926663330412457 0 -0.0010337960079264054 0.021151258919056289 0 -0.0012152425718098753 0.022059939198572999 0 -0.00051492365747990139 0.022328534626711492 0 -0.00055637705912147805 0.02242193925880015 0 -0.00094591105491291137 0.021926663330412457 0 -0.00075489336136592023 0.023130019067741363 0 -0.00058360668743468369 0.022533717554985528 0 -0.00097303863823966854 0.021118979242130798 0 -6.8165211711990442e-11 0.024999998539122811 0 -8.0790879917581182e-07 0.024998108792114247 0 -1.2124995089915339e-09 0.024999995691594088 0 -0.00065677101640902757 0.02281386660045057 0 -0.00088884245786791539 0.022688028718347589 0 -0.00069779693010591957 0.022385287691312584 0 -0.00016593077099002663 0.02368963732961778 0 -0.00017478545456150175 0.024393480126933018 0 -0.00049134178807518102 0.02367636314563646 0 -0.00017478545456150175 0.024393480126933018 0 -0.00070478078148203979 0.023258694932788166 0 -0.00080031203540848871 0.02350639568356501 0 -0.00016048712805804099 0.023859417856094859 0 -0.00070478078148203979 0.023258694932788166 0 -0.00016048712805804099 0.023859417856094859 0 4.1683050727536457e-05 0.023546451983375717 0 -0.00058360668743468369 0.022533717554985528 0 -0.00016593077099002663 0.02368963732961778 0 1.6855284614944453e-05 0.024969760067070159 0 2.1120979961498643e-06 0.024965627969349872 0 6.0201693448937072e-06 0.024983269775278198 0 6.0587905710983525e-06 0.024997290965096949 0 1.6855284614944453e-05 0.024969760067070159 0 6.0201693448937072e-06 0.024983269775278198 0 -1.9241773644095423e-07 0.025000251337621928 0 -0.00017478545456150175 0.024393480126933018 0 -1.2318487139810869e-08 0.024999968438463829 0 2.1120979961498643e-06 0.024965627969349872 0 6.0201693448937072e-06 0.024983269775278198 0 -0.00017478545456150175 0.024393480126933018 0 1.9407990557082117e-07 0.024999689086978392 0 9.0431819202459749e-05 0.024991407637986216 0 -6.3366403904467769e-08 0.024999952077869727 0 5.8440790835788717e-08 0.02494489424476453 0 9.0431819202459749e-05 0.024991407637986216 0 7.3068929742501086e-05 0.025018367547514082 0 -6.3366403904467769e-08 0.024999952077869727 0 -0.00016593077099002663 0.02368963732961778 0 5.0661504279124516e-05 0.024102852839509855 0 1.8071631903179965e-08 0.024944886737706631 0 -5.8650313836614004e-06 0.024962310603329829 0 3.5826948034656697e-10 0.024999939751887933 0 -0.00022727203160649261 0.023574295645298466 0 -7.8288608987872669e-05 0.023657531229430609 0 -0.00030856143225943317 0.023697579588404703 0 5.0661504279124516e-05 0.024102852839509855 0 -0.00050798155768778008 0.023180955526656635 0 1.8071631903179965e-08 0.024944886737706631 0 -5.8650313836614004e-06 0.024962310603329829 0 -1.644989135224858e-05 0.024950132422726503 0 -0.00016593077099002663 0.02368963732961778 0 -0.00050798155768778008 0.023180955526656635 0 -5.8650313836614004e-06 0.024962310603329829 0 -1.644989135224858e-05 0.024950132422726503 0 -7.8912817056033697e-06 0.024973715819557443 0 -0.0017879512199976979 0.019668633212732135 0 -0.0011725576886494774 0.019545266060990288 0 -0.001114904801038379 0.017909091236695533 0 -0.0011792218847223267 0.02153958229578145 0 -0.0011672142197053318 0.020408711669274819 0 -0.00064349914418892183 0.020304309510653189 0 -0.00097303863823966854 0.021118979242130798 0 -0.0014516873613512925 0.018993109873524802 0 -0.00065677101640902757 0.02281386660045057 0 -0.00047790207330817018 0.02234011471222901 0 -0.00069779693010591957 0.022385287691312584 0 -0.00097303863823966854 0.021118979242130798 0 -0.00050798155768778008 0.023180955526656635 0 -1.644989135224858e-05 0.024950132422726503 0 -1.4807172051521461e-05 0.024963625620583421 0 -7.8912817056033697e-06 0.024973715819557443 0 -0.00060706725539937383 0.022428142281946426 0 -0.0005184245470421327 0.022412476437687952 0 -0.00065649567999347624 0.022629734101820058 0 -0.00050798155768778008 0.023180955526656635 0 -0.00076749925780949016 0.022766106450369722 0 -0.00097303863823966854 0.021118979242130798 0 -0.00076749925780949016 0.022766106450369722 0 -1.4807172051521461e-05 0.024963625620583421 0 2.0867862630297769e-06 0.024987068273722771 0 -1.0191736970246645e-05 0.024971752421709254 0 -1.4807172051521461e-05 0.024963625620583421 0 -7.8912817056033697e-06 0.024973715819557443 0 2.0867862630297769e-06 0.024987068273722771 0 -0.00099528016557623618 0.021520667614679932 0 -0.00084741513138538002 0.02100828257912694 0 -0.00066934469098246059 0.020748427595654959 0 -0.00097303863823966854 0.021118979242130798 0 -0.00063683145031277093 0.019861448698581328 0 -0.00076749925780949016 0.022766106450369722 0 0.00013430867794876093 0.022337685069052288 0 -0.0010042320709278659 0.022463126038773672 0 -0.00020697933766830549 0.021234220531170845 0 -0.00019994615362576624 0.02013611169061981 0 -0.00076749925780949016 0.022766106450369722 0 -0.00063683145031277093 0.019861448698581328 0 -7.8912817056033697e-06 0.024973715819557443 0 3.5826948034656697e-10 0.024999939751887933 0 2.0867862630297769e-06 0.024987068273722771 0 -5.8650313836614004e-06 0.024962310603329829 0 -7.8912817056033697e-06 0.024973715819557443 0 3.5826948034656697e-10 0.024999939751887933 0 2.0867862630297769e-06 0.024987068273722771 0 1.9186911631444513e-05 0.02498274049380966 0 3.0908359150805964e-08 0.025000039617352712 0 3.5826948034656697e-10 0.024999939751887933 0 2.0867862630297769e-06 0.024987068273722771 0 3.0908359150805964e-08 0.025000039617352712 0 1.9186911631444513e-05 0.02498274049380966 0 3.0908359150805964e-08 0.025000039617352712 0 -6.4435917396610391e-08 0.02499977354937934 0 1.9186911631444513e-05 0.02498274049380966 0 0.00010914168644973639 0.024952333922601905 0 4.9495686997536305e-05 0.024933252077978744 0 1.9186911631444513e-05 0.02498274049380966 0 7.1355559093044834e-05 0.024989204313767787 0 0.00010914168644973639 0.024952333922601905 0 2.0867862630297769e-06 0.024987068273722771 0 1.9186911631444513e-05 0.02498274049380966 0 -1.0191736970246645e-05 0.024971752421709254 0 0.00025996000353398685 0.025834945552042299 0 0.00013430867794876093 0.022337685069052288 0 -0.00049148217742763932 0.019995735704890268 0 -0.00045710097345139626 0.020037156525660998 0 -0.00029252102707049218 0.019610716477000502 0 -8.0028146187095009e-05 0.018949971892293648 0 -0.00016003672144482319 0.019094805704187919 0 -0.00012397467502405635 0.01912677128019807 0 0.00013430867794876093 0.022337685069052288 0 -0.00058458270663287043 0.019189407787263579 0 -0.0019812499222425011 0.015027494484355662 0 -0.0013592053819341885 0.011902517104650309 0 -0.0014662070953102573 0.016445243033320605 0 -0.0017605537861206109 0.016093783516271703 0 -0.00095809222332558764 0.015299667440251524 0 -0.00058458270663287043 0.019189407787263579 0 -0.00065355024741619791 0.017225327156860103 0 -0.0017605537861206109 0.016093783516271703 0 -0.00095809222332558764 0.015299667440251524 0 -0.0010864666865380882 0.01514757366993175 0 -0.00058458270663287043 0.019189407787263579 0 -0.00019819344418937126 0.019415521462552016 0 0.00013430867794876093 0.022337685069052288 0 -0.00015249504782633211 0.022294643719588624 0 -0.0020373015126620522 0.010145601093228934 0 -0.0023220847805091541 0.010238952191173422 0 -0.0020963405964965131 0.009927430799991005 0 -0.0018989478890701465 0.0098764906173614032 0 -0.0020373015126620522 0.010145601093228934 0 -0.0020963405964965131 0.009927430799991005 0 -0.0018989478890701465 0.0098764906173614032 0 -0.0020963405964965131 0.009927430799991005 0 -0.0017648780462508466 0.0098174082592082674 0 -0.0013592053819341885 0.011902517104650309 0 -0.00085619857194009323 0.014450831895475689 0 -0.00016003672144482319 0.019094805704187919 0 -0.00012397467502405635 0.01912677128019807 0 -0.00022374205750109308 0.019266412654814522 0 -0.0018438977123153594 0.0098118648414547427 0 -0.0018989478890701465 0.0098764906173614032 0 -0.0017648780462508466 0.0098174082592082674 0 -0.00065355024741619791 0.017225327156860103 0 -0.00085619857194009323 0.014450831895475689 0 -0.00095809222332558764 0.015299667440251524 0 -0.0010864666865380882 0.01514757366993175 0 -0.00046911154891613919 0.014205462144684471 0 -0.00049148217742763932 0.019995735704890268 0 -0.00029252102707049218 0.019610716477000502 0 -0.0003150600103153924 0.019505519745582976 0 -0.00029252102707049218 0.019610716477000502 0 -0.0003150600103153924 0.019505519745582976 0 -0.00019732241597004958 0.019318356771238662 0 -0.0003150600103153924 0.019505519745582976 0 -0.00019732241597004958 0.019318356771238662 0 -0.00018115155301775672 0.019268633566222895 0 0.00010914168644973639 0.024952333922601905 0 0.00010149996357906882 0.024868326633235949 0 0.00020532550012293736 0.024821979656904435 0 0.00010914168644973639 0.024952333922601905 0 0.00010149996357906882 0.024868326633235949 0 4.9495686997536305e-05 0.024933252077978744 0 -0.00019819344418937126 0.019415521462552016 0 -0.00019518119116919733 0.019307827500795537 0 -0.00015249504782633211 0.022294643719588624 0 3.3633545910542223e-05 0.021937785671678558 0 -0.00019732241597004958 0.019318356771238662 0 -0.00022374205750109308 0.019266412654814522 0 -0.00018115155301775672 0.019268633566222895 0 -0.00012397467502405635 0.01912677128019807 0 -0.00019732241597004958 0.019318356771238662 0 -0.00022374205750109308 0.019266412654814522 0 -0.00017851260894638217 0.019438500085912847 0 -0.00018115155301775672 0.019268633566222895 0 -0.00022467517894310689 0.019298986385659855 0 -0.00022374205750109308 0.019266412654814522 0 -0.00018115155301775672 0.019268633566222895 0 -0.00022467517894310689 0.019298986385659855 0 -0.00028454730350579039 0.019275089360744582 0 -0.00022374205750109308 0.019266412654814522 0 -0.00022467517894310689 0.019298986385659855 0 0.00012256013746775841 0.024718092634878199 0 0.00010149996357906882 0.024868326633235949 0 0.00020532550012293736 0.024821979656904435 0 0.00012256013746775841 0.024718092634878199 0 0.00010149996357906882 0.024868326633235949 0 2.7679640204908405e-05 0.024861209470215001 0 1.3132953224960408e-05 0.025080002699535687 0 6.5648759860966228e-05 0.02490637780467073 0 6.5648759860966228e-05 0.02490637780467073 0 -1.9542154303778751e-08 0.024999993320073743 0 3.2164698747701586e-08 0.025000000595236136 0 2.7693702552696941e-05 0.025016011727719598 0 1.1466708823669462e-11 0.025000038350198883 0 1.9186911631444513e-05 0.02498274049380966 0 -6.4435917396610391e-08 0.02499977354937934 0 4.9495686997536305e-05 0.024933252077978744 0 2.7679640204908405e-05 0.024861209470215001 0 -6.4435917396610391e-08 0.02499977354937934 0 4.9495686997536305e-05 0.024933252077978744 0 0.00010149996357906882 0.024868326633235949 0 2.7679640204908405e-05 0.024861209470215001 0 4.9495686997536305e-05 0.024933252077978744 0 6.4414285379615389e-05 0.025137012784624164 0 -0.00079101539495956847 0.022081693768164105 0 0.00041168077442979041 0.024602248547772536 0 0.00020097355984456203 0.02470430411150799 0 0.00025776520454941915 0.024851009441503792 0 -9.2638983634570688e-10 0.024999965765949931 0 -1.5166917919573459e-05 0.024967898318100805 0 -1.8100679968210696e-08 0.024999974454693229 0 -9.2638983634570688e-10 0.024999965765949931 0 -6.2658872790515484e-06 0.024984464777570291 0 -1.5166917919573459e-05 0.024967898318100805 0 -1.229810636397265e-07 0.024999948077138488 0 6.4414285379615389e-05 0.025137012784624164 0 -1.1647631109002045e-08 0.025000197358219779 0 -2.3653305414029054e-05 0.025022438722369315 0 -1.4504862963394759e-08 0.024999714898013309 0 0.00041168077442979041 0.024602248547772536 0 0.00021578428422166693 0.024477820141581792 0 0.00020097355984456203 0.02470430411150799 0 6.4414285379615389e-05 0.025137012784624164 0 0.0002054491888410449 0.024403174554127251 0 0.0001023397903932164 0.024658760173418115 0 0.00021578428422166693 0.024477820141581792 0 0.00020097355984456203 0.02470430411150799 0 0.0001023397903932164 0.024658760173418115 0 -9.841885909088314e-05 0.024714899230784518 0 0.0001969759679592944 0.02417891886559935 0 -0.0022345280530587344 0.017496869586243857 0 -0.0025282384206265179 0.016157901467702542 0 -0.0018754980259093129 0.016753746216991047 0 0.0001023397903932164 0.024658760173418115 0 -9.841885909088314e-05 0.024714899230784518 0 4.5207677058991042e-05 0.024829493908951148 0 -0.0025282384206265179 0.016157901467702542 0 -0.0018754980259093129 0.016753746216991047 0 -0.0014457129081817601 0.016193583235565606 0 -0.0011770283978869511 0.021446115571425808 0 -0.0010282663614983559 0.018800111808751838 0 0.0001023397903932164 0.024658760173418115 0 0.00020097355984456203 0.02470430411150799 0 4.5207677058991042e-05 0.024829493908951148 0 0.00020097355984456203 0.02470430411150799 0 4.5207677058991042e-05 0.024829493908951148 0 0.00025776520454941915 0.024851009441503792 0 -0.0010282663614983559 0.018800111808751838 0 -0.00079101539495956847 0.022081693768164105 0 -0.0024858733816682508 0.015925314629344708 0 -0.0018880663844617214 0.015959414276069256 0 -0.0025727978009176186 0.01613873591047876 0 -0.0018437161539330913 0.016137813959670448 0 -0.0018880663844617214 0.015959414276069256 0 -0.0025727978009176186 0.01613873591047876 0 -0.0024858733816682508 0.015925314629344708 0 -0.0018880663844617214 0.015959414276069256 0 -0.001708735893355594 0.015562459330546377 0 -0.0012364816661641078 0.018294279242390528 0 -0.0020054071516930434 0.015445056388246697 0 -0.0010282663614983559 0.018800111808751838 0 -0.0015161297437627644 0.016021836444711165 0 -0.0015264414385231179 0.01589243385960178 0 -0.0018503898216452222 0.016127714328773704 0 -0.0011056726520365754 0.016159800486372555 0 -0.0015264414385231179 0.01589243385960178 0 -0.0018503898216452222 0.016127714328773704 0 -0.0018880663844617214 0.015959414276069256 0 -0.0010282663614983559 0.018800111808751838 0 -0.0014799140825791355 0.017096411766036816 0 -0.0015264414385231179 0.01589243385960178 0 -0.0018880663844617214 0.015959414276069256 0 -0.001708735893355594 0.015562459330546377 0 -0.0015264414385231179 0.01589243385960178 0 -0.001708735893355594 0.015562459330546377 0 -0.0011523895104557473 0.015680821379726862 0 -0.0019006053423351052 0.015745664470264303 0 -0.0024905469583351905 0.015334339846745947 0 -0.0014162357404403185 0.014917756288446373 0 -0.00029344638280964352 0.018902295864588609 0 -0.0016969042957173514 0.017365721292512418 0 0.00040412659261533938 0.019963106827001503 0 0.0013349722482459505 0.019746874421695582 0 0.00077331868469404262 0.020716624847931991 0 -0.0028161158274115946 0.016103395295395395 0 -0.0019006053423351052 0.015745664470264303 0 -0.0024905469583351905 0.015334339846745947 0 -6.5971597016614703e-05 0.020582482972877351 0 0.0001625574415631014 0.020074156379396624 0 -0.00025437865967587093 0.020218688983627869 0 -0.0012364816661641078 0.018294279242390528 0 -0.00029344638280964352 0.018902295864588609 0 -0.00029344638280964352 0.018902295864588609 0 0.00073861674297161239 0.019942853624573341 0 0.0013349722482459505 0.019746874421695582 0 0.0021506876807236858 0.019520492097053126 0 0.0015116173955145344 0.020463955894081946 0 -0.00025437865967587093 0.020218688983627869 0 -0.00041767650563878417 0.020438003212615033 0 -0.00066274460713178175 0.020368454039758371 0 0.00073861674297161239 0.019942853624573341 0 0.00039986357720364326 0.02254324103717056 0 -0.00030881636210489816 0.020671590656765014 0 -0.00014658625786659557 0.020736969137189271 0 -0.00088905269258115669 0.020698546595730297 0 -6.5971597016614703e-05 0.020582482972877351 0 -0.00025437865967587093 0.020218688983627869 0 -0.00041767650563878417 0.020438003212615033 0 -6.5971597016614703e-05 0.020582482972877351 0 -0.00041767650563878417 0.020438003212615033 0 -0.00030881636210489816 0.020671590656765014 0 -8.4143550604191158e-05 0.020579816457514288 0 -0.00030881636210489816 0.020671590656765014 0 -0.00014658625786659557 0.020736969137189271 0 -0.0012364816661641078 0.018294279242390528 0 -0.00057990961635339116 0.019588785631240446 0 -0.0012364816661641078 0.018294279242390528 0 -0.00079101539495956847 0.022081693768164105 0 -0.00041767650563878417 0.020438003212615033 0 -0.00030881636210489816 0.020671590656765014 0 -0.00088905269258115669 0.020698546595730297 0 -0.00041767650563878417 0.020438003212615033 0 -0.00088905269258115669 0.020698546595730297 0 -0.00066274460713178175 0.020368454039758371 0 -0.00079101539495956847 0.022081693768164105 0 -0.00042536284613421379 0.022699152677123045 0 -5.7489116536025648e-07 0.024998365160953658 0 0.00039986357720364326 0.02254324103717056 0 -6.8807357890421274e-09 0.025000019801780314 0 1.5818813980455401e-08 0.024999952882658293 0 1.0285541935724751e-05 0.024986172059433844 0 -0.00042536284613421379 0.022699152677123045 0 0.00039986357720364326 0.02254324103717056 0 0.00039986357720364326 0.02254324103717056 0 0.00089165536282676406 0.022605928258113955 0 -2.8733551306515958e-08 0.024999841453861259 0 1.5943868278015577e-05 0.024999086104468861 0 1.379168345384649e-05 0.024970903159015932 0 1.5943868278015577e-05 0.024999086104468861 0 1.379168345384649e-05 0.024970903159015932 0 8.4346937594929859e-05 0.024928440490592785 0 -2.8733551306515958e-08 0.024999841453861259 0 1.379168345384649e-05 0.024970903159015932 0 7.5288271392710517e-08 0.025000255823935523 0 1.379168345384649e-05 0.024970903159015932 0 1.8796275405872916e-05 0.024914950756003886 0 7.5288271392710517e-08 0.025000255823935523 0 1.8796275405872916e-05 0.024914950756003886 0 7.5288271392710517e-08 0.025000255823935523 0 1.5031479934405972e-05 0.024732296708739786 0 1.379168345384649e-05 0.024970903159015932 0 1.8796275405872916e-05 0.024914950756003886 0 8.4346937594929859e-05 0.024928440490592785 0 0.00089165536282676406 0.022605928258113955 0 0.00042387237593694699 0.023095574658244442 0 0.0015116173955145344 0.020463955894081946 0 0.00084321712039540388 0.021616475201205493 0 0.00077331868469404262 0.020716624847931991 0 1.8796275405872916e-05 0.024914950756003886 0 8.4346937594929859e-05 0.024928440490592785 0 1.5031479934405972e-05 0.024732296708739786 0 0.0013349722482459505 0.019746874421695582 0 0.0015116173955145344 0.020463955894081946 0 0.00077331868469404262 0.020716624847931991 0 8.4346937594929859e-05 0.024928440490592785 0 1.5031479934405972e-05 0.024732296708739786 0 0.00017887866536227186 0.024486517751615335 0 1.5031479934405972e-05 0.024732296708739786 0 6.2088999086103961e-05 0.024367319184085735 0 0.00017887866536227186 0.024486517751615335 0 6.2088999086103961e-05 0.024367319184085735 0 6.1919702276194596e-05 0.023991691176882886 0 0.00017887866536227186 0.024486517751615335 0 7.5288271392710517e-08 0.025000255823935523 0 1.5031479934405972e-05 0.024732296708739786 0 -4.2387047822566152e-07 0.024997928604065491 0 1.5031479934405972e-05 0.024732296708739786 0 -4.2387047822566152e-07 0.024997928604065491 0 6.2088999086103961e-05 0.024367319184085735 0 -6.0621569847847657e-08 0.025000575656999358 0 5.3894318930167307e-08 0.02499940267094241 0 2.7843336537327934e-05 0.024902634948225939 0 -4.2387047822566152e-07 0.024997928604065491 0 6.2088999086103961e-05 0.024367319184085735 0 9.6362914023573324e-05 0.024224841263320741 0 6.5113271543182574e-08 0.024999506312532081 0 0.0001390942315488078 0.024831728630056456 0 -6.3326884804187766e-09 0.02500000345283095 0 1.0057308598202966e-05 0.024940997914282195 0 6.2088999086103961e-05 0.024367319184085735 0 8.958222935818774e-05 0.024042554287549842 0 6.1919702276194596e-05 0.023991691176882886 0 6.2088999086103961e-05 0.024367319184085735 0 9.6362914023573324e-05 0.024224841263320741 0 8.958222935818774e-05 0.024042554287549842 0 4.6528846027414484e-06 0.024323956707468512 0 9.6362914023573324e-05 0.024224841263320741 0 8.958222935818774e-05 0.024042554287549842 0 5.3894318930167307e-08 0.02499940267094241 0 2.7843336537327934e-05 0.024902634948225939 0 5.7711776101619152e-06 0.024925888924688028 0 1.8535195526569969e-05 0.024768349069258351 0 2.7843336537327934e-05 0.024902634948225939 0 5.7711776101619152e-06 0.024925888924688028 0 -2.3578513670937751e-09 0.024999995583786568 0 5.0169944840499025e-09 0.025000010105548955 0 1.1316653645751841e-06 0.025000077881644395 0 6.0587905710983525e-06 0.024997290965096949 0 5.0169944840499025e-09 0.025000010105548955 0 1.1316653645751841e-06 0.025000077881644395 0 -7.5657932801614892e-05 0.024962719375462093 0 1.0057308598202966e-05 0.024940997914282195 0 -0.0010988591078630373 0.02453372327462373 0 -0.00036856868057934798 0.024157903885216613 0 -0.0011688094433377151 0.023460875855053593 0 -0.00036856868057934798 0.024157903885216613 0 -0.00011619031697272087 0.023352806816372796 0 -0.0011688094433377151 0.023460875855053593 0 -0.00036856868057934798 0.024157903885216613 0 8.958222935818774e-05 0.024042554287549842 0 -0.00011619031697272087 0.023352806816372796 0 4.6528846027414484e-06 0.024323956707468512 0 -0.00036856868057934798 0.024157903885216613 0 8.958222935818774e-05 0.024042554287549842 0 6.1919702276194596e-05 0.023991691176882886 0 -0.00011619031697272087 0.023352806816372796 0 0.00017887866536227186 0.024486517751615335 0 8.958222935818774e-05 0.024042554287549842 0 6.1919702276194596e-05 0.023991691176882886 0 -0.00011619031697272087 0.023352806816372796 0 -0.00011619031697272087 0.023352806816372796 0 -0.0014666641805204659 0.022364292045237686 0 -0.0011688094433377151 0.023460875855053593 0 -0.00011619031697272087 0.023352806816372796 0 -0.00052016402908738575 0.021563053812485192 0 -0.0014666641805204659 0.022364292045237686 0 -0.00011619031697272087 0.023352806816372796 0 -0.00052016402908738575 0.021563053812485192 0 0.00084321712039540388 0.021616475201205493 0 -5.2929283287384024e-05 0.023413894826410479 0 0.00042387237593694699 0.023095574658244442 0 -0.00052016402908738575 0.021563053812485192 0 0.00084321712039540388 0.021616475201205493 0 0.00077331868469404262 0.020716624847931991 0 0.00040412659261533938 0.019963106827001503 0 -0.00052016402908738575 0.021563053812485192 0 0.00077331868469404262 0.020716624847931991 0 -0.00029344638280964352 0.018902295864588609 0 -0.00032732943725886996 0.021781735878502195 0 0.00040056481029664864 0.019493449721253581 0 -0.00052016402908738575 0.021563053812485192 0 -0.0017552736285307913 0.020175377329589177 0 -0.00052016402908738575 0.021563053812485192 0 -0.0017552736285307913 0.020175377329589177 0 -0.0023915654546948629 0.021244664534648565 0 -0.0016969042957173514 0.017365721292512418 0 -0.00164948920674214 0.017740470781937832 0 -0.0014162357404403185 0.014917756288446373 0 -0.00021723363803309722 0.014413204577758612 0 -0.00092999573438329688 0.015375280802888702 0 -0.00021723363803309722 0.014413204577758612 0 0.00015065889762890037 0.014941085358340928 0 -0.00092999573438329688 0.015375280802888702 0 -0.0017552736285307913 0.020175377329589177 0 -0.0032831600544552834 0.021035846054384334 0 -0.0023915654546948629 0.021244664534648565 0 -0.0032831600544552834 0.021035846054384334 0 -0.0034481001959786517 0.020927802696376147 0 -0.0023915654546948629 0.021244664534648565 0 -0.0034481001959786517 0.020927802696376147 0 -0.0023915654546948629 0.021244664534648565 0 -0.0024710951561177003 0.021842805614633729 0 -0.00052016402908738575 0.021563053812485192 0 -0.0023915654546948629 0.021244664534648565 0 -0.0014666641805204659 0.022364292045237686 0 -0.0023915654546948629 0.021244664534648565 0 -0.0014666641805204659 0.022364292045237686 0 -0.0024710951561177003 0.021842805614633729 0 -0.0014666641805204659 0.022364292045237686 0 -0.0020286346273277718 0.022638040670119729 0 -0.0011688094433377151 0.023460875855053593 0 -0.0020286346273277718 0.022638040670119729 0 -0.0011688094433377151 0.023460875855053593 0 -0.0022160566698198416 0.023420953572354065 0 -0.0014666641805204659 0.022364292045237686 0 -0.0020286346273277718 0.022638040670119729 0 -0.0024710951561177003 0.021842805614633729 0 -0.0034481001959786517 0.020927802696376147 0 -0.0029680078446325774 0.022471976191516724 0 -0.0039854997632234454 0.023738612945643181 0 -0.0020286346273277718 0.022638040670119729 0 -0.0024710951561177003 0.021842805614633729 0 -0.0029680078446325774 0.022471976191516724 0 -0.0034481001959786517 0.020927802696376147 0 -0.0024710951561177003 0.021842805614633729 0 -0.0029680078446325774 0.022471976191516724 0 -0.0020286346273277718 0.022638040670119729 0 -0.0029680078446325774 0.022471976191516724 0 -0.0022160566698198416 0.023420953572354065 0 -0.0029680078446325774 0.022471976191516724 0 -0.0031480101546018835 0.023468685220928785 0 -0.0022160566698198416 0.023420953572354065 0 -0.0031480101546018835 0.023468685220928785 0 -0.0032992173195995973 0.023896211663069582 0 -0.0022160566698198416 0.023420953572354065 0 -0.0029680078446325774 0.022471976191516724 0 -0.0031480101546018835 0.023468685220928785 0 -0.0039854997632234454 0.023738612945643181 0 -0.0031480101546018835 0.023468685220928785 0 -0.0032992173195995973 0.023896211663069582 0 -0.0039854997632234454 0.023738612945643181 0 -0.002242427313906112 0.017736695546577589 0 -0.0024977367240331433 0.017428887227993645 0 -0.0013163736475230673 0.021559145371327769 0 -0.002242427313906112 0.017736695546577589 0 -0.0010988591078630373 0.02453372327462373 0 -0.0011688094433377151 0.023460875855053593 0 -0.0022160566698198416 0.023420953572354065 0 -0.0010988591078630373 0.02453372327462373 0 -0.0032992173195995973 0.023896211663069582 0 -0.0022160566698198416 0.023420953572354065 0 -0.0015675755038539283 0.017978056261116173 0 -9.8551392298308502e-05 0.018618372616355509 0 -0.00045959340162500176 0.016543107823099434 0 -0.002130294521173577 0.015698138744016252 0 -0.0015675755038539283 0.017978056261116173 0 -0.00045959340162500176 0.016543107823099434 0 -0.0024977367240331433 0.017428887227993645 0 -0.0022400758615234808 0.01774056212689518 0 -0.002130294521173577 0.015698138744016252 0 -0.0042129492803600014 0.016673867721260286 0 -0.0015675755038539283 0.017978056261116173 0 -0.0036413243213917865 0.017472174810278147 0 -0.0026072080093180535 0.019444975073547258 0 -0.0015675755038539283 0.017978056261116173 0 -0.0038734714609142211 0.022197563079717968 0 -0.0024977367240331433 0.017428887227993645 0 -0.0034481001959786517 0.020927802696376147 0 -0.0036413243213917865 0.017472174810278147 0 -0.0026072080093180535 0.019444975073547258 0 -0.0034481001959786517 0.020927802696376147 0 -0.0026072080093180535 0.019444975073547258 0 -0.0026223542745658275 0.020595449312452982 0 -0.0026072080093180535 0.019444975073547258 0 -0.0016289975264867211 0.019741484622144777 0 -0.0026223542745658275 0.020595449312452982 0 -0.0026072080093180535 0.019444975073547258 0 -0.0016289975264867211 0.019741484622144777 0 -0.0015675755038539283 0.017978056261116173 0 -0.0016289975264867211 0.019741484622144777 0 -0.0015675755038539283 0.017978056261116173 0 -9.8551392298308502e-05 0.018618372616355509 0 -0.0016289975264867211 0.019741484622144777 0 -0.0012441352049428667 0.021139000633339636 0 -9.8551392298308502e-05 0.018618372616355509 0 -0.0016289975264867211 0.019741484622144777 0 -0.0012441352049428667 0.021139000633339636 0 -0.0026223542745658275 0.020595449312452982 0 -0.0032831600544552834 0.021035846054384334 0 -0.0034481001959786517 0.020927802696376147 0 -0.0026223542745658275 0.020595449312452982 0 -0.0032831600544552834 0.021035846054384334 0 -0.0012441352049428667 0.021139000633339636 0 -0.0026223542745658275 0.020595449312452982 0 -0.00164948920674214 0.017740470781937832 0 -6.105435810110819e-05 0.017482197487922048 0 -0.00021723363803309722 0.014413204577758612 0 0.0011006183218184992 0.013898919390844148 0 0.00058080721986966102 0.014411404552785887 0 -0.00021723363803309722 0.014413204577758612 0 0.00015065889762890037 0.014941085358340928 0 0.00058080721986966102 0.014411404552785887 0 0.00017865556285055311 0.014819481388968245 0 0.0011948449941787285 0.014430625382757847 0 0.00015065889762890037 0.014941085358340928 0 0.0012738580388160865 0.014392440209309755 0 0.00058080721986966102 0.014411404552785887 0 0.00019784446225331061 0.014705424439122147 0 0.0012738580388160865 0.014392440209309755 0 0.00091859360027778743 0.015031708436008108 0 0.0011006183218184992 0.013898919390844148 0 0.0012738580388160865 0.014392440209309755 0 0.00058080721986966102 0.014411404552785887 0 0.00091859360027778743 0.015031708436008108 0 0.0011813249700929503 0.015743793770670138 0 0.0017151525778448117 0.015128752802734092 0 0.0012738580388160865 0.014392440209309755 0 0.00091859360027778743 0.015031708436008108 0 0.0013840313692150361 0.014795712616570271 0 0.0011813249700929503 0.015743793770670138 0 0.00020780673213424672 0.015529580992927937 0 0.00059519079959174394 0.016473139644653027 0 0.00091859360027778743 0.015031708436008108 0 0.0011813249700929503 0.015743793770670138 0 0.00020780673213424672 0.015529580992927937 0 0.00020780673213424672 0.015529580992927937 0 -0.00029490079034416643 0.016233067433193138 0 0.00059519079959174394 0.016473139644653027 0 0.00019784446225331061 0.014705424439122147 0 0.00091859360027778743 0.015031708436008108 0 0.00020780673213424672 0.015529580992927937 0 0.00019784446225331061 0.014705424439122147 0 0.00020780673213424672 0.015529580992927937 0 -0.00024493842786330489 0.015255338653536548 0 0.00019784446225331061 0.014705424439122147 0 -0.00024493842786330489 0.015255338653536548 0 -0.00084374690801746876 0.015140052853942031 0 0.00017865556285055311 0.014819481388968245 0 -0.00084790237320580598 0.01527316425821492 0 -0.00024493842786330489 0.015255338653536548 0 -0.00084374690801746876 0.015140052853942031 0 -0.00053379279161990998 0.015647736401759645 0 -0.0020054071516930434 0.015445056388246697 0 -0.00084790237320580598 0.01527316425821492 0 -0.0019006053423351052 0.015745664470264303 0 -0.0014162357404403185 0.014917756288446373 0 -0.00092999573438329688 0.015375280802888702 0 -0.001708735893355594 0.015562459330546377 0 -0.00084374690801746876 0.015140052853942031 0 -0.0011523895104557473 0.015680821379726862 0 -0.00084374690801746876 0.015140052853942031 0 -0.0011523895104557473 0.015680821379726862 0 -0.00053379279161990998 0.015647736401759645 0 -0.0011523895104557473 0.015680821379726862 0 -0.00053379279161990998 0.015647736401759645 0 -0.0011056726520365754 0.016159800486372555 0 -0.0015264414385231179 0.01589243385960178 0 -0.0011523895104557473 0.015680821379726862 0 -0.0011056726520365754 0.016159800486372555 0 0.00020780673213424672 0.015529580992927937 0 -0.00024493842786330489 0.015255338653536548 0 -0.00053379279161990998 0.015647736401759645 0 -0.00053379279161990998 0.015647736401759645 0 -0.00029490079034416643 0.016233067433193138 0 -0.0011056726520365754 0.016159800486372555 0 0.00020780673213424672 0.015529580992927937 0 -0.00053379279161990998 0.015647736401759645 0 -0.00029490079034416643 0.016233067433193138 0 -0.00029490079034416643 0.016233067433193138 0 -0.00059428707019401118 0.017027078857388182 0 0.00011317206718945706 0.01725725221546771 0 -0.00029490079034416643 0.016233067433193138 0 -0.0014457129081817601 0.016193583235565606 0 -0.00059428707019401118 0.017027078857388182 0 -0.00027636711754323623 0.016251564688997456 0 -0.0015161297437627644 0.016021836444711165 0 -0.0018754980259093129 0.016753746216991047 0 -0.0014457129081817601 0.016193583235565606 0 -0.0013878168460456617 0.017216498498537833 0 -0.0014457129081817601 0.016193583235565606 0 -0.0013878168460456617 0.017216498498537833 0 -0.00059428707019401118 0.017027078857388182 0 -0.0022345280530587344 0.017496869586243857 0 -0.0013878168460456617 0.017216498498537833 0 -0.0014788584633559929 0.018016250506244318 0 -0.0022345280530587344 0.017496869586243857 0 -0.0018754980259093129 0.016753746216991047 0 -0.0013878168460456617 0.017216498498537833 0 -0.0013878168460456617 0.017216498498537833 0 -0.00074716725290816086 0.017798195805640477 0 -0.0014788584633559929 0.018016250506244318 0 -0.00059428707019401118 0.017027078857388182 0 -0.00074716725290816086 0.017798195805640477 0 0.00011317206718945706 0.01725725221546771 0 -0.0013878168460456617 0.017216498498537833 0 -0.00059428707019401118 0.017027078857388182 0 -0.00074716725290816086 0.017798195805640477 0 0.00011317206718945706 0.01725725221546771 0 0.00084520109851913573 0.017596602572302271 0 0.00059519079959174394 0.016473139644653027 0 0.00084520109851913573 0.017596602572302271 0 0.00059519079959174394 0.016473139644653027 0 0.0014912415041512402 0.016606636087083286 0 0.0011813249700929503 0.015743793770670138 0 0.00059519079959174394 0.016473139644653027 0 0.0014912415041512402 0.016606636087083286 0 -0.00029490079034416643 0.016233067433193138 0 0.00011317206718945706 0.01725725221546771 0 0.00059519079959174394 0.016473139644653027 0 0.0024901822206087366 0.016618559697625341 0 0.0030665480080684128 0.015783675220709684 0 0.0020891919616250519 0.015833136263804507 0 0.0024901822206087366 0.016618559697625341 0 0.0014912415041512402 0.016606636087083286 0 0.0020891919616250519 0.015833136263804507 0 0.00084520109851913573 0.017596602572302271 0 0.0014912415041512402 0.016606636087083286 0 0.0019048780537856242 0.017435094714274454 0 0.0024901822206087366 0.016618559697625341 0 0.0014912415041512402 0.016606636087083286 0 0.0019048780537856242 0.017435094714274454 0 0.0024901822206087366 0.016618559697625341 0 0.0019048780537856242 0.017435094714274454 0 0.0027991691227060682 0.017686550634115693 0 0.0024901822206087366 0.016618559697625341 0 0.0032808229112887242 0.016947889048829354 0 0.0027991691227060682 0.017686550634115693 0 0.0024901822206087366 0.016618559697625341 0 0.0032808229112887242 0.016947889048829354 0 0.0031369790738745998 0.016378861672889437 0 0.0032808229112887242 0.016947889048829354 0 0.003822360489730134 0.016197215756355281 0 0.0041938479980066388 0.016952951074500257 0 0.0032808229112887242 0.016947889048829354 0 0.003822360489730134 0.016197215756355281 0 0.0031369790738745998 0.016378861672889437 0 0.003822360489730134 0.016197215756355281 0 0.0030665480080684128 0.015783675220709684 0 0.0037236950047723517 0.015494850668662491 0 0.003822360489730134 0.016197215756355281 0 0.0031369790738745998 0.016378861672889437 0 0.0030665480080684128 0.015783675220709684 0 0.0024901822206087366 0.016618559697625341 0 0.0031369790738745998 0.016378861672889437 0 0.0030665480080684128 0.015783675220709684 0 0.0030665480080684128 0.015783675220709684 0 0.0032522337312557697 0.014984969806685408 0 0.0025630841114698513 0.01506192562454354 0 0.0030665480080684128 0.015783675220709684 0 0.0037236950047723517 0.015494850668662491 0 0.0032522337312557697 0.014984969806685408 0 0.0032522337312557697 0.014984969806685408 0 0.0033818884249885799 0.014257998819021567 0 0.0039249970918601483 0.014874244273046592 0 0.0037236950047723517 0.015494850668662491 0 0.0032522337312557697 0.014984969806685408 0 0.0039249970918601483 0.014874244273046592 0 0.0032522337312557697 0.014984969806685408 0 0.0025630841114698513 0.01506192562454354 0 0.0026978966760155885 0.014463349338532881 0 0.0025630841114698513 0.01506192562454354 0 0.0017151525778448117 0.015128752802734092 0 0.0019550346591952076 0.014430846620159763 0 0.0025630841114698513 0.01506192562454354 0 0.0020891919616250519 0.015833136263804507 0 0.0017151525778448117 0.015128752802734092 0 0.0030665480080684128 0.015783675220709684 0 0.0025630841114698513 0.01506192562454354 0 0.0020891919616250519 0.015833136263804507 0 0.0011813249700929503 0.015743793770670138 0 0.0020891919616250519 0.015833136263804507 0 0.0017151525778448117 0.015128752802734092 0 0.0011813249700929503 0.015743793770670138 0 0.0014912415041512402 0.016606636087083286 0 0.0020891919616250519 0.015833136263804507 0 0.00091859360027778743 0.015031708436008108 0 0.0017151525778448117 0.015128752802734092 0 0.0013840313692150361 0.014795712616570271 0 0.0017151525778448117 0.015128752802734092 0 0.0013840313692150361 0.014795712616570271 0 0.0019550346591952076 0.014430846620159763 0 0.0012738580388160865 0.014392440209309755 0 0.0013840313692150361 0.014795712616570271 0 0.0019550346591952076 0.014430846620159763 0 0.0011006183218184992 0.013898919390844148 0 0.0012738580388160865 0.014392440209309755 0 0.0019550346591952076 0.014430846620159763 0 0.0019550346591952076 0.014430846620159763 0 0.0023076527583872383 0.013559808645704672 0 0.0026978966760155885 0.014463349338532881 0 0.0025630841114698513 0.01506192562454354 0 0.0019550346591952076 0.014430846620159763 0 0.0026978966760155885 0.014463349338532881 0 -6.105435810110819e-05 0.017482197487922048 0 0.0022564243612099586 0.016775557983291511 0 -0.0012441352049428667 0.021139000633339636 0 0.0022115458532534944 0.019987432030951872 0 -9.8551392298308502e-05 0.018618372616355509 0 0.0011006183218184992 0.013898919390844148 0 0.0019550346591952076 0.014430846620159763 0 0.0023076527583872383 0.013559808645704672 0 0.0022115458532534944 0.019987432030951872 0 -9.8551392298308502e-05 0.018618372616355509 0 0.0018221695868104741 0.016159201491004284 0 0.0022115458532534944 0.019987432030951872 0 0.0018221695868104741 0.016159201491004284 0 0.0035584661653569874 0.017674772157189041 0 0.0043595294968032964 0.015482490833810937 0 0.0018221695868104741 0.016159201491004284 0 0.0035584661653569874 0.017674772157189041 0 -9.8551392298308502e-05 0.018618372616355509 0 0.0018221695868104741 0.016159201491004284 0 -0.00045959340162500176 0.016543107823099434 0 -0.00039753302541006066 0.014173655283218544 0 0.0018221695868104741 0.016159201491004284 0 -0.00045959340162500176 0.016543107823099434 0 0.0043595294968032964 0.015482490833810937 0 0.0068519538115201896 0.016277967140471764 0 0.0055357264151445987 0.018690245080348486 0 0.0043595294968032964 0.015482490833810937 0 0.0035584661653569874 0.017674772157189041 0 0.0055357264151445987 0.018690245080348486 0 0.0022564243612099586 0.016775557983291511 0 0.0043799442728664918 0.016004206164061584 0 0.0022115458532534944 0.019987432030951872 0 0.0035584661653569874 0.017674772157189041 0 0.0055357264151445987 0.018690245080348486 0 0.0068519538115201896 0.016277967140471764 0 0.0055357264151445987 0.018690245080348486 0 0.0085629605786575851 0.017487982125438215 0 0.0043799442728664918 0.016004206164061584 0 0.0067280635293746165 0.015353266534755801 0 0.0033922368417938918 0.013302803599197548 0 0.0033818884249885799 0.014257998819021567 0 0.0039901029280535703 0.014167371564697554 0 0.0023076527583872383 0.013559808645704672 0 0.0033922368417938918 0.013302803599197548 0 0.0033818884249885799 0.014257998819021567 0 0.0023076527583872383 0.013559808645704672 0 0.0026978966760155885 0.014463349338532881 0 0.0033818884249885799 0.014257998819021567 0 0.0032522337312557697 0.014984969806685408 0 0.0026978966760155885 0.014463349338532881 0 0.0033818884249885799 0.014257998819021567 0 0.0033818884249885799 0.014257998819021567 0 0.0039901029280535703 0.014167371564697554 0 0.0039249970918601483 0.014874244273046592 0 0.0039901029280535703 0.014167371564697554 0 0.0044644309356947076 0.014151322509001328 0 0.0044038546026480465 0.0146667233692337 0 0.0048269143656948319 0.014334821141186433 0 0.0044644309356947076 0.014151322509001328 0 0.0044038546026480465 0.0146667233692337 0 0.0048269143656948319 0.014334821141186433 0 0.0044644309356947076 0.014151322509001328 0 0.004731121005985179 0.013883684010523331 0 0.004731121005985179 0.013883684010523331 0 0.004298439809674124 0.013700431367588283 0 0.0048179857927740767 0.013552327982878188 0 0.0044644309356947076 0.014151322509001328 0 0.004731121005985179 0.013883684010523331 0 0.004298439809674124 0.013700431367588283 0 0.004731121005985179 0.013883684010523331 0 0.0048179857927740767 0.013552327982878188 0 0.0049557954326252124 0.013707761195434454 0 0.0033922368417938918 0.013302803599197548 0 0.0039901029280535703 0.014167371564697554 0 0.004298439809674124 0.013700431367588283 0 0.0039901029280535703 0.014167371564697554 0 0.0044644309356947076 0.014151322509001328 0 0.004298439809674124 0.013700431367588283 0 0.0033922368417938918 0.013302803599197548 0 0.004298439809674124 0.013700431367588283 0 0.0043135350588109555 0.013107461332924921 0 0.004298439809674124 0.013700431367588283 0 0.0043135350588109555 0.013107461332924921 0 0.0048179857927740767 0.013552327982878188 0 0.0043135350588109555 0.013107461332924921 0 0.0048179857927740767 0.013552327982878188 0 0.005181133576423874 0.012863306290339062 0 0.0067280635293746165 0.015353266534755801 0 0.006745779332929077 0.014071423569715698 0 0.0089986337437183081 0.015515583401518885 0 0.0085629605786575851 0.017487982125438215 0 0.011252030784398667 0.016533019352060762 0 0.0068812101286061097 0.014202994730643754 0 0.006745779332929077 0.014071423569715698 0 0.0089986337437183081 0.015515583401518885 0 0.0068519538115201896 0.016277967140471764 0 0.0085629605786575851 0.017487982125438215 0 0.0038384001247338375 0.012404834714883742 0 0.004143761107157736 0.012467436605169724 0 0.004269171478240302 0.012282725549668926 0 0.0038102357156022848 0.012072104831768826 0 0.0052646423797094019 0.013378206224760197 0 0.005012428001047709 0.01328755932156959 0 0.0051284588040355012 0.013365640278034781 0 0.0052053880304783265 0.013223998916543795 0 0.0052402134989412621 0.013185746111106547 0 0.005012428001047709 0.01328755932156959 0 0.0052053880304783265 0.013223998916543795 0 0.005012428001047709 0.01328755932156959 0 0.0050003525542370517 0.01330726792349775 0 0.0051284588040355012 0.013365640278034781 0 0.0054385707166522143 0.013394838979105431 0 0.0049962835948113736 0.013298980953048359 0 0.0030252526802315291 0.011299856821683555 0 0.0052646423797094019 0.013378206224760197 0 0.0044764439665803601 0.012444252548609076 0 0.0049082551211165702 0.012880811883931394 0 0.0048242133905871927 0.012909515007023071 0 0.0052646423797094019 0.013378206224760197 0 0.006745779332929077 0.014071423569715698 0 0.0052646423797094019 0.013378206224760197 0 0.0054385707166522143 0.013394838979105431 0 0.0058520716124652126 0.0136151444450396 0 0.0053898492917234166 0.013760213437036272 0 0.0056814951619586053 0.013888597259345083 0 0.006745779332929077 0.014071423569715698 0 0.0054385707166522143 0.013394838979105431 0 0.0048179857927740767 0.013552327982878188 0 0.005181133576423874 0.012863306290339062 0 0.0052588266073184502 0.012897631113114136 0 0.0048179857927740767 0.013552327982878188 0 0.0050171798761462676 0.013309052571194758 0 0.0050002675332289099 0.01352469236059569 0 0.0047947040773218775 0.013457138682949904 0 0.0054385707166522143 0.013394838979105431 0 0.0050171798761462676 0.013309052571194758 0 0.0050002675332289099 0.01352469236059569 0 0.0051284588040355012 0.013365640278034781 0 0.0050002675332289099 0.01352469236059569 0 0.0051284588040355012 0.013365640278034781 0 0.0051949995075037409 0.013321014844730215 0 0.0049671917915226384 0.013486022073915437 0 0.0054206923593508281 0.013498497662552206 0 0.0050002675332289099 0.01352469236059569 0 0.0052747059017502736 0.013561170699582402 0 0.0054104411187465484 0.013390100768897935 0 0.0050002675332289099 0.01352469236059569 0 0.0052747059017502736 0.013561170699582402 0 0.005156883407110977 0.013724236563039345 0 0.0052747059017502736 0.013561170699582402 0 0.0054211403692159032 0.013559342498219098 0 0.0054104411187465484 0.013390100768897935 0 0.0052747059017502736 0.013561170699582402 0 0.005359358527146107 0.013690780864225972 0 0.0054211403692159032 0.013559342498219098 0 0.0052747059017502736 0.013561170699582402 0 0.005359358527146107 0.013690780864225972 0 0.005156883407110977 0.013724236563039345 0 0.005359358527146107 0.013690780864225972 0 0.005156883407110977 0.013724236563039345 0 0.005279146589635934 0.013931478678943473 0 0.005156883407110977 0.013724236563039345 0 0.0050336464846963249 0.013944135742129391 0 0.005279146589635934 0.013931478678943473 0 0.005359358527146107 0.013690780864225972 0 0.005279146589635934 0.013931478678943473 0 0.005469915208186924 0.013837988628016844 0 0.0048179857927740767 0.013552327982878188 0 0.0050002675332289099 0.01352469236059569 0 0.0049557954326252124 0.013707761195434454 0 0.0050002675332289099 0.01352469236059569 0 0.005156883407110977 0.013724236563039345 0 0.0049557954326252124 0.013707761195434454 0 0.005156883407110977 0.013724236563039345 0 0.0049557954326252124 0.013707761195434454 0 0.0050336464846963249 0.013944135742129391 0 0.004731121005985179 0.013883684010523331 0 0.0049557954326252124 0.013707761195434454 0 0.0050336464846963249 0.013944135742129391 0 0.0048269143656948319 0.014334821141186433 0 0.004731121005985179 0.013883684010523331 0 0.0050336464846963249 0.013944135742129391 0 0.0050336464846963249 0.013944135742129391 0 0.0051425942574364466 0.01426820989817652 0 0.005279146589635934 0.013931478678943473 0 0.0048269143656948319 0.014334821141186433 0 0.0050336464846963249 0.013944135742129391 0 0.0051425942574364466 0.01426820989817652 0 0.0051425942574364466 0.01426820989817652 0 0.005279146589635934 0.013931478678943473 0 0.0054262793777260926 0.014215394598164682 0 0.005279146589635934 0.013931478678943473 0 0.0054262793777260926 0.014215394598164682 0 0.005469915208186924 0.013837988628016844 0 0.0054262793777260926 0.014215394598164682 0 0.0053522086116865909 0.014567246500121213 0 0.0055543383028919978 0.014481283770162732 0 0.0051425942574364466 0.01426820989817652 0 0.0054262793777260926 0.014215394598164682 0 0.0053522086116865909 0.014567246500121213 0 0.0054398304202047604 0.015139464364274397 0 0.0063923100147174946 0.015023865729488863 0 0.0059659790495465402 0.015503579188085408 0 0.0053522086116865909 0.014567246500121213 0 0.0054398304202047604 0.015139464364274397 0 0.0055543383028919978 0.014481283770162732 0 0.0054555665828102196 0.015092559248572049 0 0.005996963186673007 0.014922645400003787 0 0.0053522086116865909 0.014567246500121213 0 0.0054398304202047604 0.015139464364274397 0 0.0051000840316058702 0.014713440904035506 0 0.0054398304202047604 0.015139464364274397 0 0.0050191248091421619 0.015200166127936 0 0.0051000840316058702 0.014713440904035506 0 0.0050191248091421619 0.015200166127936 0 0.0051000840316058702 0.014713440904035506 0 0.004780370355553191 0.014811125449913295 0 0.0051425942574364466 0.01426820989817652 0 0.0053522086116865909 0.014567246500121213 0 0.0051000840316058702 0.014713440904035506 0 0.0048269143656948319 0.014334821141186433 0 0.0051425942574364466 0.01426820989817652 0 0.0051000840316058702 0.014713440904035506 0 0.0048269143656948319 0.014334821141186433 0 0.0051000840316058702 0.014713440904035506 0 0.004780370355553191 0.014811125449913295 0 0.0048269143656948319 0.014334821141186433 0 0.004780370355553191 0.014811125449913295 0 0.0044038546026480465 0.0146667233692337 0 0.004780370355553191 0.014811125449913295 0 0.0044038546026480465 0.0146667233692337 0 0.0044467043684134353 0.015404185018349946 0 0.0039249970918601483 0.014874244273046592 0 0.0044038546026480465 0.0146667233692337 0 0.0044467043684134353 0.015404185018349946 0 0.0039901029280535703 0.014167371564697554 0 0.0039249970918601483 0.014874244273046592 0 0.0044038546026480465 0.0146667233692337 0 0.003822360489730134 0.016197215756355281 0 0.0037236950047723517 0.015494850668662491 0 0.0044467043684134353 0.015404185018349946 0 0.0037236950047723517 0.015494850668662491 0 0.0039249970918601483 0.014874244273046592 0 0.0044467043684134353 0.015404185018349946 0 0.0050191248091421619 0.015200166127936 0 0.0044467043684134353 0.015404185018349946 0 0.0050922883048601869 0.015850707778581923 0 0.0050191248091421619 0.015200166127936 0 0.004780370355553191 0.014811125449913295 0 0.0044467043684134353 0.015404185018349946 0 0.0044467043684134353 0.015404185018349946 0 0.0045278338584893241 0.016161074914752882 0 0.0050922883048601869 0.015850707778581923 0 0.003822360489730134 0.016197215756355281 0 0.0044467043684134353 0.015404185018349946 0 0.0045278338584893241 0.016161074914752882 0 0.0045278338584893241 0.016161074914752882 0 0.0041938479980066388 0.016952951074500257 0 0.0049946346231826482 0.016487947716280746 0 0.003822360489730134 0.016197215756355281 0 0.0045278338584893241 0.016161074914752882 0 0.0041938479980066388 0.016952951074500257 0 0.0045278338584893241 0.016161074914752882 0 0.0049946346231826482 0.016487947716280746 0 0.0050922883048601869 0.015850707778581923 0 0.0050385672989727587 0.016413396729742857 0 0.0059007106041675103 0.015972149398904182 0 0.0049946346231826482 0.016487947716280746 0 0.0055293349314267564 0.016072334583540075 0 0.0050922883048601869 0.015850707778581923 0 0.0049946346231826482 0.016487947716280746 0 0.0062835206416207295 0.015810691564243785 0 0.0062145962071680667 0.016594153066841637 0 0.0054398304202047604 0.015139464364274397 0 0.0055293349314267564 0.016072334583540075 0 0.0059659790495465402 0.015503579188085408 0 0.0054398304202047604 0.015139464364274397 0 0.0055293349314267564 0.016072334583540075 0 0.0050922883048601869 0.015850707778581923 0 0.0054398304202047604 0.015139464364274397 0 0.0050191248091421619 0.015200166127936 0 0.0050922883048601869 0.015850707778581923 0 0.0054732940150759492 0.017179724348441314 0 0.0061864647037975628 0.017684876253972429 0 0.0054295364471537459 0.017182508441493844 0 0.0054689380284652133 0.018555176977333825 0 0.0063097189194568932 0.018546345889349836 0 0.0062145962071680667 0.016594153066841637 0 0.0054295364471537459 0.017182508441493844 0 0.0062079980472228864 0.016983735666723412 0 0.0062145962071680667 0.016594153066841637 0 0.0062079980472228864 0.016983735666723412 0 0.0068010648813321044 0.016673294721731173 0 0.0062145962071680667 0.016594153066841637 0 0.0068010648813321044 0.016673294721731173 0 0.006914488119978481 0.016116474718984121 0 0.0062835206416207295 0.015810691564243785 0 0.0062145962071680667 0.016594153066841637 0 0.006914488119978481 0.016116474718984121 0 0.0049946346231826482 0.016487947716280746 0 0.0062145962071680667 0.016594153066841637 0 0.0054295364471537459 0.017182508441493844 0 0.0049946346231826482 0.016487947716280746 0 0.0054295364471537459 0.017182508441493844 0 0.004742848071972651 0.017202172295896732 0 0.0054295364471537459 0.017182508441493844 0 0.004742848071972651 0.017202172295896732 0 0.0044520424888309885 0.018066238417572964 0 0.0041938479980066388 0.016952951074500257 0 0.0044520424888309885 0.018066238417572964 0 0.0036067081040204647 0.017832635781755323 0 0.0041938479980066388 0.016952951074500257 0 0.004742848071972651 0.017202172295896732 0 0.0044520424888309885 0.018066238417572964 0 0.0041938479980066388 0.016952951074500257 0 0.0049946346231826482 0.016487947716280746 0 0.004742848071972651 0.017202172295896732 0 0.0054295364471537459 0.017182508441493844 0 0.0044520424888309885 0.018066238417572964 0 0.0054689380284652133 0.018555176977333825 0 0.0048577132458308119 0.019151547812789927 0 0.0054689380284652133 0.018555176977333825 0 0.0055419804836144872 0.019711034675601865 0 0.0044520424888309885 0.018066238417572964 0 0.0048577132458308119 0.019151547812789927 0 0.0054689380284652133 0.018555176977333825 0 0.0044520424888309885 0.018066238417572964 0 0.0048577132458308119 0.019151547812789927 0 0.0039796430352413165 0.018920405410256878 0 0.0048577132458308119 0.019151547812789927 0 0.0042686215100240172 0.019728528524497538 0 0.0039796430352413165 0.018920405410256878 0 0.0048577132458308119 0.019151547812789927 0 0.0042686215100240172 0.019728528524497538 0 0.0048979213401874611 0.020221098040720403 0 0.0042686215100240172 0.019728528524497538 0 0.0048979213401874611 0.020221098040720403 0 0.0041798376057035633 0.020338437598501742 0 0.0048577132458308119 0.019151547812789927 0 0.0055419804836144872 0.019711034675601865 0 0.0048979213401874611 0.020221098040720403 0 0.0055419804836144872 0.019711034675601865 0 0.0063085455648230074 0.019308326708478395 0 0.0063202802134797063 0.019992480795770567 0 0.0054689380284652133 0.018555176977333825 0 0.0063097189194568932 0.018546345889349836 0 0.0063085455648230074 0.019308326708478395 0 0.0054689380284652133 0.018555176977333825 0 0.0055419804836144872 0.019711034675601865 0 0.0063085455648230074 0.019308326708478395 0 0.0062079980472228864 0.016983735666723412 0 0.0068010648813321044 0.016673294721731173 0 0.0067640137302864608 0.017403500365487563 0 0.0063097189194568932 0.018546345889349836 0 0.0063085455648230074 0.019308326708478395 0 0.0069422959232677828 0.01941391509894656 0 0.0061864647037975628 0.017684876253972429 0 0.0068741568664361747 0.018756599197238169 0 0.0063202802134797063 0.019992480795770567 0 0.0069422959232677828 0.01941391509894656 0 0.0070214433061431642 0.020127578304285233 0 0.0063085455648230074 0.019308326708478395 0 0.0063202802134797063 0.019992480795770567 0 0.0069422959232677828 0.01941391509894656 0 0.0063202802134797063 0.019992480795770567 0 0.0060907296374130291 0.021066592334859843 0 0.0068389795152132725 0.020624832185132655 0 0.0063202802134797063 0.019992480795770567 0 0.0068389795152132725 0.020624832185132655 0 0.0070214433061431642 0.020127578304285233 0 0.0055419804836144872 0.019711034675601865 0 0.0063202802134797063 0.019992480795770567 0 0.0055379251177837523 0.020617369764469599 0 0.0063202802134797063 0.019992480795770567 0 0.0052813440006374704 0.020532507191916721 0 0.0060907296374130291 0.021066592334859843 0 0.0062279683860787536 0.020053131699174755 0 0.0054370706111183994 0.020525618250451089 0 0.0052813440006374704 0.020532507191916721 0 0.0052362704585646814 0.021351862594414257 0 0.0060907296374130291 0.021066592334859843 0 0.0060907296374130291 0.021066592334859843 0 0.006930911043388061 0.02130845878948779 0 0.0068389795152132725 0.020624832185132655 0 0.0060907296374130291 0.021066592334859843 0 0.0064329921283299667 0.02187368122903521 0 0.006930911043388061 0.02130845878948779 0 0.0060907296374130291 0.021066592334859843 0 0.0064329921283299667 0.02187368122903521 0 0.0057328826028905933 0.021797684416778887 0 0.0064329921283299667 0.02187368122903521 0 0.0057328826028905933 0.021797684416778887 0 0.0059097584669086595 0.022512210972665425 0 0.0052362704585646814 0.021351862594414257 0 0.0060907296374130291 0.021066592334859843 0 0.0057328826028905933 0.021797684416778887 0 0.0052362704585646814 0.021351862594414257 0 0.0057328826028905933 0.021797684416778887 0 0.0050486921753609857 0.022326890091126581 0 0.0057328826028905933 0.021797684416778887 0 0.0059097584669086595 0.022512210972665425 0 0.0050486921753609857 0.022326890091126581 0 0.0059097584669086595 0.022512210972665425 0 0.0050486921753609857 0.022326890091126581 0 0.0054526798358999684 0.023154621430836877 0 0.0059097584669086595 0.022512210972665425 0 0.0066836648103746716 0.022642738723340841 0 0.0061467019757240485 0.02309917450787095 0 0.0064329921283299667 0.02187368122903521 0 0.0059097584669086595 0.022512210972665425 0 0.0066836648103746716 0.022642738723340841 0 0.0035534575243918449 0.022982448675958202 0 0.0044528743447652926 0.022954678408356959 0 0.0040249402992433379 0.022243323927339548 0 0.0035534575243918449 0.022982448675958202 0 0.0040249402992433379 0.022243323927339548 0 0.0031064799152760933 0.022094855001505015 0 0.0044528743447652926 0.022954678408356959 0 0.0050486921753609857 0.022326890091126581 0 0.0054526798358999684 0.023154621430836877 0 0.0044528743447652926 0.022954678408356959 0 0.0050486921753609857 0.022326890091126581 0 0.0040249402992433379 0.022243323927339548 0 0.0048905578322168504 0.022142546645126986 0 0.0045558870230766567 0.021528508058167667 0 0.0050486921753609857 0.022326890091126581 0 0.0040249402992433379 0.022243323927339548 0 0.0041773143244084451 0.021278449544759426 0 0.0052362704585646814 0.021351862594414257 0 0.0050486921753609857 0.022326890091126581 0 0.0043009152291408293 0.021146616213503854 0 0.0040249402992433379 0.022243323927339548 0 0.0041773143244084451 0.021278449544759426 0 0.0031064799152760933 0.022094855001505015 0 0.0045558870230766567 0.021528508058167667 0 0.003549765648216829 0.022596713708622641 0 0.0045558870230766567 0.021528508058167667 0 0.0043520068157430029 0.020815592469005596 0 0.0051370525892691617 0.022305629506865585 0 0.0041974498402897768 0.022154225329262426 0 0.0039466291392548734 0.023042155021119743 0 0.0051370525892691617 0.022305629506865585 0 0.0044261600182899548 0.021207700545506133 0 0.0041974498402897768 0.022154225329262426 0 0.0052813440006374704 0.020532507191916721 0 0.0052362704585646814 0.021351862594414257 0 0.0043009152291408293 0.021146616213503854 0 0.0054370706111183994 0.020525618250451089 0 0.0045558870230766567 0.021528508058167667 0 0.0055419804836144872 0.019711034675601865 0 0.0055379251177837523 0.020617369764469599 0 0.0048979213401874611 0.020221098040720403 0 0.0055379251177837523 0.020617369764469599 0 0.0047499516777175467 0.021148269644402532 0 0.0048979213401874611 0.020221098040720403 0 0.0047499516777175467 0.021148269644402532 0 0.0048979213401874611 0.020221098040720403 0 0.0041798376057035633 0.020338437598501742 0 0.0044261600182899548 0.021207700545506133 0 0.0028862565582163384 0.020968164789770549 0 0.0032960627920015492 0.022035137413235841 0 0.0032960627920015492 0.022035137413235841 0 0.0041974498402897768 0.022154225329262426 0 0.0039466291392548734 0.023042155021119743 0 0.0044261600182899548 0.021207700545506133 0 0.0032960627920015492 0.022035137413235841 0 0.0041974498402897768 0.022154225329262426 0 0.0039466291392548734 0.023042155021119743 0 0.0027714648180100152 0.023630553984723676 0 0.0026360042187685839 0.022805289588460956 0 0.0032960627920015492 0.022035137413235841 0 0.0039466291392548734 0.023042155021119743 0 0.0026360042187685839 0.022805289588460956 0 0.003549765648216829 0.022596713708622641 0 0.0025431271673629634 0.023307608962583878 0 0.0031064799152760933 0.022094855001505015 0 0.0022635730416593219 0.023028995432093451 0 0.0028490357763345767 0.023194412352349876 0 0.0035534575243918449 0.022982448675958202 0 0.0031064799152760933 0.022094855001505015 0 0.0028490357763345767 0.023194412352349876 0 0.0018210766606033307 0.023248795489871174 0 0.0012924568146333961 0.023726248685116566 0 0.0018011224598920184 0.023879333491321868 0 0.0018210766606033307 0.023248795489871174 0 0.0012908311210639979 0.023355039611355637 0 0.0012924568146333961 0.023726248685116566 0 0.0025431271673629634 0.023307608962583878 0 0.0018686724138785682 0.023822305900263498 0 0.0027714648180100152 0.023630553984723676 0 0.0018210766606033307 0.023248795489871174 0 0.0018011224598920184 0.023879333491321868 0 0.0027714648180100152 0.023630553984723676 0 0.0026360042187685839 0.022805289588460956 0 0.0018210766606033307 0.023248795489871174 0 0.0026360042187685839 0.022805289588460956 0 0.0018210766606033307 0.023248795489871174 0 0.0020395690358357794 0.02202400880336124 0 0.0018210766606033307 0.023248795489871174 0 0.0020395690358357794 0.02202400880336124 0 0.0012147392902430868 0.022750286184415911 0 0.0020395690358357794 0.02202400880336124 0 0.001238174594427676 0.021638510558552558 0 0.0012147392902430868 0.022750286184415911 0 0.0032960627920015492 0.022035137413235841 0 0.0026360042187685839 0.022805289588460956 0 0.0020395690358357794 0.02202400880336124 0 0.0028862565582163384 0.020968164789770549 0 0.0020395690358357794 0.02202400880336124 0 0.0018808397247170449 0.020969610195402895 0 0.0028862565582163384 0.020968164789770549 0 0.0032960627920015492 0.022035137413235841 0 0.0020395690358357794 0.02202400880336124 0 0.0020395690358357794 0.02202400880336124 0 0.0018808397247170449 0.020969610195402895 0 0.001238174594427676 0.021638510558552558 0 0.0018808397247170449 0.020969610195402895 0 0.0022908353972880017 0.019778174099139682 0 0.00097130956003550241 0.020353180935098039 0 0.0022908353972880017 0.019778174099139682 0 0.0015104415274992096 0.019175700867897438 0 0.00097130956003550241 0.020353180935098039 0 0.0028862565582163384 0.020968164789770549 0 0.0018808397247170449 0.020969610195402895 0 0.0022908353972880017 0.019778174099139682 0 0.0028862565582163384 0.020968164789770549 0 0.0022908353972880017 0.019778174099139682 0 0.0036195504997371375 0.019844974593226795 0 0.0043520068157430029 0.020815592469005596 0 0.0036318975498404902 0.019859895926627437 0 0.0044261600182899548 0.021207700545506133 0 0.0028862565582163384 0.020968164789770549 0 0.0036195504997371375 0.019844974593226795 0 0.0042686215100240172 0.019728528524497538 0 0.0041798376057035633 0.020338437598501742 0 0.0036195504997371375 0.019844974593226795 0 0.0036195504997371375 0.019844974593226795 0 0.0039796430352413165 0.018920405410256878 0 0.0030520238113746143 0.018822569272921068 0 0.0042686215100240172 0.019728528524497538 0 0.0036195504997371375 0.019844974593226795 0 0.0039796430352413165 0.018920405410256878 0 0.0022908353972880017 0.019778174099139682 0 0.0036195504997371375 0.019844974593226795 0 0.0030520238113746143 0.018822569272921068 0 0.0039796430352413165 0.018920405410256878 0 0.0030520238113746143 0.018822569272921068 0 0.0036067081040204647 0.017832635781755323 0 0.0044520424888309885 0.018066238417572964 0 0.0039796430352413165 0.018920405410256878 0 0.0036067081040204647 0.017832635781755323 0 0.0032808229112887242 0.016947889048829354 0 0.0041938479980066388 0.016952951074500257 0 0.0036067081040204647 0.017832635781755323 0 0.0032808229112887242 0.016947889048829354 0 0.0036067081040204647 0.017832635781755323 0 0.0027991691227060682 0.017686550634115693 0 0.0030520238113746143 0.018822569272921068 0 0.0036067081040204647 0.017832635781755323 0 0.0027991691227060682 0.017686550634115693 0 0.0019048780537856242 0.017435094714274454 0 0.0027991691227060682 0.017686550634115693 0 0.0022008533440960164 0.018352072525124632 0 0.0019048780537856242 0.017435094714274454 0 0.0014356137901563812 0.018254266287872592 0 0.0022008533440960164 0.018352072525124632 0 0.00084520109851913573 0.017596602572302271 0 0.0019048780537856242 0.017435094714274454 0 0.0014356137901563812 0.018254266287872592 0 0.0014356137901563812 0.018254266287872592 0 0.0015104415274992096 0.019175700867897438 0 0.0022008533440960164 0.018352072525124632 0 0.0022908353972880017 0.019778174099139682 0 0.0015104415274992096 0.019175700867897438 0 0.0022008533440960164 0.018352072525124632 0 0.0030520238113746143 0.018822569272921068 0 0.0027991691227060682 0.017686550634115693 0 0.0022008533440960164 0.018352072525124632 0 0.0022908353972880017 0.019778174099139682 0 0.0030520238113746143 0.018822569272921068 0 0.0022008533440960164 0.018352072525124632 0 0.00068137314947897811 0.018897964586887091 0 -0.00017140619765268865 0.018490958026899724 0 -0.00017730952792987175 0.019625238354677652 0 0.0014356137901563812 0.018254266287872592 0 0.0015104415274992096 0.019175700867897438 0 0.00068137314947897811 0.018897964586887091 0 0.00084520109851913573 0.017596602572302271 0 0.0014356137901563812 0.018254266287872592 0 0.00068137314947897811 0.018897964586887091 0 0.00084520109851913573 0.017596602572302271 0 0.00068137314947897811 0.018897964586887091 0 -0.00017140619765268865 0.018490958026899724 0 0.00011317206718945706 0.01725725221546771 0 0.00084520109851913573 0.017596602572302271 0 -0.00017140619765268865 0.018490958026899724 0 -0.00074716725290816086 0.017798195805640477 0 -0.00017140619765268865 0.018490958026899724 0 -0.0010659587659569195 0.018669665959905449 0 -0.00074716725290816086 0.017798195805640477 0 0.00011317206718945706 0.01725725221546771 0 -0.00017140619765268865 0.018490958026899724 0 -0.0022345280530587344 0.017496869586243857 0 -0.0014788584633559929 0.018016250506244318 0 -0.0019509218150718345 0.018921480293801866 0 -0.00074716725290816086 0.017798195805640477 0 -0.0010659587659569195 0.018669665959905449 0 -0.0014788584633559929 0.018016250506244318 0 -0.0010659587659569195 0.018669665959905449 0 -0.0014788584633559929 0.018016250506244318 0 -0.0019509218150718345 0.018921480293801866 0 -0.0013774674672248789 0.021014476233165727 0 -0.0013800016461429838 0.02060143975897151 0 -0.0019509218150718345 0.018921480293801866 0 -0.0011896656592100263 0.019502278441362892 0 -0.0013508106331966583 0.020514194719309573 0 -0.0010659587659569195 0.018669665959905449 0 -0.0019509218150718345 0.018921480293801866 0 -0.0011896656592100263 0.019502278441362892 0 -0.00017140619765268865 0.018490958026899724 0 -0.00074365514799662902 0.019343332316177644 0 -0.00017730952792987175 0.019625238354677652 0 -0.00017140619765268865 0.018490958026899724 0 -0.0010659587659569195 0.018669665959905449 0 -0.00074365514799662902 0.019343332316177644 0 -0.0010659587659569195 0.018669665959905449 0 -0.0011896656592100263 0.019502278441362892 0 -0.00074365514799662902 0.019343332316177644 0 -0.0011896656592100263 0.019502278441362892 0 -0.00074365514799662902 0.019343332316177644 0 -0.0008809334410839881 0.020000159929537326 0 -0.0008809334410839881 0.020000159929537326 0 -0.00065144140581714779 0.020592402863850171 0 -0.00017730952792987175 0.019625238354677652 0 -0.0008809334410839881 0.020000159929537326 0 -0.0013508106331966583 0.020514194719309573 0 -0.00065144140581714779 0.020592402863850171 0 -0.00074365514799662902 0.019343332316177644 0 -0.0008809334410839881 0.020000159929537326 0 -0.00017730952792987175 0.019625238354677652 0 -0.0013508106331966583 0.020514194719309573 0 -0.0012811019930117757 0.020229685029207578 0 -0.00019165176020545985 0.02182064090264739 0 -0.0011896656592100263 0.019502278441362892 0 -0.0008809334410839881 0.020000159929537326 0 -0.0013508106331966583 0.020514194719309573 0 -0.00085894037907916626 0.023353289253989148 0 -0.0013508106331966583 0.020514194719309573 0 -0.00019165176020545985 0.02182064090264739 0 -0.00049119561080282123 0.02158812746585495 0 -0.0012333028306260939 0.021268596748033823 0 -0.0009706344895664907 0.022153331561606707 0 -0.00049119561080282123 0.02158812746585495 0 -0.0012333028306260939 0.021268596748033823 0 7.7485743039653021e-05 0.020982846636781665 0 -0.0013508106331966583 0.020514194719309573 0 -0.0012811019930117757 0.020229685029207578 0 -0.00065144140581714779 0.020592402863850171 0 -0.00063546794769517951 0.022737235231910267 0 -0.00061158974329891499 0.023214942512175905 0 -0.00063546794769517951 0.022737235231910267 0 -0.00034978997504048225 0.020496289393040025 0 -0.00049119561080282123 0.02158812746585495 0 7.7485743039653021e-05 0.020982846636781665 0 2.6580545477471605e-05 0.022060607436063719 0 7.7485743039653021e-05 0.020982846636781665 0 0.00058343330253055362 0.021458226118617318 0 2.6580545477471605e-05 0.022060607436063719 0 7.7485743039653021e-05 0.020982846636781665 0 0.00058343330253055362 0.021458226118617318 0 0.00097130956003550241 0.020353180935098039 0 -0.00034978997504048225 0.020496289393040025 0 0.00096417240236790951 0.020468185833697819 0 0.00068137314947897811 0.018897964586887091 0 -0.00017730952792987175 0.019625238354677652 0 0.00097130956003550241 0.020353180935098039 0 -0.00065144140581714779 0.020592402863850171 0 -0.00017730952792987175 0.019625238354677652 0 0.00097130956003550241 0.020353180935098039 0 0.0015104415274992096 0.019175700867897438 0 0.00068137314947897811 0.018897964586887091 0 0.00097130956003550241 0.020353180935098039 0 0.0018808397247170449 0.020969610195402895 0 0.00097130956003550241 0.020353180935098039 0 0.001238174594427676 0.021638510558552558 0 0.00058343330253055362 0.021458226118617318 0 0.00097130956003550241 0.020353180935098039 0 0.001238174594427676 0.021638510558552558 0 0.00058343330253055362 0.021458226118617318 0 0.001238174594427676 0.021638510558552558 0 0.00064362255860758841 0.022260470539695078 0 0.00058343330253055362 0.021458226118617318 0 0.00064362255860758841 0.022260470539695078 0 2.6580545477471605e-05 0.022060607436063719 0 0.00064362255860758841 0.022260470539695078 0 0.00061651518773040684 0.023034007927330551 0 0.00015952525400749528 0.023117265489722684 0 0.00064362255860758841 0.022260470539695078 0 0.00061651518773040684 0.023034007927330551 0 0.0012147392902430868 0.022750286184415911 0 0.001238174594427676 0.021638510558552558 0 0.00064362255860758841 0.022260470539695078 0 0.0012147392902430868 0.022750286184415911 0 0.0018210766606033307 0.023248795489871174 0 0.0012147392902430868 0.022750286184415911 0 0.0012908311210639979 0.023355039611355637 0 0.0012147392902430868 0.022750286184415911 0 0.0012908311210639979 0.023355039611355637 0 0.00084776998750711477 0.02344221020039992 0 0.00084776998750711477 0.02344221020039992 0 0.00047288364510631852 0.023855693082848045 0 0.0003165798095749952 0.023509127032568997 0 0.00061651518773040684 0.023034007927330551 0 0.00084776998750711477 0.02344221020039992 0 0.0003165798095749952 0.023509127032568997 0 0.00061651518773040684 0.023034007927330551 0 0.0012147392902430868 0.022750286184415911 0 0.00084776998750711477 0.02344221020039992 0 0.00084776998750711477 0.02344221020039992 0 0.00047288364510631852 0.023855693082848045 0 0.00075163278209422989 0.02408486939777384 0 0.00084776998750711477 0.02344221020039992 0 0.0012924568146333961 0.023726248685116566 0 0.00075163278209422989 0.02408486939777384 0 0.0012908311210639979 0.023355039611355637 0 0.00084776998750711477 0.02344221020039992 0 0.0012924568146333961 0.023726248685116566 0 5.3307404941899118e-06 0.024157466594313892 0 0.00016913103934583913 0.02394439340361575 0 -8.4895315762919385e-05 0.023742910272844059 0 5.3307404941899118e-06 0.024157466594313892 0 0.00016913103934583913 0.02394439340361575 0 0.00036032068453981445 0.024190293506271329 0 0.00047288364510631852 0.023855693082848045 0 0.00016913103934583913 0.02394439340361575 0 0.0003165798095749952 0.023509127032568997 0 0.00047288364510631852 0.023855693082848045 0 0.00016913103934583913 0.02394439340361575 0 0.00036032068453981445 0.024190293506271329 0 0.0003165798095749952 0.023509127032568997 0 -8.4895315762919385e-05 0.023742910272844059 0 0.00015952525400749528 0.023117265489722684 0 0.00016913103934583913 0.02394439340361575 0 0.0003165798095749952 0.023509127032568997 0 -8.4895315762919385e-05 0.023742910272844059 0 5.3307404941899118e-06 0.024157466594313892 0 -8.4895315762919385e-05 0.023742910272844059 0 -0.00011928748532768445 0.024009265522014031 0 -8.4895315762919385e-05 0.023742910272844059 0 -0.00036574117742509176 0.023442647912950483 0 -0.00011928748532768445 0.024009265522014031 0 -0.00036574117742509176 0.023442647912950483 0 0.00015952525400749528 0.023117265489722684 0 2.6580545477471605e-05 0.022060607436063719 0 0.00061651518773040684 0.023034007927330551 0 0.0003165798095749952 0.023509127032568997 0 0.00015952525400749528 0.023117265489722684 0 -8.4895315762919385e-05 0.023742910272844059 0 -0.00036574117742509176 0.023442647912950483 0 0.00015952525400749528 0.023117265489722684 0 0.00064362255860758841 0.022260470539695078 0 0.00015952525400749528 0.023117265489722684 0 2.6580545477471605e-05 0.022060607436063719 0 -0.00044556544051860405 0.023424269236832784 0 -0.00061158974329891499 0.023214942512175905 0 -0.00049119561080282123 0.02158812746585495 0 2.6580545477471605e-05 0.022060607436063719 0 -0.0009706344895664907 0.022153331561606707 0 -0.00036574117742509176 0.023442647912950483 0 -0.00034678980665611334 0.024243302039005429 0 -0.00010050406047188423 0.024095243471259374 0 -0.00036574117742509176 0.023442647912950483 0 2.6580545477471605e-05 0.022060607436063719 0 -0.0009706344895664907 0.022153331561606707 0 -0.00011404897152017098 0.024367568283149392 0 -1.6618446568636954e-05 0.024445269432567033 0 -0.00010050406047188423 0.024095243471259374 0 -0.00025096845420700145 0.024523725868143578 0 -0.00034678980665611334 0.024243302039005429 0 -0.00011404897152017098 0.024367568283149392 0 -0.00034678980665611334 0.024243302039005429 0 -0.00011404897152017098 0.024367568283149392 0 -0.00010050406047188423 0.024095243471259374 0 -1.6618446568636954e-05 0.024445269432567033 0 1.0715706889641203e-05 0.024694151354160775 0 -2.3243786141878812e-05 0.024520871386294333 0 -0.00011404897152017098 0.024367568283149392 0 -1.6618446568636954e-05 0.024445269432567033 0 -2.3243786141878812e-05 0.024520871386294333 0 -1.6618446568636954e-05 0.024445269432567033 0 -4.9877287786960702e-05 0.024375773509600022 0 -5.681112540619884e-06 0.02471020912563103 0 -1.6618446568636954e-05 0.024445269432567033 0 -4.9877287786960702e-05 0.024375773509600022 0 -0.00010050406047188423 0.024095243471259374 0 -0.00036574117742509176 0.023442647912950483 0 -0.00010050406047188423 0.024095243471259374 0 -0.00011928748532768445 0.024009265522014031 0 -4.9877287786960702e-05 0.024375773509600022 0 -0.00010050406047188423 0.024095243471259374 0 -0.00011928748532768445 0.024009265522014031 0 5.3307404941899118e-06 0.024157466594313892 0 -0.00011928748532768445 0.024009265522014031 0 -7.2867400674959227e-05 0.024368530503802169 0 -4.9877287786960702e-05 0.024375773509600022 0 -0.00011928748532768445 0.024009265522014031 0 -7.2867400674959227e-05 0.024368530503802169 0 -4.9877287786960702e-05 0.024375773509600022 0 -7.2867400674959227e-05 0.024368530503802169 0 -3.5482231403075124e-05 0.024716324473630587 0 -7.2867400674959227e-05 0.024368530503802169 0 -5.9570233620667151e-05 0.024659174645724393 0 -2.9587811888380473e-05 0.024434605669623025 0 5.3307404941899118e-06 0.024157466594313892 0 -7.2867400674959227e-05 0.024368530503802169 0 -2.9587811888380473e-05 0.024434605669623025 0 -6.3783557941934841e-08 0.024999629759244881 0 -5.9570233620667151e-05 0.024659174645724393 0 -3.5482231403075124e-05 0.024716324473630587 0 -7.2867400674959227e-05 0.024368530503802169 0 -5.9570233620667151e-05 0.024659174645724393 0 -3.5482231403075124e-05 0.024716324473630587 0 -6.3783557941934841e-08 0.024999629759244881 0 -3.5482231403075124e-05 0.024716324473630587 0 -6.539873014842011e-09 0.024999617095462272 0 -3.5482231403075124e-05 0.024716324473630587 0 -6.539873014842011e-09 0.024999617095462272 0 -5.681112540619884e-06 0.02471020912563103 0 -4.9877287786960702e-05 0.024375773509600022 0 -3.5482231403075124e-05 0.024716324473630587 0 -5.681112540619884e-06 0.02471020912563103 0 -1.6618446568636954e-05 0.024445269432567033 0 -5.681112540619884e-06 0.02471020912563103 0 1.0715706889641203e-05 0.024694151354160775 0 -5.681112540619884e-06 0.02471020912563103 0 8.1968073064379983e-09 0.024999524857387479 0 1.0715706889641203e-05 0.024694151354160775 0 -6.539873014842011e-09 0.024999617095462272 0 -5.681112540619884e-06 0.02471020912563103 0 8.1968073064379983e-09 0.024999524857387479 0 7.4105081269987798e-08 0.024999922744451765 0 3.1343609476659159e-05 0.024852462627795786 0 1.3096315288075606e-08 0.025000093430037135 0 1.1489333941133035e-05 0.024969871400643311 0 -5.1334924048749021e-08 0.024999794680896636 0 1.3096315288075606e-08 0.025000093430037135 0 1.1489333941133035e-05 0.024969871400643311 0 4.1276279681657319e-05 0.025015507663954557 0 1.1489333941133035e-05 0.024969871400643311 0 -5.1334924048749021e-08 0.024999794680896636 0 1.638463576389945e-05 0.024877435399173538 0 1.1489333941133035e-05 0.024969871400643311 0 1.638463576389945e-05 0.024877435399173538 0 7.8344958239297949e-05 0.024916707552692076 0 1.638463576389945e-05 0.024877435399173538 0 7.8344958239297949e-05 0.024916707552692076 0 0.00010172065329587879 0.024759083694613077 0 7.8344958239297949e-05 0.024916707552692076 0 4.1276279681657319e-05 0.025015507663954557 0 0.00021412680655065691 0.025012077993062848 0 1.1489333941133035e-05 0.024969871400643311 0 7.8344958239297949e-05 0.024916707552692076 0 4.1276279681657319e-05 0.025015507663954557 0 3.1343609476659159e-05 0.024852462627795786 0 0.00020313263521199527 0.024894792022627021 0 0.00021412680655065691 0.025012077993062848 0 0.00032132102880809714 0.024896364513356941 0 0.00020764465275725089 0.024847514536373523 0 7.8344958239297949e-05 0.024916707552692076 0 0.00021412680655065691 0.025012077993062848 0 0.00020764465275725089 0.024847514536373523 0 -0.00025096845420700145 0.024523725868143578 0 -0.00011404897152017098 0.024367568283149392 0 -2.3243786141878812e-05 0.024520871386294333 0 -0.00063546794769517951 0.022737235231910267 0 0.00020313263521199527 0.024894792022627021 0 0.00045404845465936341 0.024974277340194567 0 0.00021412680655065691 0.025012077993062848 0 0.00032132102880809714 0.024896364513356941 0 0.00045404845465936341 0.024974277340194567 0 0.00032132102880809714 0.024896364513356941 0 0.00041730253138018197 0.024729973165693499 0 -0.00063546794769517951 0.022737235231910267 0 8.0320834639252707e-05 0.023302371030703858 0 0.00032132102880809714 0.024896364513356941 0 0.00041730253138018197 0.024729973165693499 0 0.00020764465275725089 0.024847514536373523 0 0.00041730253138018197 0.024729973165693499 0 0.00020764465275725089 0.024847514536373523 0 0.00018768250993330776 0.024623661136170864 0 0.00020764465275725089 0.024847514536373523 0 0.00018768250993330776 0.024623661136170864 0 0.00010172065329587879 0.024759083694613077 0 7.8344958239297949e-05 0.024916707552692076 0 0.00020764465275725089 0.024847514536373523 0 0.00010172065329587879 0.024759083694613077 0 0.00018768250993330776 0.024623661136170864 0 0.00013633008229434134 0.024529239968169754 0 0.00010172065329587879 0.024759083694613077 0 0.00018768250993330776 0.024623661136170864 0 0.00013633008229434134 0.024529239968169754 0 0.0001969759679592944 0.02417891886559935 0 0.00041730253138018197 0.024729973165693499 0 0.00018768250993330776 0.024623661136170864 0 0.0001969759679592944 0.02417891886559935 0 -0.00085894037907916626 0.023353289253989148 0 -0.00019165176020545985 0.02182064090264739 0 0.0001969759679592944 0.02417891886559935 0 8.0320834639252707e-05 0.023302371030703858 0 0.00021776060286766362 0.024075236821235912 0 -0.0011770283978869511 0.021446115571425808 0 -0.0013774674672248789 0.021014476233165727 0 -9.841885909088314e-05 0.024714899230784518 0 -0.00085894037907916626 0.023353289253989148 0 0.0001969759679592944 0.02417891886559935 0 0.0001023397903932164 0.024658760173418115 0 0.00021578428422166693 0.024477820141581792 0 0.0001969759679592944 0.02417891886559935 0 0.00021578428422166693 0.024477820141581792 0 0.00013633008229434134 0.024529239968169754 0 8.1065894033026712e-05 0.02465515908361739 0 0.00021578428422166693 0.024477820141581792 0 0.00013633008229434134 0.024529239968169754 0 0.0001969759679592944 0.02417891886559935 0 1.1381168900015501e-05 0.024412636819143331 0 0.00021578428422166693 0.024477820141581792 0 8.1065894033026712e-05 0.02465515908361739 0 6.4414285379615389e-05 0.025137012784624164 0 -2.6263860843226989e-05 0.024736560921579935 0 -2.3653305414029054e-05 0.025022438722369315 0 -1.4504862963394759e-08 0.024999714898013309 0 -2.9125583380580466e-05 0.024929005097471212 0 1.1381168900015501e-05 0.024412636819143331 0 8.1065894033026712e-05 0.02465515908361739 0 -2.9125583380580466e-05 0.024929005097471212 0 -5.1334924048749021e-08 0.024999794680896636 0 -1.4504862963394759e-08 0.024999714898013309 0 -2.9125583380580466e-05 0.024929005097471212 0 -5.1334924048749021e-08 0.024999794680896636 0 1.638463576389945e-05 0.024877435399173538 0 -2.9125583380580466e-05 0.024929005097471212 0 8.1065894033026712e-05 0.02465515908361739 0 -2.9125583380580466e-05 0.024929005097471212 0 3.0151822418063392e-05 0.024806734897724281 0 1.638463576389945e-05 0.024877435399173538 0 -2.9125583380580466e-05 0.024929005097471212 0 3.0151822418063392e-05 0.024806734897724281 0 1.638463576389945e-05 0.024877435399173538 0 7.589090669336765e-05 0.024696631848285026 0 3.0151822418063392e-05 0.024806734897724281 0 1.638463576389945e-05 0.024877435399173538 0 0.00010172065329587879 0.024759083694613077 0 7.589090669336765e-05 0.024696631848285026 0 0.00013633008229434134 0.024529239968169754 0 8.1065894033026712e-05 0.02465515908361739 0 7.589090669336765e-05 0.024696631848285026 0 0.00013633008229434134 0.024529239968169754 0 0.00010172065329587879 0.024759083694613077 0 7.589090669336765e-05 0.024696631848285026 0 8.1065894033026712e-05 0.02465515908361739 0 7.589090669336765e-05 0.024696631848285026 0 3.0151822418063392e-05 0.024806734897724281 0 0.0072227647364926676 0.0037417643866301015 0 0.0073142100730665387 0.0033204574630479127 0 0.0067246346027600348 0.0034071238222473372 0 0.0072227647364926676 0.0037417643866301015 0 0.0067571866403324668 0.0041035381711803888 0 0.007656600852480459 0.004168776448439218 0 0.0072227647364926676 0.0037417643866301015 0 0.007656600852480459 0.004168776448439218 0 0.0076624987186230294 0.003712327557930886 0 0.0072227647364926676 0.0037417643866301015 0 0.0076624987186230294 0.003712327557930886 0 0.0073142100730665387 0.0033204574630479127 0 0.0072227647364926676 0.0037417643866301015 0 0.0067571866403324668 0.0041035381711803888 0 0.0067246346027600348 0.0034071238222473372 0 0.0067571866403324668 0.0041035381711803888 0 0.0067246346027600348 0.0034071238222473372 0 0.0061289794863011718 0.0035895110013288317 0 0.006354590253248386 0.0039938419182645891 0 0.0059870988894687779 0.0043099021240577051 0 0.00629942877545545 0.0043977194691062222 0 0.006354590253248386 0.0039938419182645891 0 0.0067575393627851759 0.0041959593909181025 0 0.00629942877545545 0.0043977194691062222 0 0.0065578674407634988 0.0040960260423311941 0 0.0072055161209928793 0.0036396358602718373 0 0.006354590253248386 0.0039938419182645891 0 0.0068114685941783118 0.0039585341807892435 0 0.0067575393627851759 0.0041959593909181025 0 0.0070730870570839613 0.003992575144673792 0 0.0066081375413302619 0.0040626533260660121 0 0.0068114685941783118 0.0039585341807892435 0 0.0071278698693886819 0.0039846185973542066 0 0.0067575393627851759 0.0041959593909181025 0 0.0072055161209928793 0.0036396358602718373 0 0.0080774557091146844 0.0076373978175684528 0 0.0071278698693886819 0.0039846185973542066 0 0.0071957208140035105 0.0038779415521384337 0 0.0071497899010322758 0.0043124311606814666 0 0.00948130047040735 0.014230790549576938 0 0.0096100652577049191 0.013220085952779565 0 0.0092344851367945346 0.013802669258297266 0 0.0068114685941783118 0.0039585341807892435 0 0.0071278698693886819 0.0039846185973542066 0 0.0071957208140035105 0.0038779415521384337 0 0.0080774557091146844 0.0076373978175684528 0 0.0083970195889207892 0.009241153148948628 0 0.007656600852480459 0.004168776448439218 0 0.0085581873435371207 0.0042232000202664143 0 0.0081031857111378818 0.003878929205887022 0 0.0080774557091146844 0.0076373978175684528 0 0.0083190862749626809 0.010329045405425298 0 0.0085581873435371207 0.0042232000202664143 0 0.0083738943786981473 0.0038440880471805007 0 0.008622750986222635 0.0037212533764920475 0 0.0085581873435371207 0.0042232000202664143 0 0.0081031857111378818 0.003878929205887022 0 0.0083738943786981473 0.0038440880471805007 0 0.0081031857111378818 0.003878929205887022 0 0.0083738943786981473 0.0038440880471805007 0 0.0082124930379634861 0.0035548061906987899 0 0.0083738943786981473 0.0038440880471805007 0 0.0082124930379634861 0.0035548061906987899 0 0.008622750986222635 0.0037212533764920475 0 0.007656600852480459 0.004168776448439218 0 0.0081031857111378818 0.003878929205887022 0 0.0076624987186230294 0.003712327557930886 0 0.0081031857111378818 0.003878929205887022 0 0.0078455468323572527 0.003376287086159579 0 0.0082124930379634861 0.0035548061906987899 0 0.0081031857111378818 0.003878929205887022 0 0.0076624987186230294 0.003712327557930886 0 0.0078455468323572527 0.003376287086159579 0 0.0078455468323572527 0.003376287086159579 0 0.0080777865014672705 0.0028636400304090149 0 0.0075146917949840695 0.0029621845873057102 0 0.0076624987186230294 0.003712327557930886 0 0.0078455468323572527 0.003376287086159579 0 0.0073142100730665387 0.0033204574630479127 0 0.0078455468323572527 0.003376287086159579 0 0.0082124930379634861 0.0035548061906987899 0 0.0080777865014672705 0.0028636400304090149 0 0.0078455468323572527 0.003376287086159579 0 0.0075146917949840695 0.0029621845873057102 0 0.0073142100730665387 0.0033204574630479127 0 0.0082124930379634861 0.0035548061906987899 0 0.0080777865014672705 0.0028636400304090149 0 0.008622750986222635 0.0037212533764920475 0 0.0085034087235716076 0.0099067921377779585 0 0.0083190862749626809 0.010329045405425298 0 0.0087720279257003115 0.014897232165673513 0 0.0086003690235447305 0.014358339460342666 0 0.0085791315956325002 0.015029642912818964 0 0.0087720279257003115 0.014897232165673513 0 0.0090719432592964843 0.015105445437696697 0 0.0086003690235447305 0.014358339460342666 0 0.0087388089513694023 0.015181553989068418 0 0.0089451462994626883 0.015055106764189372 0 0.0090822696995969485 0.01527215267282273 0 0.0087720279257003115 0.014897232165673513 0 0.0087388089513694023 0.015181553989068418 0 0.0085791315956325002 0.015029642912818964 0 0.0099338890270262957 0.014600938329235655 0 0.0085034087235716076 0.0099067921377779585 0 0.0087720279257003115 0.014897232165673513 0 0.0087388089513694023 0.015181553989068418 0 0.0089451462994626883 0.015055106764189372 0 0.0080777865014672705 0.0028636400304090149 0 0.0076114108882507723 0.002509136741458552 0 0.0075146917949840695 0.0029621845873057102 0 0.0085034087235716076 0.0099067921377779585 0 0.0079224245535135188 0.0040674746628216098 0 0.0091829041940072031 0.0086760000370002897 0 0.0066929169091712115 0.0068589290817225755 0 0.0077598194977181716 0.0064932532858643288 0 0.0085034087235716076 0.0099067921377779585 0 0.0067640439414766648 0.0090927799074205454 0 0.0076114108882507723 0.002509136741458552 0 0.0075146917949840695 0.0029621845873057102 0 0.006735539546551021 0.0027444536773751603 0 0.0079775999181272324 0.0022116664250210632 0 0.0069354143408294289 0.0025645134559212569 0 0.0074172721350160391 0.0017974842511424244 0 0.0079224245535135188 0.0040674746628216098 0 0.0068490624713444977 0.0024240031734941779 0 0.0075146917949840695 0.0029621845873057102 0 0.0073142100730665387 0.0033204574630479127 0 0.006735539546551021 0.0027444536773751603 0 0.0073142100730665387 0.0033204574630479127 0 0.0067246346027600348 0.0034071238222473372 0 0.006735539546551021 0.0027444536773751603 0 0.0069354143408294289 0.0025645134559212569 0 0.0061243768709105893 0.0022305717657242607 0 0.0065771675177449295 0.0017339577323762592 0 0.0068490624713444977 0.0024240031734941779 0 0.0059062737009194814 0.0029874938426464135 0 0.0069354143408294289 0.0025645134559212569 0 0.0061243768709105893 0.0022305717657242607 0 0.005883137545613001 0.0029303321130125124 0 0.0061243768709105893 0.0022305717657242607 0 0.0054758097926978066 0.0022983389102237007 0 0.005883137545613001 0.0029303321130125124 0 0.0054758097926978066 0.0022983389102237007 0 0.005883137545613001 0.0029303321130125124 0 0.0051860094703506396 0.0029988396636054333 0 0.005883137545613001 0.0029303321130125124 0 0.0061289794863011718 0.0035895110013288317 0 0.0054934349339947385 0.0035047889326645315 0 0.005883137545613001 0.0029303321130125124 0 0.0051860094703506396 0.0029988396636054333 0 0.0054934349339947385 0.0035047889326645315 0 0.0067246346027600348 0.0034071238222473372 0 0.006735539546551021 0.0027444536773751603 0 0.005883137545613001 0.0029303321130125124 0 0.0067246346027600348 0.0034071238222473372 0 0.005883137545613001 0.0029303321130125124 0 0.0061289794863011718 0.0035895110013288317 0 0.0040994275751752044 0.0023700341064284117 0 0.0048844446640895359 0.0025198499627140159 0 0.004971625901812945 0.0016196767943992361 0 0.0040994275751752044 0.0023700341064284117 0 0.0048844446640895359 0.0025198499627140159 0 0.0043961769345057496 0.0028380659651400489 0 0.0044197465169662038 4.9816741411931264e-05 0 0.0046947503257659716 0.00058896373722802675 0 0.0054758097926978066 0.0022983389102237007 0 0.0048844446640895359 0.0025198499627140159 0 0.0051860094703506396 0.0029988396636054333 0 0.0048844446640895359 0.0025198499627140159 0 0.0051860094703506396 0.0029988396636054333 0 0.0047173132568356542 0.0033087469778146305 0 0.0051860094703506396 0.0029988396636054333 0 0.0047173132568356542 0.0033087469778146305 0 0.0054934349339947385 0.0035047889326645315 0 0.0048844446640895359 0.0025198499627140159 0 0.0047173132568356542 0.0033087469778146305 0 0.0043961769345057496 0.0028380659651400489 0 0.0050203786630871033 0.0011341413314940136 0 0.0046947503257659716 0.00058896373722802675 0 0.0047470520407589907 -0.00099307812173974621 0 0.0053656611474695772 -0.001030419796353202 0 0.0049898514217276355 -0.0016503986259510319 0 0.0053656611474695772 -0.001030419796353202 0 0.0060880949912774608 0.00017963364270784005 0 0.0050559261426906324 -0.00020696585998646497 0 0.0047470520407589907 -0.00099307812173974621 0 0.0053656611474695772 -0.001030419796353202 0 0.0050559261426906324 -0.00020696585998646497 0 0.0047173132568356542 0.0033087469778146305 0 0.0053410907212536668 0.0040929614831815364 0 0.0054934349339947385 0.0035047889326645315 0 0.0050203786630871033 0.0011341413314940136 0 0.0058262287447001576 0.0020925877969800509 0 0.0044378597571717634 0.00038338997428639693 0 0.0050559261426906324 -0.00020696585998646497 0 0.0054156461883668894 0.00080344116195627164 0 0.0060880949912774608 0.00017963364270784005 0 0.0050559261426906324 -0.00020696585998646497 0 0.0054156461883668894 0.00080344116195627164 0 0.0067571866403324668 0.0041035381711803888 0 0.0061289794863011718 0.0035895110013288317 0 0.0058246140805366707 0.0040113845586208828 0 0.0061289794863011718 0.0035895110013288317 0 0.0054934349339947385 0.0035047889326645315 0 0.0058246140805366707 0.0040113845586208828 0 0.0053410907212536668 0.0040929614831815364 0 0.0058246140805366707 0.0040113845586208828 0 0.0059870988894687779 0.0043099021240577051 0 0.0053410907212536668 0.0040929614831815364 0 0.0054934349339947385 0.0035047889326645315 0 0.0058246140805366707 0.0040113845586208828 0 0.0065578674407634988 0.0040960260423311941 0 0.0058697397977921818 0.0040086926207300198 0 0.006354590253248386 0.0039938419182645891 0 0.0058246140805366707 0.0040113845586208828 0 0.0059870988894687779 0.0043099021240577051 0 0.0054645768931619538 0.0033285924237540696 0 0.0058580637136961683 0.004400273532866269 0 0.0059870988894687779 0.0043099021240577051 0 0.005755655738971281 0.004599727619456183 0 0.00629942877545545 0.0043977194691062222 0 0.0058262287447001576 0.0020925877969800509 0 0.0054645768931619538 0.0033285924237540696 0 0.0053410907212536668 0.0040929614831815364 0 0.0059870988894687779 0.0043099021240577051 0 0.005755655738971281 0.004599727619456183 0 0.0042749286341900016 0.0037323898934698693 0 0.0046992649741742871 0.0043409765894935008 0 0.0038854893590799275 0.0043748416224372415 0 0.0048086730763640118 0.0043017507145725348 0 0.0055084773495527144 0.0045825877336057169 0 0.0055661240210409342 0.0040953814068166337 0 0.0054645768931619538 0.0033285924237540696 0 0.0048833157344895031 0.0046033333049720036 0 0.0048086730763640118 0.0043017507145725348 0 0.0050942751920822968 0.0047603466133070826 0 0.0055084773495527144 0.0045825877336057169 0 0.0046998388927276379 0.0012065714206659318 0 0.0054156461883668894 0.00080344116195627164 0 0.0055306250315291777 0.0017171473701394699 0 0.0044378597571717634 0.00038338997428639693 0 0.0046998388927276379 0.0012065714206659318 0 0.0054156461883668894 0.00080344116195627164 0 0.0060880949912774608 0.00017963364270784005 0 0.0068062290810737367 0.0013656438476493025 0 0.0054156461883668894 0.00080344116195627164 0 0.0068062290810737367 0.0013656438476493025 0 0.0054156461883668894 0.00080344116195627164 0 0.0055306250315291777 0.0017171473701394699 0 0.0042749286341900016 0.0037323898934698693 0 0.0033524748852741156 0.0040711861315304914 0 0.0038854893590799275 0.0043748416224372415 0 0.0054645768931619538 0.0033285924237540696 0 0.0044897793733182992 0.0027921724952744142 0 0.0034961883140357422 0.0031592699544148433 0 0.0044897793733182992 0.0027921724952744142 0 0.0046998388927276379 0.0012065714206659318 0 0.0042346112201616902 0.0020682835769458723 0 0.0055306250315291777 0.0017171473701394699 0 0.0027975249407655445 0.004336907522727947 0 0.0033524748852741156 0.0040711861315304914 0 0.0030811614464668659 0.0047130337387797728 0 0.0030811614464668659 0.0047130337387797728 0 0.0038854893590799275 0.0043748416224372415 0 0.0038512303345050896 0.0051129038553116126 0 0.0033524748852741156 0.0040711861315304914 0 0.0030811614464668659 0.0047130337387797728 0 0.0038854893590799275 0.0043748416224372415 0 0.0028823765795561785 0.0053492153989305241 0 0.0030811614464668659 0.0047130337387797728 0 0.0038512303345050896 0.0051129038553116126 0 0.0048833157344895031 0.0046033333049720036 0 0.0052229065449854702 0.0050903720762269277 0 0.0050942751920822968 0.0047603466133070826 0 0.0052524812459746979 0.005154090697922992 0 0.0055084773495527144 0.0045825877336057169 0 0.0046992649741742871 0.0043409765894935008 0 0.0045847324391349179 0.0054017548573666247 0 0.0052524812459746979 0.005154090697922992 0 0.0046992649741742871 0.0043409765894935008 0 0.0038854893590799275 0.0043748416224372415 0 0.0038512303345050896 0.0051129038553116126 0 0.0046992649741742871 0.0043409765894935008 0 0.0038512303345050896 0.0051129038553116126 0 0.0045847324391349179 0.0054017548573666247 0 0.0051105507020004926 0.0060232524330418842 0 0.0045847324391349179 0.0054017548573666247 0 0.0052524812459746979 0.005154090697922992 0 0.0051105507020004926 0.0060232524330418842 0 0.0052524812459746979 0.005154090697922992 0 0.0059303263894825899 0.0057385708016358429 0 0.0052524812459746979 0.005154090697922992 0 0.0059303263894825899 0.0057385708016358429 0 0.0058863428196323049 0.0050717315650412095 0 0.0059303263894825899 0.0057385708016358429 0 0.0058863428196323049 0.0050717315650412095 0 0.0064943050273805498 0.0053944730842320375 0 0.0067757676882663521 0.0062310423635658484 0 0.0059303263894825899 0.0057385708016358429 0 0.0064943050273805498 0.0053944730842320375 0 0.0058863428196323049 0.0050717315650412095 0 0.0060514054954172586 0.0046686550788814438 0 0.0064854495277581938 0.0049170816759555773 0 0.0058863428196323049 0.0050717315650412095 0 0.0064854495277581938 0.0049170816759555773 0 0.0064943050273805498 0.0053944730842320375 0 0.0052524812459746979 0.005154090697922992 0 0.0058863428196323049 0.0050717315650412095 0 0.0055084773495527144 0.0045825877336057169 0 0.0058863428196323049 0.0050717315650412095 0 0.0055084773495527144 0.0045825877336057169 0 0.0060514054954172586 0.0046686550788814438 0 0.0055084773495527144 0.0045825877336057169 0 0.0060514054954172586 0.0046686550788814438 0 0.0060276438193772553 0.0043328748356031184 0 0.0055084773495527144 0.0045825877336057169 0 0.0060276438193772553 0.0043328748356031184 0 0.0055661240210409342 0.0040953814068166337 0 0.0060514054954172586 0.0046686550788814438 0 0.0060276438193772553 0.0043328748356031184 0 0.0065647486521011114 0.0043850112382466753 0 0.0060514054954172586 0.0046686550788814438 0 0.0065647486521011114 0.0043850112382466753 0 0.0064854495277581938 0.0049170816759555773 0 0.0060276438193772553 0.0043328748356031184 0 0.0064346552180326927 0.0039592880657709981 0 0.0055661240210409342 0.0040953814068166337 0 0.0060276438193772553 0.0043328748356031184 0 0.0064346552180326927 0.0039592880657709981 0 0.0065647486521011114 0.0043850112382466753 0 0.0066081375413302619 0.0040626533260660121 0 0.0058580637136961683 0.004400273532866269 0 0.0071278698693886819 0.0039846185973542066 0 0.0071497899010322758 0.0043124311606814666 0 0.0068520012014548371 0.0042023516075432631 0 0.0071497899010322758 0.0043124311606814666 0 0.0068520012014548371 0.0042023516075432631 0 0.0069080262448079355 0.0044873787137952696 0 0.0071278698693886819 0.0039846185973542066 0 0.0064346552180326927 0.0039592880657709981 0 0.0068520012014548371 0.0042023516075432631 0 0.0064346552180326927 0.0039592880657709981 0 0.0068520012014548371 0.0042023516075432631 0 0.0065647486521011114 0.0043850112382466753 0 0.0068520012014548371 0.0042023516075432631 0 0.0065647486521011114 0.0043850112382466753 0 0.0069080262448079355 0.0044873787137952696 0 0.0065647486521011114 0.0043850112382466753 0 0.0068307245684862232 0.0047105916919925085 0 0.0069080262448079355 0.0044873787137952696 0 0.0065647486521011114 0.0043850112382466753 0 0.0068307245684862232 0.0047105916919925085 0 0.0064854495277581938 0.0049170816759555773 0 0.0071497899010322758 0.0043124311606814666 0 0.0069080262448079355 0.0044873787137952696 0 0.0071179971807631475 0.0049379581953448654 0 0.0096100652577049191 0.013220085952779565 0 0.0097060672280529642 0.012245545562301566 0 0.0093426791266063552 0.012706831567225435 0 0.0083970195889207892 0.009241153148948628 0 0.0082208350336651307 0.0076832657400114374 0 0.0068307245684862232 0.0047105916919925085 0 0.0069080262448079355 0.0044873787137952696 0 0.0071179971807631475 0.0049379581953448654 0 0.0082208350336651307 0.0076832657400114374 0 0.0081809790566234417 0.0066346456095961156 0 0.0073008653605377821 0.0049744447270263998 0 0.007291978346398856 0.0051194839511652301 0 0.0069458503989205927 0.0050021786959211292 0 0.0062565076461705204 0.0046190091164830891 0 0.0082208350336651307 0.0076832657400114374 0 0.0068307245684862232 0.0047105916919925085 0 0.0073008653605377821 0.0049744447270263998 0 0.0069458503989205927 0.0050021786959211292 0 0.007291978346398856 0.0051194839511652301 0 0.0069458503989205927 0.0050021786959211292 0 0.00703454328096081 0.0054981816373117906 0 0.0068307245684862232 0.0047105916919925085 0 0.0064854495277581938 0.0049170816759555773 0 0.0069458503989205927 0.0050021786959211292 0 0.0069458503989205927 0.0050021786959211292 0 0.0064943050273805498 0.0053944730842320375 0 0.00703454328096081 0.0054981816373117906 0 0.0064854495277581938 0.0049170816759555773 0 0.0069458503989205927 0.0050021786959211292 0 0.0064943050273805498 0.0053944730842320375 0 0.0067757676882663521 0.0062310423635658484 0 0.0064943050273805498 0.0053944730842320375 0 0.00703454328096081 0.0054981816373117906 0 0.0067757676882663521 0.0062310423635658484 0 0.00703454328096081 0.0054981816373117906 0 0.0074656858520174684 0.0059262035342159186 0 0.0075021128667572988 0.0055477650379113733 0 0.00703454328096081 0.0054981816373117906 0 0.0074656858520174684 0.0059262035342159186 0 0.007291978346398856 0.0051194839511652301 0 0.0075021128667572988 0.0055477650379113733 0 0.00703454328096081 0.0054981816373117906 0 0.007291978346398856 0.0051194839511652301 0 0.0075021128667572988 0.0055477650379113733 0 0.0082278187323530268 0.0056460608949356061 0 0.0075021128667572988 0.0055477650379113733 0 0.0074656858520174684 0.0059262035342159186 0 0.0082278187323530268 0.0056460608949356061 0 0.0077431158747029534 0.0075154940122373805 0 0.0073189163759590156 0.0071580748742655909 0 0.0077481164036011744 0.0072106678763970708 0 0.0073248184716487247 0.0063760788390629861 0 0.0088496528530710352 0.0086883018724813136 0 0.0097060672280529642 0.012245545562301566 0 0.0091840172107054228 0.012256459234412594 0 0.0087962954285431914 0.011621205843393977 0 0.0073097861427209847 0.0049803441455063008 0 0.007291978346398856 0.0051194839511652301 0 0.0082278187323530268 0.0056460608949356061 0 0.0082208350336651307 0.0076832657400114374 0 0.0088496528530710352 0.0086883018724813136 0 0.0091840172107054228 0.012256459234412594 0 0.0088112375331244868 0.012072650709808836 0 0.0087962954285431914 0.011621205843393977 0 0.0088953116467854962 0.012453509626938376 0 0.0091840172107054228 0.012256459234412594 0 0.0088112375331244868 0.012072650709808836 0 0.0088953116467854962 0.012453509626938376 0 0.0091840172107054228 0.012256459234412594 0 0.0091048887464320813 0.01255830022107002 0 0.0097060672280529642 0.012245545562301566 0 0.0091840172107054228 0.012256459234412594 0 0.0093426791266063552 0.012706831567225435 0 0.0088112375331244868 0.012072650709808836 0 0.0087962954285431914 0.011621205843393977 0 0.0082145156569726624 0.01189558303872428 0 0.0085101704641772184 0.012330366409407805 0 0.0088112375331244868 0.012072650709808836 0 0.0082145156569726624 0.01189558303872428 0 0.0085101704641772184 0.012330366409407805 0 0.0082145156569726624 0.01189558303872428 0 0.008133725183058934 0.012439972581519796 0 0.0088953116467854962 0.012453509626938376 0 0.0085101704641772184 0.012330366409407805 0 0.0088112375331244868 0.012072650709808836 0 0.009711213805231194 0.0095651923966358805 0 0.011167638596944711 0.010632496153184776 0 0.0094558456606121735 0.011369950352803027 0 0.0088496528530710352 0.0086883018724813136 0 0.0088379967245625114 0.011640080064088346 0 0.0080105888477608935 0.0076022733558087337 0 0.0077431158747029534 0.0075154940122373805 0 0.0077481164036011744 0.0072106678763970708 0 0.0088901667574373937 0.008648221348614862 0 0.0088496528530710352 0.0086883018724813136 0 0.00861339395581915 0.010372924315946176 0 0.0077077193858965942 0.012056337346586369 0 0.0094558456606121735 0.011369950352803027 0 0.009711213805231194 0.0095651923966358805 0 0.00861339395581915 0.010372924315946176 0 0.0094558456606121735 0.011369950352803027 0 0.0074496460605090386 0.010180176384542146 0 0.0077077193858965942 0.012056337346586369 0 0.0065034791587140536 0.011463961326374313 0 0.00861339395581915 0.010372924315946176 0 0.0074496460605090386 0.010180176384542146 0 0.0077077193858965942 0.012056337346586369 0 0.0077077193858965942 0.012056337346586369 0 0.0065034791587140536 0.011463961326374313 0 0.0068646144569719514 0.012610043050158047 0 0.0077077193858965942 0.012056337346586369 0 0.008133725183058934 0.012439972581519796 0 0.0076214447582430098 0.012839524288373214 0 0.0078307444206853465 0.012019351214147676 0 0.0088379967245625114 0.011640080064088346 0 0.0077077193858965942 0.012056337346586369 0 0.0082145156569726624 0.01189558303872428 0 0.008133725183058934 0.012439972581519796 0 0.008133725183058934 0.012439972581519796 0 0.008043354467036197 0.012880386710039696 0 0.0085146616946755026 0.012814996038568251 0 0.008133725183058934 0.012439972581519796 0 0.008043354467036197 0.012880386710039696 0 0.0076214447582430098 0.012839524288373214 0 0.008043354467036197 0.012880386710039696 0 0.0076214447582430098 0.012839524288373214 0 0.0077366419242827942 0.013428880700063832 0 0.0077077193858965942 0.012056337346586369 0 0.0076214447582430098 0.012839524288373214 0 0.0068646144569719514 0.012610043050158047 0 0.0076214447582430098 0.012839524288373214 0 0.0068646144569719514 0.012610043050158047 0 0.0069137704267707894 0.013511070869986283 0 0.0076214447582430098 0.012839524288373214 0 0.0077366419242827942 0.013428880700063832 0 0.0069137704267707894 0.013511070869986283 0 0.0077366419242827942 0.013428880700063832 0 0.0069137704267707894 0.013511070869986283 0 0.0072535301713706297 0.014112088788825333 0 0.008043354467036197 0.012880386710039696 0 0.0082001520947828487 0.013198326891975467 0 0.0077366419242827942 0.013428880700063832 0 0.0082001520947828487 0.013198326891975467 0 0.0077366419242827942 0.013428880700063832 0 0.0081888736567645552 0.013683584325232097 0 0.0077366419242827942 0.013428880700063832 0 0.0081888736567645552 0.013683584325232097 0 0.0078233168359626449 0.013982868910069642 0 0.0081888736567645552 0.013683584325232097 0 0.0085187389439104096 0.013689939521895201 0 0.0083694830931243334 0.013948530947894944 0 0.0081888736567645552 0.013683584325232097 0 0.008486689819316386 0.013319794885668035 0 0.0085187389439104096 0.013689939521895201 0 0.0082001520947828487 0.013198326891975467 0 0.0081888736567645552 0.013683584325232097 0 0.008486689819316386 0.013319794885668035 0 0.008486689819316386 0.013319794885668035 0 0.0087793703798694275 0.013128618654791094 0 0.0087482934364859679 0.013457103228826026 0 0.008486689819316386 0.013319794885668035 0 0.0087482934364859679 0.013457103228826026 0 0.0085187389439104096 0.013689939521895201 0 0.0087482934364859679 0.013457103228826026 0 0.0085187389439104096 0.013689939521895201 0 0.0087542279257249948 0.013703819237184708 0 0.0087482934364859679 0.013457103228826026 0 0.0087542279257249948 0.013703819237184708 0 0.0090149444747822435 0.013578559397693044 0 0.0087542279257249948 0.013703819237184708 0 0.0090149444747822435 0.013578559397693044 0 0.0088974244188575052 0.013868004930536647 0 0.0096100652577049191 0.013220085952779565 0 0.0090149444747822435 0.013578559397693044 0 0.0092344851367945346 0.013802669258297266 0 0.0096100652577049191 0.013220085952779565 0 0.0090149444747822435 0.013578559397693044 0 0.0090791109642022125 0.01315313659612931 0 0.0087793703798694275 0.013128618654791094 0 0.0087482934364859679 0.013457103228826026 0 0.0090791109642022125 0.01315313659612931 0 0.0087482934364859679 0.013457103228826026 0 0.0090149444747822435 0.013578559397693044 0 0.0090791109642022125 0.01315313659612931 0 0.0087793703798694275 0.013128618654791094 0 0.0090791109642022125 0.01315313659612931 0 0.0089970957784610735 0.012820802389247139 0 0.0090791109642022125 0.01315313659612931 0 0.0089970957784610735 0.012820802389247139 0 0.0093426791266063552 0.012706831567225435 0 0.0096100652577049191 0.013220085952779565 0 0.0090791109642022125 0.01315313659612931 0 0.0093426791266063552 0.012706831567225435 0 0.0091840172107054228 0.012256459234412594 0 0.0093426791266063552 0.012706831567225435 0 0.0091048887464320813 0.01255830022107002 0 0.0089970957784610735 0.012820802389247139 0 0.0093426791266063552 0.012706831567225435 0 0.0091048887464320813 0.01255830022107002 0 0.0088953116467854962 0.012453509626938376 0 0.0089970957784610735 0.012820802389247139 0 0.0091048887464320813 0.01255830022107002 0 0.0088953116467854962 0.012453509626938376 0 0.0085101704641772184 0.012330366409407805 0 0.0085146616946755026 0.012814996038568251 0 0.0088953116467854962 0.012453509626938376 0 0.0089970957784610735 0.012820802389247139 0 0.0085146616946755026 0.012814996038568251 0 0.0085101704641772184 0.012330366409407805 0 0.008133725183058934 0.012439972581519796 0 0.0085146616946755026 0.012814996038568251 0 0.0082001520947828487 0.013198326891975467 0 0.008486689819316386 0.013319794885668035 0 0.0085146616946755026 0.012814996038568251 0 0.008043354467036197 0.012880386710039696 0 0.0082001520947828487 0.013198326891975467 0 0.0085146616946755026 0.012814996038568251 0 0.008486689819316386 0.013319794885668035 0 0.0087793703798694275 0.013128618654791094 0 0.0085146616946755026 0.012814996038568251 0 0.0087793703798694275 0.013128618654791094 0 0.0089970957784610735 0.012820802389247139 0 0.0085146616946755026 0.012814996038568251 0 0.0055141046159277746 0.013517634162603391 0 0.0054104411187465484 0.013390100768897935 0 0.0056271796121343358 0.013424965757596869 0 0.0055141046159277746 0.013517634162603391 0 0.0055973874576179033 0.013584308384945711 0 0.0055092913182263233 0.01364035802651665 0 0.0054211403692159032 0.013559342498219098 0 0.0055141046159277746 0.013517634162603391 0 0.0055092913182263233 0.01364035802651665 0 0.0054211403692159032 0.013559342498219098 0 0.0055141046159277746 0.013517634162603391 0 0.0054104411187465484 0.013390100768897935 0 0.0052651680701858179 0.013170309342418928 0 0.0051949995075037409 0.013321014844730215 0 0.0052053880304783265 0.013223998916543795 0 0.0054206923593508281 0.013498497662552206 0 0.0047055603634659389 0.012135699432917653 0 0.0052651680701858179 0.013170309342418928 0 0.0051949995075037409 0.013321014844730215 0 0.0053487232360801508 0.013182158247724941 0 0.0051284588040355012 0.013365640278034781 0 0.0051949995075037409 0.013321014844730215 0 0.0052053880304783265 0.013223998916543795 0 0.0042403621886657515 0.011918936734520637 0 0.0050060919583494248 0.012736739179200917 0 0.0052402134989412621 0.013185746111106547 0 0.0052770128869705753 0.013166234598385061 0 0.0052053880304783265 0.013223998916543795 0 0.0041615221760809874 0.010314036417357984 0 0.0052043760855635494 0.012503418643675487 0 0.0054104411187465484 0.013390100768897935 0 0.0056434563579085594 0.013391471382283544 0 0.0056271796121343358 0.013424965757596869 0 0.0054104411187465484 0.013390100768897935 0 0.0056598201944654007 0.013253520324589018 0 0.0056434563579085594 0.013391471382283544 0 0.0049264276739792888 0.011263758458358543 0 0.0045335087593339381 0.01147485313925624 0 0.0044346380749474227 0.012145396451873701 0 0.0047055603634659389 0.012135699432917653 0 0.0052043760855635494 0.012503418643675487 0 0.0052043760855635494 0.012503418643675487 0 0.0051799040600733559 0.012716734491017047 0 0.0053777420925224468 0.011697783737878067 0 0.0053119108053519054 0.012568168995242789 0 0.0057608759830682305 0.012183141302622411 0 0.0056505924935340889 0.01339047518201141 0 0.0056271796121343358 0.013424965757596869 0 0.0055973874576179033 0.013584308384945711 0 0.0052043760855635494 0.012503418643675487 0 0.0054771215700193795 0.013068062134766417 0 0.0055141046159277746 0.013517634162603391 0 0.0056271796121343358 0.013424965757596869 0 0.0055973874576179033 0.013584308384945711 0 0.0053119108053519054 0.012568168995242789 0 0.0057608759830682305 0.012183141302622411 0 0.0058267420629382043 0.012817906715229685 0 0.0057608759830682305 0.012183141302622411 0 0.0061810496208657062 0.012666577976906943 0 0.0058267420629382043 0.012817906715229685 0 0.0057608759830682305 0.012183141302622411 0 0.0061421308879142256 0.011940332473699029 0 0.0061810496208657062 0.012666577976906943 0 0.0057608759830682305 0.012183141302622411 0 0.0061421308879142256 0.011940332473699029 0 0.0057883835869273889 0.011664984129117392 0 0.0053777420925224468 0.011697783737878067 0 0.0057608759830682305 0.012183141302622411 0 0.0057883835869273889 0.011664984129117392 0 0.0057801365382279951 0.01108158144053353 0 0.0057883835869273889 0.011664984129117392 0 0.0060161535682939629 0.011418102773912172 0 0.0057801365382279951 0.01108158144053353 0 0.0053777420925224468 0.011697783737878067 0 0.0057883835869273889 0.011664984129117392 0 0.0058907546142493482 0.011045435315120197 0 0.0060161535682939629 0.011418102773912172 0 0.0065034791587140536 0.011463961326374313 0 0.0057801365382279951 0.01108158144053353 0 0.0058907546142493482 0.011045435315120197 0 0.0060161535682939629 0.011418102773912172 0 0.0061421308879142256 0.011940332473699029 0 0.0057883835869273889 0.011664984129117392 0 0.0060161535682939629 0.011418102773912172 0 0.0061867078628037872 0.0095857614790765284 0 0.0074496460605090386 0.010180176384542146 0 0.0065034791587140536 0.011463961326374313 0 0.0039370309499038893 0.0096167742582996575 0 0.006863591871416626 0.011700310311691138 0 0.0061867078628037872 0.0095857614790765284 0 0.0042468692617725129 0.0092822907175013382 0 0.0065034791587140536 0.011463961326374313 0 0.0061421308879142256 0.011940332473699029 0 0.0060161535682939629 0.011418102773912172 0 0.0065034791587140536 0.011463961326374313 0 0.0061421308879142256 0.011940332473699029 0 0.0068646144569719514 0.012610043050158047 0 0.0061810496208657062 0.012666577976906943 0 0.0061421308879142256 0.011940332473699029 0 0.0065034791587140536 0.011463961326374313 0 0.0068646144569719514 0.012610043050158047 0 0.0068646144569719514 0.012610043050158047 0 0.0064734909554930962 0.0131659586138966 0 0.0061810496208657062 0.012666577976906943 0 0.0068646144569719514 0.012610043050158047 0 0.0064734909554930962 0.0131659586138966 0 0.0069137704267707894 0.013511070869986283 0 0.0064734909554930962 0.0131659586138966 0 0.0069137704267707894 0.013511070869986283 0 0.006139342472027489 0.013984422555186938 0 0.0064734909554930962 0.0131659586138966 0 0.0060320081183662562 0.01334830975728999 0 0.006139342472027489 0.013984422555186938 0 0.0060320081183662562 0.01334830975728999 0 0.0055426065306101568 0.013623270669124166 0 0.006139342472027489 0.013984422555186938 0 0.0064734909554930962 0.0131659586138966 0 0.0060320081183662562 0.01334830975728999 0 0.0061810496208657062 0.012666577976906943 0 0.0060320081183662562 0.01334830975728999 0 0.0061810496208657062 0.012666577976906943 0 0.0058267420629382043 0.012817906715229685 0 0.0055973874576179033 0.013584308384945711 0 0.0055426065306101568 0.013623270669124166 0 0.0055092913182263233 0.01364035802651665 0 0.0054771215700193795 0.013068062134766417 0 0.005499527167218056 0.013512563459615717 0 0.0053119108053519054 0.012568168995242789 0 0.0058267420629382043 0.012817906715229685 0 0.0055426065306101568 0.013623270669124166 0 0.0060320081183662562 0.01334830975728999 0 0.0058267420629382043 0.012817906715229685 0 0.0055426065306101568 0.013623270669124166 0 0.0055426065306101568 0.013623270669124166 0 0.0056513371999377887 0.014139524536036317 0 0.006139342472027489 0.013984422555186938 0 0.0054262793777260926 0.014215394598164682 0 0.005469915208186924 0.013837988628016844 0 0.0056513371999377887 0.014139524536036317 0 0.0055426065306101568 0.013623270669124166 0 0.005469915208186924 0.013837988628016844 0 0.0056513371999377887 0.014139524536036317 0 0.005359358527146107 0.013690780864225972 0 0.005469915208186924 0.013837988628016844 0 0.0055092913182263233 0.01364035802651665 0 0.0055426065306101568 0.013623270669124166 0 0.005469915208186924 0.013837988628016844 0 0.0055092913182263233 0.01364035802651665 0 0.005359358527146107 0.013690780864225972 0 0.0054211403692159032 0.013559342498219098 0 0.0055092913182263233 0.01364035802651665 0 0.0056291467018092138 0.014769097947077611 0 0.0055543383028919978 0.014481283770162732 0 0.0057954655145577216 0.014491596444473868 0 0.0054398304202047604 0.015139464364274397 0 0.0056291467018092138 0.014769097947077611 0 0.0055543383028919978 0.014481283770162732 0 0.0054262793777260926 0.014215394598164682 0 0.0055543383028919978 0.014481283770162732 0 0.0056513371999377887 0.014139524536036317 0 0.0057954655145577216 0.014491596444473868 0 0.0056513371999377887 0.014139524536036317 0 0.006139342472027489 0.013984422555186938 0 0.0055543383028919978 0.014481283770162732 0 0.0057954655145577216 0.014491596444473868 0 0.0056513371999377887 0.014139524536036317 0 0.0056291467018092138 0.014769097947077611 0 0.0057954655145577216 0.014491596444473868 0 0.0060920123712550848 0.014720424703340517 0 0.0063923100147174946 0.015023865729488863 0 0.0071550753667219786 0.014978680308571395 0 0.0068568184794833426 0.015278931414797733 0 0.005996963186673007 0.014922645400003787 0 0.0066238925304506696 0.014848502887416003 0 0.0060920123712550848 0.014720424703340517 0 0.006139342472027489 0.013984422555186938 0 0.006530957397902255 0.014312804263189283 0 0.0057954655145577216 0.014491596444473868 0 0.0060920123712550848 0.014720424703340517 0 0.006139342472027489 0.013984422555186938 0 0.0069137704267707894 0.013511070869986283 0 0.006530957397902255 0.014312804263189283 0 0.0072535301713706297 0.014112088788825333 0 0.0069137704267707894 0.013511070869986283 0 0.006139342472027489 0.013984422555186938 0 0.006530957397902255 0.014312804263189283 0 0.006530957397902255 0.014312804263189283 0 0.0068772407698774012 0.014705658153661174 0 0.0072535301713706297 0.014112088788825333 0 0.0066238925304506696 0.014848502887416003 0 0.0072228094077884976 0.014788853630513082 0 0.0060920123712550848 0.014720424703340517 0 0.006530957397902255 0.014312804263189283 0 0.0068772407698774012 0.014705658153661174 0 0.0071550753667219786 0.014978680308571395 0 0.0075299883285335498 0.014904254788683225 0 0.0074610094777418116 0.015178708753407632 0 0.0074610094777418116 0.015178708753407632 0 0.0074763476737577887 0.015448115151214237 0 0.0077006780043230236 0.015076894810890742 0 0.0074610094777418116 0.015178708753407632 0 0.0074763476737577887 0.015448115151214237 0 0.0073337926209695089 0.015363809361786291 0 0.0075299883285335498 0.014904254788683225 0 0.0074610094777418116 0.015178708753407632 0 0.0077006780043230236 0.015076894810890742 0 0.0074763476737577887 0.015448115151214237 0 0.0073773206149544725 0.01573792362247731 0 0.0074343425717747734 0.015658787390170133 0 0.0074763476737577887 0.015448115151214237 0 0.0073773206149544725 0.01573792362247731 0 0.0073337926209695089 0.015363809361786291 0 0.0071550753667219786 0.014978680308571395 0 0.0073337926209695089 0.015363809361786291 0 0.0068568184794833426 0.015278931414797733 0 0.0071550753667219786 0.014978680308571395 0 0.0074610094777418116 0.015178708753407632 0 0.0073337926209695089 0.015363809361786291 0 0.0073065296938874414 0.015399006694020025 0 0.0067684526339325006 0.0156342112156009 0 0.0073337926209695089 0.015363809361786291 0 0.0068568184794833426 0.015278931414797733 0 0.0064866927429670694 0.015750628184333322 0 0.0063923100147174946 0.015023865729488863 0 0.0068568184794833426 0.015278931414797733 0 0.0064866927429670694 0.015750628184333322 0 0.0073773206149544725 0.01573792362247731 0 0.0073337926209695089 0.015363809361786291 0 0.0070554479088935119 0.015539713242588822 0 0.0073773206149544725 0.01573792362247731 0 0.0070554479088935119 0.015539713242588822 0 0.006914488119978481 0.016116474718984121 0 0.0059007106041675103 0.015972149398904182 0 0.0067684526339325006 0.0156342112156009 0 0.0062835206416207295 0.015810691564243785 0 0.0070554479088935119 0.015539713242588822 0 0.006914488119978481 0.016116474718984121 0 0.0055293349314267564 0.016072334583540075 0 0.0064866927429670694 0.015750628184333322 0 0.0059659790495465402 0.015503579188085408 0 0.0063923100147174946 0.015023865729488863 0 0.0064866927429670694 0.015750628184333322 0 0.0059659790495465402 0.015503579188085408 0 0.0083105307622855871 0.014575881307462037 0 0.0085645847240377604 0.014530227698658591 0 0.0085826372356795615 0.014343017479864179 0 0.0083105307622855871 0.014575881307462037 0 0.0080187761672297284 0.014894506702972288 0 0.0082861006499901618 0.014886122264143174 0 0.0083105307622855871 0.014575881307462037 0 0.0084920553386960262 0.014706483393220001 0 0.0082861006499901618 0.014886122264143174 0 0.0083105307622855871 0.014575881307462037 0 0.0084920553386960262 0.014706483393220001 0 0.0085645847240377604 0.014530227698658591 0 0.0084920553386960262 0.014706483393220001 0 0.0087330109582438066 0.0146756459707505 0 0.0085645847240377604 0.014530227698658591 0 0.0084920553386960262 0.014706483393220001 0 0.0087330109582438066 0.0146756459707505 0 0.0084993788066745277 0.014876559159084809 0 0.0087330109582438066 0.0146756459707505 0 0.0085645847240377604 0.014530227698658591 0 0.0086428370489976813 0.01437816751357807 0 0.0082351328422380788 0.010450878980999292 0 0.0082805141338763589 0.01004849054858435 0 0.0085488832094118214 0.010454301065598739 0 0.0083190862749626809 0.010329045405425298 0 0.0091368941378955244 0.012716219008761426 0 0.0085645847240377604 0.014530227698658591 0 0.0086428370489976813 0.01437816751357807 0 0.0085826372356795615 0.014343017479864179 0 0.0091368941378955244 0.012716219008761426 0 0.0087095871722676632 0.013352692991597977 0 0.0090368339551374927 0.01434720650004041 0 0.0089028884057958217 0.014146564174990363 0 0.0085826372356795615 0.014343017479864179 0 0.0091368941378955244 0.012716219008761426 0 0.0092975483630279698 0.013219976385425819 0 0.0090040983851336302 0.014272952732918511 0 0.0089028884057958217 0.014146564174990363 0 0.0090956701921402275 0.014040482832224402 0 0.0089028884057958217 0.014146564174990363 0 0.0086695875324302833 0.014107918918251094 0 0.0085826372356795615 0.014343017479864179 0 0.00948130047040735 0.014230790549576938 0 0.0090040983851336302 0.014272952732918511 0 0.0090956701921402275 0.014040482832224402 0 0.0080774557091146844 0.0076373978175684528 0 0.0091368941378955244 0.012716219008761426 0 0.00948130047040735 0.014230790549576938 0 0.0092344851367945346 0.013802669258297266 0 0.0090956701921402275 0.014040482832224402 0 0.0090149444747822435 0.013578559397693044 0 0.0092344851367945346 0.013802669258297266 0 0.0088974244188575052 0.013868004930536647 0 0.0092344851367945346 0.013802669258297266 0 0.0090956701921402275 0.014040482832224402 0 0.0088974244188575052 0.013868004930536647 0 0.0089028884057958217 0.014146564174990363 0 0.0088974244188575052 0.013868004930536647 0 0.0086695875324302833 0.014107918918251094 0 0.0089028884057958217 0.014146564174990363 0 0.0090956701921402275 0.014040482832224402 0 0.0088974244188575052 0.013868004930536647 0 0.0085187389439104096 0.013689939521895201 0 0.0087542279257249948 0.013703819237184708 0 0.0085948223213395888 0.013935723017061046 0 0.0087542279257249948 0.013703819237184708 0 0.0088974244188575052 0.013868004930536647 0 0.0085948223213395888 0.013935723017061046 0 0.0085187389439104096 0.013689939521895201 0 0.0085948223213395888 0.013935723017061046 0 0.0083694830931243334 0.013948530947894944 0 0.0085948223213395888 0.013935723017061046 0 0.0084108905997258357 0.014219047904327488 0 0.0083694830931243334 0.013948530947894944 0 0.0085948223213395888 0.013935723017061046 0 0.0086695875324302833 0.014107918918251094 0 0.0084108905997258357 0.014219047904327488 0 0.0088974244188575052 0.013868004930536647 0 0.0085948223213395888 0.013935723017061046 0 0.0086695875324302833 0.014107918918251094 0 0.0083105307622855871 0.014575881307462037 0 0.0084108905997258357 0.014219047904327488 0 0.0085826372356795615 0.014343017479864179 0 0.0086695875324302833 0.014107918918251094 0 0.0084108905997258357 0.014219047904327488 0 0.0085826372356795615 0.014343017479864179 0 0.0083105307622855871 0.014575881307462037 0 0.0084108905997258357 0.014219047904327488 0 0.0081492412312227768 0.014197257892957909 0 0.0084108905997258357 0.014219047904327488 0 0.0083694830931243334 0.013948530947894944 0 0.0081492412312227768 0.014197257892957909 0 0.0081888736567645552 0.013683584325232097 0 0.0083694830931243334 0.013948530947894944 0 0.0081492412312227768 0.014197257892957909 0 0.0078233168359626449 0.013982868910069642 0 0.0072535301713706297 0.014112088788825333 0 0.007837090182199951 0.014638856886332393 0 0.0078233168359626449 0.013982868910069642 0 0.0081492412312227768 0.014197257892957909 0 0.007837090182199951 0.014638856886332393 0 0.0081888736567645552 0.013683584325232097 0 0.0078233168359626449 0.013982868910069642 0 0.0081492412312227768 0.014197257892957909 0 0.0077366419242827942 0.013428880700063832 0 0.0078233168359626449 0.013982868910069642 0 0.0072535301713706297 0.014112088788825333 0 0.0072228094077884976 0.014788853630513082 0 0.0078097973226848687 0.014667739796991782 0 0.0068772407698774012 0.014705658153661174 0 0.0072535301713706297 0.014112088788825333 0 0.007837090182199951 0.014638856886332393 0 0.0075299883285335498 0.014904254788683225 0 0.007837090182199951 0.014638856886332393 0 0.0077006780043230236 0.015076894810890742 0 0.0083105307622855871 0.014575881307462037 0 0.007837090182199951 0.014638856886332393 0 0.0080187761672297284 0.014894506702972288 0 0.0083105307622855871 0.014575881307462037 0 0.0081492412312227768 0.014197257892957909 0 0.007837090182199951 0.014638856886332393 0 0.007837090182199951 0.014638856886332393 0 0.0080187761672297284 0.014894506702972288 0 0.0077006780043230236 0.015076894810890742 0 0.0077006780043230236 0.015076894810890742 0 0.007690503498651002 0.015356437211932325 0 0.0079910157551323167 0.015160847205162149 0 0.0080187761672297284 0.014894506702972288 0 0.0077006780043230236 0.015076894810890742 0 0.0079910157551323167 0.015160847205162149 0 0.0074763476737577887 0.015448115151214237 0 0.007690503498651002 0.015356437211932325 0 0.0074526372962541226 0.015637599556209487 0 0.0074763476737577887 0.015448115151214237 0 0.0077006780043230236 0.015076894810890742 0 0.007690503498651002 0.015356437211932325 0 0.0079910157551323167 0.015160847205162149 0 0.0081388230968627868 0.015339641869942848 0 0.0078309351503639494 0.015504606122416938 0 0.007690503498651002 0.015356437211932325 0 0.0079910157551323167 0.015160847205162149 0 0.0078309351503639494 0.015504606122416938 0 0.0079910157551323167 0.015160847205162149 0 0.0081388230968627868 0.015339641869942848 0 0.0083277018111253421 0.01509560880145345 0 0.0081388230968627868 0.015339641869942848 0 0.0083277018111253421 0.01509560880145345 0 0.0084134009227360106 0.015309366798558063 0 0.0079910157551323167 0.015160847205162149 0 0.0083277018111253421 0.01509560880145345 0 0.0082861006499901618 0.014886122264143174 0 0.0083277018111253421 0.01509560880145345 0 0.0082861006499901618 0.014886122264143174 0 0.0084993788066745277 0.014876559159084809 0 0.0084920553386960262 0.014706483393220001 0 0.0082861006499901618 0.014886122264143174 0 0.0084993788066745277 0.014876559159084809 0 0.0080187761672297284 0.014894506702972288 0 0.0079910157551323167 0.015160847205162149 0 0.0082861006499901618 0.014886122264143174 0 0.0087330109582438066 0.0146756459707505 0 0.0084993788066745277 0.014876559159084809 0 0.0085791315956325002 0.015029642912818964 0 0.0083190862749626809 0.010329045405425298 0 0.008504428794813482 0.016540984562742934 0 0.0083277018111253421 0.01509560880145345 0 0.0084993788066745277 0.014876559159084809 0 0.0085791315956325002 0.015029642912818964 0 0.0087388089513694023 0.015181553989068418 0 0.0085791315956325002 0.015029642912818964 0 0.0084134009227360106 0.015309366798558063 0 0.0083277018111253421 0.01509560880145345 0 0.0085791315956325002 0.015029642912818964 0 0.0084134009227360106 0.015309366798558063 0 0.0084134009227360106 0.015309366798558063 0 0.008612247086163519 0.015514519545394666 0 0.0081039228849445373 0.015703976108867843 0 0.0087388089513694023 0.015181553989068418 0 0.0084134009227360106 0.015309366798558063 0 0.008612247086163519 0.015514519545394666 0 0.0061239686298896409 0.016152091800294689 0 0.0068098370684614266 0.015266701689544568 0 0.0043152168726008962 0.015247342599262397 0 0.0047855778977788747 0.01456642718055629 0 0.0041779285399474002 0.014363930877978173 0 0.0043152168726008962 0.015247342599262397 0 0.0047855778977788747 0.01456642718055629 0 0.0053074075200460358 0.015043610836001226 0 0.0047855778977788747 0.01456642718055629 0 0.0053074075200460358 0.015043610836001226 0 0.0055083915782342049 0.014687401834172496 0 0.0081388230968627868 0.015339641869942848 0 0.0084134009227360106 0.015309366798558063 0 0.0081039228849445373 0.015703976108867843 0 0.0081388230968627868 0.015339641869942848 0 0.0081039228849445373 0.015703976108867843 0 0.0078309351503639494 0.015504606122416938 0 0.0078309351503639494 0.015504606122416938 0 0.0074526372962541226 0.015637599556209487 0 0.0075874342525659843 0.015726330695073256 0 0.007690503498651002 0.015356437211932325 0 0.0078309351503639494 0.015504606122416938 0 0.0074526372962541226 0.015637599556209487 0 0.0074526372962541226 0.015637599556209487 0 0.0075874342525659843 0.015726330695073256 0 0.0071680365561512596 0.015395883609186266 0 0.0069092880375190013 0.015388152961208608 0 0.0072138523967456691 0.015355399532803782 0 0.0081039228849445373 0.015703976108867843 0 0.0078309351503639494 0.015504606122416938 0 0.0075874342525659843 0.015726330695073256 0 0.0053074075200460358 0.015043610836001226 0 0.0055083915782342049 0.014687401834172496 0 0.0061893688823980806 0.015036655110001256 0 0.0068098370684614266 0.015266701689544568 0 0.0069092880375190013 0.015388152961208608 0 0.0055083915782342049 0.014687401834172496 0 0.0061893688823980806 0.015036655110001256 0 0.0059054183942278222 0.014594567816931915 0 0.0059054183942278222 0.014594567816931915 0 0.0056029176491337492 0.013903549188167103 0 0.0058988999784662577 0.013467434320058579 0 0.0061893688823980806 0.015036655110001256 0 0.0059054183942278222 0.014594567816931915 0 0.006495255723088878 0.014760950874261831 0 0.0059054183942278222 0.014594567816931915 0 0.006495255723088878 0.014760950874261831 0 0.0063270980982017095 0.014183862294579772 0 0.0061893688823980806 0.015036655110001256 0 0.006495255723088878 0.014760950874261831 0 0.0071680365561512596 0.015395883609186266 0 0.006495255723088878 0.014760950874261831 0 0.0063270980982017095 0.014183862294579772 0 0.0071226783994444319 0.014550657376499255 0 0.0059054183942278222 0.014594567816931915 0 0.0067410163401255187 0.013086466560086434 0 0.0058988999784662577 0.013467434320058579 0 0.0059301611763706982 0.014568215922355156 0 0.0065077907591187664 0.013631476592294932 0 0.0067410163401255187 0.013086466560086434 0 0.0058988999784662577 0.013467434320058579 0 0.0057828494561497166 0.012954759954476249 0 0.0056029176491337492 0.013903549188167103 0 0.0058988999784662577 0.013467434320058579 0 0.0054188003219297768 0.013451519069968708 0 0.0058988999784662577 0.013467434320058579 0 0.0054188003219297768 0.013451519069968708 0 0.0057828494561497166 0.012954759954476249 0 0.0054188003219297768 0.013451519069968708 0 0.0052648874932630964 0.012955260887822277 0 0.0057828494561497166 0.012954759954476249 0 0.0056029176491337492 0.013903549188167103 0 0.0054188003219297768 0.013451519069968708 0 0.0052385175327502483 0.01411370707357169 0 0.0054188003219297768 0.013451519069968708 0 0.0048814719319115601 0.013557996920977868 0 0.0052385175327502483 0.01411370707357169 0 0.0048814719319115601 0.013557996920977868 0 0.0046161857871247223 0.01297705318148624 0 0.0052648874932630964 0.012955260887822277 0 0.0054188003219297768 0.013451519069968708 0 0.0048814719319115601 0.013557996920977868 0 0.0052648874932630964 0.012955260887822277 0 0.0048814719319115601 0.013557996920977868 0 0.0043441229274914827 0.013704535392414671 0 0.0046161857871247223 0.01297705318148624 0 0.0046647843942651587 0.012606353847240171 0 0.0041088426357216087 0.012843290843756912 0 0.0048814719319115601 0.013557996920977868 0 0.0046619480977443135 0.014036219525024554 0 0.0043441229274914827 0.013704535392414671 0 0.0047855778977788747 0.01456642718055629 0 0.0046619480977443135 0.014036219525024554 0 0.0041779285399474002 0.014363930877978173 0 0.0046619480977443135 0.014036219525024554 0 0.0043441229274914827 0.013704535392414671 0 0.0041779285399474002 0.014363930877978173 0 0.0047855778977788747 0.01456642718055629 0 0.0046619480977443135 0.014036219525024554 0 0.0052385175327502483 0.01411370707357169 0 0.0047855778977788747 0.01456642718055629 0 0.0055083915782342049 0.014687401834172496 0 0.0052385175327502483 0.01411370707357169 0 0.0055083915782342049 0.014687401834172496 0 0.0059054183942278222 0.014594567816931915 0 0.0052385175327502483 0.01411370707357169 0 0.0059054183942278222 0.014594567816931915 0 0.0056029176491337492 0.013903549188167103 0 0.0052385175327502483 0.01411370707357169 0 0.0048814719319115601 0.013557996920977868 0 0.0046619480977443135 0.014036219525024554 0 0.0052385175327502483 0.01411370707357169 0 0.0068010648813321044 0.016673294721731173 0 0.006914488119978481 0.016116474718984121 0 0.0075807247935371106 0.016112660794542599 0 0.0073773206149544725 0.01573792362247731 0 0.006914488119978481 0.016116474718984121 0 0.0075807247935371106 0.016112660794542599 0 0.0075807247935371106 0.016112660794542599 0 0.0074318385142302761 0.015793138336266232 0 0.0075802004267464191 0.015301130591543506 0 0.0074318385142302761 0.015793138336266232 0 0.0071680365561512596 0.015395883609186266 0 0.0075802004267464191 0.015301130591543506 0 0.0073773206149544725 0.01573792362247731 0 0.0074318385142302761 0.015793138336266232 0 0.0074343425717747734 0.015658787390170133 0 0.0073773206149544725 0.01573792362247731 0 0.0075807247935371106 0.016112660794542599 0 0.0074318385142302761 0.015793138336266232 0 0.0074526372962541226 0.015637599556209487 0 0.0074318385142302761 0.015793138336266232 0 0.0074343425717747734 0.015658787390170133 0 0.0074763476737577887 0.015448115151214237 0 0.0074526372962541226 0.015637599556209487 0 0.0074343425717747734 0.015658787390170133 0 0.0074526372962541226 0.015637599556209487 0 0.0074318385142302761 0.015793138336266232 0 0.0071680365561512596 0.015395883609186266 0 0.006495255723088878 0.014760950874261831 0 0.0071680365561512596 0.015395883609186266 0 0.0071226783994444319 0.014550657376499255 0 0.0071680365561512596 0.015395883609186266 0 0.0071226783994444319 0.014550657376499255 0 0.0075802004267464191 0.015301130591543506 0 0.0063270980982017095 0.014183862294579772 0 0.0071226783994444319 0.014550657376499255 0 0.0069966973737912684 0.013790950211884482 0 0.0079686185554358226 0.014253539737155959 0 0.0075802004267464191 0.015301130591543506 0 0.0083236722374650449 0.014982321664796776 0 0.0071226783994444319 0.014550657376499255 0 0.0079686185554358226 0.014253539737155959 0 0.0075802004267464191 0.015301130591543506 0 0.0071226783994444319 0.014550657376499255 0 0.0079686185554358226 0.014253539737155959 0 0.0075727506006142984 0.013764047437498836 0 0.0068010648813321044 0.016673294721731173 0 0.0075807247935371106 0.016112660794542599 0 0.0074832012004177649 0.017239747823287771 0 0.0076523846047110711 0.016173043558505931 0 0.0078870748988287727 0.015855589761321107 0 0.0075807247935371106 0.016112660794542599 0 0.0075802004267464191 0.015301130591543506 0 0.0083236722374650449 0.014982321664796776 0 0.0078870748988287727 0.015855589761321107 0 0.008163385011301318 0.016894552809569599 0 0.0074832012004177649 0.017239747823287771 0 0.0067640137302864608 0.017403500365487563 0 0.0074073493022097352 0.01803187268820558 0 0.0079686185554358226 0.014253539737155959 0 0.0083236722374650449 0.014982321664796776 0 0.0087444807376656272 0.01373207159235169 0 0.0068741568664361747 0.018756599197238169 0 0.008163385011301318 0.016894552809569599 0 0.0069422959232677828 0.01941391509894656 0 0.0070214433061431642 0.020127578304285233 0 0.0077084502313480114 0.020188834432074119 0 0.0068010648813321044 0.016673294721731173 0 0.0074832012004177649 0.017239747823287771 0 0.0067640137302864608 0.017403500365487563 0 0.006930911043388061 0.02130845878948779 0 0.0072959281805126423 0.020854561800440263 0 0.007612346201773171 0.021339448211813185 0 0.0072959281805126423 0.020854561800440263 0 0.0068389795152132725 0.020624832185132655 0 0.0072248000555598735 0.020465891033414188 0 0.006930911043388061 0.02130845878948779 0 0.0072959281805126423 0.020854561800440263 0 0.0068389795152132725 0.020624832185132655 0 0.0068389795152132725 0.020624832185132655 0 0.0070214433061431642 0.020127578304285233 0 0.0072248000555598735 0.020465891033414188 0 0.0070214433061431642 0.020127578304285233 0 0.0072248000555598735 0.020465891033414188 0 0.0077084502313480114 0.020188834432074119 0 0.0072959281805126423 0.020854561800440263 0 0.0072248000555598735 0.020465891033414188 0 0.0077084502313480114 0.020188834432074119 0 0.008163385011301318 0.016894552809569599 0 0.0077409184028058879 0.015690952648908435 0 0.0079686185554358226 0.014253539737155959 0 0.0087444807376656272 0.01373207159235169 0 0.0081939286458739234 0.013643236116983206 0 0.008841773657168258 0.013783328588177915 0 0.0086092833032230826 0.013529270721143733 0 0.0085526947921015194 0.012809575607211429 0 0.0081939286458739234 0.013643236116983206 0 0.0086092833032230826 0.013529270721143733 0 0.0083325223298057419 0.013290603741844135 0 0.0086092833032230826 0.013529270721143733 0 0.0083325223298057419 0.013290603741844135 0 0.0085526947921015194 0.012809575607211429 0 0.0087444807376656272 0.01373207159235169 0 0.0081939286458739234 0.013643236116983206 0 0.0086092833032230826 0.013529270721143733 0 0.008841773657168258 0.013783328588177915 0 0.0085526947921015194 0.012809575607211429 0 0.0091314072280027081 0.011961869752796289 0 0.008163385011301318 0.016894552809569599 0 0.0083290889834444579 0.016580603791932193 0 0.0083325223298057419 0.013290603741844135 0 0.0085526947921015194 0.012809575607211429 0 0.007992159462700708 0.013160481422221723 0 0.0072959281805126423 0.020854561800440263 0 0.0077084502313480114 0.020188834432074119 0 0.007612346201773171 0.021339448211813185 0 0.0085526947921015194 0.012809575607211429 0 0.0078749176643771648 0.012395734490948117 0 0.0085001932365961052 0.011589020960358342 0 0.0085526947921015194 0.012809575607211429 0 0.0085001932365961052 0.011589020960358342 0 0.0091314072280027081 0.011961869752796289 0 0.0078749176643771648 0.012395734490948117 0 0.0074025552413414884 0.013240458839583143 0 0.0068406297536162466 0.012736483878213016 0 0.0078749176643771648 0.012395734490948117 0 0.007992159462700708 0.013160481422221723 0 0.0074025552413414884 0.013240458839583143 0 0.0085526947921015194 0.012809575607211429 0 0.0078749176643771648 0.012395734490948117 0 0.007992159462700708 0.013160481422221723 0 0.0081939286458739234 0.013643236116983206 0 0.0083325223298057419 0.013290603741844135 0 0.007992159462700708 0.013160481422221723 0 0.0081939286458739234 0.013643236116983206 0 0.007992159462700708 0.013160481422221723 0 0.0075727506006142984 0.013764047437498836 0 0.0079686185554358226 0.014253539737155959 0 0.0081939286458739234 0.013643236116983206 0 0.0075727506006142984 0.013764047437498836 0 0.007992159462700708 0.013160481422221723 0 0.0075727506006142984 0.013764047437498836 0 0.0074025552413414884 0.013240458839583143 0 0.0074025552413414884 0.013240458839583143 0 0.0069966973737912684 0.013790950211884482 0 0.0068406297536162466 0.012736483878213016 0 0.0065077907591187664 0.013631476592294932 0 0.0071324529590982436 0.012236560503153615 0 0.0071226783994444319 0.014550657376499255 0 0.0075727506006142984 0.013764047437498836 0 0.0069966973737912684 0.013790950211884482 0 0.0075727506006142984 0.013764047437498836 0 0.0074025552413414884 0.013240458839583143 0 0.0069966973737912684 0.013790950211884482 0 0.0063270980982017095 0.014183862294579772 0 0.0069966973737912684 0.013790950211884482 0 0.0068406297536162466 0.012736483878213016 0 0.007359481360819542 0.011769880788478064 0 0.0073674531196012798 0.011255024661532696 0 0.0065154682440528768 0.011796780756844967 0 0.007359481360819542 0.011769880788478064 0 0.0073674531196012798 0.011255024661532696 0 0.0079701775213329006 0.010797050390553991 0 0.0073674531196012798 0.011255024661532696 0 0.0074149915538495124 0.010489694028311351 0 0.0079701775213329006 0.010797050390553991 0 0.0073674531196012798 0.011255024661532696 0 0.0074149915538495124 0.010489694028311351 0 0.0067547053884580762 0.010790002230694448 0 0.0073674531196012798 0.011255024661532696 0 0.0066863808151619332 0.011162916973500872 0 0.0067547053884580762 0.010790002230694448 0 0.0074149915538495124 0.010489694028311351 0 0.0067683694824694019 0.010142836224843641 0 0.0074289520446428987 0.0097024559347535164 0 0.0074149915538495124 0.010489694028311351 0 0.0067547053884580762 0.010790002230694448 0 0.0067683694824694019 0.010142836224843641 0 0.0074149915538495124 0.010489694028311351 0 0.0079939534389482578 0.010068001804067646 0 0.0079701775213329006 0.010797050390553991 0 0.0074149915538495124 0.010489694028311351 0 0.0079939534389482578 0.010068001804067646 0 0.0074289520446428987 0.0097024559347535164 0 0.0079939534389482578 0.010068001804067646 0 0.0084266848048243845 0.0106640806511257 0 0.0086226427965067354 0.0098633710924813777 0 0.0079939534389482578 0.010068001804067646 0 0.0079701775213329006 0.010797050390553991 0 0.0084266848048243845 0.0106640806511257 0 0.0071324529590982436 0.012236560503153615 0 0.007933172855519019 0.010864021615590943 0 0.0078749176643771648 0.012395734490948117 0 0.0068406297536162466 0.012736483878213016 0 0.0079701775213329006 0.010797050390553991 0 0.0079701775213329006 0.010797050390553991 0 0.0085001932365961052 0.011589020960358342 0 0.0084266848048243845 0.0106640806511257 0 0.0078749176643771648 0.012395734490948117 0 0.0079701775213329006 0.010797050390553991 0 0.0085001932365961052 0.011589020960358342 0 0.0083290889834444579 0.016580603791932193 0 0.0087223167733744607 0.0170176951248814 0 0.0091314072280027081 0.011961869752796289 0 0.0091661822373781052 0.010545610043728962 0 0.009040447990874903 0.011055911934803249 0 0.0085001932365961052 0.011589020960358342 0 0.0091314072280027081 0.011961869752796289 0 0.009040447990874903 0.011055911934803249 0 0.0085001932365961052 0.011589020960358342 0 0.0084266848048243845 0.0106640806511257 0 0.009040447990874903 0.011055911934803249 0 0.0084266848048243845 0.0106640806511257 0 0.009040447990874903 0.011055911934803249 0 0.0086226427965067354 0.0098633710924813777 0 0.0089417336541921504 0.010785091267127763 0 0.0088531033124532588 0.010521913862758579 0 0.0091661822373781052 0.010545610043728962 0 0.009040447990874903 0.011055911934803249 0 0.0087130080707472479 0.010240853138541863 0 0.0066836648103746716 0.022642738723340841 0 0.0074481256159761762 0.022557108178402382 0 0.0070030379122267153 0.023052042278888841 0 0.0066836648103746716 0.022642738723340841 0 0.0074481256159761762 0.022557108178402382 0 0.0070302557135152269 0.021948340235389503 0 0.0064329921283299667 0.02187368122903521 0 0.0066836648103746716 0.022642738723340841 0 0.0070302557135152269 0.021948340235389503 0 0.007612346201773171 0.021339448211813185 0 0.0074481256159761762 0.022557108178402382 0 0.0070302557135152269 0.021948340235389503 0 0.006930911043388061 0.02130845878948779 0 0.007612346201773171 0.021339448211813185 0 0.0070302557135152269 0.021948340235389503 0 0.0064329921283299667 0.02187368122903521 0 0.006930911043388061 0.02130845878948779 0 0.0070302557135152269 0.021948340235389503 0 0.0051015985915767162 0.011480733254354355 0 0.0054779624806100095 0.011555442671729425 0 0.0054787685445283115 0.01131634198880169 0 0.0054779624806100095 0.011555442671729425 0 0.0054787685445283115 0.01131634198880169 0 0.0058110215703768946 0.011122366300537421 0 0.0051015985915767162 0.011480733254354355 0 0.0053572372811841852 0.011201846719004338 0 0.0054787685445283115 0.01131634198880169 0 0.0053572372811841852 0.011201846719004338 0 0.0054787685445283115 0.01131634198880169 0 0.0055567574759969839 0.011154792276801882 0 0.0053572372811841852 0.011201846719004338 0 0.0055567574759969839 0.011154792276801882 0 0.0055375937690984242 0.010924750347309215 0 0.0053572372811841852 0.011201846719004338 0 0.0050687172243615124 0.011137796356140173 0 0.0052657820839334428 0.010934489231307826 0 0.0051015985915767162 0.011480733254354355 0 0.0053572372811841852 0.011201846719004338 0 0.0050687172243615124 0.011137796356140173 0 0.0051015985915767162 0.011480733254354355 0 0.0050687172243615124 0.011137796356140173 0 0.0048643724632897768 0.01129383890997257 0 0.0050687172243615124 0.011137796356140173 0 0.0048290461551150597 0.011045442853518033 0 0.0048643724632897768 0.01129383890997257 0 0.0050687172243615124 0.011137796356140173 0 0.0048290461551150597 0.011045442853518033 0 0.005005011644373631 0.010847931967268194 0 0.0048290461551150597 0.011045442853518033 0 0.0045345488801186249 0.011145294610244355 0 0.0047126510030164421 0.010780260656999047 0 0.0048290461551150597 0.011045442853518033 0 0.0048643724632897768 0.01129383890997257 0 0.0045345488801186249 0.011145294610244355 0 0.0045345488801186249 0.011145294610244355 0 0.004619290827325399 0.011646394751028371 0 0.0040557018038359701 0.011419381747336727 0 0.0048643724632897768 0.01129383890997257 0 0.0045345488801186249 0.011145294610244355 0 0.004619290827325399 0.011646394751028371 0 0.0051015985915767162 0.011480733254354355 0 0.0048643724632897768 0.01129383890997257 0 0.004619290827325399 0.011646394751028371 0 0.0051015985915767162 0.011480733254354355 0 0.004619290827325399 0.011646394751028371 0 0.0047421339099614247 0.012272249003450853 0 0.004619290827325399 0.011646394751028371 0 0.0047421339099614247 0.012272249003450853 0 0.0042633115744612083 0.012156990792935753 0 0.0047421339099614247 0.012272249003450853 0 0.0042633115744612083 0.012156990792935753 0 0.0041105662756325189 0.012699386469173018 0 0.0053652829931745043 0.01180397527470604 0 0.0045347942723030143 0.012517699487427513 0 0.0054637986433259634 0.012029630139417316 0 0.0046647843942651587 0.012606353847240171 0 0.0054720683532871036 0.012238716896763369 0 0.0046161857871247223 0.01297705318148624 0 0.0055203162493451174 0.012411183403269284 0 0.0052648874932630964 0.012955260887822277 0 0.0051015985915767162 0.011480733254354355 0 0.0054779624806100095 0.011555442671729425 0 0.0047421339099614247 0.012272249003450853 0 0.0054451572087925899 0.011648919682740649 0 0.0046647843942651587 0.012606353847240171 0 0.0052648874932630964 0.012955260887822277 0 0.0056043212538228089 0.012721084551361313 0 0.0057828494561497166 0.012954759954476249 0 0.0055203162493451174 0.012411183403269284 0 0.0052648874932630964 0.012955260887822277 0 0.0056043212538228089 0.012721084551361313 0 0.0067410163401255187 0.013086466560086434 0 0.0057828494561497166 0.012954759954476249 0 0.0062260246503768662 0.012598188683846044 0 0.0056043212538228089 0.012721084551361313 0 0.0057828494561497166 0.012954759954476249 0 0.0059310098167282927 0.01249648003813073 0 0.0057828494561497166 0.012954759954476249 0 0.0062260246503768662 0.012598188683846044 0 0.0059310098167282927 0.01249648003813073 0 0.0062260246503768662 0.012598188683846044 0 0.0059310098167282927 0.01249648003813073 0 0.0065154682440528768 0.011796780756844967 0 0.0055203162493451174 0.012411183403269284 0 0.0056043212538228089 0.012721084551361313 0 0.0059310098167282927 0.01249648003813073 0 0.0067410163401255187 0.013086466560086434 0 0.007359481360819542 0.011769880788478064 0 0.0065154682440528768 0.011796780756844967 0 0.0067410163401255187 0.013086466560086434 0 0.0062260246503768662 0.012598188683846044 0 0.0065154682440528768 0.011796780756844967 0 0.0073156380176237429 0.011268046334853612 0 0.0064924984909281854 0.011664672766520456 0 0.0073674531196012798 0.011255024661532696 0 0.0064150106240063436 0.011537747457960358 0 0.0066863808151619332 0.011162916973500872 0 0.0064150106240063436 0.011537747457960358 0 0.0062202521625884756 0.011069844312048067 0 0.0066863808151619332 0.011162916973500872 0 0.0054451572087925899 0.011648919682740649 0 0.0061648103379957301 0.011105890029126498 0 0.0055203162493451174 0.012411183403269284 0 0.0059310098167282927 0.01249648003813073 0 0.0065154682440528768 0.011796780756844967 0 0.0054779624806100095 0.011555442671729425 0 0.0058110215703768946 0.011122366300537421 0 0.0062202521625884756 0.011069844312048067 0 0.0054720683532871036 0.012238716896763369 0 0.0064924984909281854 0.011664672766520456 0 0.0053652829931745043 0.01180397527470604 0 0.0054637986433259634 0.012029630139417316 0 0.0064150106240063436 0.011537747457960358 0 0.0053652829931745043 0.01180397527470604 0 0.0064150106240063436 0.011537747457960358 0 0.0062202521625884756 0.011069844312048067 0 0.0054787685445283115 0.01131634198880169 0 0.0055567574759969839 0.011154792276801882 0 0.0058110215703768946 0.011122366300537421 0 0.0058110215703768946 0.011122366300537421 0 0.0058490183009242457 0.010753025305185956 0 0.0055375937690984242 0.010924750347309215 0 0.0055567574759969839 0.011154792276801882 0 0.0058110215703768946 0.011122366300537421 0 0.0055375937690984242 0.010924750347309215 0 0.0058110215703768946 0.011122366300537421 0 0.0062202521625884756 0.011069844312048067 0 0.0058490183009242457 0.010753025305185956 0 0.0062202521625884756 0.011069844312048067 0 0.0058490183009242457 0.010753025305185956 0 0.0062393116437513734 0.010482171770834098 0 0.0058490183009242457 0.010753025305185956 0 0.0062393116437513734 0.010482171770834098 0 0.0057231662057313747 0.010281258792095177 0 0.0058490183009242457 0.010753025305185956 0 0.0057231662057313747 0.010281258792095177 0 0.0055389733695601767 0.010588462938636672 0 0.0058490183009242457 0.010753025305185956 0 0.0055389733695601767 0.010588462938636672 0 0.0055375937690984242 0.010924750347309215 0 0.0062202521625884756 0.011069844312048067 0 0.0066863808151619332 0.011162916973500872 0 0.0067547053884580762 0.010790002230694448 0 0.0062202521625884756 0.011069844312048067 0 0.0067547053884580762 0.010790002230694448 0 0.0062393116437513734 0.010482171770834098 0 0.0067547053884580762 0.010790002230694448 0 0.0062393116437513734 0.010482171770834098 0 0.0067683694824694019 0.010142836224843641 0 0.0062393116437513734 0.010482171770834098 0 0.0067683694824694019 0.010142836224843641 0 0.0061057318954853643 0.0097923966184125261 0 0.0062393116437513734 0.010482171770834098 0 0.0057231662057313747 0.010281258792095177 0 0.0061057318954853643 0.0097923966184125261 0 0.0057231662057313747 0.010281258792095177 0 0.0056671629310918728 0.0098040958182174665 0 0.0053899026926098525 0.010004578637283398 0 0.0057231662057313747 0.010281258792095177 0 0.0056671629310918728 0.0098040958182174665 0 0.0061057318954853643 0.0097923966184125261 0 0.0053899026926098525 0.010004578637283398 0 0.005143133258621627 0.0097657119910142427 0 0.0053724073667338777 0.0096193007251144744 0 0.0056671629310918728 0.0098040958182174665 0 0.0053899026926098525 0.010004578637283398 0 0.0053724073667338777 0.0096193007251144744 0 0.005143133258621627 0.0097657119910142427 0 0.004947126942510597 0.009864246181065555 0 0.0048957263645607535 0.009643329518101984 0 0.0053899026926098525 0.010004578637283398 0 0.005143133258621627 0.0097657119910142427 0 0.0051298995881671004 0.010064847316215418 0 0.005143133258621627 0.0097657119910142427 0 0.004947126942510597 0.009864246181065555 0 0.0051298995881671004 0.010064847316215418 0 0.004947126942510597 0.009864246181065555 0 0.0051298995881671004 0.010064847316215418 0 0.00487155709153652 0.010097924317981587 0 0.0051298995881671004 0.010064847316215418 0 0.0050688561188297595 0.010343536093971976 0 0.00487155709153652 0.010097924317981587 0 0.0051298995881671004 0.010064847316215418 0 0.0050688561188297595 0.010343536093971976 0 0.0053352787648893773 0.010331253894772692 0 0.0057231662057313747 0.010281258792095177 0 0.0053352787648893773 0.010331253894772692 0 0.0055389733695601767 0.010588462938636672 0 0.0057231662057313747 0.010281258792095177 0 0.0053899026926098525 0.010004578637283398 0 0.0053352787648893773 0.010331253894772692 0 0.0053899026926098525 0.010004578637283398 0 0.0051298995881671004 0.010064847316215418 0 0.0053352787648893773 0.010331253894772692 0 0.0055389733695601767 0.010588462938636672 0 0.0052513053284100521 0.010643437396822256 0 0.0055375937690984242 0.010924750347309215 0 0.0053352787648893773 0.010331253894772692 0 0.0055389733695601767 0.010588462938636672 0 0.0052513053284100521 0.010643437396822256 0 0.0050688561188297595 0.010343536093971976 0 0.0053352787648893773 0.010331253894772692 0 0.0052513053284100521 0.010643437396822256 0 0.0050688561188297595 0.010343536093971976 0 0.0049474213619348827 0.0105564719137092 0 0.0048599621155897181 0.010323585087839144 0 0.0050688561188297595 0.010343536093971976 0 0.0052513053284100521 0.010643437396822256 0 0.0049474213619348827 0.0105564719137092 0 0.0052513053284100521 0.010643437396822256 0 0.005005011644373631 0.010847931967268194 0 0.0049474213619348827 0.0105564719137092 0 0.0052513053284100521 0.010643437396822256 0 0.005005011644373631 0.010847931967268194 0 0.0052657820839334428 0.010934489231307826 0 0.0050687172243615124 0.011137796356140173 0 0.005005011644373631 0.010847931967268194 0 0.0052657820839334428 0.010934489231307826 0 0.0053572372811841852 0.011201846719004338 0 0.0052657820839334428 0.010934489231307826 0 0.0055375937690984242 0.010924750347309215 0 0.0052513053284100521 0.010643437396822256 0 0.0052657820839334428 0.010934489231307826 0 0.0055375937690984242 0.010924750347309215 0 0.0045345488801186249 0.011145294610244355 0 0.0042711128042906624 0.010655582157012759 0 0.0041532611363758413 0.011024105356796226 0 0.0047126510030164421 0.010780260656999047 0 0.0046769539713818389 0.010441029644021174 0 0.0042711128042906624 0.010655582157012759 0 0.0045345488801186249 0.011145294610244355 0 0.0047126510030164421 0.010780260656999047 0 0.0042711128042906624 0.010655582157012759 0 0.0048290461551150597 0.011045442853518033 0 0.005005011644373631 0.010847931967268194 0 0.0047126510030164421 0.010780260656999047 0 0.005005011644373631 0.010847931967268194 0 0.0047126510030164421 0.010780260656999047 0 0.0049474213619348827 0.0105564719137092 0 0.0047126510030164421 0.010780260656999047 0 0.0049474213619348827 0.0105564719137092 0 0.0046769539713818389 0.010441029644021174 0 0.0049474213619348827 0.0105564719137092 0 0.0048599621155897181 0.010323585087839144 0 0.0046769539713818389 0.010441029644021174 0 0.0046769539713818389 0.010441029644021174 0 0.0043247750341474907 0.010133694666354746 0 0.0042711128042906624 0.010655582157012759 0 0.0046769539713818389 0.010441029644021174 0 0.0043247750341474907 0.010133694666354746 0 0.0046578172422629873 0.010101848122994864 0 0.0043247750341474907 0.010133694666354746 0 0.0046578172422629873 0.010101848122994864 0 0.004455515341171677 0.0097798145069195701 0 0.0050688561188297595 0.010343536093971976 0 0.0048599621155897181 0.010323585087839144 0 0.00487155709153652 0.010097924317981587 0 0.0048599621155897181 0.010323585087839144 0 0.0046578172422629873 0.010101848122994864 0 0.00487155709153652 0.010097924317981587 0 0.0048599621155897181 0.010323585087839144 0 0.0046769539713818389 0.010441029644021174 0 0.0046578172422629873 0.010101848122994864 0 0.0046578172422629873 0.010101848122994864 0 0.00487155709153652 0.010097924317981587 0 0.0047455042816377906 0.0098428011718611711 0 0.004947126942510597 0.009864246181065555 0 0.00487155709153652 0.010097924317981587 0 0.0047455042816377906 0.0098428011718611711 0 0.0046578172422629873 0.010101848122994864 0 0.0047455042816377906 0.0098428011718611711 0 0.004455515341171677 0.0097798145069195701 0 0.0047455042816377906 0.0098428011718611711 0 0.004455515341171677 0.0097798145069195701 0 0.0046476262374173143 0.0095718594536710836 0 0.004947126942510597 0.009864246181065555 0 0.0047455042816377906 0.0098428011718611711 0 0.0048957263645607535 0.009643329518101984 0 0.0047455042816377906 0.0098428011718611711 0 0.0048957263645607535 0.009643329518101984 0 0.0046476262374173143 0.0095718594536710836 0 0.004455515341171677 0.0097798145069195701 0 0.004043429016184024 0.0095942205764677473 0 0.0043565726948759939 0.0094683527896736244 0 0.004455515341171677 0.0097798145069195701 0 0.0043565726948759939 0.0094683527896736244 0 0.0046476262374173143 0.0095718594536710836 0 0.0043247750341474907 0.010133694666354746 0 0.004043429016184024 0.0095942205764677473 0 0.0037418857763956547 0.010254413606913745 0 0.004043429016184024 0.0095942205764677473 0 0.0033151019860128729 0.0097325783062397735 0 0.0037418857763956547 0.010254413606913745 0 0.004043429016184024 0.0095942205764677473 0 0.0033151019860128729 0.0097325783062397735 0 0.0037748429350535928 0.0091944441887864513 0 0.0043247750341474907 0.010133694666354746 0 0.004455515341171677 0.0097798145069195701 0 0.004043429016184024 0.0095942205764677473 0 0.0034297720270863516 0.0093620091568535051 0 0.0026900606496310197 0.011294349286873933 0 0.0028853838696567559 0.010763426314487502 0 0.0037496459775220492 0.010876062046018696 0 0.0037418857763956547 0.010254413606913745 0 0.0033151019860128729 0.0097325783062397735 0 0.0028853838696567559 0.010763426314487502 0 0.0037418857763956547 0.010254413606913745 0 0.0037496459775220492 0.010876062046018696 0 0.0042711128042906624 0.010655582157012759 0 0.0037418857763956547 0.010254413606913745 0 0.0037496459775220492 0.010876062046018696 0 0.0042711128042906624 0.010655582157012759 0 0.0041532611363758413 0.011024105356796226 0 0.0043247750341474907 0.010133694666354746 0 0.0042711128042906624 0.010655582157012759 0 0.0037418857763956547 0.010254413606913745 0 0.0049508231241862915 -0.0050930438573764721 0 0.0052725688982433886 -0.0049079154176378866 0 0.0050786724294932858 -0.0043958658872618973 0 0.0040860415480886234 0.0021475955979585472 0 0.0037844925074271324 0.00027405167029671899 0 0.0030492071960465526 0.0094317761850047782 0 0.0029921718034126516 0.0096519353178637652 0 0.0027403816805544106 0.0091807136961944442 0 0.0033151019860128729 0.0097325783062397735 0 0.0030492071960465526 0.0094317761850047782 0 0.0029921718034126516 0.0096519353178637652 0 0.0033151019860128729 0.0097325783062397735 0 0.0031252798666657356 0.0097012180682288091 0 0.0029921718034126516 0.0096519353178637652 0 0.0049508231241862915 -0.0050930438573764721 0 0.0053067802282491215 -0.0053702684707719883 0 0.0052725688982433886 -0.0049079154176378866 0 0.0049508231241862915 -0.0050930438573764721 0 0.0053067802282491215 -0.0053702684707719883 0 0.0051315813817238102 -0.0055078928642840336 0 0.0051315813817238102 -0.0055078928642840336 0 0.0048451013100773588 -0.0056703797593966694 0 0.0052279110781454649 -0.0057494936730973873 0 0.0053171770295338113 -0.0056465019625825353 0 0.0051315813817238102 -0.0055078928642840336 0 0.0052279110781454649 -0.0057494936730973873 0 0.0053171770295338113 -0.0056465019625825353 0 0.0052279110781454649 -0.0057494936730973873 0 0.0055086193308651436 -0.0057979121591249022 0 0.0053067802282491215 -0.0053702684707719883 0 0.0053171770295338113 -0.0056465019625825353 0 0.0051315813817238102 -0.0055078928642840336 0 0.0028853838696567559 0.010763426314487502 0 0.0028441858376944771 0.01168228989075468 0 0.0025404514560790699 0.011621184824241182 0 0.0049508231241862915 -0.0050930438573764721 0 0.0051315813817238102 -0.0055078928642840336 0 0.0048451013100773588 -0.0056703797593966694 0 0.0040860415480886234 0.0021475955979585472 0 0.0031756608909851184 0.004830887507547529 0 0.0026900606496310197 0.011294349286873933 0 0.0031756608909851184 0.004830887507547529 0 0.0031252798666657356 0.0097012180682288091 0 0.0029921718034126516 0.0096519353178637652 0 0.0031083445889926024 0.0096806383786600843 0 0.0048451013100773588 -0.0056703797593966694 0 0.0049367835496684663 -0.0058782442296130798 0 0.0052279110781454649 -0.0057494936730973873 0 0.0031756608909851184 0.004830887507547529 0 0.0032371862831767303 0.0093280775393467397 0 0.0028441858376944771 0.01168228989075468 0 0.0025404514560790699 0.011621184824241182 0 0.0026558422106311113 0.011997836985842289 0 0.0032371862831767303 0.0093280775393467397 0 0.0044945807688124553 0.0026827247112517403 0 0.0025944540673688635 0.011780485038875649 0 0.0021844302892500911 0.011823795579333126 0 0.0023151139265958839 0.01262347445446267 0 0.0030311598375669393 0.0056123225405186848 0 0.0030593905838729343 0.0056961265576552051 0 0.0030025377168284161 0.0056951964335238579 0 0.0031756608909851184 0.004830887507547529 0 0.0044945807688124553 0.0026827247112517403 0 0.0049367835496684663 -0.0058782442296130798 0 0.0052279110781454649 -0.0057494936730973873 0 0.0056312444116160508 -0.0059287572174793477 0 0.0070677180089281939 -0.0037987151999901692 0 0.0065458384457057492 -0.003625549529019946 0 0.0062508704210632133 -0.0038392643307956684 0 0.0044945807688124553 0.0026827247112517403 0 0.0063411701104997883 -0.005978297593822973 0 0.0040557018038359701 0.011419381747336727 0 0.0035453954638195429 0.011337038454006517 0 0.0037690879470330713 0.011947378599309949 0 0.0037496459775220492 0.010876062046018696 0 0.0040557018038359701 0.011419381747336727 0 0.0041532611363758413 0.011024105356796226 0 0.0045345488801186249 0.011145294610244355 0 0.0040557018038359701 0.011419381747336727 0 0.0041532611363758413 0.011024105356796226 0 0.0037496459775220492 0.010876062046018696 0 0.0040557018038359701 0.011419381747336727 0 0.0035453954638195429 0.011337038454006517 0 0.0028853838696567559 0.010763426314487502 0 0.0035453954638195429 0.011337038454006517 0 0.0031741083778958406 0.011658279434649229 0 0.0028853838696567559 0.010763426314487502 0 0.0028441858376944771 0.01168228989075468 0 0.0031741083778958406 0.011658279434649229 0 0.0028853838696567559 0.010763426314487502 0 0.0037496459775220492 0.010876062046018696 0 0.0035453954638195429 0.011337038454006517 0 0.0026558422106311113 0.011997836985842289 0 0.0031741083778958406 0.011658279434649229 0 0.0037690879470330713 0.011947378599309949 0 0.0032371862831767303 0.0093280775393467397 0 0.003384461992261827 0.012495908513052262 0 0.0035453954638195429 0.011337038454006517 0 0.0031741083778958406 0.011658279434649229 0 0.0037690879470330713 0.011947378599309949 0 0.0025536753316734548 0.012099998546076745 0 0.0032734581368920514 0.012390178095236813 0 0.0037690879470330713 0.011947378599309949 0 0.0028441858376944771 0.01168228989075468 0 0.0026558422106311113 0.011997836985842289 0 0.0031741083778958406 0.011658279434649229 0 0.0025536753316734548 0.012099998546076745 0 0.0032734581368920514 0.012390178095236813 0 0.0031370792561062014 0.012747580382861664 0 0.0032734581368920514 0.012390178095236813 0 0.0037690879470330713 0.011947378599309949 0 0.0035926877838665093 0.012663806105124494 0 0.004619290827325399 0.011646394751028371 0 0.0040557018038359701 0.011419381747336727 0 0.0042633115744612083 0.012156990792935753 0 0.0040557018038359701 0.011419381747336727 0 0.0037690879470330713 0.011947378599309949 0 0.0042633115744612083 0.012156990792935753 0 0.0037690879470330713 0.011947378599309949 0 0.0042633115744612083 0.012156990792935753 0 0.0041105662756325189 0.012699386469173018 0 0.0048480214885566267 0.012618919799101038 0 0.0041154175318473488 0.01299510052584874 0 0.003809567540354697 0.01348718438628781 0 0.0046647843942651587 0.012606353847240171 0 0.0038600047188425851 0.013521333739667005 0 0.0043441229274914827 0.013704535392414671 0 0.0046161857871247223 0.01297705318148624 0 0.003809567540354697 0.01348718438628781 0 0.0037690879470330713 0.011947378599309949 0 0.0041105662756325189 0.012699386469173018 0 0.0035926877838665093 0.012663806105124494 0 0.0041105662756325189 0.012699386469173018 0 0.0033769912573498335 0.013234360929920598 0 0.0035926877838665093 0.012663806105124494 0 0.0041154175318473488 0.01299510052584874 0 0.003809567540354697 0.01348718438628781 0 0.0033769912573498335 0.013234360929920598 0 0.0041088426357216087 0.012843290843756912 0 0.0034422026077847562 0.013198397567250875 0 0.0043441229274914827 0.013704535392414671 0 0.003809567540354697 0.01348718438628781 0 0.0038909451413340545 0.013910396844258738 0 0.003809567540354697 0.01348718438628781 0 0.0038909451413340545 0.013910396844258738 0 0.0035174168582807848 0.013718245538903556 0 0.0038909451413340545 0.013910396844258738 0 0.0041779285399474002 0.014363930877978173 0 0.00350012465139529 0.014203570295394036 0 0.0038909451413340545 0.013910396844258738 0 0.0035174168582807848 0.013718245538903556 0 0.00350012465139529 0.014203570295394036 0 0.0043441229274914827 0.013704535392414671 0 0.0038909451413340545 0.013910396844258738 0 0.0041779285399474002 0.014363930877978173 0 0.0030605022246132812 0.013691263508918526 0 0.0025017384614289062 0.013670586949903307 0 0.0029571470097009898 0.014156942702811167 0 0.0030605022246132812 0.013691263508918526 0 0.00350012465139529 0.014203570295394036 0 0.0029571470097009898 0.014156942702811167 0 0.0035174168582807848 0.013718245538903556 0 0.0030605022246132812 0.013691263508918526 0 0.00350012465139529 0.014203570295394036 0 0.0035174168582807848 0.013718245538903556 0 0.0030605022246132812 0.013691263508918526 0 0.0033769912573498335 0.013234360929920598 0 0.003809567540354697 0.01348718438628781 0 0.0035174168582807848 0.013718245538903556 0 0.0033769912573498335 0.013234360929920598 0 0.0030605022246132812 0.013691263508918526 0 0.002874117952494354 0.013052539261218391 0 0.0033769912573498335 0.013234360929920598 0 0.002874117952494354 0.013052539261218391 0 0.0033769912573498335 0.013234360929920598 0 0.0031370792561062014 0.012747580382861664 0 0.0025536753316734548 0.012099998546076745 0 0.002874117952494354 0.013052539261218391 0 0.0031370792561062014 0.012747580382861664 0 0.0033769912573498335 0.013234360929920598 0 0.0035926877838665093 0.012663806105124494 0 0.0031370792561062014 0.012747580382861664 0 0.0032734581368920514 0.012390178095236813 0 0.0035926877838665093 0.012663806105124494 0 0.0031370792561062014 0.012747580382861664 0 0.0032371862831767303 0.0093280775393467397 0 0.0030050953349205021 0.013764201857069527 0 0.0025944540673688635 0.011780485038875649 0 0.002874117952494354 0.013052539261218391 0 0.0023151139265958839 0.01262347445446267 0 0.0021844302892500911 0.011823795579333126 0 0.0023151139265958839 0.01262347445446267 0 0.0016262564176313652 0.013296310046096957 0 0.0023151139265958839 0.01262347445446267 0 0.0023350765771240167 0.013161199208726774 0 0.0016262564176313652 0.013296310046096957 0 0.002874117952494354 0.013052539261218391 0 0.0023151139265958839 0.01262347445446267 0 0.0023350765771240167 0.013161199208726774 0 0.0044945807688124553 0.0026827247112517403 0 0.0058418020371968924 0.0025586043369718592 0 0.0070677180089281939 -0.0037987151999901692 0 0.0065458384457057492 -0.003625549529019946 0 0.006802934867337092 -0.0031438365024306185 0 0.0058428158568584907 -0.0047291873240532904 0 0.0058418020371968924 0.0025586043369718592 0 0.0065458384457057492 -0.003625549529019946 0 0.0070271218918492992 -0.0031371184200717243 0 0.0065054863571943596 -0.0032788647766283014 0 0.0073239152595657355 -0.0035591648039517225 0 0.0068904043225846649 -0.0024965644824312024 0 0.0076000842282698588 -0.002058043777381681 0 0.0070271218918492992 -0.0031371184200717243 0 0.0064653382753484855 -0.0028266151052706709 0 0.0065054863571943596 -0.0032788647766283014 0 0.0058418020371968924 0.0025586043369718592 0 0.0076634035524028449 -0.0041034646693526499 0 0.0070271218918492992 -0.0031371184200717243 0 0.0068904043225846649 -0.0024965644824312024 0 0.0064653382753484855 -0.0028266151052706709 0 0.0016262564176313652 0.013296310046096957 0 0.0025017384614289062 0.013670586949903307 0 0.0024988260227861133 0.014541295324073599 0 0.0058418020371968924 0.0025586043369718592 0 0.0053763276011977324 0.0065594703017336897 0 0.0073239152595657355 -0.0035591648039517225 0 0.008588515333761957 -0.0017370302556057985 0 0.0076000842282698588 -0.002058043777381681 0 0.0030605022246132812 0.013691263508918526 0 0.002874117952494354 0.013052539261218391 0 0.0025017384614289062 0.013670586949903307 0 0.002874117952494354 0.013052539261218391 0 0.0023350765771240167 0.013161199208726774 0 0.0025017384614289062 0.013670586949903307 0 0.0023350765771240167 0.013161199208726774 0 0.0016262564176313652 0.013296310046096957 0 0.0025017384614289062 0.013670586949903307 0 0.0025017384614289062 0.013670586949903307 0 0.0024988260227861133 0.014541295324073599 0 0.0029571470097009898 0.014156942702811167 0 0.008588515333761957 -0.0017370302556057985 0 0.0076000842282698588 -0.002058043777381681 0 0.0082193131942717122 -0.0009295702916696497 0 0.0068904043225846649 -0.0024965644824312024 0 0.007003149300930849 -0.0014353767161114689 0 0.0065798562218294387 -0.0023916633184827975 0 0.0068904043225846649 -0.0024965644824312024 0 0.0076000842282698588 -0.002058043777381681 0 0.007003149300930849 -0.0014353767161114689 0 0.0076000842282698588 -0.002058043777381681 0 0.007003149300930849 -0.0014353767161114689 0 0.0082193131942717122 -0.0009295702916696497 0 0.0071602635927730529 -0.0017878316043171234 0 0.0066543256074466503 -0.0012625964451608571 0 0.0066113623969501949 -0.0019461528673154719 0 0.0069354143408294289 0.0025645134559212569 0 0.0074172721350160391 0.0017974842511424244 0 0.0065771675177449295 0.0017339577323762592 0 0.0077819815466084359 -9.7935692876226232e-05 0 0.0066156185635326296 0.00025792973207415699 0 0.0071602635927730529 -0.0017878316043171234 0 0.0080311419627528274 -0.0011455218947455821 0 0.0066543256074466503 -0.0012625964451608571 0 0.007003149300930849 -0.0014353767161114689 0 0.0082193131942717122 -0.0009295702916696497 0 0.0081024407770399817 -0.00041070121975431091 0 0.0070652373268071207 -0.0016155364157375278 0 0.0077819815466084359 -9.7935692876226232e-05 0 0.0082193131942717122 -0.0009295702916696497 0 0.0081024407770399817 -0.00041070121975431091 0 0.0099843519717227845 0.00045657195389591805 0 0.0094218962539783461 0.00064119965061479225 0 0.0081024407770399817 -0.00041070121975431091 0 0.0099843519717227845 0.00045657195389591805 0 0.008588515333761957 -0.0017370302556057985 0 0.0082193131942717122 -0.0009295702916696497 0 0.0099843519717227845 0.00045657195389591805 0 0.0079224245535135188 0.0040674746628216098 0 0.0077819815466084359 -9.7935692876226232e-05 0 0.0024988260227861133 0.014541295324073599 0 0.0032581435880708332 0.015560656671217312 0 0.0031820942700675025 0.014648859820390853 0 0.0032581435880708332 0.015560656671217312 0 0.0038032766268022698 0.014748100542346555 0 0.0031820942700675025 0.014648859820390853 0 0.0053763276011977324 0.0065594703017336897 0 0.0067640439414766648 0.0090927799074205454 0 0.0079224245535135188 0.0040674746628216098 0 0.0067640439414766648 0.0090927799074205454 0 0.0087388089513694023 0.015181553989068418 0 0.008612247086163519 0.015514519545394666 0 0.0090822696995969485 0.01527215267282273 0 0.0043152168726008962 0.015247342599262397 0 0.0032581435880708332 0.015560656671217312 0 0.0038032766268022698 0.014748100542346555 0 0.0061239686298896409 0.016152091800294689 0 0.0067640439414766648 0.0090927799074205454 0 0.0043152168726008962 0.015247342599262397 0 0.0038032766268022698 0.014748100542346555 0 0.0041779285399474002 0.014363930877978173 0 0.0038032766268022698 0.014748100542346555 0 0.0041779285399474002 0.014363930877978173 0 0.00350012465139529 0.014203570295394036 0 0.0038032766268022698 0.014748100542346555 0 0.00350012465139529 0.014203570295394036 0 0.0031820942700675025 0.014648859820390853 0 0.00350012465139529 0.014203570295394036 0 0.0029571470097009898 0.014156942702811167 0 0.0031820942700675025 0.014648859820390853 0 0.0024988260227861133 0.014541295324073599 0 0.0029571470097009898 0.014156942702811167 0 0.0031820942700675025 0.014648859820390853 0 0.0054848302535051505 -0.0027023876651453209 0 0.0051828692873572531 -0.002282969099901912 0 0.0052203214867305239 -0.0029081002320994337 0 0.0048305140957745109 -0.0027054955887148707 0 0.0051828692873572531 -0.002282969099901912 0 0.0052203214867305239 -0.0029081002320994337 0 0.0054848302535051505 -0.0027023876651453209 0 0.0051828692873572531 -0.002282969099901912 0 0.0057105954296389934 -0.002513292984898005 0 0.0046857334402655741 -0.00080619750843596242 0 0.0054758603223646896 -0.0022773107833023013 0 0.0048305140957745109 -0.0027054955887148707 0 0.0045172783595596802 -0.0023207124947052515 0 0.0051828692873572531 -0.002282969099901912 0 0.0042202869707633622 -0.0028270407359494991 0 0.0048305140957745109 -0.0027054955887148707 0 0.0047362131305589018 -0.0032294092637518337 0 0.0042202869707633622 -0.0028270407359494991 0 0.0048305140957745109 -0.0027054955887148707 0 0.0045172783595596802 -0.0023207124947052515 0 0.0039282357591451699 0.002066548533187466 0 0.0040994275751752044 0.0023700341064284117 0 0.004971625901812945 0.0016196767943992361 0 0.0044306077996669373 -0.002014900721345365 0 0.0046857334402655741 -0.00080619750843596242 0 0.003955775772412449 -0.0013202759363704387 0 0.0042262662009474351 -0.001706549727347808 0 0.0047427896924902846 -0.00166127410320887 0 0.00398197469722245 -0.00091220442138010194 0 0.0046857334402655741 -0.00080619750843596242 0 0.0054758097926978066 0.0022983389102237007 0 0.0048844446640895359 0.0025198499627140159 0 0.004971625901812945 0.0016196767943992361 0 0.0046857334402655741 -0.00080619750843596242 0 0.005509891974360092 0.00020285444482550836 0 0.0054758097926978066 0.0022983389102237007 0 0.004971625901812945 0.0016196767943992361 0 0.0057555176143820677 0.0016826745527642893 0 0.0061243768709105893 0.0022305717657242607 0 0.0054758097926978066 0.0022983389102237007 0 0.0057555176143820677 0.0016826745527642893 0 0.0061243768709105893 0.0022305717657242607 0 0.0057555176143820677 0.0016826745527642893 0 0.0065771675177449295 0.0017339577323762592 0 0.0053137165713833777 -0.0013717327972463111 0 0.0066543256074466503 -0.0012625964451608571 0 0.0059638424039625323 -0.0016689229597998765 0 0.005509891974360092 0.00020285444482550836 0 0.0066156185635326296 0.00025792973207415699 0 0.0066543256074466503 -0.0012625964451608571 0 0.0063052810481612582 -0.001808755667918992 0 0.0059638424039625323 -0.0016689229597998765 0 0.0059850680060992301 -0.0020483358922490673 0 0.0061992919586633709 -0.0024917382004268863 0 0.0050832907751220012 -0.0019490759726545782 0 0.0071602635927730529 -0.0017878316043171234 0 0.0066113623969501949 -0.0019461528673154719 0 0.0062744939536813283 -0.0024019576560674128 0 0.0070652373268071207 -0.0016155364157375278 0 0.0063874495448641632 -0.0022438460370599227 0 0.0066543256074466503 -0.0012625964451608571 0 0.0066113623969501949 -0.0019461528673154719 0 0.0063052810481612582 -0.001808755667918992 0 0.0066113623969501949 -0.0019461528673154719 0 0.0063052810481612582 -0.001808755667918992 0 0.0063154785018163856 -0.0021171785743400533 0 0.0063052810481612582 -0.001808755667918992 0 0.0059850680060992301 -0.0020483358922490673 0 0.0063154785018163856 -0.0021171785743400533 0 0.0063052810481612582 -0.001808755667918992 0 0.0059638424039625323 -0.0016689229597998765 0 0.0059850680060992301 -0.0020483358922490673 0 0.0059638424039625323 -0.0016689229597998765 0 0.0059850680060992301 -0.0020483358922490673 0 0.0055559695704408777 -0.0017633853714394535 0 0.006001030900141517 -0.0025848033687633403 0 0.0059425149049478435 -0.0026866967313956686 0 0.0061730256185430783 -0.0026920878363317666 0 0.0061992919586633709 -0.0024917382004268863 0 0.006332674454497738 -0.0025603454063534473 0 0.0061730256185430783 -0.0026920878363317666 0 0.006001030900141517 -0.0025848033687633403 0 0.0061992919586633709 -0.0024917382004268863 0 0.0061730256185430783 -0.0026920878363317666 0 0.0061992919586633709 -0.0024917382004268863 0 0.0062221182925264427 -0.0022759687821065481 0 0.0062744939536813283 -0.0024019576560674128 0 0.0059850680060992301 -0.0020483358922490673 0 0.0061992919586633709 -0.0024917382004268863 0 0.0062221182925264427 -0.0022759687821065481 0 0.0059850680060992301 -0.0020483358922490673 0 0.0062221182925264427 -0.0022759687821065481 0 0.0063154785018163856 -0.0021171785743400533 0 0.007003149300930849 -0.0014353767161114689 0 0.0062744939536813283 -0.0024019576560674128 0 0.0065798562218294387 -0.0023916633184827975 0 0.0066113623969501949 -0.0019461528673154719 0 0.0063154785018163856 -0.0021171785743400533 0 0.0062744939536813283 -0.0024019576560674128 0 0.0062221182925264427 -0.0022759687821065481 0 0.0063154785018163856 -0.0021171785743400533 0 0.0062744939536813283 -0.0024019576560674128 0 0.0062744939536813283 -0.0024019576560674128 0 0.0065798562218294387 -0.0023916633184827975 0 0.006332674454497738 -0.0025603454063534473 0 0.0061992919586633709 -0.0024917382004268863 0 0.0062744939536813283 -0.0024019576560674128 0 0.006332674454497738 -0.0025603454063534473 0 0.006001030900141517 -0.0025848033687633403 0 0.0061992919586633709 -0.0024917382004268863 0 0.0057105954296389934 -0.002513292984898005 0 0.0040262796575101312 -0.001461005437838754 0 0.0053137165713833777 -0.0013717327972463111 0 0.0050832907751220012 -0.0019490759726545782 0 0.006106510078949458 -0.0024789250724181937 0 0.0054758603223646896 -0.0022773107833023013 0 0.0053137165713833777 -0.0013717327972463111 0 0.0050832907751220012 -0.0019490759726545782 0 0.0055559695704408777 -0.0017633853714394535 0 0.0053137165713833777 -0.0013717327972463111 0 0.0059638424039625323 -0.0016689229597998765 0 0.0055559695704408777 -0.0017633853714394535 0 0.0059850680060992301 -0.0020483358922490673 0 0.0050832907751220012 -0.0019490759726545782 0 0.0055559695704408777 -0.0017633853714394535 0 0.006001030900141517 -0.0025848033687633403 0 0.0057105954296389934 -0.002513292984898005 0 0.0059425149049478435 -0.0026866967313956686 0 0.0057105954296389934 -0.002513292984898005 0 0.0059425149049478435 -0.0026866967313956686 0 0.0057151399381434554 -0.0027572952971392888 0 0.0054848302535051505 -0.0027023876651453209 0 0.0057105954296389934 -0.002513292984898005 0 0.0057151399381434554 -0.0027572952971392888 0 0.0054848302535051505 -0.0027023876651453209 0 0.0057151399381434554 -0.0027572952971392888 0 0.0055552266359339911 -0.0030258155990327356 0 0.0055552266359339911 -0.0030258155990327356 0 0.0058249452059143799 -0.0028770520398859307 0 0.0058492922750573188 -0.0031679098661910898 0 0.0057151399381434554 -0.0027572952971392888 0 0.0055552266359339911 -0.0030258155990327356 0 0.0058249452059143799 -0.0028770520398859307 0 0.0058249452059143799 -0.0028770520398859307 0 0.0058492922750573188 -0.0031679098661910898 0 0.0061078340225102536 -0.0029228975936374051 0 0.0059425149049478435 -0.0026866967313956686 0 0.0058249452059143799 -0.0028770520398859307 0 0.0061078340225102536 -0.0029228975936374051 0 0.0059425149049478435 -0.0026866967313956686 0 0.0057151399381434554 -0.0027572952971392888 0 0.0058249452059143799 -0.0028770520398859307 0 0.0055552266359339911 -0.0030258155990327356 0 0.0058492922750573188 -0.0031679098661910898 0 0.0055577193418866839 -0.0034225698917182425 0 0.0065798562218294387 -0.0023916633184827975 0 0.0064653382753484855 -0.0028266151052706709 0 0.006332674454497738 -0.0025603454063534473 0 0.0068904043225846649 -0.0024965644824312024 0 0.0065798562218294387 -0.0023916633184827975 0 0.0064653382753484855 -0.0028266151052706709 0 0.0064653382753484855 -0.0028266151052706709 0 0.006332674454497738 -0.0025603454063534473 0 0.0061730256185430783 -0.0026920878363317666 0 0.0064653382753484855 -0.0028266151052706709 0 0.0061730256185430783 -0.0026920878363317666 0 0.0061078340225102536 -0.0029228975936374051 0 0.0059425149049478435 -0.0026866967313956686 0 0.0061730256185430783 -0.0026920878363317666 0 0.0061078340225102536 -0.0029228975936374051 0 0.0061078340225102536 -0.0029228975936374051 0 0.0063167788383487987 -0.0030891228904991208 0 0.0061665323771579366 -0.0032556622820272669 0 0.0058492922750573188 -0.0031679098661910898 0 0.0061078340225102536 -0.0029228975936374051 0 0.0061665323771579366 -0.0032556622820272669 0 0.0064653382753484855 -0.0028266151052706709 0 0.0061078340225102536 -0.0029228975936374051 0 0.0063167788383487987 -0.0030891228904991208 0 0.0063167788383487987 -0.0030891228904991208 0 0.0065054863571943596 -0.0032788647766283014 0 0.0061665323771579366 -0.0032556622820272669 0 0.0064653382753484855 -0.0028266151052706709 0 0.0063167788383487987 -0.0030891228904991208 0 0.0065054863571943596 -0.0032788647766283014 0 0.0065054863571943596 -0.0032788647766283014 0 0.0061665323771579366 -0.0032556622820272669 0 0.0062674977684217762 -0.0035392410885634641 0 0.0065458384457057492 -0.003625549529019946 0 0.0065054863571943596 -0.0032788647766283014 0 0.0062674977684217762 -0.0035392410885634641 0 0.0061665323771579366 -0.0032556622820272669 0 0.0062674977684217762 -0.0035392410885634641 0 0.0059120870692266677 -0.0035145464439505763 0 0.0062674977684217762 -0.0035392410885634641 0 0.0059120870692266677 -0.0035145464439505763 0 0.0062508704210632133 -0.0038392643307956684 0 0.0065458384457057492 -0.003625549529019946 0 0.0062674977684217762 -0.0035392410885634641 0 0.0062508704210632133 -0.0038392643307956684 0 0.0055577193418866839 -0.0034225698917182425 0 0.0059120870692266677 -0.0035145464439505763 0 0.0052897601566675306 -0.0039108104943832772 0 0.0059120870692266677 -0.0035145464439505763 0 0.0052897601566675306 -0.0039108104943832772 0 0.0062508704210632133 -0.0038392643307956684 0 0.0058492922750573188 -0.0031679098661910898 0 0.0055577193418866839 -0.0034225698917182425 0 0.0059120870692266677 -0.0035145464439505763 0 0.0058492922750573188 -0.0031679098661910898 0 0.0061665323771579366 -0.0032556622820272669 0 0.0059120870692266677 -0.0035145464439505763 0 0.0055577193418866839 -0.0034225698917182425 0 0.0052897601566675306 -0.0039108104943832772 0 0.0051316676328678626 -0.0034589661449398769 0 0.0055552266359339911 -0.0030258155990327356 0 0.0055577193418866839 -0.0034225698917182425 0 0.0051316676328678626 -0.0034589661449398769 0 0.0054848302535051505 -0.0027023876651453209 0 0.0055552266359339911 -0.0030258155990327356 0 0.0052203214867305239 -0.0029081002320994337 0 0.0055552266359339911 -0.0030258155990327356 0 0.0051316676328678626 -0.0034589661449398769 0 0.0052203214867305239 -0.0029081002320994337 0 0.0048305140957745109 -0.0027054955887148707 0 0.0052203214867305239 -0.0029081002320994337 0 0.0047362131305589018 -0.0032294092637518337 0 0.0051316676328678626 -0.0034589661449398769 0 0.0052203214867305239 -0.0029081002320994337 0 0.0047362131305589018 -0.0032294092637518337 0 0.0043866406217539294 -0.0041189345623808679 0 0.0052897601566675306 -0.0039108104943832772 0 0.0051316676328678626 -0.0034589661449398769 0 0.0043866406217539294 -0.0041189345623808679 0 0.0051316676328678626 -0.0034589661449398769 0 0.0047362131305589018 -0.0032294092637518337 0 0.0046469240364642389 -0.0047354539004195208 0 0.0054590824903861315 -0.0046347505868588792 0 0.0049633585975321489 -0.0052880455402227735 0 0.0058966636120022023 -0.0056863233166830089 0 0.0052997809781491559 -0.0062168265917668707 0 0.0058966636120022023 -0.0056863233166830089 0 0.0060230695455518188 -0.0059518070007186551 0 0.0052997809781491559 -0.0062168265917668707 0 0.0060230695455518188 -0.0059518070007186551 0 0.0052997809781491559 -0.0062168265917668707 0 0.0056210755617471147 -0.0072646023467113725 0 0.0052279110781454649 -0.0057494936730973873 0 0.0055086193308651436 -0.0057979121591249022 0 0.0056312444116160508 -0.0059287572174793477 0 0.0055086193308651436 -0.0057979121591249022 0 0.0056312444116160508 -0.0059287572174793477 0 0.0057229120263262555 -0.0057974653067268617 0 0.0054590824903861315 -0.0046347505868588792 0 0.0063411701104997883 -0.005978297593822973 0 0.0058966636120022023 -0.0056863233166830089 0 0.0060230695455518188 -0.0059518070007186551 0 0.0057229120263262555 -0.0057974653067268617 0 0.0058966636120022023 -0.0056863233166830089 0 0.0056312444116160508 -0.0059287572174793477 0 0.0057229120263262555 -0.0057974653067268617 0 0.0060230695455518188 -0.0059518070007186551 0 0.0057229120263262555 -0.0057974653067268617 0 0.0055786363326662692 -0.0052834185823335718 0 0.0053171770295338113 -0.0056465019625825353 0 0.0055086193308651436 -0.0057979121591249022 0 0.0057229120263262555 -0.0057974653067268617 0 0.0053067802282491215 -0.0053702684707719883 0 0.0053171770295338113 -0.0056465019625825353 0 0.0057229120263262555 -0.0057974653067268617 0 0.0053067802282491215 -0.0053702684707719883 0 0.0055786363326662692 -0.0052834185823335718 0 0.0052725688982433886 -0.0049079154176378866 0 0.0053067802282491215 -0.0053702684707719883 0 0.0057229120263262555 -0.0057974653067268617 0 0.0055786363326662692 -0.0052834185823335718 0 0.0060230695455518188 -0.0059518070007186551 0 0.0055786363326662692 -0.0052834185823335718 0 0.0060641207655451404 -0.0050831647474655975 0 0.0060641207655451404 -0.0050831647474655975 0 0.0064550476185406 -0.0044881533042654253 0 0.0056821301727755687 -0.0044764988015658152 0 0.0055786363326662692 -0.0052834185823335718 0 0.0060641207655451404 -0.0050831647474655975 0 0.0056821301727755687 -0.0044764988015658152 0 0.0055786363326662692 -0.0052834185823335718 0 0.0052725688982433886 -0.0049079154176378866 0 0.0056821301727755687 -0.0044764988015658152 0 0.0052725688982433886 -0.0049079154176378866 0 0.0056821301727755687 -0.0044764988015658152 0 0.0050786724294932858 -0.0043958658872618973 0 0.0049468820741852878 -0.007406822238159424 0 0.0052997809781491559 -0.0062168265917668707 0 0.0056210755617471147 -0.0072646023467113725 0 0.0059461785927029569 -0.0061078079023343347 0 0.006408469008230366 -0.0060269421680337757 0 0.0060230695455518188 -0.0059518070007186551 0 0.0060641207655451404 -0.0050831647474655975 0 0.0067926592735301503 -0.0051905662032112549 0 0.0060641207655451404 -0.0050831647474655975 0 0.0067926592735301503 -0.0051905662032112549 0 0.0064550476185406 -0.0044881533042654253 0 0.006408469008230366 -0.0060269421680337757 0 0.00509197946694653 -0.0072230778149640967 0 0.0067926592735301503 -0.0051905662032112549 0 0.0064550476185406 -0.0044881533042654253 0 0.0074651073186897928 -0.0045050027731173966 0 0.0064550476185406 -0.0044881533042654253 0 0.0068492384341725786 -0.0038299302165312227 0 0.0074651073186897928 -0.0045050027731173966 0 0.0030497406795505009 -0.0087633870390581466 0 0.0032871545866651271 -0.0087979431747144295 0 0.0033764591819230435 -0.0090661474030984072 0 0.0049701353381529029 -0.0062508736659146573 0 0.00509197946694653 -0.0072230778149640967 0 0.0064550476185406 -0.0044881533042654253 0 0.0068492384341725786 -0.0038299302165312227 0 0.005998604019513706 -0.0037984400995167609 0 0.0049701353381529029 -0.0062508736659146573 0 0.0044822724843225558 -0.0057129996519638048 0 0.0068492384341725786 -0.0038299302165312227 0 0.005998604019513706 -0.0037984400995167609 0 0.0061882097320492754 -0.0031185842737148661 0 0.0030497406795505009 -0.0087633870390581466 0 0.0031081784654481549 -0.0084847710068574004 0 0.0032871545866651271 -0.0087979431747144295 0 0.0030497406795505009 -0.0087633870390581466 0 0.0031081784654481549 -0.0084847710068574004 0 0.0026950639185695179 -0.00843821200857643 0 0.0056821301727755687 -0.0044764988015658152 0 0.0053101626389735548 -0.0037244082004639512 0 0.0045335332887724228 -0.0041860653702650834 0 0.0062226194273939306 -0.0055868934811775075 0 0.0037844925074271324 0.00027405167029671899 0 0.0056821301727755687 -0.0044764988015658152 0 0.005998604019513706 -0.0037984400995167609 0 0.0053101626389735548 -0.0037244082004639512 0 0.0064550476185406 -0.0044881533042654253 0 0.0056821301727755687 -0.0044764988015658152 0 0.005998604019513706 -0.0037984400995167609 0 0.005998604019513706 -0.0037984400995167609 0 0.0053101626389735548 -0.0037244082004639512 0 0.0054127354697792061 -0.0031491859000233433 0 0.005998604019513706 -0.0037984400995167609 0 0.0054127354697792061 -0.0031491859000233433 0 0.0061882097320492754 -0.0031185842737148661 0 0.0053101626389735548 -0.0037244082004639512 0 0.0054127354697792061 -0.0031491859000233433 0 0.0049276106340029081 -0.0032431739413187437 0 0.0053101626389735548 -0.0037244082004639512 0 0.0047297346198647994 -0.0035836953966548054 0 0.0045335332887724228 -0.0041860653702650834 0 0.0053101626389735548 -0.0037244082004639512 0 0.0049276106340029081 -0.0032431739413187437 0 0.0047297346198647994 -0.0035836953966548054 0 0.0054127354697792061 -0.0031491859000233433 0 0.0049276106340029081 -0.0032431739413187437 0 0.0047172568320794223 -0.0026784529483233504 0 0.0054127354697792061 -0.0031491859000233433 0 0.0054934604459732075 -0.0024667299269037265 0 0.0047172568320794223 -0.0026784529483233504 0 0.0034350168562506636 -0.0059251023478331302 0 0.0044822724843225558 -0.0057129996519638048 0 0.0054127354697792061 -0.0031491859000233433 0 0.0054934604459732075 -0.0024667299269037265 0 0.0061882097320492754 -0.0031185842737148661 0 0.0023700943723582737 -0.0081048578612314872 0 0.0026950639185695179 -0.00843821200857643 0 0.0026672257349780147 -0.0080395748671055582 0 0.0034350168562506636 -0.0059251023478331302 0 0.0020929433747311353 -0.008246861619754348 0 0.0034350168562506636 -0.0059251023478331302 0 0.0042986384365103006 -0.0034310568760361928 0 0.0030797899498979566 -0.004688426713331177 0 0.0032601199541347661 -0.0048712034988695344 0 0.0033876394751421969 -0.0045916626748298186 0 0.0034350168562506636 -0.0059251023478331302 0 0.0026149359226152104 -0.0063920041906355063 0 0.0031081784654481549 -0.0084847710068574004 0 0.0028931145622722739 -0.0082423913682993823 0 0.0031188258866954965 -0.0082447828073873523 0 0.0031081784654481549 -0.0084847710068574004 0 0.0031188258866954965 -0.0082447828073873523 0 0.0032914586220139557 -0.0083161183696783339 0 0.0031081784654481549 -0.0084847710068574004 0 0.0026950639185695179 -0.00843821200857643 0 0.0028931145622722739 -0.0082423913682993823 0 0.0026950639185695179 -0.00843821200857643 0 0.0028931145622722739 -0.0082423913682993823 0 0.0026672257349780147 -0.0080395748671055582 0 0.0028931145622722739 -0.0082423913682993823 0 0.0026672257349780147 -0.0080395748671055582 0 0.0029789465983553493 -0.0080417431976801818 0 0.0028931145622722739 -0.0082423913682993823 0 0.0029789465983553493 -0.0080417431976801818 0 0.0031188258866954965 -0.0082447828073873523 0 0.0031188258866954965 -0.0082447828073873523 0 0.0032470493226431341 -0.0080738679644073129 0 0.0032914586220139557 -0.0083161183696783339 0 0.0029789465983553493 -0.0080417431976801818 0 0.0031188258866954965 -0.0082447828073873523 0 0.0032470493226431341 -0.0080738679644073129 0 0.0029789465983553493 -0.0080417431976801818 0 0.003122550613462264 -0.0078359434689679874 0 0.0032470493226431341 -0.0080738679644073129 0 0.0029789465983553493 -0.0080417431976801818 0 0.003122550613462264 -0.0078359434689679874 0 0.0028170208846632697 -0.0078059931867740344 0 0.003122550613462264 -0.0078359434689679874 0 0.003000397169382774 -0.0075706492558961468 0 0.0028170208846632697 -0.0078059931867740344 0 0.003000397169382774 -0.0075706492558961468 0 0.0031536580116919657 -0.0073087367707212036 0 0.0027521504191245234 -0.0071806769543819879 0 0.003122550613462264 -0.0078359434689679874 0 0.003000397169382774 -0.0075706492558961468 0 0.0033049547910266779 -0.0076276471879000119 0 0.003000397169382774 -0.0075706492558961468 0 0.0031536580116919657 -0.0073087367707212036 0 0.0033049547910266779 -0.0076276471879000119 0 0.003000397169382774 -0.0075706492558961468 0 0.0026739942010010711 -0.0075184158185841827 0 0.0027521504191245234 -0.0071806769543819879 0 0.0026739942010010711 -0.0075184158185841827 0 0.0023885762064080069 -0.0073788608683305092 0 0.0027521504191245234 -0.0071806769543819879 0 0.003000397169382774 -0.0075706492558961468 0 0.0026739942010010711 -0.0075184158185841827 0 0.0028170208846632697 -0.0078059931867740344 0 0.0026739942010010711 -0.0075184158185841827 0 0.0028170208846632697 -0.0078059931867740344 0 0.0023486662473615237 -0.0077301300395016771 0 0.0026672257349780147 -0.0080395748671055582 0 0.0028170208846632697 -0.0078059931867740344 0 0.0023486662473615237 -0.0077301300395016771 0 0.0026672257349780147 -0.0080395748671055582 0 0.0029789465983553493 -0.0080417431976801818 0 0.0028170208846632697 -0.0078059931867740344 0 0.0022479972789076633 -0.0081324740036179087 0 0.0026672257349780147 -0.0080395748671055582 0 0.0023486662473615237 -0.0077301300395016771 0 0.0023486662473615237 -0.0077301300395016771 0 0.0019587244691519406 -0.0078348309827847712 0 0.0020496445680080713 -0.0072938397123346165 0 0.0022479972789076633 -0.0081324740036179087 0 0.0023486662473615237 -0.0077301300395016771 0 0.0019587244691519406 -0.0078348309827847712 0 0.0022642922075370654 -0.0067090646712360908 0 0.0026657995482402526 -0.0056799422627118934 0 0.0019587244691519406 -0.0078348309827847712 0 0.0020496445680080713 -0.0072938397123346165 0 0.0016877408586285639 -0.007546711312510856 0 0.0026739942010010711 -0.0075184158185841827 0 0.0023486662473615237 -0.0077301300395016771 0 0.0023885762064080069 -0.0073788608683305092 0 0.0023486662473615237 -0.0077301300395016771 0 0.0020496445680080713 -0.0072938397123346165 0 0.0023885762064080069 -0.0073788608683305092 0 0.0022642922075370654 -0.0067090646712360908 0 0.0025729819758350766 -0.0065295772508896207 0 0.0020496445680080713 -0.0072938397123346165 0 0.0023885762064080069 -0.0073788608683305092 0 0.0023756349913388896 -0.0070022299471974754 0 0.0027206218612672276 -0.0058591506293651516 0 0.0027230436024298873 -0.0060464852667647924 0 0.0028107628472711808 -0.0058456344221713497 0 0.0027206218612672276 -0.0058591506293651516 0 0.0026486212243206088 -0.0061302639938834343 0 0.0027230436024298873 -0.0060464852667647924 0 0.0027230436024298873 -0.0060464852667647924 0 0.0027860145582619374 -0.0059826937406264238 0 0.002734376898370586 -0.0061973952934324264 0 0.0027230436024298873 -0.0060464852667647924 0 0.0026592135882526936 -0.0062451424574916049 0 0.002734376898370586 -0.0061973952934324264 0 0.0026486212243206088 -0.0061302639938834343 0 0.0027230436024298873 -0.0060464852667647924 0 0.0026592135882526936 -0.0062451424574916049 0 0.0026486212243206088 -0.0061302639938834343 0 0.0027702430595572306 -0.0065185422173248703 0 0.0026592135882526936 -0.0062451424574916049 0 0.0025729819758350766 -0.0065295772508896207 0 0.0027547079172130693 -0.006496376096799635 0 0.0030157573478013073 -0.0069110220709630984 0 0.0031171940668686536 -0.0063753402897983443 0 0.0032952123084889198 -0.0069237431759029333 0 0.0027702430595572306 -0.0065185422173248703 0 0.0030157573478013073 -0.0069110220709630984 0 0.0031171940668686536 -0.0063753402897983443 0 0.0030157573478013073 -0.0069110220709630984 0 0.0031536580116919657 -0.0073087367707212036 0 0.0027521504191245234 -0.0071806769543819879 0 0.0030157573478013073 -0.0069110220709630984 0 0.0031536580116919657 -0.0073087367707212036 0 0.0032952123084889198 -0.0069237431759029333 0 0.0023756349913388896 -0.0070022299471974754 0 0.0027702430595572306 -0.0065185422173248703 0 0.0027521504191245234 -0.0071806769543819879 0 0.0023885762064080069 -0.0073788608683305092 0 0.0023756349913388896 -0.0070022299471974754 0 0.0027521504191245234 -0.0071806769543819879 0 0.0027702430595572306 -0.0065185422173248703 0 0.0030157573478013073 -0.0069110220709630984 0 0.0027521504191245234 -0.0071806769543819879 0 0.0029445820573120343 -0.0054442422142067437 0 0.0032679047410512189 -0.0048476355148658499 0 0.003258169016925111 -0.0052955822153242333 0 0.0029445820573120343 -0.0054442422142067437 0 0.0032679047410512189 -0.0048476355148658499 0 0.0028593813071960848 -0.0047262830214170083 0 0.0032679047410512189 -0.0048476355148658499 0 0.0035094365921293424 -0.0050424072035070711 0 0.0036955147633467547 -0.0044487204048568848 0 0.0032679047410512189 -0.0048476355148658499 0 0.0035094365921293424 -0.0050424072035070711 0 0.003258169016925111 -0.0052955822153242333 0 0.0035094365921293424 -0.0050424072035070711 0 0.003258169016925111 -0.0052955822153242333 0 0.0034741638069010487 -0.0054923344524189077 0 0.0034741638069010487 -0.0054923344524189077 0 0.003861580908945195 -0.0051313380130653379 0 0.003776390192692968 -0.0057426881419769546 0 0.003258169016925111 -0.0052955822153242333 0 0.0034741638069010487 -0.0054923344524189077 0 0.0031056217475412423 -0.0056562674081248 0 0.0035094365921293424 -0.0050424072035070711 0 0.0034741638069010487 -0.0054923344524189077 0 0.003861580908945195 -0.0051313380130653379 0 0.0034741638069010487 -0.0054923344524189077 0 0.0031056217475412423 -0.0056562674081248 0 0.0033353921282423464 -0.0059219176966890065 0 0.0029445820573120343 -0.0054442422142067437 0 0.0031056217475412423 -0.0056562674081248 0 0.0028705869778521053 -0.0057581291310961355 0 0.0031056217475412423 -0.0056562674081248 0 0.0028705869778521053 -0.0057581291310961355 0 0.0030286879935752238 -0.0059955381270235929 0 0.0029445820573120343 -0.0054442422142067437 0 0.003258169016925111 -0.0052955822153242333 0 0.0031056217475412423 -0.0056562674081248 0 0.0028705869778521053 -0.0057581291310961355 0 0.0027860145582619374 -0.0059826937406264238 0 0.0028107628472711808 -0.0058456344221713497 0 0.0027230436024298873 -0.0060464852667647924 0 0.0027860145582619374 -0.0059826937406264238 0 0.0028107628472711808 -0.0058456344221713497 0 0.0028705869778521053 -0.0057581291310961355 0 0.0028107628472711808 -0.0058456344221713497 0 0.0028694889356898085 -0.0057160572441174928 0 0.0029445820573120343 -0.0054442422142067437 0 0.0028705869778521053 -0.0057581291310961355 0 0.0028694889356898085 -0.0057160572441174928 0 0.0029523007433590221 -0.0054896860859438212 0 0.0025611704565709384 -0.0051535419997391224 0 0.0029445820573120343 -0.0054442422142067437 0 0.0023830945384533354 -0.0047850819237064144 0 0.0028593813071960848 -0.0047262830214170083 0 0.0023830945384533354 -0.0047850819237064144 0 0.002597185764701786 -0.0043889390241298992 0 0.0028593813071960848 -0.0047262830214170083 0 0.0023830945384533354 -0.0047850819237064144 0 0.002597185764701786 -0.0043889390241298992 0 0.0019348059725065338 -0.0043108494419582281 0 0.0027206218612672276 -0.0058591506293651516 0 0.0028107628472711808 -0.0058456344221713497 0 0.0028098951029954336 -0.0057248871796159615 0 0.0028107628472711808 -0.0058456344221713497 0 0.0028694889356898085 -0.0057160572441174928 0 0.0028098951029954336 -0.0057248871796159615 0 0.0025611704565709384 -0.0051535419997391224 0 0.0026657995482402526 -0.0056799422627118934 0 0.0032601199541347661 -0.0048712034988695344 0 0.0034426784063856463 -0.0050605867359295046 0 0.003519742198987378 -0.0047631763421933388 0 0.0026149359226152104 -0.0063920041906355063 0 0.0026657995482402526 -0.0056799422627118934 0 0.0026657995482402526 -0.0056799422627118934 0 0.0031631404821546921 -0.0039865805749999999 0 0.002597185764701786 -0.0043889390241298992 0 0.0019348059725065338 -0.0043108494419582281 0 0.0027839555459786541 -0.0037214244281509822 0 0.0034426784063856463 -0.0050605867359295046 0 0.0038114984836140008 -0.0047939449512468257 0 0.003519742198987378 -0.0047631763421933388 0 0.002597185764701786 -0.0043889390241298992 0 0.0027839555459786541 -0.0037214244281509822 0 0.0030278535081404577 -0.0043303351593071727 0 0.0031631404821546921 -0.0039865805749999999 0 0.0030269839524504649 -0.0042345334640693805 0 0.0029376608496686635 -0.003790062599590163 0 0.003069554243629446 -0.0042184522961027961 0 0.0033678820019119255 -0.0038880469082111522 0 0.0032679047410512189 -0.0048476355148658499 0 0.0030278535081404577 -0.0043303351593071727 0 0.0028593813071960848 -0.0047262830214170083 0 0.0032581861856262467 -0.0048160766473728921 0 0.0030269839524504649 -0.0042345334640693805 0 0.002597185764701786 -0.0043889390241298992 0 0.0030278535081404577 -0.0043303351593071727 0 0.0028593813071960848 -0.0047262830214170083 0 0.0032679047410512189 -0.0048476355148658499 0 0.003069554243629446 -0.0042184522961027961 0 0.0034699582153355705 -0.004234714080505771 0 0.0032679047410512189 -0.0048476355148658499 0 0.0034699582153355705 -0.004234714080505771 0 0.0036955147633467547 -0.0044487204048568848 0 0.0033678820019119255 -0.0038880469082111522 0 0.0035916050184091625 -0.003646494341624661 0 0.0037915296951202501 -0.0039282958619532883 0 0.0034699582153355705 -0.004234714080505771 0 0.0033678820019119255 -0.0038880469082111522 0 0.0037915296951202501 -0.0039282958619532883 0 0.003069554243629446 -0.0042184522961027961 0 0.0034699582153355705 -0.004234714080505771 0 0.0033678820019119255 -0.0038880469082111522 0 0.0033678820019119255 -0.0038880469082111522 0 0.0035916050184091625 -0.003646494341624661 0 0.0033758647313590589 -0.0035316625982004246 0 0.0035916050184091625 -0.003646494341624661 0 0.0033758647313590589 -0.0035316625982004246 0 0.0035630787181714523 -0.0034268500738431316 0 0.0029376608496686635 -0.003790062599590163 0 0.0033678820019119255 -0.0038880469082111522 0 0.0033758647313590589 -0.0035316625982004246 0 0.0031146229054709032 -0.0037110443567396276 0 0.0031797458522395358 -0.00348791321955725 0 0.0029948085771231924 -0.0034085922845889394 0 0.0031146229054709032 -0.0037110443567396276 0 0.0033758647313590589 -0.0035316625982004246 0 0.0031797458522395358 -0.00348791321955725 0 0.0031631404821546921 -0.0039865805749999999 0 0.0033323006456840126 -0.0035152674367793036 0 0.0038396791895289077 -0.0031259086434669422 0 0.0041889913302252972 -0.0030068658096266028 0 0.0040341171023247123 -0.0032867912792714418 0 0.0033758647313590589 -0.0035316625982004246 0 0.0031797458522395358 -0.00348791321955725 0 0.0033062897404449744 -0.0033134317746600934 0 0.0031797458522395358 -0.00348791321955725 0 0.0033062897404449744 -0.0033134317746600934 0 0.0029948085771231924 -0.0034085922845889394 0 0.0035500853142248234 -0.0032086925455263567 0 0.0038237572642422423 -0.003524430232369796 0 0.0038396791895289077 -0.0031259086434669422 0 0.0037483423840988144 -0.0032309993021672405 0 0.003689309468653952 -0.0032340924939440545 0 0.0035500853142248234 -0.0032086925455263567 0 0.0036896195656249105 -0.0032246208032053777 0 0.0033062897404449744 -0.0033134317746600934 0 0.0035630787181714523 -0.0034268500738431316 0 0.003689309468653952 -0.0032340924939440545 0 0.0033758647313590589 -0.0035316625982004246 0 0.0033062897404449744 -0.0033134317746600934 0 0.0035630787181714523 -0.0034268500738431316 0 0.003519742198987378 -0.0047631763421933388 0 0.0033876394751421969 -0.0045916626748298186 0 0.0036994842577835205 -0.0044976816399582365 0 0.0032601199541347661 -0.0048712034988695344 0 0.003519742198987378 -0.0047631763421933388 0 0.0033876394751421969 -0.0045916626748298186 0 0.0038114984836140008 -0.0047939449512468257 0 0.003519742198987378 -0.0047631763421933388 0 0.0036994842577835205 -0.0044976816399582365 0 0.0031631404821546921 -0.0039865805749999999 0 0.0038237572642422423 -0.003524430232369796 0 0.0040932170051435988 -0.002891544445199336 0 0.0045435288444181871 -0.0031418323750575911 0 0.0043787304038984025 -0.0034933040998671298 0 0.0038237572642422423 -0.003524430232369796 0 0.0043932983459866902 -0.0032613759526686644 0 0.0049276106340029081 -0.0032431739413187437 0 0.0047172568320794223 -0.0026784529483233504 0 0.0045435288444181871 -0.0031418323750575911 0 0.0042986384365103006 -0.0034310568760361928 0 0.0038237572642422423 -0.003524430232369796 0 0.0047172568320794223 -0.0026784529483233504 0 0.0040932170051435988 -0.002891544445199336 0 0.0045435288444181871 -0.0031418323750575911 0 0.0049276106340029081 -0.0032431739413187437 0 0.0045435288444181871 -0.0031418323750575911 0 0.0047297346198647994 -0.0035836953966548054 0 0.0045435288444181871 -0.0031418323750575911 0 0.0047297346198647994 -0.0035836953966548054 0 0.0043787304038984025 -0.0034933040998671298 0 0.0047297346198647994 -0.0035836953966548054 0 0.0043787304038984025 -0.0034933040998671298 0 0.0045875717237514619 -0.0037736377117870436 0 0.0041889913302252972 -0.0030068658096266028 0 0.0043787304038984025 -0.0034933040998671298 0 0.0040341171023247123 -0.0032867912792714418 0 0.0043787304038984025 -0.0034933040998671298 0 0.0040341171023247123 -0.0032867912792714418 0 0.0039879130932635896 -0.0035208449325899358 0 0.0030492071960465526 0.0094317761850047782 0 0.0027403816805544106 0.0091807136961944442 0 0.0032892497326258712 0.0090592608634029823 0 0.0043787304038984025 -0.0034933040998671298 0 0.0045875717237514619 -0.0037736377117870436 0 0.0039879130932635896 -0.0035208449325899358 0 0.0037844925074271324 0.00027405167029671899 0 0.0036098277125864824 0.0033569376678234341 0 0.0041054805088076895 -0.0044871304709109376 0 0.0037844925074271324 0.00027405167029671899 0 0.0036098277125864824 0.0033569376678234341 0 0.0038781752056913222 0.001301771854858465 0 0.0037028039379258465 -0.0032594589865980769 0 0.003858109342005667 -0.0032886404079512195 0 0.0039879130932635896 -0.0035208449325899358 0 0.0037028039379258465 -0.0032594589865980769 0 0.0039879130932635896 -0.0035208449325899358 0 0.0036351808937318663 -0.0032147772155391259 0 0.0037691145535518403 0.00012013851430977366 0 0.0038781752056913222 0.001301771854858465 0 0.0037483423840988144 -0.0032309993021672405 0 0.003709560821891951 -0.0032230596529433664 0 0.003689309468653952 -0.0032340924939440545 0 0.0037028039379258465 -0.0032594589865980769 0 0.0037483423840988144 -0.0032309993021672405 0 0.003709560821891951 -0.0032230596529433664 0 0.0038396791895289077 -0.0031259086434669422 0 0.0037483423840988144 -0.0032309993021672405 0 0.003858109342005667 -0.0032886404079512195 0 0.0037028039379258465 -0.0032594589865980769 0 0.0037483423840988144 -0.0032309993021672405 0 0.003858109342005667 -0.0032886404079512195 0 0.0038396791895289077 -0.0031259086434669422 0 0.003858109342005667 -0.0032886404079512195 0 0.0040341171023247123 -0.0032867912792714418 0 0.003858109342005667 -0.0032886404079512195 0 0.0040341171023247123 -0.0032867912792714418 0 0.0039879130932635896 -0.0035208449325899358 0 0.0033151019860128729 0.0097325783062397735 0 0.0030492071960465526 0.0094317761850047782 0 0.0032892497326258712 0.0090592608634029823 0 0.0033151019860128729 0.0097325783062397735 0 0.0032892497326258712 0.0090592608634029823 0 0.0037748429350535928 0.0091944441887864513 0 0.004043429016184024 0.0095942205764677473 0 0.0037748429350535928 0.0091944441887864513 0 0.0040354776884405129 0.0092820427663560783 0 0.0032892497326258712 0.0090592608634029823 0 0.0037748429350535928 0.0091944441887864513 0 0.0043396482450733251 0.0088015899782412314 0 0.0042015377799358824 0.0091003084173725112 0 0.0040354776884405129 0.0092820427663560783 0 0.0044403963987915511 0.0092096800183952797 0 0.0037748429350535928 0.0091944441887864513 0 0.0042015377799358824 0.0091003084173725112 0 0.0040354776884405129 0.0092820427663560783 0 0.0037748429350535928 0.0091944441887864513 0 0.0042015377799358824 0.0091003084173725112 0 0.0043396482450733251 0.0088015899782412314 0 0.004043429016184024 0.0095942205764677473 0 0.0040354776884405129 0.0092820427663560783 0 0.0043565726948759939 0.0094683527896736244 0 0.0040354776884405129 0.0092820427663560783 0 0.0043565726948759939 0.0094683527896736244 0 0.0044403963987915511 0.0092096800183952797 0 0.0043565726948759939 0.0094683527896736244 0 0.0046476262374173143 0.0095718594536710836 0 0.0046343486743845499 0.0093525431022841079 0 0.0043565726948759939 0.0094683527896736244 0 0.0046343486743845499 0.0093525431022841079 0 0.0044403963987915511 0.0092096800183952797 0 0.0048957263645607535 0.009643329518101984 0 0.0046476262374173143 0.0095718594536710836 0 0.0048189974270450324 0.0094443244681830969 0 0.0046476262374173143 0.0095718594536710836 0 0.0046343486743845499 0.0093525431022841079 0 0.0048189974270450324 0.0094443244681830969 0 0.0046343486743845499 0.0093525431022841079 0 0.0048189974270450324 0.0094443244681830969 0 0.0048759317274728042 0.0092749767586896431 0 0.0046343486743845499 0.0093525431022841079 0 0.0048759317274728042 0.0092749767586896431 0 0.0047197063129348965 0.0091258965638529501 0 0.0048759317274728042 0.0092749767586896431 0 0.0047197063129348965 0.0091258965638529501 0 0.0049164314226350135 0.0091190776631198626 0 0.0046343486743845499 0.0093525431022841079 0 0.0047197063129348965 0.0091258965638529501 0 0.0044403963987915511 0.0092096800183952797 0 0.0046442235797191722 0.008968542671910433 0 0.0047197063129348965 0.0091258965638529501 0 0.0044754314180751962 0.0090338684180295194 0 0.0046442235797191722 0.008968542671910433 0 0.0047197063129348965 0.0091258965638529501 0 0.0048052435760146603 0.0090200837250707464 0 0.0047197063129348965 0.0091258965638529501 0 0.0048052435760146603 0.0090200837250707464 0 0.0049164314226350135 0.0091190776631198626 0 0.0048052435760146603 0.0090200837250707464 0 0.0049164314226350135 0.0091190776631198626 0 0.0049340997354045688 0.008986779594905632 0 0.0042015377799358824 0.0091003084173725112 0 0.0044403963987915511 0.0092096800183952797 0 0.0044754314180751962 0.0090338684180295194 0 0.0047197063129348965 0.0091258965638529501 0 0.0044403963987915511 0.0092096800183952797 0 0.0044754314180751962 0.0090338684180295194 0 0.0042015377799358824 0.0091003084173725112 0 0.0044754314180751962 0.0090338684180295194 0 0.0043396482450733251 0.0088015899782412314 0 0.0037028039379258465 -0.0032594589865980769 0 0.0037169820370421946 -0.0031938382492260244 0 0.0037294844156994435 -0.0031857040627551476 0 0.0037342346720490951 -0.0031870940257466272 0 0.0038246000086946553 -0.003101841133556855 0 0.0038335226057732747 -0.0033832506945187485 0 0.0037028039379258465 -0.0032594589865980769 0 0.0037294844156994435 -0.0031857040627551476 0 0.003709560821891951 -0.0032230596529433664 0 0.0046442235797191722 0.008968542671910433 0 0.0044754314180751962 0.0090338684180295194 0 0.0043396482450733251 0.0088015899782412314 0 0.0037294844156994435 -0.0031857040627551476 0 0.0037342346720490951 -0.0031870940257466272 0 0.0038246000086946553 -0.003101841133556855 0 0.0046442235797191722 0.008968542671910433 0 0.0043396482450733251 0.0088015899782412314 0 0.0048131031028764686 0.0088988167038278488 0 0.0043396482450733251 0.0088015899782412314 0 0.0048131031028764686 0.0088988167038278488 0 0.0050010738367878994 0.0088139447023112862 0 0.0038781752056913222 0.001301771854858465 0 0.0046812061554486889 0.0022673889703152196 0 0.0037169820370421946 -0.0031938382492260244 0 0.0037294844156994435 -0.0031857040627551476 0 0.0038246000086946553 -0.003101841133556855 0 0.0046442235797191722 0.008968542671910433 0 0.0048052435760146603 0.0090200837250707464 0 0.0048131031028764686 0.0088988167038278488 0 0.0048052435760146603 0.0090200837250707464 0 0.0048131031028764686 0.0088988167038278488 0 0.0049340997354045688 0.008986779594905632 0 0.0048131031028764686 0.0088988167038278488 0 0.0049445981688174406 0.0089024674217438402 0 0.0049340997354045688 0.008986779594905632 0 0.003709560821891951 -0.0032230596529433664 0 0.0037342346720490951 -0.0031870940257466272 0 0.003689309468653952 -0.0032340924939440545 0 0.0037294844156994435 -0.0031857040627551476 0 0.003709560821891951 -0.0032230596529433664 0 0.0037342346720490951 -0.0031870940257466272 0 0.0042148278866520443 0.0012978256554472315 0 0.0059788118426936576 0.0013003314413830829 0 0.0049379042275787084 0.00013371271271845372 0 0.0046812061554486889 0.0022673889703152196 0 0.0059147204699280791 0.0054121916477346951 0 0.0048131031028764686 0.0088988167038278488 0 0.0050010738367878994 0.0088139447023112862 0 0.0049445981688174406 0.0089024674217438402 0 0.0050010738367878994 0.0088139447023112862 0 0.0050175750649005847 0.0089099513723540635 0 0.0049445981688174406 0.0089024674217438402 0 0.0046812061554486889 0.0022673889703152196 0 0.0048113254347214151 0.0031084099219116385 0 0.0050175750649005847 0.0089099513723540635 0 0.0049445981688174406 0.0089024674217438402 0 0.0049340997354045688 0.008986779594905632 0 0.0050019431881394233 0.0088270091898266789 0 0.0052248581944812338 0.00922763049291421 0 0.0057465282404693943 0.0093208290953709239 0 0.0050019431881394233 0.0088270091898266789 0 0.0050175750649005847 0.0089099513723540635 0 0.0052248581944812338 0.00922763049291421 0 0.0050175750649005847 0.0089099513723540635 0 0.0049340997354045688 0.008986779594905632 0 0.0050259770716445497 0.0090953753255882033 0 0.0049164314226350135 0.0091190776631198626 0 0.0049340997354045688 0.008986779594905632 0 0.0050259770716445497 0.0090953753255882033 0 0.0049164314226350135 0.0091190776631198626 0 0.0050259770716445497 0.0090953753255882033 0 0.0050353032768965965 0.0092320208594649476 0 0.0050175750649005847 0.0089099513723540635 0 0.0050259770716445497 0.0090953753255882033 0 0.0052248581944812338 0.00922763049291421 0 0.0052248581944812338 0.00922763049291421 0 0.0050353032768965965 0.0092320208594649476 0 0.0050670745038610531 0.0094447573525532885 0 0.0050259770716445497 0.0090953753255882033 0 0.0052248581944812338 0.00922763049291421 0 0.0050353032768965965 0.0092320208594649476 0 0.0048759317274728042 0.0092749767586896431 0 0.0050353032768965965 0.0092320208594649476 0 0.0050670745038610531 0.0094447573525532885 0 0.0048759317274728042 0.0092749767586896431 0 0.0049164314226350135 0.0091190776631198626 0 0.0050353032768965965 0.0092320208594649476 0 0.0052248581944812338 0.00922763049291421 0 0.0050670745038610531 0.0094447573525532885 0 0.0053724073667338777 0.0096193007251144744 0 0.0048189974270450324 0.0094443244681830969 0 0.0048759317274728042 0.0092749767586896431 0 0.0050670745038610531 0.0094447573525532885 0 0.005143133258621627 0.0097657119910142427 0 0.0050670745038610531 0.0094447573525532885 0 0.0053724073667338777 0.0096193007251144744 0 0.005143133258621627 0.0097657119910142427 0 0.0048957263645607535 0.009643329518101984 0 0.0050670745038610531 0.0094447573525532885 0 0.0048957263645607535 0.009643329518101984 0 0.0048189974270450324 0.0094443244681830969 0 0.0050670745038610531 0.0094447573525532885 0 0.0052248581944812338 0.00922763049291421 0 0.0053724073667338777 0.0096193007251144744 0 0.0057465282404693943 0.0093208290953709239 0 0.0056671629310918728 0.0098040958182174665 0 0.0061057318954853643 0.0097923966184125261 0 0.0057465282404693943 0.0093208290953709239 0 0.0061057318954853643 0.0097923966184125261 0 0.0057465282404693943 0.0093208290953709239 0 0.0060263163781075222 0.0089267183069009805 0 0.0056671629310918728 0.0098040958182174665 0 0.0053724073667338777 0.0096193007251144744 0 0.0057465282404693943 0.0093208290953709239 0 0.006672372199904404 0.0095054539187777141 0 0.0060263163781075222 0.0089267183069009805 0 0.0070701683371428015 0.0089758916281325526 0 0.0061057318954853643 0.0097923966184125261 0 0.006672372199904404 0.0095054539187777141 0 0.0060263163781075222 0.0089267183069009805 0 0.0067683694824694019 0.010142836224843641 0 0.0061057318954853643 0.0097923966184125261 0 0.006672372199904404 0.0095054539187777141 0 0.0059147204699280791 0.0054121916477346951 0 0.0077119136074243599 0.0049412103430370629 0 0.0059788118426936576 0.0013003314413830829 0 0.0071236478192679897 -0.00027785496407542416 0 0.0077055905152144822 0.0013350793298173148 0 0.0050019431881394233 0.0088270091898266789 0 0.0057465282404693943 0.0093208290953709239 0 0.0060263163781075222 0.0089267183069009805 0 0.0059788118426936576 0.0013003314413830829 0 0.0058220461269274876 -0.00061166028224258172 0 0.0049379042275787084 0.00013371271271845372 0 0.0059788118426936576 0.0013003314413830829 0 0.0058220461269274876 -0.00061166028224258172 0 0.0071236478192679897 -0.00027785496407542416 0 0.0071236478192679897 -0.00027785496407542416 0 0.0065752074666547821 -0.0014107774509371375 0 0.0081133709950799628 -0.001894433126562316 0 0.0058220461269274876 -0.00061166028224258172 0 0.0071236478192679897 -0.00027785496407542416 0 0.0065752074666547821 -0.0014107774509371375 0 0.0058220461269274876 -0.00061166028224258172 0 0.0055019570737226148 -0.0016048407659214395 0 0.0047711881177349546 -0.0012992529606045528 0 0.0058220461269274876 -0.00061166028224258172 0 0.0065752074666547821 -0.0014107774509371375 0 0.0055019570737226148 -0.0016048407659214395 0 0.0055019570737226148 -0.0016048407659214395 0 0.0047711881177349546 -0.0012992529606045528 0 0.004887532497768487 -0.0025704180938563169 0 0.0047711881177349546 -0.0012992529606045528 0 0.0038689317320231374 -0.00059358764977643797 0 0.0036314048911807021 -0.0025302146869749971 0 0.0037132159293371716 -0.0026916032305718011 0 0.0037581743673584514 -0.003071769777986046 0 0.0035916050184091625 -0.003646494341624661 0 0.0035630787181714523 -0.0034268500738431316 0 0.0038335226057732747 -0.0033832506945187485 0 0.0035916050184091625 -0.003646494341624661 0 0.0038335226057732747 -0.0033832506945187485 0 0.0037915296951202501 -0.0039282958619532883 0 0.0037342346720490951 -0.0031870940257466272 0 0.0038335226057732747 -0.0033832506945187485 0 0.003689309468653952 -0.0032340924939440545 0 0.0035630787181714523 -0.0034268500738431316 0 0.0038335226057732747 -0.0033832506945187485 0 0.003689309468653952 -0.0032340924939440545 0 0.0046812061554486889 0.0022673889703152196 0 0.0037132159293371716 -0.0026916032305718011 0 0.0047711881177349546 -0.0012992529606045528 0 0.0038689317320231374 -0.00059358764977643797 0 0.0049379042275787084 0.00013371271271845372 0 0.0058220461269274876 -0.00061166028224258172 0 0.0047711881177349546 -0.0012992529606045528 0 0.0049379042275787084 0.00013371271271845372 0 0.0042148278866520443 0.0012978256554472315 0 0.0038689317320231374 -0.00059358764977643797 0 0.0049379042275787084 0.00013371271271845372 0 0.0019688027875869717 0.011221905366322164 0 0.0021379111975414729 0.011033294199813722 0 0.002314310103813205 0.011226726466654131 0 0.0041410717327374077 0.014311077644224131 0 0.004810585812589134 0.019779283675150697 0 0.0019688027875869717 0.011221905366322164 0 0.0019741547271535207 0.010999897451779601 0 0.0021379111975414729 0.011033294199813722 0 0.0041410717327374077 0.014311077644224131 0 0.0025177604319210705 0.010403961618969393 0 0.0087223167733744607 0.0170176951248814 0 0.0041410717327374077 0.014311077644224131 0 0.0074481256159761762 0.022557108178402382 0 0.0072371179974697643 0.023640551414640488 0 0.0070030379122267153 0.023052042278888841 0 0.0072371179974697643 0.023640551414640488 0 0.0070030379122267153 0.023052042278888841 0 0.0066240564391401319 0.023336715468112376 0 0.0066836648103746716 0.022642738723340841 0 0.0070030379122267153 0.023052042278888841 0 0.0066240564391401319 0.023336715468112376 0 0.0091661822373781052 0.010545610043728962 0 0.0091303784026097561 0.009650539645288338 0 0.0087130080707472479 0.010240853138541863 0 0.0088531033124532588 0.010521913862758579 0 0.0073766404006310035 0.006987845065396665 0 0.0091303784026097561 0.009650539645288338 0 0.0087130080707472479 0.010240853138541863 0 0.0084360099805637617 0.0096345016189286221 0 0.0019760466973863656 0.011158871601888654 0 0.0017168076118006038 0.011130518170366805 0 0.0017752524863773799 0.010944261866000981 0 0.0041410717327374077 0.014311077644224131 0 0.0073766404006310035 0.006987845065396665 0 0.0019760466973863656 0.011158871601888654 0 0.0017752524863773799 0.010944261866000981 0 0.0019741547271535207 0.010999897451779601 0 0.0094445422460064151 0.0013835182878104253 0 0.0077055905152144822 0.0013350793298173148 0 0.0087879248918581194 -0.00026056275257735372 0 0.0073766404006310035 0.006987845065396665 0 0.0049286801977007598 0.0050204271545404872 0 0.0073766404006310035 0.006987845065396665 0 0.0077119136074243599 0.0049412103430370629 0 0.0079939534389482578 0.010068001804067646 0 0.0086226427965067354 0.0098633710924813777 0 0.0082286225175845513 0.0089576632800864742 0 0.0079939534389482578 0.010068001804067646 0 0.0082286225175845513 0.0089576632800864742 0 0.0074289520446428987 0.0097024559347535164 0 0.006672372199904404 0.0095054539187777141 0 0.0074289520446428987 0.0097024559347535164 0 0.0070701683371428015 0.0089758916281325526 0 0.0082286225175845513 0.0089576632800864742 0 0.0074289520446428987 0.0097024559347535164 0 0.0070701683371428015 0.0089758916281325526 0 0.0067683694824694019 0.010142836224843641 0 0.006672372199904404 0.0095054539187777141 0 0.0074289520446428987 0.0097024559347535164 0 0.0071236478192679897 -0.00027785496407542416 0 0.0077055905152144822 0.0013350793298173148 0 0.0087879248918581194 -0.00026056275257735372 0 0.0071236478192679897 -0.00027785496407542416 0 0.0087879248918581194 -0.00026056275257735372 0 0.0081133709950799628 -0.001894433126562316 0 0.0049286801977007598 0.0050204271545404872 0 0.0046976633543225716 0.0044721312943633009 0 0.0016327563077978098 0.010503850541114142 0 0.0015384926216048154 0.010800599707854052 0 0.0013555935039916858 0.010409715216814336 0 0.0016327563077978098 0.010503850541114142 0 0.0015384926216048154 0.010800599707854052 0 0.0018032899966190542 0.010715464583723688 0 0.0017168076118006038 0.011130518170366805 0 0.0015384926216048154 0.010800599707854052 0 0.0017752524863773799 0.010944261866000981 0 0.0015384926216048154 0.010800599707854052 0 0.0017752524863773799 0.010944261866000981 0 0.0018032899966190542 0.010715464583723688 0 0.0017752524863773799 0.010944261866000981 0 0.0018032899966190542 0.010715464583723688 0 0.0019741547271535207 0.010999897451779601 0 0.0018032899966190542 0.010715464583723688 0 0.0020534099725236054 0.010781324694506005 0 0.0018324299317834742 0.010420372620588208 0 0.0016327563077978098 0.010503850541114142 0 0.0018032899966190542 0.010715464583723688 0 0.0018324299317834742 0.010420372620588208 0 0.0020534099725236054 0.010781324694506005 0 0.0019741547271535207 0.010999897451779601 0 0.0021379111975414729 0.011033294199813722 0 0.0018032899966190542 0.010715464583723688 0 0.0020534099725236054 0.010781324694506005 0 0.0019741547271535207 0.010999897451779601 0 0.0019919391290311402 0.010226988461395496 0 0.0021975088327824892 0.010555838058842448 0 0.0022267445577964385 0.0099435763776243007 0 0.0019919391290311402 0.010226988461395496 0 0.001708124610257448 0.0099699805936171466 0 0.0022267445577964385 0.0099435763776243007 0 0.0019919391290311402 0.010226988461395496 0 0.0018324299317834742 0.010420372620588208 0 0.0021975088327824892 0.010555838058842448 0 0.0020534099725236054 0.010781324694506005 0 0.0018324299317834742 0.010420372620588208 0 0.0021975088327824892 0.010555838058842448 0 0.0017844727784895535 0.010342352872428557 0 0.0014867661335645356 0.010441317343257985 0 0.0019919391290311402 0.010226988461395496 0 0.0018324299317834742 0.010420372620588208 0 0.001708124610257448 0.0099699805936171466 0 0.0018324299317834742 0.010420372620588208 0 0.001708124610257448 0.0099699805936171466 0 0.0014207074747716701 0.010209513818750165 0 0.001708124610257448 0.0099699805936171466 0 0.0013863275860721285 0.0099902520203456486 0 0.0014207074747716701 0.010209513818750165 0 0.0013863275860721285 0.0099902520203456486 0 0.0014207074747716701 0.010209513818750165 0 0.0010702904536648915 0.0099998835736255041 0 0.0016327563077978098 0.010503850541114142 0 0.0018324299317834742 0.010420372620588208 0 0.0015903432924407642 0.010155146664808283 0 0.0016327563077978098 0.010503850541114142 0 0.0015903432924407642 0.010155146664808283 0 0.0013555935039916858 0.010409715216814336 0 0.0015903432924407642 0.010155146664808283 0 0.0013555935039916858 0.010409715216814336 0 0.0011827799178438635 0.0099333814717416733 0 0.0046976633543225716 0.0044721312943633009 0 0.0053234091911229442 0.0021874547006968674 0 0.0014867661335645356 0.010441317343257985 0 0.0023180991476096807 0.0065044106885815672 0 0.0015903432924407642 0.010155146664808283 0 0.0011827799178438635 0.0099333814717416733 0 0.0012465523133498809 0.0098847780668902437 0 0.0023180991476096807 0.0065044106885815672 0 0.0046807697882306184 0.0015456550681680538 0 0.0045334420778200841 0.0045703645353615367 0 0.0053159065467769618 0.0039413889507296856 0 0.0040016177806098101 0.0032919055247581262 0 0.0053234091911229442 0.0021874547006968674 0 0.0023180991476096807 0.0065044106885815672 0 0.0021627256855603618 0.0089119741902156623 0 0.0021267900990531801 0.0090856939607807958 0 0.0020779155981755617 0.0089402226611802506 0 0.0013863275860721285 0.0099902520203456486 0 0.0010702904536648915 0.0099998835736255041 0 0.0013565322522818843 0.009778847105099471 0 0.0021800097396921063 0.0087874960344161805 0 0.0021627256855603618 0.0089119741902156623 0 0.0020779155981755617 0.0089402226611802506 0 0.0023180991476096807 0.0065044106885815672 0 0.0014227106414011678 0.0097206400411814012 0 0.0021800097396921063 0.0087874960344161805 0 0.0021627256855603618 0.0089119741902156623 0 0.0022264165946088341 0.0088057275551318148 0 0.0021627256855603618 0.0089119741902156623 0 0.0021267900990531801 0.0090856939607807958 0 0.0022505079852263824 0.0089739296305671838 0 0.0021267900990531801 0.0090856939607807958 0 0.0020779155981755617 0.0089402226611802506 0 0.002015369731463189 0.0090889844742160966 0 0.0021267900990531801 0.0090856939607807958 0 0.002015369731463189 0.0090889844742160966 0 0.0020317054092833355 0.0092105060842180651 0 0.001708124610257448 0.0099699805936171466 0 0.0013863275860721285 0.0099902520203456486 0 0.0013565322522818843 0.009778847105099471 0 0.0014227106414011678 0.0097206400411814012 0 0.0019190355928236087 0.0092431582629360336 0 0.001708124610257448 0.0099699805936171466 0 0.0016622236995228086 0.0095213728787635846 0 0.0019417051848903478 0.0096449660793880513 0 0.001708124610257448 0.0099699805936171466 0 0.0013565322522818843 0.009778847105099471 0 0.0016622236995228086 0.0095213728787635846 0 0.0019190355928236087 0.0092431582629360336 0 0.0019402867501974925 0.0092987624007690294 0 0.0016622236995228086 0.0095213728787635846 0 0.0019417051848903478 0.0096449660793880513 0 0.001983603162539847 0.0092910900645868984 0 0.002015369731463189 0.0090889844742160966 0 0.001983603162539847 0.0092910900645868984 0 0.0020317054092833355 0.0092105060842180651 0 0.0019417051848903478 0.0096449660793880513 0 0.001983603162539847 0.0092910900645868984 0 0.002110134307803763 0.0093817329717750635 0 0.0019417051848903478 0.0096449660793880513 0 0.002110134307803763 0.0093817329717750635 0 0.0022267445577964385 0.0099435763776243007 0 0.001708124610257448 0.0099699805936171466 0 0.0019417051848903478 0.0096449660793880513 0 0.0022267445577964385 0.0099435763776243007 0 0.0045158791930092271 -0.0039240390642687048 0 0.004887532497768487 -0.0025704180938563169 0 0.0054920170689326756 -0.0037112568451434132 0 0.0034699582153355705 -0.004234714080505771 0 0.0037915296951202501 -0.0039282958619532883 0 0.0036955147633467547 -0.0044487204048568848 0 0.0037581743673584514 -0.003071769777986046 0 0.0036575485417692732 -0.0044161459757151378 0 0.0045158791930092271 -0.0039240390642687048 0 0.0036314048911807021 -0.0025302146869749971 0 0.0036955147633467547 -0.0044487204048568848 0 0.0047711881177349546 -0.0012992529606045528 0 0.0036314048911807021 -0.0025302146869749971 0 0.004887532497768487 -0.0025704180938563169 0 0.0045158791930092271 -0.0039240390642687048 0 0.0036314048911807021 -0.0025302146869749971 0 0.004887532497768487 -0.0025704180938563169 0 0.0055019570737226148 -0.0016048407659214395 0 0.004887532497768487 -0.0025704180938563169 0 0.00633274746159061 -0.0026576000469560189 0 0.004887532497768487 -0.0025704180938563169 0 0.00633274746159061 -0.0026576000469560189 0 0.0054920170689326756 -0.0037112568451434132 0 0.0065752074666547821 -0.0014107774509371375 0 0.0055019570737226148 -0.0016048407659214395 0 0.00633274746159061 -0.0026576000469560189 0 0.0081133709950799628 -0.001894433126562316 0 0.0074276025234004308 -0.0034639390919950623 0 0.00633274746159061 -0.0026576000469560189 0 0.0065752074666547821 -0.0014107774509371375 0 0.0081133709950799628 -0.001894433126562316 0 0.00633274746159061 -0.0026576000469560189 0 0.0053234091911229442 0.0021874547006968674 0 0.0077371035535597679 -0.0041573442063256808 0 0.0073599720805737276 -0.0035252460661050035 0 0.00633274746159061 -0.0026576000469560189 0 0.0065144250310448723 -0.0036457304740726772 0 0.0065144250310448723 -0.0036457304740726772 0 0.0072015413967214869 -0.0039087348171253523 0 0.0061778889265090694 -0.0044170922220101872 0 0.0073599720805737276 -0.0035252460661050035 0 0.0065144250310448723 -0.0036457304740726772 0 0.0072015413967214869 -0.0039087348171253523 0 0.0053234091911229442 0.0021874547006968674 0 0.0046807697882306184 0.0015456550681680538 0 0.00633274746159061 -0.0026576000469560189 0 0.0065144250310448723 -0.0036457304740726772 0 0.0054920170689326756 -0.0037112568451434132 0 0.0065144250310448723 -0.0036457304740726772 0 0.0054920170689326756 -0.0037112568451434132 0 0.0061778889265090694 -0.0044170922220101872 0 0.0054920170689326756 -0.0037112568451434132 0 0.0061778889265090694 -0.0044170922220101872 0 0.0050716329514418909 -0.0048398693103728621 0 0.0052176274345841402 -0.0047015499679885072 0 0.005278306244038653 -0.0050510944378775119 0 0.0051319865720283976 -0.0050246662984721425 0 0.0052176274345841402 -0.0047015499679885072 0 0.0050716329514418909 -0.0048398693103728621 0 0.0051319865720283976 -0.0050246662984721425 0 0.0054852192239835066 -0.0044858932186667994 0 0.0052090895153021543 -0.0047729235587874504 0 0.0046807697882306184 0.0015456550681680538 0 0.0036713879571279966 0.0020278467939473695 0 0.0021627256855603618 0.0089119741902156623 0 0.0022264165946088341 0.0088057275551318148 0 0.0022505079852263824 0.0089739296305671838 0 0.0055694967657342479 -0.004471944447129483 0 0.0052176274345841402 -0.0047015499679885072 0 0.005278306244038653 -0.0050510944378775119 0 0.0046807697882306184 0.0015456550681680538 0 0.0054852192239835066 -0.0044858932186667994 0 0.0021267900990531801 0.0090856939607807958 0 0.0022505079852263824 0.0089739296305671838 0 0.0021969328513631579 0.0090827970819469511 0 0.0050716329514418909 -0.0048398693103728621 0 0.0051319865720283976 -0.0050246662984721425 0 0.0047634566224855311 -0.0051959560167537814 0 0.005278306244038653 -0.0050510944378775119 0 0.0051319865720283976 -0.0050246662984721425 0 0.0050934026932917351 -0.0051988464816566937 0 0.0051319865720283976 -0.0050246662984721425 0 0.0047634566224855311 -0.0051959560167537814 0 0.0050934026932917351 -0.0051988464816566937 0 0.0050716329514418909 -0.0048398693103728621 0 0.0047634566224855311 -0.0051959560167537814 0 0.0043445372472229755 -0.0048450633668206157 0 0.0047634566224855311 -0.0051959560167537814 0 0.0043445372472229755 -0.0048450633668206157 0 0.0042786164050265443 -0.0053877447494490738 0 0.0045158791930092271 -0.0039240390642687048 0 0.0050716329514418909 -0.0048398693103728621 0 0.0043445372472229755 -0.0048450633668206157 0 0.0045158791930092271 -0.0039240390642687048 0 0.0054920170689326756 -0.0037112568451434132 0 0.0050716329514418909 -0.0048398693103728621 0 0.0043445372472229755 -0.0048450633668206157 0 0.0036955147633467547 -0.0044487204048568848 0 0.003861580908945195 -0.0051313380130653379 0 0.0035094365921293424 -0.0050424072035070711 0 0.0036955147633467547 -0.0044487204048568848 0 0.003861580908945195 -0.0051313380130653379 0 0.0045158791930092271 -0.0039240390642687048 0 0.0043445372472229755 -0.0048450633668206157 0 0.0036955147633467547 -0.0044487204048568848 0 0.003861580908945195 -0.0051313380130653379 0 0.0042786164050265443 -0.0053877447494490738 0 0.003776390192692968 -0.0057426881419769546 0 0.0043445372472229755 -0.0048450633668206157 0 0.003861580908945195 -0.0051313380130653379 0 0.0042786164050265443 -0.0053877447494490738 0 0.003776390192692968 -0.0057426881419769546 0 0.0042743673418982478 -0.0060323721544196145 0 0.0035789132152594882 -0.0062591922574141406 0 0.0042833160458999441 -0.0055896859470802966 0 0.0040803583043167195 -0.005464077717981494 0 0.0042786164050265443 -0.0053877447494490738 0 0.003776390192692968 -0.0057426881419769546 0 0.0042743673418982478 -0.0060323721544196145 0 0.0017020891123305812 -0.0067898641419188183 0 0.0018316179775762524 -0.0064686052069234798 0 0.0020052380403043205 -0.0066627433980189924 0 0.0040803583043167195 -0.005464077717981494 0 0.0025662774920952531 -0.0065850696653891455 0 0.0017020891123305812 -0.0067898641419188183 0 0.0018316179775762524 -0.0064686052069234798 0 0.0016201487965745221 -0.0063216449011361878 0 0.0040803583043167195 -0.005464077717981494 0 0.003936533400561131 -0.0053544144424788774 0 0.0062600233492077148 -0.0048193694403326735 0 0.0057430162387971514 -0.0040633094242234517 0 0.0053841315496188724 -0.0048291407630275569 0 0.0062600233492077148 -0.0048193694403326735 0 0.0057430162387971514 -0.0040633094242234517 0 0.0061716575993062735 -0.0031256047629512514 0 0.0057430162387971514 -0.0040633094242234517 0 0.0053841315496188724 -0.0048291407630275569 0 0.0051632097735451795 -0.0034240662541176726 0 0.0047634566224855311 -0.0051959560167537814 0 0.0043863155521687907 -0.0058116882595879117 0 0.0050934026932917351 -0.0051988464816566937 0 0.0040803583043167195 -0.005464077717981494 0 0.0055907274681667885 -0.0051015296597091602 0 0.0062600233492077148 -0.0048193694403326735 0 0.0050934026932917351 -0.0051988464816566937 0 0.0053841315496188724 -0.0048291407630275569 0 0.0047634566224855311 -0.0051959560167537814 0 0.0042786164050265443 -0.0053877447494490738 0 0.0043863155521687907 -0.0058116882595879117 0 0.005278306244038653 -0.0050510944378775119 0 0.0050934026932917351 -0.0051988464816566937 0 0.0049279600033799468 -0.0049104095310099783 0 0.0050934026932917351 -0.0051988464816566937 0 0.0049279600033799468 -0.0049104095310099783 0 0.0053841315496188724 -0.0048291407630275569 0 0.0022505079852263824 0.0089739296305671838 0 0.0022222603147231909 0.0090848780171021229 0 0.0021969328513631579 0.0090827970819469511 0 0.0036713879571279966 0.0020278467939473695 0 0.0036483625481907095 0.0023209688273614238 0 0.0022222603147231909 0.0090848780171021229 0 0.0021969328513631579 0.0090827970819469511 0 0.0021672444133330028 0.0091643181310752195 0 0.0022222603147231909 0.0090848780171021229 0 0.0021746357346250208 0.0091572543566710816 0 0.0021672444133330028 0.0091643181310752195 0 0.0056832705372147126 -0.0067973341818335573 0 0.0037297157107897033 0.0016478215556671419 0 0.0036483625481907095 0.0023209688273614238 0 0.0037297157107897033 0.0016478215556671419 0 0.0022222603147231909 0.0090848780171021229 0 0.0021746357346250208 0.0091572543566710816 0 0.0021588960819484949 0.0091271669207124134 0 0.0049279600033799468 -0.0049104095310099783 0 0.0053841315496188724 -0.0048291407630275569 0 0.0053011823142111282 -0.0035659067024608674 0 0.0021746357346250208 0.0091572543566710816 0 0.0021588960819484949 0.0091271669207124134 0 0.0021395236089784752 0.0091569361045160565 0 0.0021588960819484949 0.0091271669207124134 0 0.0021395236089784752 0.0091569361045160565 0 0.0020550914265590283 0.0091327232747375579 0 0.0037297157107897033 0.0016478215556671419 0 0.0018589116011930554 0.0083134020530046676 0 0.0021746357346250208 0.0091572543566710816 0 0.0021886713141587252 0.0092025851491044607 0 0.0021672444133330028 0.0091643181310752195 0 0.0021746357346250208 0.0091572543566710816 0 0.0021395236089784752 0.0091569361045160565 0 0.0021886713141587252 0.0092025851491044607 0 0.0021886713141587252 0.0092025851491044607 0 0.0021285113893175656 0.0091428601397413115 0 0.0021366369428183485 0.0090847044350611788 0 0.0021886713141587252 0.0092025851491044607 0 0.0022805936573102536 0.0091704211316056446 0 0.0021366369428183485 0.0090847044350611788 0 0.0021395236089784752 0.0091569361045160565 0 0.0021886713141587252 0.0092025851491044607 0 0.0021285113893175656 0.0091428601397413115 0 0.0021285113893175656 0.0091428601397413115 0 0.0020550914265590283 0.0091327232747375579 0 0.0021366369428183485 0.0090847044350611788 0 0.0021395236089784752 0.0091569361045160565 0 0.0021285113893175656 0.0091428601397413115 0 0.0020550914265590283 0.0091327232747375579 0 0.0019100198141960608 0.0056053964503766963 0 0.0025311943785481833 0.0052474844824204067 0 0.0029581430764645603 0.0064850799327312494 0 0.0041801951551227916 0.001790529189780858 0 0.0034657784417136211 -0.00087515086137414909 0 0.0055463835288903788 -0.0023547420684121656 0 0.0061716575993062735 -0.0031256047629512514 0 0.0059653329078246872 -0.0012580266975602554 0 0.003936533400561131 -0.0053544144424788774 0 0.0034657784417136211 -0.00087515086137414909 0 0.0017283103042862995 -0.0059691616951859129 0 0.0018229745144056697 -0.0062172157746229629 0 0.0016201487965745221 -0.0063216449011361878 0 0.0017283103042862995 -0.0059691616951859129 0 0.0016201487965745221 -0.0063216449011361878 0 0.0015149476796432796 -0.005781824220526025 0 0.0017283103042862995 -0.0059691616951859129 0 0.0017912960967098553 -0.0057555176571558644 0 0.0019681032895356408 -0.0059847667319938066 0 0.0017283103042862995 -0.0059691616951859129 0 0.0018229745144056697 -0.0062172157746229629 0 0.0019681032895356408 -0.0059847667319938066 0 0.0018229745144056697 -0.0062172157746229629 0 0.0018316179775762524 -0.0064686052069234798 0 0.0020156232981010792 -0.0063323771479598997 0 0.0018229745144056697 -0.0062172157746229629 0 0.0018316179775762524 -0.0064686052069234798 0 0.0016201487965745221 -0.0063216449011361878 0 0.0057430162387971514 -0.0040633094242234517 0 0.0051632097735451795 -0.0034240662541176726 0 0.0061716575993062735 -0.0031256047629512514 0 0.0020180567937700252 0.003916428633935611 0 0.0019100198141960608 0.0056053964503766963 0 0.0025311943785481833 0.0052474844824204067 0 0.0037297157107897033 0.0016478215556671419 0 0.0041801951551227916 0.001790529189780858 0 0.0051632097735451795 -0.0034240662541176726 0 0.0055463835288903788 -0.0023547420684121656 0 0.0061716575993062735 -0.0031256047629512514 0 0.0020008248335258959 0.0093421974352304003 0 0.0019519730074624678 0.0093764788384119915 0 0.0019909375666536545 0.0093764870295794563 0 0.0020008248335258959 0.0093421974352304003 0 0.0019519730074624678 0.0093764788384119915 0 0.0020032992117615606 0.0093006240884757896 0 0.0019519730074624678 0.0093764788384119915 0 0.001983603162539847 0.0092910900645868984 0 0.0020032992117615606 0.0093006240884757896 0 0.0019632030753978535 0.0094054077930312251 0 0.002034036467591325 0.0096932065519322007 0 0.0019519730074624678 0.0093764788384119915 0 0.001983603162539847 0.0092910900645868984 0 0.002110134307803763 0.0093817329717750635 0 0.0020032992117615606 0.0093006240884757896 0 0.0020317054092833355 0.0092105060842180651 0 0.002050844927158655 0.0092763602381146053 0 0.0020317054092833355 0.0092105060842180651 0 0.002050844927158655 0.0092763602381146053 0 0.0021021246708754701 0.0092000009427548393 0 0.001983603162539847 0.0092910900645868984 0 0.0020032992117615606 0.0093006240884757896 0 0.0020317054092833355 0.0092105060842180651 0 0.0020008248335258959 0.0093421974352304003 0 0.002050844927158655 0.0092763602381146053 0 0.0020586648781142172 0.0093210869245367329 0 0.002050844927158655 0.0092763602381146053 0 0.0021276817827332616 0.0092401220727034109 0 0.0020586648781142172 0.0093210869245367329 0 0.0020008248335258959 0.0093421974352304003 0 0.0020032992117615606 0.0093006240884757896 0 0.002050844927158655 0.0092763602381146053 0 0.002050844927158655 0.0092763602381146053 0 0.0021276817827332616 0.0092401220727034109 0 0.0021021246708754701 0.0092000009427548393 0 0.0021267900990531801 0.0090856939607807958 0 0.0020317054092833355 0.0092105060842180651 0 0.0021021246708754701 0.0092000009427548393 0 0.0021267900990531801 0.0090856939607807958 0 0.0021969328513631579 0.0090827970819469511 0 0.0021672444133330028 0.0091643181310752195 0 0.0021267900990531801 0.0090856939607807958 0 0.0021021246708754701 0.0092000009427548393 0 0.0021672444133330028 0.0091643181310752195 0 0.0021276817827332616 0.0092401220727034109 0 0.0021021246708754701 0.0092000009427548393 0 0.0021672444133330028 0.0091643181310752195 0 0.0021886713141587252 0.0092025851491044607 0 0.0021276817827332616 0.0092401220727034109 0 0.0021607640666985342 0.0092666145034330238 0 0.0021886713141587252 0.0092025851491044607 0 0.0021276817827332616 0.0092401220727034109 0 0.0021672444133330028 0.0091643181310752195 0 0.0021886713141587252 0.0092025851491044607 0 0.0021607640666985342 0.0092666145034330238 0 0.0022805936573102536 0.0091704211316056446 0 0.0021276817827332616 0.0092401220727034109 0 0.0021607640666985342 0.0092666145034330238 0 0.0020586648781142172 0.0093210869245367329 0 0.0021607640666985342 0.0092666145034330238 0 0.0020655437957969769 0.0093775656816111053 0 0.0021146958469076983 0.0094131301370390906 0 0.0021607640666985342 0.0092666145034330238 0 0.0020586648781142172 0.0093210869245367329 0 0.0020655437957969769 0.0093775656816111053 0 0.0020655437957969769 0.0093775656816111053 0 0.0020061912394006539 0.0094184206226132963 0 0.0019952685725600013 0.0094959558940554845 0 0.0020586648781142172 0.0093210869245367329 0 0.0020655437957969769 0.0093775656816111053 0 0.0020061912394006539 0.0094184206226132963 0 0.0020061912394006539 0.0094184206226132963 0 0.0019952685725600013 0.0094959558940554845 0 0.0019554258902399913 0.0095017211231426726 0 0.0020061912394006539 0.0094184206226132963 0 0.0019979321179430082 0.0093813746909638292 0 0.0019770090710772292 0.0094371268754240272 0 0.0020008248335258959 0.0093421974352304003 0 0.0020586648781142172 0.0093210869245367329 0 0.0019979321179430082 0.0093813746909638292 0 0.0020586648781142172 0.0093210869245367329 0 0.0020061912394006539 0.0094184206226132963 0 0.0019979321179430082 0.0093813746909638292 0 0.0020008248335258959 0.0093421974352304003 0 0.0019979321179430082 0.0093813746909638292 0 0.0019909375666536545 0.0093764870295794563 0 0.0019959997760755437 0.0095727836924706291 0 0.0019952685725600013 0.0094959558940554845 0 0.0019569385620066804 0.0096322298714491481 0 0.0019959997760755437 0.0095727836924706291 0 0.0019952685725600013 0.0094959558940554845 0 0.0021146958469076983 0.0094131301370390906 0 0.0020655437957969769 0.0093775656816111053 0 0.0019952685725600013 0.0094959558940554845 0 0.0021146958469076983 0.0094131301370390906 0 0.0019959997760755437 0.0095727836924706291 0 0.0021146958469076983 0.0094131301370390906 0 0.0021232311623663874 0.0096467184872161393 0 0.0021146958469076983 0.0094131301370390906 0 0.002292801080123415 0.0096048441016395279 0 0.0022805936573102536 0.0091704211316056446 0 0.0021146958469076983 0.0094131301370390906 0 0.002292801080123415 0.0096048441016395279 0 0.0021232311623663874 0.0096467184872161393 0 0.0021607640666985342 0.0092666145034330238 0 0.0021146958469076983 0.0094131301370390906 0 0.0022805936573102536 0.0091704211316056446 0 0.0023607935680314677 0.0086586870343931862 0 0.0022805936573102536 0.0091704211316056446 0 0.0022014797091924367 0.0087116371271179511 0 0.00226555374662231 0.0092654769457227049 0 0.0023038628013182854 0.0091293023404435576 0 0.0023607935680314677 0.0086586870343931862 0 0.0022913264310091934 0.0086083359320468875 0 0.0022014797091924367 0.0087116371271179511 0 0.0022913264310091934 0.0086083359320468875 0 0.0022014797091924367 0.0087116371271179511 0 0.0021815368153305504 0.0085702571740226795 0 0.0022913264310091934 0.0086083359320468875 0 0.002227751420644596 0.0085719462122263879 0 0.0021815368153305504 0.0085702571740226795 0 0.002227751420644596 0.0085719462122263879 0 0.0022882131417927471 0.008623646142546515 0 0.0022106933279116502 0.0084970443551973564 0 0.0022913264310091934 0.0086083359320468875 0 0.002227751420644596 0.0085719462122263879 0 0.0022882131417927471 0.008623646142546515 0 0.0022882131417927471 0.008623646142546515 0 0.0021169683835373571 0.008629779303759362 0 0.0022311524049048936 0.0089958609837304509 0 0.0022913264310091934 0.0086083359320468875 0 0.0022882131417927471 0.008623646142546515 0 0.0021169683835373571 0.008629779303759362 0 0.00226555374662231 0.0092654769457227049 0 0.0023613036388181151 0.0088381589539486861 0 0.002292801080123415 0.0096048441016395279 0 0.0022544564351478008 0.0099984471015369201 0 0.0021565387155674303 0.009820612161795559 0 0.002292801080123415 0.0096048441016395279 0 0.0021232311623663874 0.0096467184872161393 0 0.0021565387155674303 0.009820612161795559 0 0.0023607935680314677 0.0086586870343931862 0 0.0022913264310091934 0.0086083359320468875 0 0.0021169683835373571 0.008629779303759362 0 0.0021232311623663874 0.0096467184872161393 0 0.0021565387155674303 0.009820612161795559 0 0.0020141117008322966 0.0098795789578848704 0 0.0019959997760755437 0.0095727836924706291 0 0.0021232311623663874 0.0096467184872161393 0 0.0020141117008322966 0.0098795789578848704 0 0.0021565387155674303 0.009820612161795559 0 0.002090585433162795 0.0099798272276901238 0 0.0020141117008322966 0.0098795789578848704 0 0.0022544564351478008 0.0099984471015369201 0 0.0021565387155674303 0.009820612161795559 0 0.002090585433162795 0.0099798272276901238 0 0.0022544564351478008 0.0099984471015369201 0 0.002090585433162795 0.0099798272276901238 0 0.0021328423085558278 0.010141182357900477 0 0.002090585433162795 0.0099798272276901238 0 0.0021328423085558278 0.010141182357900477 0 0.0019275830058032258 0.010089831781273397 0 0.002090585433162795 0.0099798272276901238 0 0.0020141117008322966 0.0098795789578848704 0 0.0019275830058032258 0.010089831781273397 0 0.0019275830058032258 0.010089831781273397 0 0.0017808854431158084 0.010094672211299359 0 0.0017810318748598146 0.0098349078446631003 0 0.0020141117008322966 0.0098795789578848704 0 0.0019275830058032258 0.010089831781273397 0 0.0017810318748598146 0.0098349078446631003 0 0.0019242630749014735 0.009729719440824805 0 0.0019995796798100538 0.0094173291898325042 0 0.0019959997760755437 0.0095727836924706291 0 0.0019922016199502698 0.0097163863933332015 0 0.0019569385620066804 0.0096322298714491481 0 0.0019959997760755437 0.0095727836924706291 0 0.0020141117008322966 0.0098795789578848704 0 0.0017810318748598146 0.0098349078446631003 0 0.0015874507661555633 -0.0054614905437220893 0 0.0015290693407046228 -0.0057293863155088746 0 0.0013648010405559465 -0.0051774645986644684 0 0.0029581430764645603 0.0064850799327312494 0 0.0018754800609333251 0.0071337500786562745 0 0.0025528989225029881 0.0083528350170403165 0 0.0034657784417136211 -0.00087515086137414909 0 0.0018279368255571169 0.0021492617137208914 0 0.0017370248617088462 -0.0052927190406967693 0 0.0015874507661555633 -0.0054614905437220893 0 0.0013648010405559465 -0.0051774645986644684 0 0.0017370248617088462 -0.0052927190406967693 0 0.0018474564609540398 -0.0055231094962316808 0 0.0015874507661555633 -0.0054614905437220893 0 0.0018474564609540398 -0.0055231094962316808 0 0.0015874507661555633 -0.0054614905437220893 0 0.0016660997317912323 -0.0056388482299232238 0 0.0015874507661555633 -0.0054614905437220893 0 0.0016660997317912323 -0.0056388482299232238 0 0.0015290693407046228 -0.0057293863155088746 0 0.0018474564609540398 -0.0055231094962316808 0 0.0016660997317912323 -0.0056388482299232238 0 0.0017912960967098553 -0.0057555176571558644 0 0.0018474564609540398 -0.0055231094962316808 0 0.0017912960967098553 -0.0057555176571558644 0 0.0019984798703347162 -0.005737866779501645 0 0.0017283103042862995 -0.0059691616951859129 0 0.0017912960967098553 -0.0057555176571558644 0 0.001646038748353167 -0.0057756344348884386 0 0.0017283103042862995 -0.0059691616951859129 0 0.001646038748353167 -0.0057756344348884386 0 0.0015149476796432796 -0.005781824220526025 0 0.0016660997317912323 -0.0056388482299232238 0 0.001646038748353167 -0.0057756344348884386 0 0.0015290693407046228 -0.0057293863155088746 0 0.0016660997317912323 -0.0056388482299232238 0 0.0017912960967098553 -0.0057555176571558644 0 0.001646038748353167 -0.0057756344348884386 0 0.0019100198141960608 0.0056053964503766963 0 0.0029581430764645603 0.0064850799327312494 0 0.0018754800609333251 0.0071337500786562745 0 0.0015150013881194383 -0.0057811577385817577 0 0.0015290693407046228 -0.0057293863155088746 0 0.0013648010405559465 -0.0051774645986644684 0 0.001646038748353167 -0.0057756344348884386 0 0.0015149476796432796 -0.005781824220526025 0 0.0015290693407046228 -0.0057293863155088746 0 0.0034657784417136211 -0.00087515086137414909 0 0.0029456253731403718 -0.0021399727038467634 0 0.0020550914265590283 0.0091327232747375579 0 0.0019422779581126531 0.008920425697525913 0 0.0021366369428183485 0.0090847044350611788 0 0.0019422779581126531 0.008920425697525913 0 0.0021366369428183485 0.0090847044350611788 0 0.002087502080515211 0.008732794896467189 0 0.0018589116011930554 0.0083134020530046676 0 0.0019459778879598614 0.007819021188064372 0 0.0022805936573102536 0.0091704211316056446 0 0.0021366369428183485 0.0090847044350611788 0 0.0022014797091924367 0.0087116371271179511 0 0.0021366369428183485 0.0090847044350611788 0 0.0022014797091924367 0.0087116371271179511 0 0.002087502080515211 0.008732794896467189 0 0.0022014797091924367 0.0087116371271179511 0 0.002087502080515211 0.008732794896467189 0 0.0020968495122390212 0.0085450010576869784 0 0.0018754800609333251 0.0071337500786562745 0 0.0019958736167997857 0.0084345762945737188 0 0.0025528989225029881 0.0083528350170403165 0 0.0019459778879598614 0.007819021188064372 0 0.0019617777200742767 0.0084627895234324086 0 0.002087502080515211 0.008732794896467189 0 0.0019958736167997857 0.0084345762945737188 0 0.0020968495122390212 0.0085450010576869784 0 0.0019422779581126531 0.008920425697525913 0 0.002087502080515211 0.008732794896467189 0 0.0019958736167997857 0.0084345762945737188 0 0.0019958736167997857 0.0084345762945737188 0 0.0021286811261868243 0.0085388040940790593 0 0.0025528989225029881 0.0083528350170403165 0 0.0021286811261868243 0.0085388040940790593 0 0.0020968495122390212 0.0085450010576869784 0 0.0021093707989926175 0.0085622764638172855 0 0.0019958736167997857 0.0084345762945737188 0 0.0021286811261868243 0.0085388040940790593 0 0.0020968495122390212 0.0085450010576869784 0 0.0022014797091924367 0.0087116371271179511 0 0.0020968495122390212 0.0085450010576869784 0 0.0021815368153305504 0.0085702571740226795 0 0.0020968495122390212 0.0085450010576869784 0 0.0021815368153305504 0.0085702571740226795 0 0.0021093707989926175 0.0085622764638172855 0 0.0021815368153305504 0.0085702571740226795 0 0.0021093707989926175 0.0085622764638172855 0 0.0021560658095973852 0.0085264577522587461 0 0.002227751420644596 0.0085719462122263879 0 0.0021815368153305504 0.0085702571740226795 0 0.0021560658095973852 0.0085264577522587461 0 0.0021286811261868243 0.0085388040940790593 0 0.0021093707989926175 0.0085622764638172855 0 0.002222126067119602 0.0086151094293098768 0 0.0012459836576846565 -0.0043834350730839753 0 0.0013648010405559465 -0.0051774645986644684 0 0.0016023076829833811 -0.00472636012421982 0 0.001344159752550109 0.00064284204864924037 0 0.0020303499636503005 -0.0051005290162141207 0 0.0021286811261868243 0.0085388040940790593 0 0.002222126067119602 0.0086151094293098768 0 0.0025528989225029881 0.0083528350170403165 0 0.001344159752550109 0.00064284204864924037 0 0.0018279368255571169 0.0021492617137208914 0 0.0017370248617088462 -0.0052927190406967693 0 0.0016023076829833811 -0.00472636012421982 0 0.0018666204214534655 -0.0050923276336721527 0 0.0017370248617088462 -0.0052927190406967693 0 0.0013648010405559465 -0.0051774645986644684 0 0.0016023076829833811 -0.00472636012421982 0 0.0020303499636503005 -0.0051005290162141207 0 0.001694706612895428 -0.0049324571140571746 0 0.0015502384959684261 -0.004901539368386186 0 0.0018626072705698008 -0.004899192766189559 0 0.0018666204214534655 -0.0050923276336721527 0 0.0012154575911765204 -0.0046143657914709648 0 0.0015502384959684261 -0.004901539368386186 0 0.0018568040785297757 -0.004540850394776798 0 0.0015502384959684261 -0.004901539368386186 0 0.0018626072705698008 -0.004899192766189559 0 0.0018568040785297757 -0.004540850394776798 0 0.0023604626335833505 -0.004841708541287011 0 0.0021502308147389286 -0.0050362127673311517 0 0.0018568040785297757 -0.004540850394776798 0 0.0020021794288128318 -0.0047609509734828212 0 0.0010772421939125281 -0.0048221379886163535 0 0.0018626072705698008 -0.004899192766189559 0 0.0021502308147389286 -0.0050362127673311517 0 0.0018568040785297757 -0.004540850394776798 0 0.0023604626335833505 -0.004841708541287011 0 0.0021502308147389286 -0.0050362127673311517 0 0.0025274248090586368 -0.0052695908838522156 0 0.0021502308147389286 -0.0050362127673311517 0 0.002286509519653865 -0.0053492853424194995 0 0.0025274248090586368 -0.0052695908838522156 0 0.0021502308147389286 -0.0050362127673311517 0 0.002040375967269832 -0.0052898391012152265 0 0.002286509519653865 -0.0053492853424194995 0 0.0017370248617088462 -0.0052927190406967693 0 0.0018666204214534655 -0.0050923276336721527 0 0.002040375967269832 -0.0052898391012152265 0 0.0018626072705698008 -0.004899192766189559 0 0.0021502308147389286 -0.0050362127673311517 0 0.0018666204214534655 -0.0050923276336721527 0 0.0021502308147389286 -0.0050362127673311517 0 0.0018666204214534655 -0.0050923276336721527 0 0.002040375967269832 -0.0052898391012152265 0 0.0018474564609540398 -0.0055231094962316808 0 0.002040375967269832 -0.0052898391012152265 0 0.0021503622565506248 -0.0055613142050649983 0 0.0017370248617088462 -0.0052927190406967693 0 0.0018474564609540398 -0.0055231094962316808 0 0.002040375967269832 -0.0052898391012152265 0 0.0021503622565506248 -0.0055613142050649983 0 0.0024328020179352379 -0.0056397812548100281 0 0.002286509519653865 -0.0053492853424194995 0 0.002040375967269832 -0.0052898391012152265 0 0.0021503622565506248 -0.0055613142050649983 0 0.002286509519653865 -0.0053492853424194995 0 0.0024328020179352379 -0.0056397812548100281 0 0.002286509519653865 -0.0053492853424194995 0 0.0025274248090586368 -0.0052695908838522156 0 0.0024328020179352379 -0.0056397812548100281 0 0.002243445915079717 -0.0058440865628284272 0 0.0026542633938132828 -0.0060314136727667722 0 0.0021503622565506248 -0.0055613142050649983 0 0.0024328020179352379 -0.0056397812548100281 0 0.002243445915079717 -0.0058440865628284272 0 0.002243445915079717 -0.0058440865628284272 0 0.0019984798703347162 -0.005737866779501645 0 0.0019681032895356408 -0.0059847667319938066 0 0.0018474564609540398 -0.0055231094962316808 0 0.0021503622565506248 -0.0055613142050649983 0 0.0019984798703347162 -0.005737866779501645 0 0.0017912960967098553 -0.0057555176571558644 0 0.0019984798703347162 -0.005737866779501645 0 0.0019681032895356408 -0.0059847667319938066 0 0.0021503622565506248 -0.0055613142050649983 0 0.002243445915079717 -0.0058440865628284272 0 0.0019984798703347162 -0.005737866779501645 0 0.0028540041950539516 -0.0059280713580159902 0 0.0026875907392769562 -0.0056398167870600523 0 0.0026542633938132828 -0.0060314136727667722 0 0.0024328020179352379 -0.0056397812548100281 0 0.0026875907392769562 -0.0056398167870600523 0 0.0026542633938132828 -0.0060314136727667722 0 0.0024328020179352379 -0.0056397812548100281 0 0.0026875907392769562 -0.0056398167870600523 0 0.0025274248090586368 -0.0052695908838522156 0 0.0026875907392769562 -0.0056398167870600523 0 0.0028551086844407587 -0.0054119207838734052 0 0.0029911116331510293 -0.0057050445713620708 0 0.0026875907392769562 -0.0056398167870600523 0 0.0028551086844407587 -0.0054119207838734052 0 0.0025274248090586368 -0.0052695908838522156 0 0.0028540041950539516 -0.0059280713580159902 0 0.0026875907392769562 -0.0056398167870600523 0 0.0029911116331510293 -0.0057050445713620708 0 0.0028551086844407587 -0.0054119207838734052 0 0.0027456898652544496 -0.005086786343476985 0 0.0030734346906183688 -0.0052563236511729691 0 0.0028551086844407587 -0.0054119207838734052 0 0.0025274248090586368 -0.0052695908838522156 0 0.0027456898652544496 -0.005086786343476985 0 0.0023604626335833505 -0.004841708541287011 0 0.0025274248090586368 -0.0052695908838522156 0 0.0027456898652544496 -0.005086786343476985 0 0.0016573363786387628 -0.0047878468425170337 0 0.0027456898652544496 -0.005086786343476985 0 0.0024185169952040987 -0.0042412083766977344 0 0.0020021794288128318 -0.0047609509734828212 0 0.0027097453732122818 -0.0050821976718122388 0 0.0027456898652544496 -0.005086786343476985 0 0.0031741543735434425 -0.0048672148328579162 0 0.0024185169952040987 -0.0042412083766977344 0 0.0027456898652544496 -0.005086786343476985 0 0.0031741543735434425 -0.0048672148328579162 0 0.0030734346906183688 -0.0052563236511729691 0 0.0031741543735434425 -0.0048672148328579162 0 0.0033044415623975877 -0.0053056430898564986 0 0.0030734346906183688 -0.0052563236511729691 0 0.0028037044691792655 -0.0045326387915781714 0 0.0032302733627188819 -0.0044221353428006548 0 0.0030544046787632649 -0.0042896738958304844 0 0.0030097762106991613 -0.0047424828316723127 0 0.0037210405373506389 -0.0049449475657014257 0 0.0032302733627188819 -0.0044221353428006548 0 0.0036369259025388232 -0.0046587129957078631 0 0.0032785744321425069 -0.0041230413801225801 0 0.0036369259025388232 -0.0046587129957078631 0 0.0042487421717239968 -0.0044523118635349046 0 0.0032785744321425069 -0.0041230413801225801 0 0.0028037044691792655 -0.0045326387915781714 0 0.0036369259025388232 -0.0046587129957078631 0 0.0039842170606066958 -0.0052207587955117093 0 0.0028037044691792655 -0.0045326387915781714 0 0.0032302733627188819 -0.0044221353428006548 0 0.0036369259025388232 -0.0046587129957078631 0 0.0031741543735434425 -0.0048672148328579162 0 0.0033044415623975877 -0.0053056430898564986 0 0.0036034281216880304 -0.0052518718984387262 0 0.0033044415623975877 -0.0053056430898564986 0 0.0036034281216880304 -0.0052518718984387262 0 0.0034874055674578323 -0.0056261722020705491 0 0.0033044415623975877 -0.0053056430898564986 0 0.0031766210169897921 -0.0055135113615854582 0 0.0034874055674578323 -0.0056261722020705491 0 0.0033044415623975877 -0.0053056430898564986 0 0.0030734346906183688 -0.0052563236511729691 0 0.0031766210169897921 -0.0055135113615854582 0 0.0028551086844407587 -0.0054119207838734052 0 0.0030734346906183688 -0.0052563236511729691 0 0.0031766210169897921 -0.0055135113615854582 0 0.0038374018067887528 -0.0059615452061422642 0 0.0043729262359212201 -0.010053072920076048 0 0.0036039214725718562 -0.0081294345105314778 0 0.0036256321420786151 -0.0081211648222429822 0 0.0036532801804557476 -0.0081689292723260629 0 0.0041609444066311044 -0.0079513652984001155 0 0.0036531166597711046 -0.007236885755027931 0 0.004887419465542585 -0.0076767227416560026 0 0.0047736821975658175 -0.0051711793158815533 0 0.0041545977326457317 -0.0048736774995354389 0 0.0039842170606066958 -0.0052207587955117093 0 0.0044563384550144938 -0.0065408866902425785 0 0.0038374018067887528 -0.0059615452061422642 0 0.0047736821975658175 -0.0051711793158815533 0 0.0042487421717239968 -0.0044523118635349046 0 0.0041545977326457317 -0.0048736774995354389 0 0.0036369259025388232 -0.0046587129957078631 0 0.0042487421717239968 -0.0044523118635349046 0 0.0041545977326457317 -0.0048736774995354389 0 0.0036369259025388232 -0.0046587129957078631 0 0.0041545977326457317 -0.0048736774995354389 0 0.0039842170606066958 -0.0052207587955117093 0 0.0036034281216880304 -0.0052518718984387262 0 0.0037912378701233131 -0.0056346969092556064 0 0.0034874055674578323 -0.0056261722020705491 0 0.0047736821975658175 -0.0051711793158815533 0 0.0039842170606066958 -0.0052207587955117093 0 0.005295810044963478 -0.0059320712560947215 0 0.0036034281216880304 -0.0052518718984387262 0 0.0041873182127896893 -0.0055772506128182898 0 0.0037912378701233131 -0.0056346969092556064 0 0.0037210405373506389 -0.0049449475657014257 0 0.0048069584001224136 -0.0075497191237974878 0 0.0041609444066311044 -0.0079513652984001155 0 0.0046690649304433176 -0.0086537251870711027 0 0.004887419465542585 -0.0076767227416560026 0 0.0044563384550144938 -0.0065408866902425785 0 0.0048069584001224136 -0.0075497191237974878 0 0.0041873182127896893 -0.0055772506128182898 0 0.0039862163215752056 -0.00577331364516156 0 0.0037912378701233131 -0.0056346969092556064 0 0.0038777884316674033 -0.0055358133711241432 0 0.0053305470410446518 -0.0081042078249534584 0 0.0039862163215752056 -0.00577331364516156 0 0.0040759862986180411 -0.0064429853133188882 0 0.0042540621367158932 -0.0056486801685779377 0 0.0041873182127896893 -0.0055772506128182898 0 0.0039862163215752056 -0.00577331364516156 0 0.0042540621367158932 -0.0056486801685779377 0 0.0039862163215752056 -0.00577331364516156 0 0.0037331460233471173 -0.0059424190469897775 0 0.0037912378701233131 -0.0056346969092556064 0 0.0037331460233471173 -0.0059424190469897775 0 0.0034874055674578323 -0.0056261722020705491 0 0.0034395122766582098 -0.0060623772867532764 0 0.0037331460233471173 -0.0059424190469897775 0 0.0037912378701233131 -0.0056346969092556064 0 0.0034874055674578323 -0.0056261722020705491 0 0.0037331460233471173 -0.0059424190469897775 0 0.0037593562248942171 -0.0063224693399116863 0 0.0034395122766582098 -0.0060623772867532764 0 0.0037593562248942171 -0.0063224693399116863 0 0.0034395122766582098 -0.0060623772867532764 0 0.0035754861427661684 -0.0064728482923087725 0 0.0037331460233471173 -0.0059424190469897775 0 0.0037593562248942171 -0.0063224693399116863 0 0.0040759862986180411 -0.0064429853133188882 0 0.0039862163215752056 -0.00577331364516156 0 0.0037331460233471173 -0.0059424190469897775 0 0.0040759862986180411 -0.0064429853133188882 0 0.0028551086844407587 -0.0054119207838734052 0 0.0029911116331510293 -0.0057050445713620708 0 0.0031766210169897921 -0.0055135113615854582 0 0.0029911116331510293 -0.0057050445713620708 0 0.0032571174957228268 -0.0057751756826736117 0 0.0030969237933447676 -0.0059833422016125253 0 0.0029911116331510293 -0.0057050445713620708 0 0.0031766210169897921 -0.0055135113615854582 0 0.0032571174957228268 -0.0057751756826736117 0 0.0034874055674578323 -0.0056261722020705491 0 0.0032571174957228268 -0.0057751756826736117 0 0.0034395122766582098 -0.0060623772867532764 0 0.0031766210169897921 -0.0055135113615854582 0 0.0034874055674578323 -0.0056261722020705491 0 0.0032571174957228268 -0.0057751756826736117 0 0.0034395122766582098 -0.0060623772867532764 0 0.0030969237933447676 -0.0059833422016125253 0 0.0032412522105569838 -0.0062658065423811908 0 0.0032571174957228268 -0.0057751756826736117 0 0.0034395122766582098 -0.0060623772867532764 0 0.0030969237933447676 -0.0059833422016125253 0 0.0028540041950539516 -0.0059280713580159902 0 0.0029911116331510293 -0.0057050445713620708 0 0.0030969237933447676 -0.0059833422016125253 0 0.0028540041950539516 -0.0059280713580159902 0 0.0030969237933447676 -0.0059833422016125253 0 0.0029278042727050278 -0.0062676498070641466 0 0.0030969237933447676 -0.0059833422016125253 0 0.0029278042727050278 -0.0062676498070641466 0 0.0032412522105569838 -0.0062658065423811908 0 0.0029278042727050278 -0.0062676498070641466 0 0.0032412522105569838 -0.0062658065423811908 0 0.0032301689369557364 -0.0065071194257959588 0 0.0032412522105569838 -0.0062658065423811908 0 0.0032301689369557364 -0.0065071194257959588 0 0.0035754861427661684 -0.0064728482923087725 0 0.0034395122766582098 -0.0060623772867532764 0 0.0032412522105569838 -0.0062658065423811908 0 0.0035754861427661684 -0.0064728482923087725 0 0.0032301689369557364 -0.0065071194257959588 0 0.003595167621111109 -0.006743232164800432 0 0.0034160928402879533 -0.0069232687505283459 0 0.0029278042727050278 -0.0062676498070641466 0 0.0032301689369557364 -0.0065071194257959588 0 0.0028330375980183636 -0.0064331627220494923 0 0.003971142430093829 -0.0066618421885628661 0 0.0035754861427661684 -0.0064728482923087725 0 0.0038765360582844422 -0.0068098023931444582 0 0.0037593562248942171 -0.0063224693399116863 0 0.0040759862986180411 -0.0064429853133188882 0 0.003971142430093829 -0.0066618421885628661 0 0.0037593562248942171 -0.0063224693399116863 0 0.003971142430093829 -0.0066618421885628661 0 0.0035754861427661684 -0.0064728482923087725 0 0.0032301689369557364 -0.0065071194257959588 0 0.0035754861427661684 -0.0064728482923087725 0 0.003595167621111109 -0.006743232164800432 0 0.0035754861427661684 -0.0064728482923087725 0 0.003595167621111109 -0.006743232164800432 0 0.0038765360582844422 -0.0068098023931444582 0 0.003595167621111109 -0.006743232164800432 0 0.0038765360582844422 -0.0068098023931444582 0 0.0038524449666230884 -0.0070182895791083824 0 0.0038765360582844422 -0.0068098023931444582 0 0.0040211721463000814 -0.0069894908893085184 0 0.0038524449666230884 -0.0070182895791083824 0 0.0038765360582844422 -0.0068098023931444582 0 0.0040211721463000814 -0.0069894908893085184 0 0.0041303461088631772 -0.0069449169298023391 0 0.003971142430093829 -0.0066618421885628661 0 0.0038765360582844422 -0.0068098023931444582 0 0.0041303461088631772 -0.0069449169298023391 0 0.0040211721463000814 -0.0069894908893085184 0 0.0040221562221925064 -0.0071414319521294033 0 0.0038524449666230884 -0.0070182895791083824 0 0.0040211721463000814 -0.0069894908893085184 0 0.0040221562221925064 -0.0071414319521294033 0 0.0041816139574150108 -0.0070640187924417945 0 0.0040054757152156312 -0.0066449914598213757 0 0.0040154659310962151 -0.0068877398715955504 0 0.003595167621111109 -0.006743232164800432 0 0.0038524449666230884 -0.0070182895791083824 0 0.0034160928402879533 -0.0069232687505283459 0 0.0040054757152156312 -0.0066449914598213757 0 0.0029573044243534343 -0.0065323281072155667 0 0.0040108374667976671 -0.0071652577122680861 0 0.0038524449666230884 -0.0070182895791083824 0 0.0034160928402879533 -0.0069232687505283459 0 0.0030433286812370569 -0.0059678700741487636 0 0.0027889223444432067 -0.0062336114721862875 0 0.0026479832680049533 -0.0061919403136064793 0 0.0027702430595572306 -0.0065185422173248703 0 0.0027889223444432067 -0.0062336114721862875 0 0.0026592135882526936 -0.0062451424574916049 0 0.0027889223444432067 -0.0062336114721862875 0 0.0026479832680049533 -0.0061919403136064793 0 0.0026592135882526936 -0.0062451424574916049 0 0.0027702430595572306 -0.0065185422173248703 0 0.0027889223444432067 -0.0062336114721862875 0 0.0031171940668686536 -0.0063753402897983443 0 0.0030433286812370569 -0.0059678700741487636 0 0.0027889223444432067 -0.0062336114721862875 0 0.0031171940668686536 -0.0063753402897983443 0 0.0028330375980183636 -0.0064331627220494923 0 0.0026479832680049533 -0.0061919403136064793 0 0.002734376898370586 -0.0061973952934324264 0 0.0032301689369557364 -0.0065071194257959588 0 0.0028330375980183636 -0.0064331627220494923 0 0.0034160928402879533 -0.0069232687505283459 0 0.0029192255374337135 -0.0064631961921852105 0 0.0029573044243534343 -0.0065323281072155667 0 0.0026479832680049533 -0.0061919403136064793 0 0.0026592135882526936 -0.0062451424574916049 0 0.002734376898370586 -0.0061973952934324264 0 0.0027860145582619374 -0.0059826937406264238 0 0.002734376898370586 -0.0061973952934324264 0 0.0028239533808025238 -0.0061963513375818549 0 0.0028330375980183636 -0.0064331627220494923 0 0.002734376898370586 -0.0061973952934324264 0 0.0028239533808025238 -0.0061963513375818549 0 0.0028330375980183636 -0.0064331627220494923 0 0.0028239533808025238 -0.0061963513375818549 0 0.0027613258186730341 -0.0063883690583000164 0 0.0028239533808025238 -0.0061963513375818549 0 0.0030286879935752238 -0.0059955381270235929 0 0.0030810393286658361 -0.006356002979996658 0 0.0028239533808025238 -0.0061963513375818549 0 0.0030810393286658361 -0.006356002979996658 0 0.0027613258186730341 -0.0063883690583000164 0 0.0028705869778521053 -0.0057581291310961355 0 0.0028239533808025238 -0.0061963513375818549 0 0.0030286879935752238 -0.0059955381270235929 0 0.0028705869778521053 -0.0057581291310961355 0 0.0027860145582619374 -0.0059826937406264238 0 0.0028239533808025238 -0.0061963513375818549 0 0.0030286879935752238 -0.0059955381270235929 0 0.0033353921282423464 -0.0059219176966890065 0 0.0030810393286658361 -0.006356002979996658 0 0.0031056217475412423 -0.0056562674081248 0 0.0030286879935752238 -0.0059955381270235929 0 0.0033353921282423464 -0.0059219176966890065 0 0.003776390192692968 -0.0057426881419769546 0 0.0033353921282423464 -0.0059219176966890065 0 0.0035789132152594882 -0.0062591922574141406 0 0.0034741638069010487 -0.0054923344524189077 0 0.003776390192692968 -0.0057426881419769546 0 0.0033353921282423464 -0.0059219176966890065 0 0.0025662774920952531 -0.0065850696653891455 0 0.0027788177304034433 -0.0064200647278772694 0 0.0018316179775762524 -0.0064686052069234798 0 0.0020052380403043205 -0.0066627433980189924 0 0.0020156232981010792 -0.0063323771479598997 0 0.0033353921282423464 -0.0059219176966890065 0 0.0035789132152594882 -0.0062591922574141406 0 0.0030810393286658361 -0.006356002979996658 0 0.0020052380403043205 -0.0066627433980189924 0 0.0023508047888164429 -0.0065429926266542425 0 0.0020156232981010792 -0.0063323771479598997 0 0.0023508047888164429 -0.0065429926266542425 0 0.0020156232981010792 -0.0063323771479598997 0 0.0023347371924964657 -0.0061777710642749043 0 0.0023508047888164429 -0.0065429926266542425 0 0.0023347371924964657 -0.0061777710642749043 0 0.0027613258186730341 -0.0063883690583000164 0 0.0020156232981010792 -0.0063323771479598997 0 0.0019681032895356408 -0.0059847667319938066 0 0.0023347371924964657 -0.0061777710642749043 0 0.0018229745144056697 -0.0062172157746229629 0 0.0020156232981010792 -0.0063323771479598997 0 0.0019681032895356408 -0.0059847667319938066 0 0.002243445915079717 -0.0058440865628284272 0 0.0019681032895356408 -0.0059847667319938066 0 0.0023347371924964657 -0.0061777710642749043 0 0.002243445915079717 -0.0058440865628284272 0 0.0023347371924964657 -0.0061777710642749043 0 0.0026542633938132828 -0.0060314136727667722 0 0.0023347371924964657 -0.0061777710642749043 0 0.0026542633938132828 -0.0060314136727667722 0 0.0027613258186730341 -0.0063883690583000164 0 0.0029278042727050278 -0.0062676498070641466 0 0.0026542633938132828 -0.0060314136727667722 0 0.0027613258186730341 -0.0063883690583000164 0 0.0028540041950539516 -0.0059280713580159902 0 0.0029278042727050278 -0.0062676498070641466 0 0.0026542633938132828 -0.0060314136727667722 0 0.0029278042727050278 -0.0062676498070641466 0 0.0028330375980183636 -0.0064331627220494923 0 0.0027613258186730341 -0.0063883690583000164 0 0.0027788177304034433 -0.0064200647278772694 0 0.0027468139846676736 -0.0064058604122084178 0 5.1299993021178393e-05 0.025074108353687841 0 3.5184117543388584e-05 0.025025745635225125 0 8.3744546409744616e-05 0.025041775706814099 0 -3.8363002535101129e-06 0.024994820628936969 0 7.6991919034943622e-07 0.024999230729975411 0 2.2478443998652015e-06 0.025006167664559896 0 0.00022620088045576781 0.024615283739092334 0 -7.9905438155809386e-06 0.02507536090046442 0 5.1299993021178393e-05 0.025074108353687841 0 3.5184117543388584e-05 0.025025745635225125 0 2.2478443998652015e-06 0.025006167664559896 0 7.6991919034943622e-07 0.024999230729975411 0 -6.9146616676075141e-10 0.025000016602500126 0 2.2478443998652015e-06 0.025006167664559896 0 7.6991919034943622e-07 0.024999230729975411 0 -6.9146616676075141e-10 0.025000016602500126 0 1.6487266942936348e-06 0.024997382984491577 0 4.0627605905215267e-07 0.024999196710338088 0 7.6991919034943622e-07 0.024999230729975411 0 1.6487266942936348e-06 0.024997382984491577 0 0.00022620088045576781 0.024615283739092334 0 -3.9673453330904707e-05 0.024932976519856653 0 1.6487266942936348e-06 0.024997382984491577 0 2.2307492996570285e-06 0.024991135441385766 0 1.0424670985276122e-08 0.024999978471616523 0 -6.9146616676075141e-10 0.025000016602500126 0 1.6487266942936348e-06 0.024997382984491577 0 1.0424670985276122e-08 0.024999978471616523 0 4.0627605905215267e-07 0.024999196710338088 0 -1.0477933742770473e-05 0.024995496765943846 0 2.2307492996570285e-06 0.024991135441385766 0 4.0627605905215267e-07 0.024999196710338088 0 1.6487266942936348e-06 0.024997382984491577 0 2.2307492996570285e-06 0.024991135441385766 0 0.00022620088045576781 0.024615283739092334 0 0.00035863128767727701 0.024279619965448553 0 0.0006932371226084596 0.023634932394157742 0 0.00072420914166075611 0.023631248508356763 0 0.00072531062439120427 0.023621793521572492 0 0.00073052899130405787 0.023625419029262625 0 0.00072420914166075611 0.023631248508356763 0 0.00072531062439120427 0.023621793521572492 0 0.00073052899130405787 0.023625419029262625 0 0.00072420914166075611 0.023631248508356763 0 0.00073430574091691331 0.023608665506750854 0 0.00073052899130405787 0.023625419029262625 0 0.00073129416630384012 0.023617966854012531 0 0.00073430574091691331 0.023608665506750854 0 0.00073052899130405787 0.023625419029262625 0 0.00072531062439120427 0.023621793521572492 0 0.00075949776575059047 0.023620321028869594 0 0.00035863128767727701 0.024279619965448553 0 0.00026674451400141046 0.024431964801423102 0 0.00060948257551803129 0.023639348470525366 0 0.0010986315337059361 0.023472793394250256 0 0.00016610210356269716 0.025062001386697352 0 0.00012865878532946723 0.025088375065490984 0 0.00021736729656761174 0.025087204698492502 0 0.0003493058211317996 0.024386684958491844 0 0.0010986315337059361 0.023472793394250256 0 0.00016610210356269716 0.025062001386697352 0 0.00019632903462638718 0.025043738105907237 0 0.00021736729656761174 0.025087204698492502 0 0.0025888091072514205 0.023139264087806446 0 0.0022626715038713027 0.022936707365815621 0 0.0023736757569936713 0.022590215322280716 0 0.00078030192294381703 0.02433910478047447 0 0.0010986315337059361 0.023472793394250256 0 0.00016741338982678884 0.025054265997264798 0 0.00016610210356269716 0.025062001386697352 0 0.00014597904193201059 0.025049587634618783 0 0.00016610210356269716 0.025062001386697352 0 0.00012710350125725621 0.025056147256335624 0 0.00014597904193201059 0.025049587634618783 0 0.00016741338982678884 0.025054265997264798 0 0.00016610210356269716 0.025062001386697352 0 0.00017573335787420658 0.025056379006522234 0 0.00016741338982678884 0.025054265997264798 0 0.00017573335787420658 0.025056379006522234 0 0.00017650116375684844 0.025048564031902882 0 0.0001640444762747637 0.024797080253195325 0 0.00078030192294381703 0.02433910478047447 0 5.1299993021178393e-05 0.025074108353687841 0 0.00012865878532946723 0.025088375065490984 0 8.3744546409744616e-05 0.025041775706814099 0 0.00022620088045576781 0.024615283739092334 0 0.0003493058211317996 0.024386684958491844 0 0.00016610210356269716 0.025062001386697352 0 0.00012865878532946723 0.025088375065490984 0 0.00012710350125725621 0.025056147256335624 0 0.00012865878532946723 0.025088375065490984 0 0.00012710350125725621 0.025056147256335624 0 8.3744546409744616e-05 0.025041775706814099 0 0.00010941496440823606 0.025038157541481188 0 8.6396016993874289e-05 0.025009688894229741 0 8.3744546409744616e-05 0.025041775706814099 0 0.00012710350125725621 0.025056147256335624 0 0.00010941496440823606 0.025038157541481188 0 8.3744546409744616e-05 0.025041775706814099 0 0.00010941496440823606 0.025038157541481188 0 0.00014597904193201059 0.025049587634618783 0 0.00013972785322741008 0.025020965530961291 0 0.00012710350125725621 0.025056147256335624 0 0.00010941496440823606 0.025038157541481188 0 0.00014597904193201059 0.025049587634618783 0 0.00010941496440823606 0.025038157541481188 0 8.6396016993874289e-05 0.025009688894229741 0 0.00013972785322741008 0.025020965530961291 0 0.00017650116375684844 0.025048564031902882 0 0.0001989096172041506 0.025035298582018042 0 0.00022758207948030704 0.025053602279448743 0 0.00078030192294381703 0.02433910478047447 0 0.00053208596134858121 0.024939108160466739 0 0.00019855740832258414 0.025091791732715509 0 0.00017650116375684844 0.025048564031902882 0 0.00022758207948030704 0.025053602279448743 0 0.00017650116375684844 0.025048564031902882 0 0.00014597904193201059 0.025049587634618783 0 0.00013972785322741008 0.025020965530961291 0 0.00016741338982678884 0.025054265997264798 0 0.00017650116375684844 0.025048564031902882 0 0.00014597904193201059 0.025049587634618783 0 0.00017650116375684844 0.025048564031902882 0 0.00013972785322741008 0.025020965530961291 0 0.0001989096172041506 0.025035298582018042 0 0.0001045259757625649 0.024968520865624063 0 0.00023674981987230527 0.025042534546663841 0 7.0838830308050059e-05 0.024965267165950628 0 0.00020446696080494558 0.024957173737720707 0 0.00024920262975912562 0.025046992677892399 0 0.0001989096172041506 0.025035298582018042 0 0.00012994115000295646 0.024968841320815886 0 0.00024920262975912562 0.025046992677892399 0 0.00013972785322741008 0.025020965530961291 0 0.0001989096172041506 0.025035298582018042 0 0.00012994115000295646 0.024968841320815886 0 8.6396016993874289e-05 0.025009688894229741 0 0.00012994115000295646 0.024968841320815886 0 6.1769107033484775e-05 0.024988510182472272 0 0.00012994115000295646 0.024968841320815886 0 6.1769107033484775e-05 0.024988510182472272 0 4.814063533581143e-05 0.024967555201820365 0 8.6396016993874289e-05 0.025009688894229741 0 0.00013972785322741008 0.025020965530961291 0 0.00012994115000295646 0.024968841320815886 0 6.1769107033484775e-05 0.024988510182472272 0 4.275640917558806e-05 0.025005977449372989 0 2.0345971896628917e-05 0.024991662805840954 0 8.6396016993874289e-05 0.025009688894229741 0 6.1769107033484775e-05 0.024988510182472272 0 4.275640917558806e-05 0.025005977449372989 0 8.6396016993874289e-05 0.025009688894229741 0 4.275640917558806e-05 0.025005977449372989 0 8.3744546409744616e-05 0.025041775706814099 0 4.275640917558806e-05 0.025005977449372989 0 3.5184117543388584e-05 0.025025745635225125 0 8.3744546409744616e-05 0.025041775706814099 0 2.2478443998652015e-06 0.025006167664559896 0 1.6948411633659133e-05 0.025008096822940487 0 2.9945212629606607e-08 0.025000035825209571 0 -6.9146616676075141e-10 0.025000016602500126 0 2.2478443998652015e-06 0.025006167664559896 0 2.9945212629606607e-08 0.025000035825209571 0 3.5184117543388584e-05 0.025025745635225125 0 2.2478443998652015e-06 0.025006167664559896 0 1.6948411633659133e-05 0.025008096822940487 0 4.275640917558806e-05 0.025005977449372989 0 3.5184117543388584e-05 0.025025745635225125 0 1.6948411633659133e-05 0.025008096822940487 0 4.275640917558806e-05 0.025005977449372989 0 1.6948411633659133e-05 0.025008096822940487 0 2.0345971896628917e-05 0.024991662805840954 0 2.0345971896628917e-05 0.024991662805840954 0 2.9945212629606607e-08 0.025000035825209571 0 -2.4442236750598531e-08 0.024999884841890304 0 1.6948411633659133e-05 0.025008096822940487 0 2.0345971896628917e-05 0.024991662805840954 0 2.9945212629606607e-08 0.025000035825209571 0 2.0345971896628917e-05 0.024991662805840954 0 -2.4442236750598531e-08 0.024999884841890304 0 4.814063533581143e-05 0.024967555201820365 0 6.1769107033484775e-05 0.024988510182472272 0 2.0345971896628917e-05 0.024991662805840954 0 4.814063533581143e-05 0.024967555201820365 0 -4.9017485126839899e-05 0.024864277939247174 0 -3.9902977934778281e-05 0.024864635556001744 0 -6.7437954563937104e-06 0.024799224190521368 0 -3.9902977934778281e-05 0.024864635556001744 0 -4.2036297650079594e-05 0.024775073542364214 0 -6.7437954563937104e-06 0.024799224190521368 0 -4.9017485126839899e-05 0.024864277939247174 0 -3.9902977934778281e-05 0.024864635556001744 0 -6.3299193676845286e-06 0.024967740272023437 0 1.3290401537342983e-06 0.024922169768836908 0 -5.6840107934848542e-06 0.024956758762164109 0 -2.4442236750598531e-08 0.024999884841890304 0 4.814063533581143e-05 0.024967555201820365 0 -6.3299193676845286e-06 0.024967740272023437 0 -2.4442236750598531e-08 0.024999884841890304 0 -6.3299193676845286e-06 0.024967740272023437 0 -4.2406858215178137e-08 0.024999756521499619 0 -3.9902977934778281e-05 0.024864635556001744 0 -6.3299193676845286e-06 0.024967740272023437 0 -3.4262285640109681e-05 0.024894299751264309 0 -6.3299193676845286e-06 0.024967740272023437 0 -4.2406858215178137e-08 0.024999756521499619 0 -3.4262285640109681e-05 0.024894299751264309 0 -4.2406858215178137e-08 0.024999756521499619 0 -3.4262285640109681e-05 0.024894299751264309 0 -4.5842476709877599e-05 0.024831185056376742 0 -3.9902977934778281e-05 0.024864635556001744 0 -3.4262285640109681e-05 0.024894299751264309 0 -4.2036297650079594e-05 0.024775073542364214 0 -4.2036297650079594e-05 0.024775073542364214 0 -4.5842476709877599e-05 0.024831185056376742 0 -4.4752786377561729e-05 0.024651780071607864 0 -3.4262285640109681e-05 0.024894299751264309 0 -4.2036297650079594e-05 0.024775073542364214 0 -4.5842476709877599e-05 0.024831185056376742 0 -5.9570233620667151e-05 0.024659174645724393 0 -4.5842476709877599e-05 0.024831185056376742 0 -4.4752786377561729e-05 0.024651780071607864 0 -6.3783557941934841e-08 0.024999629759244881 0 -5.9570233620667151e-05 0.024659174645724393 0 -4.5842476709877599e-05 0.024831185056376742 0 -6.3783557941934841e-08 0.024999629759244881 0 -4.2406858215178137e-08 0.024999756521499619 0 -4.5842476709877599e-05 0.024831185056376742 0 5.3307404941899118e-06 0.024157466594313892 0 -2.9587811888380473e-05 0.024434605669623025 0 0.00015019653285500639 0.024471742163401124 0 -2.9587811888380473e-05 0.024434605669623025 0 1.2825703877472443e-05 0.024628711944856937 0 0.00015019653285500639 0.024471742163401124 0 -2.9587811888380473e-05 0.024434605669623025 0 -4.4752786377561729e-05 0.024651780071607864 0 1.2825703877472443e-05 0.024628711944856937 0 -5.9570233620667151e-05 0.024659174645724393 0 -2.9587811888380473e-05 0.024434605669623025 0 -4.4752786377561729e-05 0.024651780071607864 0 -4.2036297650079594e-05 0.024775073542364214 0 -4.4752786377561729e-05 0.024651780071607864 0 1.2825703877472443e-05 0.024628711944856937 0 -4.2036297650079594e-05 0.024775073542364214 0 1.2825703877472443e-05 0.024628711944856937 0 -6.7437954563937104e-06 0.024799224190521368 0 1.2825703877472443e-05 0.024628711944856937 0 0.00010621671214976857 0.024742311191236134 0 0.00015019653285500639 0.024471742163401124 0 0.00010621671214976857 0.024742311191236134 0 7.5769146784750965e-05 0.024862022697740006 0 0.00023343205720508442 0.0248429726957838 0 1.2825703877472443e-05 0.024628711944856937 0 0.00010621671214976857 0.024742311191236134 0 -6.7437954563937104e-06 0.024799224190521368 0 0.00010621671214976857 0.024742311191236134 0 -6.7437954563937104e-06 0.024799224190521368 0 7.5769146784750965e-05 0.024862022697740006 0 0.0001045259757625649 0.024968520865624063 0 1.3290401537342983e-06 0.024922169768836908 0 -4.9017485126839899e-05 0.024864277939247174 0 -6.7437954563937104e-06 0.024799224190521368 0 7.5769146784750965e-05 0.024862022697740006 0 7.0838830308050059e-05 0.024965267165950628 0 -4.9017485126839899e-05 0.024864277939247174 0 7.5769146784750965e-05 0.024862022697740006 0 7.5769146784750965e-05 0.024862022697740006 0 0.00023343205720508442 0.0248429726957838 0 0.00020446696080494558 0.024957173737720707 0 7.0838830308050059e-05 0.024965267165950628 0 7.5769146784750965e-05 0.024862022697740006 0 0.00020446696080494558 0.024957173737720707 0 0.00023343205720508442 0.0248429726957838 0 0.00034242825087727629 0.024986217476438359 0 0.00020446696080494558 0.024957173737720707 0 0.00023343205720508442 0.0248429726957838 0 0.00045396709203170311 0.024839937342232634 0 0.00034242825087727629 0.024986217476438359 0 0.00084649373509514114 0.024526442798744733 0 0.00092703775162155516 0.024520710156906975 0 0.0008885609092142172 0.024539567239624568 0 0.00065743327788481457 0.024628029244035815 0 0.00054242862988860511 0.024921487773866966 0 0.00045396709203170311 0.024839937342232634 0 0.00029804369367995474 0.024693019183727672 0 0.00064652308415596548 0.024503978386130047 0 0.00065743327788481457 0.024628029244035815 0 0.00065728017375236416 0.02451713793009197 0 0.00084649373509514114 0.024526442798744733 0 0.00064652308415596548 0.024503978386130047 0 0.00090352185248087692 0.024519562466463262 0 0.00023343205720508442 0.0248429726957838 0 0.00045396709203170311 0.024839937342232634 0 0.00029804369367995474 0.024693019183727672 0 0.00010621671214976857 0.024742311191236134 0 0.00023343205720508442 0.0248429726957838 0 0.00029804369367995474 0.024693019183727672 0 0.00010621671214976857 0.024742311191236134 0 0.00029804369367995474 0.024693019183727672 0 0.00015019653285500639 0.024471742163401124 0 0.00029804369367995474 0.024693019183727672 0 0.00015019653285500639 0.024471742163401124 0 0.00064652308415596548 0.024503978386130047 0 0.00015019653285500639 0.024471742163401124 0 0.00064652308415596548 0.024503978386130047 0 0.00036032068453981445 0.024190293506271329 0 0.00064652308415596548 0.024503978386130047 0 0.00036032068453981445 0.024190293506271329 0 0.00075163278209422989 0.02408486939777384 0 0.00047288364510631852 0.023855693082848045 0 0.00036032068453981445 0.024190293506271329 0 0.00075163278209422989 0.02408486939777384 0 5.3307404941899118e-06 0.024157466594313892 0 0.00015019653285500639 0.024471742163401124 0 0.00036032068453981445 0.024190293506271329 0 0.0012924568146333961 0.023726248685116566 0 0.00075163278209422989 0.02408486939777384 0 0.0013140334803015802 0.024209928870499737 0 0.00064652308415596548 0.024503978386130047 0 0.00075163278209422989 0.02408486939777384 0 0.00092920419667795386 0.024380106622450434 0 0.00092920419667795386 0.024380106622450434 0 0.0013140334803015802 0.024209928870499737 0 0.0010698579472213209 0.024480386291211555 0 0.00075163278209422989 0.02408486939777384 0 0.00092920419667795386 0.024380106622450434 0 0.0013140334803015802 0.024209928870499737 0 0.0010698579472213209 0.024480386291211555 0 0.00090352185248087692 0.024519562466463262 0 0.0010483606819383776 0.024475082150938961 0 0.0010698579472213209 0.024480386291211555 0 0.0010483606819383776 0.024475082150938961 0 0.0010842218290327262 0.024563880301190361 0 0.00092920419667795386 0.024380106622450434 0 0.0010698579472213209 0.024480386291211555 0 0.00090352185248087692 0.024519562466463262 0 0.00064652308415596548 0.024503978386130047 0 0.00092920419667795386 0.024380106622450434 0 0.00090352185248087692 0.024519562466463262 0 0.00084649373509514114 0.024526442798744733 0 0.00090352185248087692 0.024519562466463262 0 0.00092703775162155516 0.024520710156906975 0 0.00090352185248087692 0.024519562466463262 0 0.00092703775162155516 0.024520710156906975 0 0.0010483606819383776 0.024475082150938961 0 0.0010483606819383776 0.024475082150938961 0 0.0010114263015277801 0.024503139443781033 0 0.001039412319306886 0.024297926147683651 0 0.00092703775162155516 0.024520710156906975 0 0.0010483606819383776 0.024475082150938961 0 0.0010114263015277801 0.024503139443781033 0 0.0022846966197542585 0.023692451315519641 0 0.0017883097782304593 0.023028063993040887 0 0.0013776418344894983 0.023494803614641256 0 0.0017883097782304593 0.023028063993040887 0 0.0023217709426097723 0.022599043551073845 0 0.0014082601996932679 0.022215504060021936 0 0.0022846966197542585 0.023692451315519641 0 0.0017883097782304593 0.023028063993040887 0 0.0023217709426097723 0.022599043551073845 0 0.0022846966197542585 0.023692451315519641 0 0.0023217709426097723 0.022599043551073845 0 0.0033451896147931501 0.023138127457703096 0 0.0023217709426097723 0.022599043551073845 0 0.0033451896147931501 0.023138127457703096 0 0.0031703636151824885 0.022130741344579492 0 0.0015985539214908647 0.024105102839691885 0 0.0022551851742744441 0.023805716685948174 0 0.00092703775162155516 0.024520710156906975 0 0.0010114263015277801 0.024503139443781033 0 0.00092627196168592783 0.024553566367567822 0 0.00092703775162155516 0.024520710156906975 0 0.00092627196168592783 0.024553566367567822 0 0.0008885609092142172 0.024539567239624568 0 0.00034242825087727629 0.024986217476438359 0 0.00020446696080494558 0.024957173737720707 0 0.00024920262975912562 0.025046992677892399 0 0.0008885609092142172 0.024539567239624568 0 0.00090067681837762272 0.024555827299323638 0 0.00090190560803775604 0.024556479212691065 0 0.00034242825087727629 0.024986217476438359 0 0.00024920262975912562 0.025046992677892399 0 0.0002869821326689756 0.025085698016352971 0 0.00054242862988860511 0.024921487773866966 0 0.0013678304955659843 0.024103143028139585 0 0.00019855740832258414 0.025091791732715509 0 0.00028087671026862955 0.025050689453490482 0 0.00022758207948030704 0.025053602279448743 0 3.6162032880110537e-05 0.024930400577187168 0 0.0013678304955659843 0.024103143028139585 0 0.0001989096172041506 0.025035298582018042 0 0.00024920262975912562 0.025046992677892399 0 0.0002869821326689756 0.025085698016352971 0 0.00028261568524823148 0.025042172575707781 0 0.00028087671026862955 0.025050689453490482 0 0.00022758207948030704 0.025053602279448743 0 0.0021782319732841092 0.022444078045477819 0 0.0021620206115739596 0.02245126174715786 0 0.0021822361511509643 0.022533267205021055 0 0.0013146279152457161 0.023833299589534035 0 0.0012419443253903417 0.023803187062497705 0 0.0013341116034319485 0.023759781422932096 0 0.0013678304955659843 0.024103143028139585 0 0.0015883389395210058 0.023775487389808132 0 0.0019964338525823907 0.023713822920235307 0 0.0015883389395210058 0.023775487389808132 0 0.0013678304955659843 0.024103143028139585 0 0.0019964338525823907 0.023713822920235307 0 0.0001989096172041506 0.025035298582018042 0 0.00028261568524823148 0.025042172575707781 0 0.00022758207948030704 0.025053602279448743 0 0.0022551851742744441 0.023805716685948174 0 0.0019964338525823907 0.023713822920235307 0 0.00092627196168592783 0.024553566367567822 0 0.0008885609092142172 0.024539567239624568 0 0.00090190560803775604 0.024556479212691065 0 0.0033451896147931501 0.023138127457703096 0 0.0043447332307288136 0.022659914459458089 0 0.0031703636151824885 0.022130741344579492 0 0.0021782319732841092 0.022444078045477819 0 0.0022605417588286831 0.022534593628384558 0 0.0023655499988087581 0.022508073868171531 0 0.0019964338525823907 0.023713822920235307 0 0.00298625764165616 0.022289999278586464 0 0.0022605417588286831 0.022534593628384558 0 0.0021286496379275327 0.022610148376718351 0 0.0023459692212348337 0.022585142129383628 0 0.0021782319732841092 0.022444078045477819 0 0.0022605417588286831 0.022534593628384558 0 0.0021822361511509643 0.022533267205021055 0 0.0025888091072514205 0.023139264087806446 0 0.0018698494173893306 0.023472908920610307 0 0.0022626715038713027 0.022936707365815621 0 0.0018698494173893306 0.023472908920610307 0 0.0022626715038713027 0.022936707365815621 0 0.0021232143048303142 0.022605879750996091 0 0.0015883389395210058 0.023775487389808132 0 0.0022132449535389466 0.022323196211478279 0 0.0021620206115739596 0.02245126174715786 0 0.0021822361511509643 0.022533267205021055 0 0.0021232143048303142 0.022605879750996091 0 0.00078030192294381703 0.02433910478047447 0 0.0015883389395210058 0.023775487389808132 0 0.0021822361511509643 0.022533267205021055 0 0.0021232143048303142 0.022605879750996091 0 0.0021286496379275327 0.022610148376718351 0 0.0022605417588286831 0.022534593628384558 0 0.0021822361511509643 0.022533267205021055 0 0.0021286496379275327 0.022610148376718351 0 0.0022626715038713027 0.022936707365815621 0 0.0021232143048303142 0.022605879750996091 0 0.0021765862956544166 0.022569619623581807 0 0.0022626715038713027 0.022936707365815621 0 0.0023736757569936713 0.022590215322280716 0 0.0021799952578250149 0.022565479502416542 0 0.0025768336917222955 0.022728081033472288 0 0.0027480682890297183 0.021957864320839467 0 0.0042919459014412404 0.020632792733638172 0 0.0038623977286870626 0.020184368949384031 0 0.0040779128119194071 0.019608086828530966 0 0.0020320530911963177 0.022856624285168849 0 0.0018434038617206236 0.022832758228160055 0 0.0016194895429066021 0.021786393421548023 0 0.00073129416630384012 0.023617966854012531 0 0.00072702685451729923 0.023590216555671152 0 0.00073430574091691331 0.023608665506750854 0 0.0027480682890297183 0.021957864320839467 0 0.0018889948152910965 0.021727173144837457 0 0.0010986315337059361 0.023472793394250256 0 0.0018889948152910965 0.021727173144837457 0 0.0010986315337059361 0.023472793394250256 0 0.0027480682890297183 0.021957864320839467 0 0.0021232143048303142 0.022605879750996091 0 0.0021765862956544166 0.022569619623581807 0 0.0021286496379275327 0.022610148376718351 0 0.0027480682890297183 0.021957864320839467 0 0.0032769367101488658 0.021515512745741906 0 0.0042919459014412404 0.020632792733638172 0 0.0041644092103477895 0.020615183877238156 0 0.0038623977286870626 0.020184368949384031 0 0.0032769367101488658 0.021515512745741906 0 0.0026976875048276244 0.021643076608489128 0 0.0041285547397708292 0.02061334524906764 0 0.0034537369447162833 0.020520744670696041 0 0.0030921282950064069 0.020649274471985914 0 0.0041644092103477895 0.020615183877238156 0 0.0038623977286870626 0.020184368949384031 0 0.0034537369447162833 0.020520744670696041 0 0.0032769367101488658 0.021515512745741906 0 0.0037767977070220812 0.020578613296217144 0 0.0034537369447162833 0.020520744670696041 0 0.0031563155009296721 0.02022061523404171 0 0.0030921282950064069 0.020649274471985914 0 0.0038623977286870626 0.020184368949384031 0 0.0034537369447162833 0.020520744670696041 0 0.0034663823458824811 0.020046091747387002 0 0.0034537369447162833 0.020520744670696041 0 0.0034663823458824811 0.020046091747387002 0 0.0031563155009296721 0.02022061523404171 0 0.0030921282950064069 0.020649274471985914 0 0.0027202578623407802 0.020072380155177399 0 0.0020153411758953477 0.020703311804054016 0 0.0031563155009296721 0.02022061523404171 0 0.0027202578623407802 0.020072380155177399 0 0.0031709143695319944 0.019700580712776517 0 0.0031563155009296721 0.02022061523404171 0 0.0030921282950064069 0.020649274471985914 0 0.0027202578623407802 0.020072380155177399 0 0.0027202578623407802 0.020072380155177399 0 0.0020153411758953477 0.020703311804054016 0 0.0021105014174388555 0.019789971826124696 0 0.0020153411758953477 0.020703311804054016 0 0.0016637366636175009 0.019884294856557707 0 0.0021105014174388555 0.019789971826124696 0 0.0023217709426097723 0.022599043551073845 0 0.0019154703211914277 0.021537237680318462 0 0.0031703636151824885 0.022130741344579492 0 0.0023217709426097723 0.022599043551073845 0 0.0019154703211914277 0.021537237680318462 0 0.0014082601996932679 0.022215504060021936 0 0.0022055361815975331 0.021498736618567823 0 0.00298625764165616 0.022289999278586464 0 0.0023459692212348337 0.022585142129383628 0 0.0025185413802361429 0.022551269696774713 0 0.0023655499988087581 0.022508073868171531 0 0.0026976875048276244 0.021643076608489128 0 0.0022055361815975331 0.021498736618567823 0 0.0022605417588286831 0.022534593628384558 0 0.0023459692212348337 0.022585142129383628 0 0.0023655499988087581 0.022508073868171531 0 0.00084538024533705423 0.021317112892104639 0 -0.00058358702811887756 0.021354421080381322 0 0.0010165881782942189 0.0211667201387058 0 0.00014778151765572033 0.020707411376525514 0 -0.00068155023093567396 0.021341472632132083 0 0.00069947874345594331 0.021494468263941795 0 0.00010656726874585825 0.022175762360619428 0 -0.00068155023093567396 0.021341472632132083 0 0.00069947874345594331 0.021494468263941795 0 0.00010656726874585825 0.022175762360619428 0 0.00073992543063866047 0.02223374340423552 0 0.0019154703211914277 0.021537237680318462 0 0.00069947874345594331 0.021494468263941795 0 0.0014082601996932679 0.022215504060021936 0 0.0022055361815975331 0.021498736618567823 0 0.00084538024533705423 0.021317112892104639 0 0.00069947874345594331 0.021494468263941795 0 0.00073992543063866047 0.02223374340423552 0 0.0014082601996932679 0.022215504060021936 0 0.0027481948726121833 0.02108394655112706 0 0.0010165881782942189 0.0211667201387058 0 0.001110737545953941 0.020397818675537246 0 0.0020153411758953477 0.020703311804054016 0 0.0012998612424685873 0.020142506211784501 0 0.0016637366636175009 0.019884294856557707 0 0.0020153411758953477 0.020703311804054016 0 0.0012998612424685873 0.020142506211784501 0 0.001110737545953941 0.020397818675537246 0 0.0022055361815975331 0.021498736618567823 0 0.0012094266625863673 0.020339893091734063 0 0.0012998612424685873 0.020142506211784501 0 0.00062747908045292374 0.020135674165571715 0 0.001110737545953941 0.020397818675537246 0 0.0012998612424685873 0.020142506211784501 0 0.00062747908045292374 0.020135674165571715 0 0.00034654635643707689 0.01912521166115878 0 0.0010165881782942189 0.0211667201387058 0 0.001110737545953941 0.020397818675537246 0 0.00072442609387436587 0.02059923942253316 0 0.0010165881782942189 0.0211667201387058 0 0.00072442609387436587 0.02059923942253316 0 0.00014778151765572033 0.020707411376525514 0 0.00062747908045292374 0.020135674165571715 0 0.001110737545953941 0.020397818675537246 0 0.00072442609387436587 0.02059923942253316 0 0.00062747908045292374 0.020135674165571715 0 0.00072442609387436587 0.02059923942253316 0 0.00014778151765572033 0.020707411376525514 0 0.00062747908045292374 0.020135674165571715 0 0.00014778151765572033 0.020707411376525514 0 0.00010541699698675068 0.019692239070768294 0 0.00014778151765572033 0.020707411376525514 0 -0.00068155023093567396 0.021341472632132083 0 -0.00091639786922335009 0.019547844964411358 0 0.00014778151765572033 0.020707411376525514 0 -0.00091639786922335009 0.019547844964411358 0 0.00010541699698675068 0.019692239070768294 0 -0.001548710610768888 0.021442158071623602 0 -0.00068155023093567396 0.021341472632132083 0 -0.00091639786922335009 0.019547844964411358 0 0.0020576772788564427 0.016930231795119755 0 0.00090377341770160266 0.014859968743467428 0 0.0028215526699562244 0.010166196009810164 0 0.0029241072498755339 0.010395550077681061 0 0.0030079592722213246 0.010037502065803483 0 0.0016206589912422659 0.0093522679310940032 0 0.0020576772788564427 0.016930231795119755 0 0.0029099578079931766 0.010336076766910852 0 0.0027917691868657368 0.010646562779209421 0 0.0027707200967316378 0.010319498364871595 0 0.0028215526699562244 0.010166196009810164 0 0.0029099578079931766 0.010336076766910852 0 0.0027707200967316378 0.010319498364871595 0 0.0020576772788564427 0.016930231795119755 0 0.0010928043140883842 0.024637387630003518 0 -0.001548710610768888 0.021442158071623602 0 -0.00068155023093567396 0.021341472632132083 0 -0.00050550038514386123 0.023050634018179146 0 0.00010656726874585825 0.022175762360619428 0 -0.00068155023093567396 0.021341472632132083 0 -0.00050550038514386123 0.023050634018179146 0 0.0020576772788564427 0.016930231795119755 0 0.0026793543298233111 0.017138413991114348 0 0.0025218577248742277 0.023933702830787031 0 0.0025958726926751034 0.024228173024548945 0 0.0025244550669188542 0.0242248710578492 0 0.0025244550669188542 0.0242248710578492 0 0.0025634561634396958 0.02429294505135033 0 0.0026400228366393261 0.024282315178596577 0 0.0025958726926751034 0.024228173024548945 0 0.0025244550669188542 0.0242248710578492 0 0.0025634561634396958 0.02429294505135033 0 0.0025958726926751034 0.024228173024548945 0 0.0025634561634396958 0.02429294505135033 0 0.0025200821667253192 0.024339632631404966 0 0.0025958726926751034 0.024228173024548945 0 0.0024020929553855573 0.024393713200561794 0 0.0025200821667253192 0.024339632631404966 0 0.0010928043140883842 0.024637387630003518 0 0.0013706480042741372 0.024113159272316959 0 -0.00050550038514386123 0.023050634018179146 0 0.00072179826440060845 0.023574398038689721 0 0.00049385856559464448 0.024301066092194387 0 0.00072179826440060845 0.023574398038689721 0 0.001039412319306886 0.024297926147683651 0 0.00049385856559464448 0.024301066092194387 0 -0.00050550038514386123 0.023050634018179146 0 0.00072179826440060845 0.023574398038689721 0 0.00043909271848747565 0.022767397662194822 0 0.00072179826440060845 0.023574398038689721 0 0.00043909271848747565 0.022767397662194822 0 0.0010897643961691069 0.022874864590250541 0 0.00010656726874585825 0.022175762360619428 0 0.00073992543063866047 0.02223374340423552 0 0.00043909271848747565 0.022767397662194822 0 0.00073992543063866047 0.02223374340423552 0 0.00043909271848747565 0.022767397662194822 0 0.0010897643961691069 0.022874864590250541 0 0.00010656726874585825 0.022175762360619428 0 -0.00050550038514386123 0.023050634018179146 0 0.00043909271848747565 0.022767397662194822 0 0.0017883097782304593 0.023028063993040887 0 0.0014082601996932679 0.022215504060021936 0 0.0010897643961691069 0.022874864590250541 0 0.00073992543063866047 0.02223374340423552 0 0.0014082601996932679 0.022215504060021936 0 0.0010897643961691069 0.022874864590250541 0 0.00072179826440060845 0.023574398038689721 0 0.0010897643961691069 0.022874864590250541 0 0.0013776418344894983 0.023494803614641256 0 0.0017883097782304593 0.023028063993040887 0 0.0010897643961691069 0.022874864590250541 0 0.0013776418344894983 0.023494803614641256 0 0.0022846966197542585 0.023692451315519641 0 0.0013776418344894983 0.023494803614641256 0 0.001039412319306886 0.024297926147683651 0 0.0015985539214908647 0.024105102839691885 0 0.0010931799236013056 0.024295107850474919 0 0.00072179826440060845 0.023574398038689721 0 0.0013776418344894983 0.023494803614641256 0 0.001039412319306886 0.024297926147683651 0 0.001039412319306886 0.024297926147683651 0 0.00049385856559464448 0.024301066092194387 0 0.0010842218290327262 0.024563880301190361 0 0.0010483606819383776 0.024475082150938961 0 0.001039412319306886 0.024297926147683651 0 0.0010842218290327262 0.024563880301190361 0 0.0013706480042741372 0.024113159272316959 0 0.0015091358291671082 0.024464036425954388 0 0.0024020929553855573 0.024393713200561794 0 0.0022895189768137865 0.024336182845192796 0 0.002427815390009289 0.024351058275115096 0 0.0024020929553855573 0.024393713200561794 0 0.0022895189768137865 0.024336182845192796 0 0.0019644771460391864 0.024368224853195813 0 0.0022895189768137865 0.024336182845192796 0 0.0019644771460391864 0.024368224853195813 0 0.0022038913049932597 0.024089279698296398 0 0.0013140334803015802 0.024209928870499737 0 0.0019644771460391864 0.024368224853195813 0 0.0018408870970420129 0.024156099091961626 0 0.0013140334803015802 0.024209928870499737 0 0.0010698579472213209 0.024480386291211555 0 0.0010842218290327262 0.024563880301190361 0 0.0013038723655539688 0.024172376606477412 0 0.0015091358291671082 0.024464036425954388 0 0.0013140334803015802 0.024209928870499737 0 0.0018408870970420129 0.024156099091961626 0 0.0018011224598920184 0.023879333491321868 0 0.0018408870970420129 0.024156099091961626 0 0.0022038913049932597 0.024089279698296398 0 0.0018011224598920184 0.023879333491321868 0 0.0019644771460391864 0.024368224853195813 0 0.0018408870970420129 0.024156099091961626 0 0.0022038913049932597 0.024089279698296398 0 0.0022038913049932597 0.024089279698296398 0 0.0018011224598920184 0.023879333491321868 0 0.0024735078439575 0.023678905374531167 0 0.0022635730416593219 0.023028995432093451 0 0.0018011224598920184 0.023879333491321868 0 0.0024735078439575 0.023678905374531167 0 0.0012924568146333961 0.023726248685116566 0 0.0013140334803015802 0.024209928870499737 0 0.0018011224598920184 0.023879333491321868 0 0.0028490357763345767 0.023194412352349876 0 0.0024735078439575 0.023678905374531167 0 0.0028751194625011608 0.024012894122521312 0 0.0035534575243918449 0.022982448675958202 0 0.0028490357763345767 0.023194412352349876 0 0.0028751194625011608 0.024012894122521312 0 0.0022635730416593219 0.023028995432093451 0 0.0028490357763345767 0.023194412352349876 0 0.0024735078439575 0.023678905374531167 0 0.0022038913049932597 0.024089279698296398 0 0.0024735078439575 0.023678905374531167 0 0.0028751194625011608 0.024012894122521312 0 0.0022038913049932597 0.024089279698296398 0 0.0028751194625011608 0.024012894122521312 0 0.0025193482922280007 0.024278783486602711 0 0.0027427114586098139 0.024212110333934039 0 0.0025193482922280007 0.024278783486602711 0 0.0026047518619960151 0.02429462713379325 0 0.0028751194625011608 0.024012894122521312 0 0.0027427114586098139 0.024212110333934039 0 0.0025193482922280007 0.024278783486602711 0 0.0022895189768137865 0.024336182845192796 0 0.0022038913049932597 0.024089279698296398 0 0.0025193482922280007 0.024278783486602711 0 0.0022895189768137865 0.024336182845192796 0 0.0025193482922280007 0.024278783486602711 0 0.002427815390009289 0.024351058275115096 0 0.0024020929553855573 0.024393713200561794 0 0.002427815390009289 0.024351058275115096 0 0.0025200821667253192 0.024339632631404966 0 0.0025193482922280007 0.024278783486602711 0 0.0025200821667253192 0.024339632631404966 0 0.0026047518619960151 0.02429462713379325 0 0.0025193482922280007 0.024278783486602711 0 0.002427815390009289 0.024351058275115096 0 0.0025200821667253192 0.024339632631404966 0 0.0027427114586098139 0.024212110333934039 0 0.0026047518619960151 0.02429462713379325 0 0.0026400228366393261 0.024282315178596577 0 0.0025634561634396958 0.02429294505135033 0 0.0026047518619960151 0.02429462713379325 0 0.0026400228366393261 0.024282315178596577 0 0.0025634561634396958 0.02429294505135033 0 0.0025200821667253192 0.024339632631404966 0 0.0026047518619960151 0.02429462713379325 0 0.0015765434324345061 0.024275179635571218 0 0.0035019757721286089 0.019201750152882564 0 0.0025244550669188542 0.0242248710578492 0 0.0026400228366393261 0.024282315178596577 0 0.0026811218465907401 0.024265324644536613 0 0.0027427114586098139 0.024212110333934039 0 0.0026400228366393261 0.024282315178596577 0 0.0028231594337786658 0.024236504064505813 0 0.0026893242415862444 0.01092067972058062 0 0.0024472745230452644 0.01078215278209085 0 0.0025815891368602744 0.010700550251552638 0 0.0026893242415862444 0.01092067972058062 0 0.0025095023405703265 0.011037339796574114 0 0.0024472745230452644 0.01078215278209085 0 0.0035019757721286089 0.019201750152882564 0 0.0034623235489779692 0.014117651086124731 0 0.0042079021736547593 0.019450303110516813 0 0.0041741473284675852 0.019491431670629816 0 0.0042051059647850468 0.019500427041136015 0 0.0028751194625011608 0.024012894122521312 0 0.0027427114586098139 0.024212110333934039 0 0.0029227568883923856 0.024107788664251579 0 0.0027427114586098139 0.024212110333934039 0 0.0028231594337786658 0.024236504064505813 0 0.0029227568883923856 0.024107788664251579 0 0.0035019757721286089 0.019201750152882564 0 0.0034701181328575187 0.022052133876981846 0 0.0028751194625011608 0.024012894122521312 0 0.0029227568883923856 0.024107788664251579 0 0.0029619533390443215 0.024032290713952246 0 0.0026669289913664384 0.02431429597023245 0 0.0042930345268198467 0.022901541137205945 0 0.0028751194625011608 0.024012894122521312 0 0.0044655856636413339 0.024073389945834658 0 0.0039790110581305769 0.023540527274579302 0 0.0041741473284675852 0.019491431670629816 0 0.0042051059647850468 0.019500427041136015 0 0.0041977850764968244 0.019551069207772772 0 0.0034701181328575187 0.022052133876981846 0 0.0042930345268198467 0.022901541137205945 0 0.004478497223428704 0.024027491319401 0 0.00459057597695273 0.023733172803209225 0 0.0060141761199595731 0.023903371579425948 0 0.0042930345268198467 0.022901541137205945 0 0.0042465187548116675 0.023516997792274185 0 0.0044655856636413339 0.024073389945834658 0 0.00459057597695273 0.023733172803209225 0 0.0039790110581305769 0.023540527274579302 0 0.0044528743447652926 0.022954678408356959 0 0.00459057597695273 0.023733172803209225 0 0.0039790110581305769 0.023540527274579302 0 0.0044528743447652926 0.022954678408356959 0 0.00459057597695273 0.023733172803209225 0 0.0054526798358999684 0.023154621430836877 0 0.0035534575243918449 0.022982448675958202 0 0.0028751194625011608 0.024012894122521312 0 0.0039790110581305769 0.023540527274579302 0 0.0035534575243918449 0.022982448675958202 0 0.0044528743447652926 0.022954678408356959 0 0.0039790110581305769 0.023540527274579302 0 0.0066240564391401319 0.023336715468112376 0 0.0061467019757240485 0.02309917450787095 0 0.0060141761199595731 0.023903371579425948 0 0.0059882901976778796 0.023353451876188484 0 0.004810585812589134 0.019779283675150697 0 0.0066836648103746716 0.022642738723340841 0 0.0066240564391401319 0.023336715468112376 0 0.0061467019757240485 0.02309917450787095 0 0.0059097584669086595 0.022512210972665425 0 0.0061467019757240485 0.02309917450787095 0 0.0054526798358999684 0.023154621430836877 0 0.00459057597695273 0.023733172803209225 0 0.0054526798358999684 0.023154621430836877 0 0.0060141761199595731 0.023903371579425948 0 0.0061467019757240485 0.02309917450787095 0 0.0054526798358999684 0.023154621430836877 0 0.0060141761199595731 0.023903371579425948 0 0.0042930345268198467 0.022901541137205945 0 0.004810585812589134 0.019779283675150697 0 0.0041741473284675852 0.019491431670629816 0 0.0041977850764968244 0.019551069207772772 0 0.0041329680604460248 0.01953599650297163 0 0.0034623235489779692 0.014117651086124731 0 0.004810585812589134 0.019779283675150697 0 0.0072371179974697643 0.023640551414640488 0 0.0066240564391401319 0.023336715468112376 0 0.0061403131863093348 0.023656253074508079 0 0.0021379111975414729 0.011033294199813722 0 0.002314310103813205 0.011226726466654131 0 0.0022850879398700124 0.010902062306086278 0 0.0020534099725236054 0.010781324694506005 0 0.0021379111975414729 0.011033294199813722 0 0.0022850879398700124 0.010902062306086278 0 0.0025095023405703265 0.011037339796574114 0 0.002314310103813205 0.011226726466654131 0 0.0022850879398700124 0.010902062306086278 0 0.0025095023405703265 0.011037339796574114 0 0.0022850879398700124 0.010902062306086278 0 0.0024472745230452644 0.01078215278209085 0 0.0022850879398700124 0.010902062306086278 0 0.0024472745230452644 0.01078215278209085 0 0.0021975088327824892 0.010555838058842448 0 0.0020534099725236054 0.010781324694506005 0 0.0022850879398700124 0.010902062306086278 0 0.0021975088327824892 0.010555838058842448 0 0.0021962912114641079 0.010524258046892204 0 0.0021523487715395342 0.010151110299517768 0 0.0021975088327824892 0.010555838058842448 0 0.0020963153043920286 0.010363969135366169 0 0.0023047383317352961 0.01037118772993555 0 0.0023981429135196989 0.010558932884809814 0 0.002530706381593275 0.010475025603696337 0 0.0023047383317352961 0.01037118772993555 0 0.0021975088327824892 0.010555838058842448 0 0.0023981429135196989 0.010558932884809814 0 0.0023047383317352961 0.01037118772993555 0 0.0024472745230452644 0.01078215278209085 0 0.0021975088327824892 0.010555838058842448 0 0.0023981429135196989 0.010558932884809814 0 0.0023981429135196989 0.010558932884809814 0 0.0025815891368602744 0.010700550251552638 0 0.002530706381593275 0.010475025603696337 0 0.0024472745230452644 0.01078215278209085 0 0.0023981429135196989 0.010558932884809814 0 0.0025815891368602744 0.010700550251552638 0 0.0027917691868657368 0.010646562779209421 0 0.0026893242415862444 0.01092067972058062 0 0.0025815891368602744 0.010700550251552638 0 0.0026793543298233111 0.017138413991114348 0 0.0035019757721286089 0.019201750152882564 0 0.0027917691868657368 0.010646562779209421 0 0.0025815891368602744 0.010700550251552638 0 0.002530706381593275 0.010475025603696337 0 0.0027917691868657368 0.010646562779209421 0 0.002530706381593275 0.010475025603696337 0 0.0026489726368035538 0.010341080093548144 0 0.002530706381593275 0.010475025603696337 0 0.0024578079723521465 0.010207071073392051 0 0.0026489726368035538 0.010341080093548144 0 0.0024578079723521465 0.010207071073392051 0 0.0026489726368035538 0.010341080093548144 0 0.0026583663688389803 0.010152824223064776 0 0.002530706381593275 0.010475025603696337 0 0.0024578079723521465 0.010207071073392051 0 0.0023047383317352961 0.01037118772993555 0 0.0027917691868657368 0.010646562779209421 0 0.0026489726368035538 0.010341080093548144 0 0.0027707200967316378 0.010319498364871595 0 0.0026489726368035538 0.010341080093548144 0 0.0027707200967316378 0.010319498364871595 0 0.0026583663688389803 0.010152824223064776 0 0.0028215526699562244 0.010166196009810164 0 0.0026583663688389803 0.010152824223064776 0 0.0026593166131284045 0.0099299297532381321 0 0.0028215526699562244 0.010166196009810164 0 0.0027707200967316378 0.010319498364871595 0 0.0026583663688389803 0.010152824223064776 0 0.0024578079723521465 0.010207071073392051 0 0.0026583663688389803 0.010152824223064776 0 0.002466751505869324 0.009971921953344105 0 0.0026583663688389803 0.010152824223064776 0 0.002466751505869324 0.009971921953344105 0 0.0026593166131284045 0.0099299297532381321 0 0.0022181224432881678 0.010117155653757115 0 0.0021353010912425778 0.009930694067946947 0 0.0022777716330337028 0.0098435447581416043 0 0.0024578079723521465 0.010207071073392051 0 0.002466751505869324 0.009971921953344105 0 0.0022181224432881678 0.010117155653757115 0 0.002466751505869324 0.009971921953344105 0 0.0022181224432881678 0.010117155653757115 0 0.0022777716330337028 0.0098435447581416043 0 0.0022181224432881678 0.010117155653757115 0 0.0021353010912425778 0.009930694067946947 0 0.0019495887548864916 0.0099967041608033935 0 0.0022181224432881678 0.010117155653757115 0 0.0019495887548864916 0.0099967041608033935 0 0.0020963153043920286 0.010363969135366169 0 0.0022181224432881678 0.010117155653757115 0 0.0020963153043920286 0.010363969135366169 0 0.0023047383317352961 0.01037118772993555 0 0.002034036467591325 0.0096932065519322007 0 0.0021523487715395342 0.010151110299517768 0 0.0024578079723521465 0.010207071073392051 0 0.0022181224432881678 0.010117155653757115 0 0.0023047383317352961 0.01037118772993555 0 0.0020372345055672731 0.0094084811183355668 0 0.0018641482289529158 0.00937845956151976 0 0.0019818747735750883 0.009422181163369776 0 0.0020372345055672731 0.0094084811183355668 0 0.0022259727995057712 0.0096403962437613469 0 0.0024903998060706038 0.0096114247218839332 0 0.0020555991687022323 0.0094119530134055013 0 0.0021134730998553591 0.0095411645017106032 0 0.0019909375666536545 0.0093764870295794563 0 0.0020372345055672731 0.0094084811183355668 0 0.0019818747735750883 0.009422181163369776 0 0.0019519730074624678 0.0093764788384119915 0 0.0019909375666536545 0.0093764870295794563 0 0.0020372345055672731 0.0094084811183355668 0 0.0019519730074624678 0.0093764788384119915 0 0.0020372345055672731 0.0094084811183355668 0 0.0021011193457717214 0.0096881634281751321 0 0.0020372345055672731 0.0094084811183355668 0 0.0021011193457717214 0.0096881634281751321 0 0.0022259727995057712 0.0096403962437613469 0 0.0019519730074624678 0.0093764788384119915 0 0.0019495887548864916 0.0099967041608033935 0 0.0021011193457717214 0.0096881634281751321 0 0.0021353010912425778 0.009930694067946947 0 0.0019495887548864916 0.0099967041608033935 0 0.0021011193457717214 0.0096881634281751321 0 0.0021353010912425778 0.009930694067946947 0 0.0021011193457717214 0.0096881634281751321 0 0.0022777716330337028 0.0098435447581416043 0 0.0022777716330337028 0.0098435447581416043 0 0.0022259727995057712 0.0096403962437613469 0 0.0024903998060706038 0.0096114247218839332 0 0.002466751505869324 0.009971921953344105 0 0.0022777716330337028 0.0098435447581416043 0 0.0024903998060706038 0.0096114247218839332 0 0.0021011193457717214 0.0096881634281751321 0 0.0022777716330337028 0.0098435447581416043 0 0.0022259727995057712 0.0096403962437613469 0 0.002466751505869324 0.009971921953344105 0 0.0026593166131284045 0.0099299297532381321 0 0.0024903998060706038 0.0096114247218839332 0 0.0026593166131284045 0.0099299297532381321 0 0.0027946758341137676 0.0097321548230695602 0 0.0028437745885003291 0.0099300732643097835 0 0.0028215526699562244 0.010166196009810164 0 0.0026593166131284045 0.0099299297532381321 0 0.0028437745885003291 0.0099300732643097835 0 0.0018641482289529158 0.00937845956151976 0 0.0017836117458192471 0.0094801865437453402 0 0.0016815610542188864 0.0094019981645764444 0 0.0021134730998553591 0.0095411645017106032 0 0.0024524142906681089 0.0091850245485845614 0 0.0026593166131284045 0.0099299297532381321 0 0.0024903998060706038 0.0096114247218839332 0 0.0027946758341137676 0.0097321548230695602 0 0.0018641482289529158 0.00937845956151976 0 0.0017836117458192471 0.0094801865437453402 0 0.001911410650153083 0.0094842339895539092 0 0.0017836117458192471 0.0094801865437453402 0 0.0016512875417994649 0.0095868236292819663 0 0.0016815610542188864 0.0094019981645764444 0 0.0017836117458192471 0.0094801865437453402 0 0.0017979947603129999 0.0095766719465527825 0 0.0016512875417994649 0.0095868236292819663 0 0.0017979947603129999 0.0095766719465527825 0 0.0017133186729983679 0.0096961216930763761 0 0.0016512875417994649 0.0095868236292819663 0 0.0017836117458192471 0.0094801865437453402 0 0.0017979947603129999 0.0095766719465527825 0 0.001911410650153083 0.0094842339895539092 0 0.0017979947603129999 0.0095766719465527825 0 0.001911410650153083 0.0094842339895539092 0 0.0018947886321289029 0.009582811985128066 0 0.001911410650153083 0.0094842339895539092 0 0.0019554258902399913 0.0095017211231426726 0 0.0018947886321289029 0.009582811985128066 0 0.001911410650153083 0.0094842339895539092 0 0.0019818747735750883 0.009422181163369776 0 0.0019770090710772292 0.0094371268754240272 0 0.0018641482289529158 0.00937845956151976 0 0.001911410650153083 0.0094842339895539092 0 0.0019818747735750883 0.009422181163369776 0 0.0019979321179430082 0.0093813746909638292 0 0.0019909375666536545 0.0093764870295794563 0 0.0019818747735750883 0.009422181163369776 0 0.0019979321179430082 0.0093813746909638292 0 0.0019818747735750883 0.009422181163369776 0 0.0019770090710772292 0.0094371268754240272 0 0.0020061912394006539 0.0094184206226132963 0 0.0019770090710772292 0.0094371268754240272 0 0.0019554258902399913 0.0095017211231426726 0 0.001911410650153083 0.0094842339895539092 0 0.0019770090710772292 0.0094371268754240272 0 0.0019554258902399913 0.0095017211231426726 0 0.0019952685725600013 0.0094959558940554845 0 0.0019554258902399913 0.0095017211231426726 0 0.0019338504176944803 0.0095875690454405894 0 0.0019554258902399913 0.0095017211231426726 0 0.0019338504176944803 0.0095875690454405894 0 0.0018947886321289029 0.009582811985128066 0 0.0018947886321289029 0.009582811985128066 0 0.001887511408393627 0.0096564872027032709 0 0.0018517083856088913 0.009687943067159031 0 0.0019338504176944803 0.0095875690454405894 0 0.0018947886321289029 0.009582811985128066 0 0.001887511408393627 0.0096564872027032709 0 0.0019338504176944803 0.0095875690454405894 0 0.001887511408393627 0.0096564872027032709 0 0.0019038633747148165 0.0096882806268058473 0 0.0019952685725600013 0.0094959558940554845 0 0.0019338504176944803 0.0095875690454405894 0 0.0019569385620066804 0.0096322298714491481 0 0.0019338504176944803 0.0095875690454405894 0 0.0019569385620066804 0.0096322298714491481 0 0.0019038633747148165 0.0096882806268058473 0 0.0019922016199502698 0.0097163863933332015 0 0.0019569385620066804 0.0096322298714491481 0 0.0019301346512451364 0.0097359393599204484 0 0.0019569385620066804 0.0096322298714491481 0 0.0019301346512451364 0.0097359393599204484 0 0.0019038633747148165 0.0096882806268058473 0 0.001887511408393627 0.0096564872027032709 0 0.0019038633747148165 0.0096882806268058473 0 0.001851216929433352 0.009742730884758492 0 0.0019038633747148165 0.0096882806268058473 0 0.0018888905863275747 0.0097824097535370459 0 0.001851216929433352 0.009742730884758492 0 0.0019301346512451364 0.0097359393599204484 0 0.0019038633747148165 0.0096882806268058473 0 0.0018888905863275747 0.0097824097535370459 0 0.0013272512398975584 0.01379758677293543 0 0.00032501463247060566 0.013125798036142687 0 0.00062162607074779479 0.014743313481140354 0 0.0015083424067462536 0.011750687810685645 0 0.0016580721037990774 0.012640136303181719 0 0.0013272512398975584 0.01379758677293543 0 0.0023428602364592532 0.014464500084931357 0 0.0014488244920593122 0.014772164482425075 0 0.0015083424067462536 0.011750687810685645 0 0.0017523927791124536 0.011953127885694423 0 0.0019301346512451364 0.0097359393599204484 0 0.0018888905863275747 0.0097824097535370459 0 0.0019469697652746581 0.0098372909440853085 0 0.0017808854431158084 0.010094672211299359 0 0.0017810318748598146 0.0098349078446631003 0 0.0016014722329652058 0.010159290960760676 0 0.0019922016199502698 0.0097163863933332015 0 0.0019301346512451364 0.0097359393599204484 0 0.0019469697652746581 0.0098372909440853085 0 0.0019995796798100538 0.0094173291898325042 0 0.0017523927791124536 0.011953127885694423 0 0.0011480513776438322 0.017962685608105149 0 0.00093687676608190777 0.016931831497395602 0 0.00045018454138483037 0.017832771370193273 0 0.0011480513776438322 0.017962685608105149 0 0.00045018454138483037 0.017832771370193273 0 0.00062912699378630057 0.018578344186066405 0 0.0011480513776438322 0.017962685608105149 0 0.0017465681293440795 0.017485244000625018 0 0.0018897890588499033 0.018317371313620469 0 0.0016580721037990774 0.012640136303181719 0 0.0013459398385608275 0.017120051827685643 0 0.0019628949315205666 0.010114251332866876 0 0.0017021896110653956 0.0098973876413656608 0 0.0018517083856088913 0.009687943067159031 0 0.0011480513776438322 0.017962685608105149 0 0.0017465681293440795 0.017485244000625018 0 0.00093687676608190777 0.016931831497395602 0 0.0016580721037990774 0.012640136303181719 0 0.0018478196230118794 0.0085312416558002788 0 0.0016580721037990774 0.012640136303181719 0 0.001434645117122576 0.013635085010465094 0 0.0017021896110653956 0.0098973876413656608 0 0.0017133186729983679 0.0096961216930763761 0 0.0015726814613443738 0.0097905579622589722 0 0.0017021896110653956 0.0098973876413656608 0 0.0018517083856088913 0.009687943067159031 0 0.0017133186729983679 0.0096961216930763761 0 0.001887511408393627 0.0096564872027032709 0 0.001851216929433352 0.009742730884758492 0 0.0018517083856088913 0.009687943067159031 0 0.0017979947603129999 0.0095766719465527825 0 0.0018947886321289029 0.009582811985128066 0 0.0018517083856088913 0.009687943067159031 0 0.0017979947603129999 0.0095766719465527825 0 0.0018517083856088913 0.009687943067159031 0 0.0017133186729983679 0.0096961216930763761 0 0.0017133186729983679 0.0096961216930763761 0 0.0015726814613443738 0.0097905579622589722 0 0.0016512875417994649 0.0095868236292819663 0 0.0015726814613443738 0.0097905579622589722 0 0.0015243848677071723 0.0096601314035028498 0 0.0016512875417994649 0.0095868236292819663 0 0.0015726814613443738 0.0097905579622589722 0 0.0014390435320916738 0.0097396643167441763 0 0.0015243848677071723 0.0096601314035028498 0 0.00076579100055397661 0.012726822490344031 0 -0.00014040934714955271 0.01496626000643868 0 -0.00066599904031758555 0.016588047332615284 0 7.5130060634037281e-05 0.016319850757796781 0 0.00020621239842737326 0.017107482446217681 0 -0.00066599904031758555 0.016588047332615284 0 7.5130060634037281e-05 0.016319850757796781 0 -0.00083025827789496426 0.015700277549082143 0 0.001434645117122576 0.013635085010465094 0 0.00076579100055397661 0.012726822490344031 0 0.00093687676608190777 0.016931831497395602 0 7.5130060634037281e-05 0.016319850757796781 0 0.00020621239842737326 0.017107482446217681 0 0.00093687676608190777 0.016931831497395602 0 0.00020621239842737326 0.017107482446217681 0 0.00045018454138483037 0.017832771370193273 0 0.00020621239842737326 0.017107482446217681 0 -0.00048838116160597391 0.017462709699892092 0 0.00045018454138483037 0.017832771370193273 0 -0.00066599904031758555 0.016588047332615284 0 0.00020621239842737326 0.017107482446217681 0 -0.00048838116160597391 0.017462709699892092 0 -0.00052871317749374235 0.017662866988573118 0 -0.00043447904505805249 0.017806058136543106 0 -0.00048838116160597391 0.017462709699892092 0 0.00045018454138483037 0.017832771370193273 0 -0.0002683491325329644 0.018383366277376578 0 -0.00043447904505805249 0.017806058136543106 0 -0.00028921928480234719 0.018368410273718896 0 -0.00037887554888336181 0.018265679787536196 0 -0.00045618537187397292 0.01837799914023551 0 -0.0002683491325329644 0.018383366277376578 0 0.00045018454138483037 0.017832771370193273 0 0.00022142573820699887 0.01839547222685738 0 -0.0002683491325329644 0.018383366277376578 0 -0.00064875191741010896 0.018455847500593932 0 -0.00070078694547209711 0.018589777131057646 0 -0.00069414774467218567 0.018530752090818864 0 -0.00066448156786509725 0.018445941227582464 0 -0.00068402982802163558 0.018452665484138417 0 -0.00064875191741010896 0.018455847500593932 0 -0.00069414774467218567 0.018530752090818864 0 -0.00069487814951116995 0.018543618020135523 0 -0.00064875191741010896 0.018455847500593932 0 -0.00045618537187397292 0.01837799914023551 0 -0.00053955045998487123 0.018558725690324844 0 -0.00037887554888336181 0.018265679787536196 0 -0.00045618537187397292 0.01837799914023551 0 -0.00054593371453678648 0.018239695981995627 0 -0.00064875191741010896 0.018455847500593932 0 -0.00045618537187397292 0.01837799914023551 0 -0.00054593371453678648 0.018239695981995627 0 -0.00043035558785165504 0.018069278219406217 0 -0.00037887554888336181 0.018265679787536196 0 -0.00054593371453678648 0.018239695981995627 0 -0.00064875191741010896 0.018455847500593932 0 -0.00054593371453678648 0.018239695981995627 0 -0.00074492942771114663 0.018213266584905463 0 -0.00054593371453678648 0.018239695981995627 0 -0.00060891421150804654 0.018086405727117304 0 -0.00074492942771114663 0.018213266584905463 0 -0.00060891421150804654 0.018086405727117304 0 -0.00067696755377924989 0.017943568507964018 0 -0.00083213691841273532 0.018047273602361417 0 -0.00043035558785165504 0.018069278219406217 0 -0.00054593371453678648 0.018239695981995627 0 -0.00060891421150804654 0.018086405727117304 0 -0.00043035558785165504 0.018069278219406217 0 -0.00060891421150804654 0.018086405727117304 0 -0.00047459253878684503 0.01788393930711819 0 -0.00052871317749374235 0.017662866988573118 0 -0.00014040934714955271 0.01496626000643868 0 -0.00047459253878684503 0.01788393930711819 0 -0.00067696755377924989 0.017943568507964018 0 -0.0006839725317582115 0.017772326462474397 0 -0.00060891421150804654 0.018086405727117304 0 -0.00047459253878684503 0.01788393930711819 0 -0.00067696755377924989 0.017943568507964018 0 -0.00014040934714955271 0.01496626000643868 0 0.00053034429098213463 0.018887108510852894 0 0.0013414431612212131 0.017555443235855592 0 0.0016146452148240393 0.017416904603026844 0 0.00038829078310479473 0.017073643021048572 0 0.0013414431612212131 0.017555443235855592 0 0.00085294677059648976 0.017881476486186574 0 0.00038829078310479473 0.017073643021048572 0 0.001197515695149895 0.018355721340362913 0 0.00053034429098213463 0.018887108510852894 0 0.0013414431612212131 0.017555443235855592 0 0.0015940667149057018 0.017451196008158185 0 0.001697511617714832 0.01804483863222563 0 0.0013414431612212131 0.017555443235855592 0 0.001697511617714832 0.01804483863222563 0 0.0012947489541473927 0.01796453724694002 0 0.00085294677059648976 0.017881476486186574 0 0.0012785482712887152 0.018370314125499193 0 0.00060958523844117224 0.018907225772996628 0 0.00085294677059648976 0.017881476486186574 0 0.0012947489541473927 0.01796453724694002 0 0.0012785482712887152 0.018370314125499193 0 0.0013414431612212131 0.017555443235855592 0 0.00085294677059648976 0.017881476486186574 0 0.0012947489541473927 0.01796453724694002 0 0.001697511617714832 0.01804483863222563 0 0.0012785482712887152 0.018370314125499193 0 0.0019936435922682004 0.018856233379830185 0 0.001697511617714832 0.01804483863222563 0 0.0012947489541473927 0.01796453724694002 0 0.0012785482712887152 0.018370314125499193 0 0.0009266221699104505 0.013752285797139163 0 0.001342569322881028 0.012626998228607333 0 0.00085294677059648976 0.017881476486186574 0 0.00028129261128576988 0.017379173409491366 0 0.00060958523844117224 0.018907225772996628 0 0.0010687921767701951 0.01409396281902231 0 0.00076156600275556236 0.014934774898467715 0 0.0012353178708375706 0.014937399757685042 0 0.0009266221699104505 0.013752285797139163 0 0.0010269615242689697 0.01777441457331648 0 -0.00014040934714955271 0.01496626000643868 0 0.0009266221699104505 0.013752285797139163 0 0.0014390435320916738 0.0097396643167441763 0 0.0014152476327928716 0.0096321752714640836 0 0.0015243848677071723 0.0096601314035028498 0 7.3935362452428222e-05 0.016332035203525847 0 0.00027422270512548032 0.01737746011627278 0 0.00038829078310479473 0.017073643021048572 0 7.3935362452428222e-05 0.016332035203525847 0 0.0016146452148240393 0.017416904603026844 0 0.00038829078310479473 0.017073643021048572 0 0.0009266221699104505 0.013752285797139163 0 0.00031919308348617653 0.015815073285940298 0 0.00085294677059648976 0.017881476486186574 0 0.00028129261128576988 0.017379173409491366 0 0.00038829078310479473 0.017073643021048572 0 0.0014152476327928716 0.0096321752714640836 0 0.0015243848677071723 0.0096601314035028498 0 0.0015400973854692212 0.0095446951217581476 0 0.0015243848677071723 0.0096601314035028498 0 0.0016512875417994649 0.0095868236292819663 0 0.0015400973854692212 0.0095446951217581476 0 0.0016512875417994649 0.0095868236292819663 0 0.0015400973854692212 0.0095446951217581476 0 0.0016815610542188864 0.0094019981645764444 0 0.0014152476327928716 0.0096321752714640836 0 0.0015400973854692212 0.0095446951217581476 0 0.0014829293840998106 0.0094452513754927307 0 0.0015400973854692212 0.0095446951217581476 0 0.0014829293840998106 0.0094452513754927307 0 0.0016815610542188864 0.0094019981645764444 0 0.001342569322881028 0.012626998228607333 0 0.0024524142906681089 0.0091850245485845614 0 0.0030753589464505558 0.0097903139793737923 0 0.0027946758341137676 0.0097321548230695602 0 0.0028437745885003291 0.0099300732643097835 0 0.0028215526699562244 0.010166196009810164 0 0.0028437745885003291 0.0099300732643097835 0 0.0030079592722213246 0.010037502065803483 0 0.0030753589464505558 0.0097903139793737923 0 0.0028437745885003291 0.0099300732643097835 0 0.0030079592722213246 0.010037502065803483 0 -0.00023412600096391574 0.017683317257228447 0 -0.00091639786922335009 0.019547844964411358 0 0.00034654635643707689 0.01912521166115878 0 0.001342569322881028 0.012626998228607333 0 0.00090377341770160266 0.014859968743467428 0 -0.00091639786922335009 0.019547844964411358 0 0.00010541699698675068 0.019692239070768294 0 0.00034654635643707689 0.01912521166115878 0 0.0012998612424685873 0.020142506211784501 0 0.00034654635643707689 0.01912521166115878 0 0.00094771764781721799 0.017680301710561619 0 0.00062747908045292374 0.020135674165571715 0 0.00010541699698675068 0.019692239070768294 0 0.00034654635643707689 0.01912521166115878 0 0.0012934670636067331 0.020278302433491317 0 0.0010269615242689697 0.01777441457331648 0 0.0012998612424685873 0.020142506211784501 0 0.0015721604004700037 0.019495494729029981 0 0.0010262176894834968 0.018886127714852922 0 0.0012998612424685873 0.020142506211784501 0 0.0016637366636175009 0.019884294856557707 0 0.0015721604004700037 0.019495494729029981 0 0.0016637366636175009 0.019884294856557707 0 0.0015721604004700037 0.019495494729029981 0 0.0021105014174388555 0.019789971826124696 0 0.0015721604004700037 0.019495494729029981 0 0.0010262176894834968 0.018886127714852922 0 0.0019936435922682004 0.018856233379830185 0 0.0010269615242689697 0.01777441457331648 0 0.0018285223001086386 0.019063263788836465 0 0.0012785482712887152 0.018370314125499193 0 0.00060958523844117224 0.018907225772996628 0 0.0019936435922682004 0.018856233379830185 0 -0.00023412600096391574 0.017683317257228447 0 0.00034654635643707689 0.01912521166115878 0 0.00094771764781721799 0.017680301710561619 0 0.001342569322881028 0.012626998228607333 0 0.0010269615242689697 0.01777441457331648 0 0.002649168188810959 0.019275484522237103 0 0.0031709143695319944 0.019700580712776517 0 0.0032598799701787072 0.018796488692242048 0 0.002649168188810959 0.019275484522237103 0 0.0032598799701787072 0.018796488692242048 0 0.0025134193527645496 0.018196733643363255 0 0.002649168188810959 0.019275484522237103 0 0.0019936435922682004 0.018856233379830185 0 0.0025134193527645496 0.018196733643363255 0 0.0015721604004700037 0.019495494729029981 0 0.0019936435922682004 0.018856233379830185 0 0.0021105014174388555 0.019789971826124696 0 0.002649168188810959 0.019275484522237103 0 0.0019936435922682004 0.018856233379830185 0 0.0021105014174388555 0.019789971826124696 0 0.0027202578623407802 0.020072380155177399 0 0.002649168188810959 0.019275484522237103 0 0.0021105014174388555 0.019789971826124696 0 0.0027202578623407802 0.020072380155177399 0 0.002649168188810959 0.019275484522237103 0 0.0031709143695319944 0.019700580712776517 0 0.0034663823458824811 0.020046091747387002 0 0.0031563155009296721 0.02022061523404171 0 0.0031709143695319944 0.019700580712776517 0 0.0034663823458824811 0.020046091747387002 0 0.0031709143695319944 0.019700580712776517 0 0.0036370414685832201 0.019615519836488519 0 0.0031709143695319944 0.019700580712776517 0 0.0036370414685832201 0.019615519836488519 0 0.0032598799701787072 0.018796488692242048 0 0.0038623977286870626 0.020184368949384031 0 0.0034663823458824811 0.020046091747387002 0 0.0036370414685832201 0.019615519836488519 0 0.0013369948240371759 0.022649042410397124 0 0.00026674451400141046 0.024431964801423102 0 0.00072702685451729923 0.023590216555671152 0 0.00072724427936244891 0.023579459188342318 0 0.00073430574091691331 0.023608665506750854 0 -9.1488728601637155e-05 0.024947335118019713 0 -4.6596083008880449e-05 0.024945026815770176 0 -4.1031561367835152e-05 0.024981113838141517 0 0.0038623977286870626 0.020184368949384031 0 0.0036370414685832201 0.019615519836488519 0 0.0040779128119194071 0.019608086828530966 0 0.0036370414685832201 0.019615519836488519 0 0.0040779128119194071 0.019608086828530966 0 0.0039754648769564464 0.019334900074833693 0 0.0018889948152910965 0.021727173144837457 0 0.0013369948240371759 0.022649042410397124 0 -9.1488728601637155e-05 0.024947335118019713 0 -0.00012747894650838636 0.024871307846089354 0 -7.6859516448657986e-05 0.024904904703604756 0 0.0013369948240371759 0.022649042410397124 0 0.00058255009135123087 0.023631477559587048 0 -9.1488728601637155e-05 0.024947335118019713 0 -7.6859516448657986e-05 0.024904904703604756 0 -4.6596083008880449e-05 0.024945026815770176 0 0.0013369948240371759 0.022649042410397124 0 0.002058938367119888 0.019924210428550929 0 0.0011269542178862705 0.021600627721428393 0 0.00079147616690601944 0.021367620414581096 0 0.00095308037928773992 0.021190049815166034 0 0.0013369948240371759 0.022649042410397124 0 0.0010234266412210765 0.021405222715456376 0 0.0036370414685832201 0.019615519836488519 0 0.0039754648769564464 0.019334900074833693 0 0.0032598799701787072 0.018796488692242048 0 0.00095308037928773992 0.021190049815166034 0 0.00082790374380993612 0.021068186179952899 0 0.00078054018791503729 0.020839687844772536 0 0.0013022301331685529 0.021535480347402297 0 0.0011421651372883663 0.021813246885244341 0 0.00078054018791503729 0.020839687844772536 0 0.0015274565546999875 0.022799931027184663 0 0.0013022301331685529 0.021535480347402297 0 0.0011421651372883663 0.021813246885244341 0 0.00079147616690601944 0.021367620414581096 0 0.00095308037928773992 0.021190049815166034 0 0.00076846151207073771 0.02118579435280199 0 0.00095308037928773992 0.021190049815166034 0 0.00082790374380993612 0.021068186179952899 0 0.00076846151207073771 0.02118579435280199 0 -0.00012747894650838636 0.024871307846089354 0 -7.6859516448657986e-05 0.024904904703604756 0 -7.7718622858468988e-05 0.024834767605758645 0 -0.00011844825389558061 0.024777325999432571 0 -7.7718622858468988e-05 0.024834767605758645 0 -9.5608091489940241e-05 0.024767698895446034 0 -0.00012747894650838636 0.024871307846089354 0 -0.00011844825389558061 0.024777325999432571 0 -7.7718622858468988e-05 0.024834767605758645 0 -7.7718622858468988e-05 0.024834767605758645 0 -9.5608091489940241e-05 0.024767698895446034 0 -5.9256023011919813e-05 0.024794234273643311 0 -0.00012747894650838636 0.024871307846089354 0 -0.00011844825389558061 0.024777325999432571 0 -0.00018391047906631016 0.024673007907589861 0 0.0010234266412210765 0.021405222715456376 0 0.00081297942946340117 0.020924651591447727 0 0.00058255009135123087 0.023631477559587048 0 3.3834833597023143e-05 0.021650646266804307 0 0.0013022301331685529 0.021535480347402297 0 0.00078054018791503729 0.020839687844772536 0 0.0010188684870972868 0.020283009246231627 0 0.00082790374380993612 0.021068186179952899 0 0.00078054018791503729 0.020839687844772536 0 0.0007688294827263377 0.020871655025917792 0 0.00082790374380993612 0.021068186179952899 0 0.0007688294827263377 0.020871655025917792 0 0.00071720849917798507 0.020967064343871911 0 0.00060615682086494042 0.020960796400170959 0 0.00049683088501358485 0.021146790888282783 0 0.00044695163750913566 0.020836560637803297 0 0.0007688294827263377 0.020871655025917792 0 0.00064950660026890012 0.020863173361987626 0 0.00067644305434382142 0.020725994836195756 0 0.00078054018791503729 0.020839687844772536 0 0.0007688294827263377 0.020871655025917792 0 0.00050961137591482714 0.020563928374836855 0 0.00089083894830771764 0.020858910963418992 0 4.1856394583941043e-05 0.019353541058070758 0 0.00064950660026890012 0.020863173361987626 0 0.00060615682086494042 0.020960796400170959 0 0.00044695163750913566 0.020836560637803297 0 0.00064950660026890012 0.020863173361987626 0 0.00044695163750913566 0.020836560637803297 0 0.00067644305434382142 0.020725994836195756 0 -0.00032202080925303693 0.019412398530168597 0 4.1856394583941043e-05 0.019353541058070758 0 0.0007688294827263377 0.020871655025917792 0 0.00064950660026890012 0.020863173361987626 0 0.00071720849917798507 0.020967064343871911 0 0.00064950660026890012 0.020863173361987626 0 0.00060615682086494042 0.020960796400170959 0 0.00071720849917798507 0.020967064343871911 0 0.00060615682086494042 0.020960796400170959 0 0.00071720849917798507 0.020967064343871911 0 0.00069565946876572237 0.021071217681129871 0 0.00082790374380993612 0.021068186179952899 0 0.00071720849917798507 0.020967064343871911 0 0.00069565946876572237 0.021071217681129871 0 0.00069565946876572237 0.021071217681129871 0 0.00076846151207073771 0.02118579435280199 0 0.00049683088501358485 0.021146790888282783 0 0.00079147616690601944 0.021367620414581096 0 0.00076846151207073771 0.02118579435280199 0 0.00049683088501358485 0.021146790888282783 0 0.002058938367119888 0.019924210428550929 0 0.0015768544316861872 0.019731833870125264 0 0.00082790374380993612 0.021068186179952899 0 0.00069565946876572237 0.021071217681129871 0 0.00076846151207073771 0.02118579435280199 0 0.00060615682086494042 0.020960796400170959 0 0.00069565946876572237 0.021071217681129871 0 0.00049683088501358485 0.021146790888282783 0 0.0015940667149057018 0.017451196008158185 0 0.001697511617714832 0.01804483863222563 0 0.0025134193527645496 0.018196733643363255 0 0.00053034429098213463 0.018887108510852894 0 0.0015768544316861872 0.019731833870125264 0 0.001697511617714832 0.01804483863222563 0 0.0019936435922682004 0.018856233379830185 0 0.0025134193527645496 0.018196733643363255 0 0.00053034429098213463 0.018887108510852894 0 -0.00032202080925303693 0.019412398530168597 0 0.00021742002567966934 0.020942087688588445 0 0.00049683088501358485 0.021146790888282783 0 0.00044695163750913566 0.020836560637803297 0 -0.00067696755377924989 0.017943568507964018 0 -0.0006839725317582115 0.017772326462474397 0 -0.00080722062130775003 0.017841758288620446 0 -0.00067696755377924989 0.017943568507964018 0 -0.00080722062130775003 0.017841758288620446 0 -0.00083213691841273532 0.018047273602361417 0 4.1856394583941043e-05 0.019353541058070758 0 -0.00088324785572505514 0.01821995405911608 0 -0.00052969578976102682 0.018983766529050605 0 -0.00052233322108729532 0.018830187596508344 0 -0.00064713692191774872 0.018776057049710512 0 -0.00080722062130775003 0.017841758288620446 0 -0.00091963862128148857 0.017909247461805489 0 -0.00083213691841273532 0.018047273602361417 0 -0.00052969578976102682 0.018983766529050605 0 -0.00052233322108729532 0.018830187596508344 0 -0.00040137210077229176 0.018924658390930282 0 -0.00052233322108729532 0.018830187596508344 0 -0.00064713692191774872 0.018776057049710512 0 -0.00058530195816146682 0.018670764642407127 0 -0.00052233322108729532 0.018830187596508344 0 -0.00058530195816146682 0.018670764642407127 0 -0.00045648216116218578 0.018731236715378578 0 -0.00060891421150804654 0.018086405727117304 0 -0.00083213691841273532 0.018047273602361417 0 -0.00074492942771114663 0.018213266584905463 0 -0.00088324785572505514 0.01821995405911608 0 -0.00068402982802163558 0.018452665484138417 0 -0.00064713692191774872 0.018776057049710512 0 -0.00070078694547209711 0.018589777131057646 0 -0.00058530195816146682 0.018670764642407127 0 -0.00070078694547209711 0.018589777131057646 0 -0.00062916357398599466 0.018587727252741836 0 -0.00058530195816146682 0.018670764642407127 0 -0.00058530195816146682 0.018670764642407127 0 -0.0005189626671978872 0.018575872947209016 0 -0.00045648216116218578 0.018731236715378578 0 -0.00062916357398599466 0.018587727252741836 0 -0.00058530195816146682 0.018670764642407127 0 -0.0005189626671978872 0.018575872947209016 0 -0.00056621687367888176 0.018663720388660602 0 -0.00060396499722669913 0.018554568536865181 0 -0.00069414774467218567 0.018530752090818864 0 -0.00062916357398599466 0.018587727252741836 0 -0.0005189626671978872 0.018575872947209016 0 -0.00069414774467218567 0.018530752090818864 0 -0.00076246305576602549 0.018930240053695913 0 -0.00061524377044565846 0.018468250126103505 0 -0.00056141647367885777 0.018714679749641399 0 -0.00056621687367888176 0.018663720388660602 0 -0.00069414774467218567 0.018530752090818864 0 -0.00076246305576602549 0.018930240053695913 0 -0.00072074769322292014 0.018772182991112385 0 -0.00055890147140255999 0.018760025452957147 0 -0.00056621687367888176 0.018663720388660602 0 -0.00049808806024418371 0.01867733373486365 0 -0.00056621687367888176 0.018663720388660602 0 -0.00060396499722669913 0.018554568536865181 0 -0.00049808806024418371 0.01867733373486365 0 -0.00070078694547209711 0.018589777131057646 0 -0.00062916357398599466 0.018587727252741836 0 -0.00069414774467218567 0.018530752090818864 0 -6.873840851779776e-05 0.023213459182515727 0 -0.00019199103785353855 0.023192422528722161 0 -0.0003087444177897878 0.021493906553743034 0 -0.00045311018284024447 0.021210493930650356 0 -0.00026502789411267272 0.020994192271453768 0 0.00018031656268116737 0.024886227121094794 0 0.00013332332992888662 0.024917123031239483 0 0.0001715761457215383 0.024942093147871991 0 -0.0003087444177897878 0.021493906553743034 0 -0.0004579277684258644 0.021433174590877801 0 -0.00050112336160611475 0.021537294607732505 0 -0.0003087444177897878 0.021493906553743034 0 -0.0004579277684258644 0.021433174590877801 0 -0.00045311018284024447 0.021210493930650356 0 -0.00060369145651158684 0.019087199882607309 0 -0.00062801420593855634 0.020144717920864721 0 -0.00060396499722669913 0.018554568536865181 0 -0.00049808806024418371 0.01867733373486365 0 -0.00038409526592440645 0.01868087245848539 0 -0.00053781163838219348 0.019815098953242644 0 -0.0007148669629468608 0.01970771041984818 0 -0.00062280239479971049 0.019854666827718314 0 -0.0004579277684258644 0.021433174590877801 0 -0.00045311018284024447 0.021210493930650356 0 -0.00056876321110151194 0.021492221693459473 0 -0.00049808806024418371 0.01867733373486365 0 -0.00046140603600940838 0.018728205722487137 0 -0.00038409526592440645 0.01868087245848539 0 -0.00055890147140255999 0.018760025452957147 0 -0.00049808806024418371 0.01867733373486365 0 -0.00046140603600940838 0.018728205722487137 0 -0.0004579277684258644 0.021433174590877801 0 -0.00056876321110151194 0.021492221693459473 0 -0.00050112336160611475 0.021537294607732505 0 -0.00046140603600940838 0.018728205722487137 0 -0.00038409526592440645 0.01868087245848539 0 -0.00041014211075134376 0.018798160698821238 0 -0.00062801420593855634 0.020144717920864721 0 -0.0004868309650705306 0.020335258354050475 0 -0.00057091744016923938 0.021492433754905664 0 -0.00050112336160611475 0.021537294607732505 0 -0.00049192935984759562 0.021929495613732242 0 -0.00076246305576602549 0.018930240053695913 0 -0.00068689856095420672 0.019612449644112014 0 -0.0011223379639850918 0.019485588289832979 0 4.1189223493028027e-05 0.020208848613244047 0 -0.00082033199981910694 0.020854580638126025 0 -0.00062801420593855634 0.020144717920864721 0 -0.00029587499994585751 0.020858982557641962 0 -0.00038409526592440645 0.01868087245848539 0 -0.00041014211075134376 0.018798160698821238 0 -0.00033390341327430424 0.018920956028442928 0 -0.00055890147140255999 0.018760025452957147 0 -0.00046140603600940838 0.018728205722487137 0 -0.00041014211075134376 0.018798160698821238 0 -0.00055890147140255999 0.018760025452957147 0 -0.00041014211075134376 0.018798160698821238 0 -0.00033390341327430424 0.018920956028442928 0 -0.00076246305576602549 0.018930240053695913 0 -0.00029587499994585751 0.020858982557641962 0 -6.873840851779776e-05 0.023213459182515727 0 0.00018533114041394201 0.023077397542639405 0 0.00018779419592039533 0.024823014003478631 0 0.00013715759534191219 0.024798908876667827 0 0.00012689685490072461 0.024869887910367056 0 -0.0003087444177897878 0.021493906553743034 0 -0.00049192935984759562 0.021929495613732242 0 -0.00035052272763976341 0.022018241783285548 0 -0.00029587499994585751 0.020858982557641962 0 0.00018533114041394201 0.023077397542639405 0 0.00018031656268116737 0.024886227121094794 0 0.00018779419592039533 0.024823014003478631 0 0.00012689685490072461 0.024869887910367056 0 -0.0003087444177897878 0.021493906553743034 0 -0.00050112336160611475 0.021537294607732505 0 -0.00049192935984759562 0.021929495613732242 0 -0.00010963132148522271 0.021918579664943309 0 0.00017723981874827143 0.022095988609351337 0 8.852453913574555e-05 0.02305898672096789 0 -7.8025724138440481e-05 0.024751580646419458 0 -0.00010640746117795058 0.024746782707224399 0 -6.1516794041758193e-05 0.024723714705451916 0 5.8809590161869073e-05 0.023628386176351851 0 5.9685943883203207e-05 0.023633735131873824 0 0.00011808724621993785 0.023608239744856561 0 0.00018533114041394201 0.023077397542639405 0 5.3564363190685674e-05 0.024463789811182707 0 6.4340318457992775e-05 0.023569624640772575 0 5.8809590161869073e-05 0.023628386176351851 0 0.00011808724621993785 0.023608239744856561 0 0.00018533114041394201 0.023077397542639405 0 7.247560111307011e-06 0.0230750792567605 0 -7.8726827816592738e-06 0.023628748198069285 0 5.3564363190685674e-05 0.024463789811182707 0 -0.00029587499994585751 0.020858982557641962 0 7.247560111307011e-06 0.0230750792567605 0 -0.00068689856095420672 0.019612449644112014 0 3.3834833597023143e-05 0.021650646266804307 0 4.1189223493028027e-05 0.020208848613244047 0 0.00029133318999976084 0.021687351976379457 0 -0.00082033199981910694 0.020854580638126025 0 -0.00052233322108729532 0.018830187596508344 0 -0.00045648216116218578 0.018731236715378578 0 -0.00040137210077229176 0.018924658390930282 0 0.00029133318999976084 0.021687351976379457 0 -0.00082033199981910694 0.020854580638126025 0 -0.00051567989886812339 0.022221759614423586 0 -0.00011844825389558061 0.024777325999432571 0 -0.00018391047906631016 0.024673007907589861 0 -9.0947710942752824e-05 0.024617023207535914 0 0.00029133318999976084 0.021687351976379457 0 -0.00051567989886812339 0.022221759614423586 0 0.00031087120124775907 0.02180307940492493 0 3.3834833597023143e-05 0.021650646266804307 0 -7.8726827816592738e-06 0.023628748198069285 0 4.1856394583941043e-05 0.019353541058070758 0 3.3834833597023143e-05 0.021650646266804307 0 0.00078054018791503729 0.020839687844772536 0 0.00050961137591482714 0.020563928374836855 0 0.0010188684870972868 0.020283009246231627 0 -0.00011844825389558061 0.024777325999432571 0 -0.00010640746117795058 0.024746782707224399 0 -9.5608091489940241e-05 0.024767698895446034 0 -0.00015688038125428701 0.025131611151994988 0 -7.8726827816592738e-06 0.023628748198069285 0 -7.8025724138440481e-05 0.024751580646419458 0 -9.6601269471234557e-05 0.02475368685552105 0 -9.5608091489940241e-05 0.024767698895446034 0 -9.6601269471234557e-05 0.02475368685552105 0 -0.00010640746117795058 0.024746782707224399 0 -9.5608091489940241e-05 0.024767698895446034 0 -7.8025724138440481e-05 0.024751580646419458 0 -9.6601269471234557e-05 0.02475368685552105 0 -0.00010640746117795058 0.024746782707224399 0 7.247560111307011e-06 0.0230750792567605 0 -7.8726827816592738e-06 0.023628748198069285 0 -7.8025724138440481e-05 0.024751580646419458 0 -9.5608091489940241e-05 0.024767698895446034 0 -5.9256023011919813e-05 0.024794234273643311 0 -5.9256023011919813e-05 0.024794234273643311 0 -5.0933518209781423e-05 0.024766509011037309 0 -9.9436778288638531e-06 0.024809739097453005 0 -5.0933518209781423e-05 0.024766509011037309 0 -9.9436778288638531e-06 0.024809739097453005 0 -3.1256978391385867e-05 0.024745038295956156 0 -7.8025724138440481e-05 0.024751580646419458 0 -5.9256023011919813e-05 0.024794234273643311 0 -5.0933518209781423e-05 0.024766509011037309 0 -9.9436778288638531e-06 0.024809739097453005 0 1.9106712190277221e-05 0.024764943426903243 0 -3.1256978391385867e-05 0.024745038295956156 0 -9.9436778288638531e-06 0.024809739097453005 0 1.9106712190277221e-05 0.024764943426903243 0 6.2998605274095326e-05 0.024818221765960914 0 2.957317903484537e-06 0.024730536968810654 0 -5.973699426562152e-05 0.024726456588391368 0 1.6603074241324355e-05 0.024692876536906324 0 2.957317903484537e-06 0.024730536968810654 0 1.6603074241324355e-05 0.024692876536906324 0 7.4738727258846259e-05 0.024731062295794162 0 1.9106712190277221e-05 0.024764943426903243 0 2.957317903484537e-06 0.024730536968810654 0 -3.1256978391385867e-05 0.024745038295956156 0 5.3564363190685674e-05 0.024463789811182707 0 3.5136744871498531e-05 0.024801890213155368 0 2.957317903484537e-06 0.024730536968810654 0 -5.973699426562152e-05 0.024726456588391368 0 -3.1256978391385867e-05 0.024745038295956156 0 -7.8025724138440481e-05 0.024751580646419458 0 -5.0933518209781423e-05 0.024766509011037309 0 -6.1516794041758193e-05 0.024723714705451916 0 -5.0933518209781423e-05 0.024766509011037309 0 -6.1516794041758193e-05 0.024723714705451916 0 -3.1256978391385867e-05 0.024745038295956156 0 5.3564363190685674e-05 0.024463789811182707 0 1.9196529193625055e-05 0.024654425888855296 0 0.00013715759534191219 0.024798908876667827 0 0.00012689685490072461 0.024869887910367056 0 6.4975129173830493e-05 0.024856158096245699 0 0.00012689685490072461 0.024869887910367056 0 6.4975129173830493e-05 0.024856158096245699 0 8.413000660051676e-05 0.024922184978535586 0 6.4975129173830493e-05 0.024856158096245699 0 8.413000660051676e-05 0.024922184978535586 0 3.8168281304731765e-05 0.024940125675649065 0 8.413000660051676e-05 0.024922184978535586 0 0.00013332332992888662 0.024917123031239483 0 0.00010006141736536658 0.02496373621189954 0 0.00012689685490072461 0.024869887910367056 0 8.413000660051676e-05 0.024922184978535586 0 0.00013332332992888662 0.024917123031239483 0 0.00018031656268116737 0.024886227121094794 0 0.00012689685490072461 0.024869887910367056 0 0.00013332332992888662 0.024917123031239483 0 2.116849842009203e-08 0.024999911354160576 0 -9.4213298848025357e-07 0.024974346213155939 0 -3.0768496534398348e-08 0.025000018846412776 0 -6.7376276249435048e-07 0.024970786629467966 0 2.2224989308566505e-05 0.024879489896033693 0 2.116849842009203e-08 0.024999911354160576 0 -9.4213298848025357e-07 0.024974346213155939 0 -2.0446481120006195e-06 0.024979336010744306 0 -4.4621870649464364e-08 0.02499999639706383 0 2.2224989308566505e-05 0.024879489896033693 0 8.413000660051676e-05 0.024922184978535586 0 3.8168281304731765e-05 0.024940125675649065 0 2.6493581544864668e-05 0.024984447917915053 0 -9.4213298848025357e-07 0.024974346213155939 0 3.8168281304731765e-05 0.024940125675649065 0 2.6493581544864668e-05 0.024984447917915053 0 -9.4213298848025357e-07 0.024974346213155939 0 3.8168281304731765e-05 0.024940125675649065 0 -9.193381122413216e-07 0.02492389616902746 0 6.4975129173830493e-05 0.024856158096245699 0 3.8168281304731765e-05 0.024940125675649065 0 -9.193381122413216e-07 0.02492389616902746 0 3.5136744871498531e-05 0.024801890213155368 0 2.2224989308566505e-05 0.024879489896033693 0 1.6603074241324355e-05 0.024692876536906324 0 8.9333836795621815e-05 0.024659903535332865 0 7.4738727258846259e-05 0.024731062295794162 0 2.2224989308566505e-05 0.024879489896033693 0 4.3351897481957789e-05 0.024855024058388599 0 1.0804628431946476e-06 0.024999987878794056 0 5.9204169266744778e-09 0.02500000417841701 0 3.2320484517794666e-06 0.025000194513630961 0 -1.5811289003406846e-09 0.024999998369270499 0 1.0804628431946476e-06 0.024999987878794056 0 5.9204169266744778e-09 0.02500000417841701 0 5.9204169266744778e-09 0.02500000417841701 0 3.2320484517794666e-06 0.025000194513630961 0 3.3258506589524976e-06 0.02499986767092607 0 1.9106712190277221e-05 0.024764943426903243 0 2.957317903484537e-06 0.024730536968810654 0 7.4738727258846259e-05 0.024731062295794162 0 4.3351897481957789e-05 0.024855024058388599 0 3.4582332383757157e-05 0.024909992354876023 0 3.2320484517794666e-06 0.025000194513630961 0 3.3258506589524976e-06 0.02499986767092607 0 1.1482058474455532e-05 0.024997167869692128 0 1.9106712190277221e-05 0.024764943426903243 0 7.4738727258846259e-05 0.024731062295794162 0 6.2998605274095326e-05 0.024818221765960914 0 5.9204169266744778e-09 0.02500000417841701 0 3.3258506589524976e-06 0.02499986767092607 0 -5.0695118863100417e-09 0.024999989139154299 0 3.3258506589524976e-06 0.02499986767092607 0 -5.0695118863100417e-09 0.024999989139154299 0 1.1482058474455532e-05 0.024997167869692128 0 -5.0695118863100417e-09 0.024999989139154299 0 3.4462966268813858e-06 0.02498226264101721 0 1.1482058474455532e-05 0.024997167869692128 0 3.4462966268813858e-06 0.02498226264101721 0 6.6495499778837461e-09 0.024999955147588366 0 8.4005829929379279e-06 0.024977818526321034 0 -5.0695118863100417e-09 0.024999989139154299 0 3.4462966268813858e-06 0.02498226264101721 0 6.6495499778837461e-09 0.024999955147588366 0 3.4462966268813858e-06 0.02498226264101721 0 1.9784698098814533e-05 0.024945098063478693 0 8.4005829929379279e-06 0.024977818526321034 0 3.4462966268813858e-06 0.02498226264101721 0 1.9784698098814533e-05 0.024945098063478693 0 1.1482058474455532e-05 0.024997167869692128 0 2.2873626909224598e-05 0.024941350660646209 0 3.4582332383757157e-05 0.024909992354876023 0 -9.9436778288638531e-06 0.024809739097453005 0 1.9784698098814533e-05 0.024945098063478693 0 6.2998605274095326e-05 0.024818221765960914 0 -9.9436778288638531e-06 0.024809739097453005 0 1.9784698098814533e-05 0.024945098063478693 0 -3.4542586053937959e-05 0.024855571050739531 0 -7.7718622858468988e-05 0.024834767605758645 0 -3.4542586053937959e-05 0.024855571050739531 0 -4.2507284979871825e-05 0.024898092206775118 0 -5.9256023011919813e-05 0.024794234273643311 0 -9.9436778288638531e-06 0.024809739097453005 0 -3.4542586053937959e-05 0.024855571050739531 0 -7.7718622858468988e-05 0.024834767605758645 0 -5.9256023011919813e-05 0.024794234273643311 0 -3.4542586053937959e-05 0.024855571050739531 0 -7.6859516448657986e-05 0.024904904703604756 0 -7.7718622858468988e-05 0.024834767605758645 0 -4.2507284979871825e-05 0.024898092206775118 0 -7.6859516448657986e-05 0.024904904703604756 0 -4.2507284979871825e-05 0.024898092206775118 0 -4.6596083008880449e-05 0.024945026815770176 0 1.9784698098814533e-05 0.024945098063478693 0 -3.4542586053937959e-05 0.024855571050739531 0 -4.2507284979871825e-05 0.024898092206775118 0 1.9784698098814533e-05 0.024945098063478693 0 -4.2507284979871825e-05 0.024898092206775118 0 -1.6932428283266057e-05 0.02494113597819354 0 1.9784698098814533e-05 0.024945098063478693 0 -1.6932428283266057e-05 0.02494113597819354 0 -4.8109161060244375e-06 0.024970950320058725 0 -1.6932428283266057e-05 0.02494113597819354 0 -4.6596083008880449e-05 0.024945026815770176 0 -4.8109161060244375e-06 0.024970950320058725 0 -4.2507284979871825e-05 0.024898092206775118 0 -1.6932428283266057e-05 0.02494113597819354 0 -4.6596083008880449e-05 0.024945026815770176 0 -4.6596083008880449e-05 0.024945026815770176 0 -4.1031561367835152e-05 0.024981113838141517 0 -4.8109161060244375e-06 0.024970950320058725 0 -1.0477933742770473e-05 0.024995496765943846 0 -4.1031561367835152e-05 0.024981113838141517 0 -4.8109161060244375e-06 0.024970950320058725 0 -1.0477933742770473e-05 0.024995496765943846 0 -4.8109161060244375e-06 0.024970950320058725 0 2.2307492996570285e-06 0.024991135441385766 0 -4.8109161060244375e-06 0.024970950320058725 0 2.2307492996570285e-06 0.024991135441385766 0 8.4005829929379279e-06 0.024977818526321034 0 2.2307492996570285e-06 0.024991135441385766 0 1.0424670985276122e-08 0.024999978471616523 0 8.4005829929379279e-06 0.024977818526321034 0 6.6495499778837461e-09 0.024999955147588366 0 1.0424670985276122e-08 0.024999978471616523 0 8.4005829929379279e-06 0.024977818526321034 0 1.9784698098814533e-05 0.024945098063478693 0 -4.8109161060244375e-06 0.024970950320058725 0 8.4005829929379279e-06 0.024977818526321034 0 1.230752276948473e-05 0.02499334066992695 0 4.9034090740060529e-06 0.025002482288931066 0 6.2035008154646307e-06 0.024991835171516548 0 1.3730187489663334e-05 0.024968626630077873 0 2.3398633326278282e-06 0.024983551321070871 0 1.2756651680227415e-05 0.024984351501156805 0 4.7973682465018874e-05 0.024636630172634569 0 -2.2972628433187246e-05 0.025021916158547063 0 2.3200231351241568e-05 0.024998500494012803 0 1.230752276948473e-05 0.02499334066992695 0 4.9034090740060529e-06 0.025002482288931066 0 7.9570235145387516e-10 0.024999999806808924 0 4.9034090740060529e-06 0.025002482288931066 0 6.2035008154646307e-06 0.024991835171516548 0 7.9570235145387516e-10 0.024999999806808924 0 4.9034090740060529e-06 0.025002482288931066 0 2.6334839880753903e-09 0.025000007030092312 0 2.3398633326278282e-06 0.024983551321070871 0 -1.060550940313847e-08 0.024999965994549643 0 4.4497658903001596e-06 0.024992975155232418 0 -2.2972628433187246e-05 0.025021916158547063 0 3.4421634591842181e-08 0.024999972135382711 0 2.3398633326278282e-06 0.024983551321070871 0 1.2756651680227415e-05 0.024984351501156805 0 4.4497658903001596e-06 0.024992975155232418 0 0.000440976163242239 0.021640852165891337 0 0.00026035985254830321 0.021925429725027042 0 0.00042339556610243058 0.022221651664477846 0 0.00061326612771173497 0.02196538607665879 0 0.000440976163242239 0.021640852165891337 0 0.00042985449735708978 0.021201662060107637 0 0.00061326612771173497 0.02196538607665879 0 0.000440976163242239 0.021640852165891337 0 0.00039581288595032021 0.022377417657616451 0 1.418399676889401e-05 0.023677750784999528 0 0.0001767996293905982 0.023602008071026595 0 -9.2566183348966971e-05 0.023223082855941424 0 0.00031700361039375041 0.022792993363556543 0 -9.6721814874803998e-05 0.021908706484851683 0 0.0002235893303253644 0.024073212473636967 0 1.418399676889401e-05 0.023677750784999528 0 0.0001767996293905982 0.023602008071026595 0 0.00043259819018810557 0.021757649905847994 0 0.00041119210127423081 0.022206869882601576 0 0.000440976163242239 0.021640852165891337 0 3.5389813348560394e-05 0.021814548221511718 0 0.00042985449735708978 0.021201662060107637 0 3.5389813348560394e-05 0.021814548221511718 0 -0.00061227599053863691 0.02160845255526736 0 0.00042985449735708978 0.021201662060107637 0 0.000440976163242239 0.021640852165891337 0 0.00026035985254830321 0.021925429725027042 0 3.5389813348560394e-05 0.021814548221511718 0 0.00026035985254830321 0.021925429725027042 0 3.5389813348560394e-05 0.021814548221511718 0 0.0001013725258996667 0.022197407601386391 0 1.9599853993663119e-05 0.022509490608349215 0 0.00042339556610243058 0.022221651664477846 0 0.0004225054145397614 0.022831688783094599 0 3.5389813348560394e-05 0.021814548221511718 0 0.0001013725258996667 0.022197407601386391 0 -0.00039019913179820666 0.022264184303916926 0 0.0001013725258996667 0.022197407601386391 0 1.9599853993663119e-05 0.022509490608349215 0 -0.00039019913179820666 0.022264184303916926 0 0.00026035985254830321 0.021925429725027042 0 0.0001013725258996667 0.022197407601386391 0 0.00042339556610243058 0.022221651664477846 0 0.0001013725258996667 0.022197407601386391 0 1.9599853993663119e-05 0.022509490608349215 0 0.00042339556610243058 0.022221651664477846 0 1.9599853993663119e-05 0.022509490608349215 0 -0.00035293808238724819 0.022835910422871385 0 -0.00039019913179820666 0.022264184303916926 0 0.00039581288595032021 0.022377417657616451 0 0.00082160837831083159 0.022851689395121999 0 0.00036814071401214551 0.023177876080380119 0 0.00041119210127423081 0.022206869882601576 0 0.00025274151292773421 0.023530585981448575 0 0.0002235893303253644 0.024073212473636967 0 1.418399676889401e-05 0.023677750784999528 0 0.00012346660437144043 0.024144490719443391 0 4.7973682465018874e-05 0.024636630172634569 0 9.3587892206889651e-05 0.024187707174762169 0 0.00061326612771173497 0.02196538607665879 0 0.00039581288595032021 0.022377417657616451 0 0.00082160837831083159 0.022851689395121999 0 0.00031700361039375041 0.022792993363556543 0 0.00023975450270564836 0.02409911487664318 0 4.7973682465018874e-05 0.024636630172634569 0 0.00023975450270564836 0.02409911487664318 0 2.4301179794575294e-06 0.024748614320286143 0 -3.4289087256080443e-05 0.024774919611788779 0 1.667497961292613e-05 0.024958861404312999 0 0.00023975450270564836 0.02409911487664318 0 1.0178940713476248e-05 0.025214337271675262 0 -4.9610400833647434e-07 0.024859914266994333 0 -4.350035187165728e-05 0.024894002570291535 0 9.5476215433167791e-06 0.024971239205618775 0 0.00023975450270564836 0.02409911487664318 0 0.00025274151292773421 0.023530585981448575 0 1.9599853993663119e-05 0.022509490608349215 0 1.8953978168931883e-05 0.023134614638468613 0 -0.00035293808238724819 0.022835910422871385 0 0.00046565105800699057 0.022817619923322079 0 1.8953978168931883e-05 0.023134614638468613 0 6.3742673861366542e-05 0.023550593742686071 0 1.9599853993663119e-05 0.022509490608349215 0 0.0004225054145397614 0.022831688783094599 0 1.8953978168931883e-05 0.023134614638468613 0 0.00025274151292773421 0.023530585981448575 0 0.00025358567995283033 0.023079758457222228 0 1.8953978168931883e-05 0.023134614638468613 0 -0.00034252634695097561 0.02339808086718816 0 -0.00035293808238724819 0.022835910422871385 0 0.00046565105800699057 0.022817619923322079 0 6.3742673861366542e-05 0.023550593742686071 0 0.0004437686725198942 0.02386600879661694 0 6.3742673861366542e-05 0.023550593742686071 0 0.0004437686725198942 0.02386600879661694 0 -0.00034620396184791908 0.02400284543031591 0 0.00010784104530042018 0.024474407905214685 0 -0.00019298475359572659 0.02396431885503288 0 1.8953978168931883e-05 0.023134614638468613 0 6.3742673861366542e-05 0.023550593742686071 0 -0.00034252634695097561 0.02339808086718816 0 6.3742673861366542e-05 0.023550593742686071 0 -0.00034620396184791908 0.02400284543031591 0 -0.00034252634695097561 0.02339808086718816 0 -4.350035187165728e-05 0.024894002570291535 0 -3.4441762595441931e-05 0.024996607567655291 0 9.5476215433167791e-06 0.024971239205618775 0 -3.4441762595441931e-05 0.024996607567655291 0 2.0348373541104094e-05 0.02497814791329139 0 9.5476215433167791e-06 0.024971239205618775 0 0.00025274151292773421 0.023530585981448575 0 0.00010784104530042018 0.024474407905214685 0 4.9032725242353959e-05 0.024942590286919978 0 -9.0559452462089562e-06 0.024960395388383318 0 -3.5302573263136443e-06 0.024905555708910416 0 0.00010784104530042018 0.024474407905214685 0 -2.5243620881775479e-05 0.025015583742373389 0 2.0348373541104094e-05 0.02497814791329139 0 1.7294081854996652e-05 0.024971824467721289 0 1.2879819969024225e-05 0.024981241305083231 0 1.7294081854996652e-05 0.024971824467721289 0 1.5169652904205901e-05 0.024972884006183554 0 1.2879819969024225e-05 0.024981241305083231 0 2.0348373541104094e-05 0.02497814791329139 0 1.7294081854996652e-05 0.024971824467721289 0 9.5476215433167791e-06 0.024971239205618775 0 1.7294081854996652e-05 0.024971824467721289 0 1.667497961292613e-05 0.024958861404312999 0 1.5169652904205901e-05 0.024972884006183554 0 1.7294081854996652e-05 0.024971824467721289 0 9.5476215433167791e-06 0.024971239205618775 0 1.667497961292613e-05 0.024958861404312999 0 2.3200231351241568e-05 0.024998500494012803 0 1.667497961292613e-05 0.024958861404312999 0 1.3092208493081257e-05 0.024980558948531503 0 -3.4289087256080443e-05 0.024774919611788779 0 9.5476215433167791e-06 0.024971239205618775 0 1.667497961292613e-05 0.024958861404312999 0 1.667497961292613e-05 0.024958861404312999 0 1.5169652904205901e-05 0.024972884006183554 0 1.3092208493081257e-05 0.024980558948531503 0 4.7973682465018874e-05 0.024636630172634569 0 1.6914635759902193e-05 0.02504471424897738 0 1.5169652904205901e-05 0.024972884006183554 0 1.2879819969024225e-05 0.024981241305083231 0 1.3092208493081257e-05 0.024980558948531503 0 1.2879819969024225e-05 0.024981241305083231 0 1.3092208493081257e-05 0.024980558948531503 0 6.2035008154646307e-06 0.024991835171516548 0 1.230752276948473e-05 0.02499334066992695 0 1.3092208493081257e-05 0.024980558948531503 0 6.2035008154646307e-06 0.024991835171516548 0 2.3200231351241568e-05 0.024998500494012803 0 1.230752276948473e-05 0.02499334066992695 0 1.3092208493081257e-05 0.024980558948531503 0 1.2879819969024225e-05 0.024981241305083231 0 6.2035008154646307e-06 0.024991835171516548 0 6.781718626291425e-09 0.024999951562519634 0 7.9570235145387516e-10 0.024999999806808924 0 6.2035008154646307e-06 0.024991835171516548 0 6.781718626291425e-09 0.024999951562519634 0 -9.0559452462089562e-06 0.024960395388383318 0 -8.6260257309414358e-09 0.024999977296963721 0 -4.0740115693182873e-06 0.024958034798074066 0 2.0348373541104094e-05 0.02497814791329139 0 1.2879819969024225e-05 0.024981241305083231 0 6.781718626291425e-09 0.024999951562519634 0 -2.5243620881775479e-05 0.025015583742373389 0 4.0642784446494267e-08 0.024999967179714956 0 -1.1084131631173356e-08 0.024999924302132156 0 -4.0740115693182873e-06 0.024958034798074066 0 4.9738647191185994e-06 0.024933477972811952 0 -8.6260257309414358e-09 0.024999977296963721 0 -1.1084131631173356e-08 0.024999924302132156 0 -4.0740115693182873e-06 0.024958034798074066 0 -9.0559452462089562e-06 0.024960395388383318 0 -4.0740115693182873e-06 0.024958034798074066 0 -3.5302573263136443e-06 0.024905555708910416 0 -4.0740115693182873e-06 0.024958034798074066 0 -3.5302573263136443e-06 0.024905555708910416 0 4.9738647191185994e-06 0.024933477972811952 0 -1.1084131631173356e-08 0.024999924302132156 0 4.9738647191185994e-06 0.024933477972811952 0 2.2300533012123605e-08 0.024999956619673205 0 2.2300533012123605e-08 0.024999956619673205 0 1.1962227326148657e-05 0.024983534135347946 0 2.579235800401964e-08 0.02500000862100887 0 4.9738647191185994e-06 0.024933477972811952 0 2.2300533012123605e-08 0.024999956619673205 0 1.1962227326148657e-05 0.024983534135347946 0 1.1962227326148657e-05 0.024983534135347946 0 1.5795803854653422e-05 0.025023921502881803 0 -9.312367223077635e-06 0.024952139935659527 0 4.9738647191185994e-06 0.024933477972811952 0 1.1962227326148657e-05 0.024983534135347946 0 -9.312367223077635e-06 0.024952139935659527 0 1.3700770075176858e-05 0.024992116986214161 0 4.6937471645167362e-09 0.025000006172869321 0 -9.4213298848025357e-07 0.024974346213155939 0 2.6493581544864668e-05 0.024984447917915053 0 -3.0768496534398348e-08 0.025000018846412776 0 1.1962227326148657e-05 0.024983534135347946 0 1.5795803854653422e-05 0.025023921502881803 0 2.579235800401964e-08 0.02500000862100887 0 -1.3501569149710564e-05 0.025205257017191233 0 -0.00019199103785353855 0.023192422528722161 0 -0.00012923716348395373 0.025111714569288228 0 -0.00045933077305776253 0.025160644242795856 0 -0.00042354982260293819 0.025138013102832788 0 -0.00012923716348395373 0.025111714569288228 0 -0.00032866084108957569 0.025046914178598428 0 -0.00042354982260293819 0.025138013102832788 0 0.00013332332992888662 0.024917123031239483 0 0.00010006141736536658 0.02496373621189954 0 0.0001715761457215383 0.024942093147871991 0 1.3700770075176858e-05 0.024992116986214161 0 -1.3501569149710564e-05 0.025205257017191233 0 1.5795803854653422e-05 0.025023921502881803 0 -0.00012923716348395373 0.025111714569288228 0 -9.312367223077635e-06 0.024952139935659527 0 8.413000660051676e-05 0.024922184978535586 0 2.6493581544864668e-05 0.024984447917915053 0 0.00010006141736536658 0.02496373621189954 0 -9.312367223077635e-06 0.024952139935659527 0 -0.00016795191722828809 0.024956063992521406 0 3.8986642022818866e-06 0.024771224593625414 0 -0.00012923716348395373 0.025111714569288228 0 -9.312367223077635e-06 0.024952139935659527 0 -0.00016795191722828809 0.024956063992521406 0 -0.00012923716348395373 0.025111714569288228 0 -0.00016795191722828809 0.024956063992521406 0 -0.00032866084108957569 0.025046914178598428 0 -0.00016795191722828809 0.024956063992521406 0 -0.00032866084108957569 0.025046914178598428 0 -0.00033716787564771323 0.024959630646345338 0 -0.00016795191722828809 0.024956063992521406 0 -0.00033716787564771323 0.024959630646345338 0 -0.00040437870142526644 0.024809392962423443 0 -0.00016795191722828809 0.024956063992521406 0 3.8986642022818866e-06 0.024771224593625414 0 -0.00040437870142526644 0.024809392962423443 0 3.8986642022818866e-06 0.024771224593625414 0 -0.00044653605355370729 0.024460547434800854 0 -0.00040437870142526644 0.024809392962423443 0 4.9738647191185994e-06 0.024933477972811952 0 -9.312367223077635e-06 0.024952139935659527 0 3.8986642022818866e-06 0.024771224593625414 0 -3.5302573263136443e-06 0.024905555708910416 0 4.9738647191185994e-06 0.024933477972811952 0 3.8986642022818866e-06 0.024771224593625414 0 4.9032725242353959e-05 0.024942590286919978 0 -3.5302573263136443e-06 0.024905555708910416 0 3.8986642022818866e-06 0.024771224593625414 0 0.00010784104530042018 0.024474407905214685 0 1.6908644850043797e-05 0.024738185654465995 0 0.00013298509984653348 0.023955663875918267 0 3.8986642022818866e-06 0.024771224593625414 0 -0.00034620396184791908 0.02400284543031591 0 3.8986642022818866e-06 0.024771224593625414 0 -0.00034620396184791908 0.02400284543031591 0 -0.00044653605355370729 0.024460547434800854 0 -0.00044653605355370729 0.024460547434800854 0 -0.0007560889317057189 0.024665621544477725 0 -0.0011088569815651101 0.023853422178873079 0 -0.00034620396184791908 0.02400284543031591 0 -0.00044653605355370729 0.024460547434800854 0 -0.0011088569815651101 0.023853422178873079 0 -0.00065183589451557351 0.022339184828353603 0 -0.00083350960418172425 0.022131998833465016 0 -0.00061294901427444697 0.020266906242534861 0 -0.00052165682423855209 0.020300806462023396 0 -0.00062235356590916683 0.020374392764214232 0 -0.00061294901427444697 0.020266906242534861 0 -0.00054064206319287523 0.020294306596725514 0 -0.00062235356590916683 0.020374392764214232 0 -0.00061294901427444697 0.020266906242534861 0 -0.00052165682423855209 0.020300806462023396 0 -0.00051394683498989021 0.020567560804436964 0 -0.00044653605355370729 0.024460547434800854 0 -0.0007560889317057189 0.024665621544477725 0 -0.00040437870142526644 0.024809392962423443 0 -0.0007560889317057189 0.024665621544477725 0 -0.00046805446937912576 0.025022340630852621 0 -0.00044920447227611007 0.02510323291323787 0 -0.00033716787564771323 0.024959630646345338 0 -0.00040437870142526644 0.024809392962423443 0 -0.00046805446937912576 0.025022340630852621 0 -0.00065183589451557351 0.022339184828353603 0 -0.00042440229780865241 0.023634226878872299 0 -0.0007560889317057189 0.024665621544477725 0 -0.00040437870142526644 0.024809392962423443 0 -0.00046805446937912576 0.025022340630852621 0 -0.00052165682423855209 0.020300806462023396 0 -0.00051394683498989021 0.020567560804436964 0 -0.00028492234355622563 0.020789650731796575 0 -0.00032866084108957569 0.025046914178598428 0 -0.00046805446937912576 0.025022340630852621 0 -0.00045715286356751215 0.025067040184992624 0 -0.00032866084108957569 0.025046914178598428 0 -0.00033716787564771323 0.024959630646345338 0 -0.00046805446937912576 0.025022340630852621 0 -0.00048076245607662273 0.024412891979957288 0 -0.00042440229780865241 0.023634226878872299 0 -0.00051394683498989021 0.020567560804436964 0 -0.00028492234355622563 0.020789650731796575 0 -0.00047192717007122563 0.020780903722968296 0 -0.00063166309166912604 0.020237260537185491 0 -0.00065631881440795462 0.020483598064458649 0 -0.00061294901427444697 0.020266906242534861 0 -0.00051394683498989021 0.020567560804436964 0 -0.00066419194172904269 0.020796445068683767 0 -0.00061294901427444697 0.020266906242534861 0 -0.00068054556366917997 0.019954141152748128 0 -0.00058926103840440422 0.020063224382233541 0 -0.00068054556366917997 0.019954141152748128 0 -0.00055360894724901255 0.019946602482321135 0 -0.00058926103840440422 0.020063224382233541 0 -0.00051394683498989021 0.020567560804436964 0 -0.00066419194172904269 0.020796445068683767 0 -0.00047192717007122563 0.020780903722968296 0 -0.00066419194172904269 0.020796445068683767 0 -0.00045987366706564227 0.02098809424395752 0 -0.00047192717007122563 0.020780903722968296 0 -0.0007148669629468608 0.01970771041984818 0 -0.00068054556366917997 0.019954141152748128 0 -0.00062280239479971049 0.019854666827718314 0 -0.00045311018284024447 0.021210493930650356 0 -0.00056876321110151194 0.021492221693459473 0 -0.00066419194172904269 0.020796445068683767 0 -0.00062801420593855634 0.020144717920864721 0 -0.00065631881440795462 0.020483598064458649 0 -0.00068054556366917997 0.019954141152748128 0 -0.00062280239479971049 0.019854666827718314 0 -0.00055360894724901255 0.019946602482321135 0 -0.00045311018284024447 0.021210493930650356 0 -0.00066419194172904269 0.020796445068683767 0 -0.00045987366706564227 0.02098809424395752 0 -0.00045311018284024447 0.021210493930650356 0 -0.00045987366706564227 0.02098809424395752 0 -0.00026502789411267272 0.020994192271453768 0 -0.00037001721616939352 0.022349753446436697 0 -0.00019199103785353855 0.023192422528722161 0 -0.00025151374687712154 0.024760883506337383 0 -0.00042440229780865241 0.023634226878872299 0 -0.00045933077305776253 0.025160644242795856 0 -0.00042354982260293819 0.025138013102832788 0 -0.0004611009635261446 0.025012160499188914 0 -0.00032866084108957569 0.025046914178598428 0 -0.00042354982260293819 0.025138013102832788 0 -0.00045715286356751215 0.025067040184992624 0 -0.00029320355398653651 0.020986777351910357 0 -0.00028492234355622563 0.020789650731796575 0 -0.00047192717007122563 0.020780903722968296 0 -0.00045987366706564227 0.02098809424395752 0 -0.00029320355398653651 0.020986777351910357 0 -0.00047192717007122563 0.020780903722968296 0 -0.00019199103785353855 0.023192422528722161 0 -0.00042440229780865241 0.023634226878872299 0 -0.00060396499722669913 0.018554568536865181 0 -0.00069414774467218567 0.018530752090818864 0 -0.00071355927522208926 0.01854223628490383 0 -0.00062229264194130023 0.019370909616020428 0 -0.00032591580295392549 0.019771026539091945 0 -0.00036444654919244108 0.01992790315199984 0 -0.00045311832936019148 0.019890004210233521 0 -0.00047464307142416038 0.01997053510998708 0 -0.00069414774467218567 0.018530752090818864 0 -0.00071355927522208926 0.01854223628490383 0 -0.00069487814951116995 0.018543618020135523 0 -0.00060369145651158684 0.019087199882607309 0 -0.00062229264194130023 0.019370909616020428 0 -0.00053781163838219348 0.019815098953242644 0 -0.00035951424679737953 0.019925593009577049 0 -0.00045311832936019148 0.019890004210233521 0 -0.00053781163838219348 0.019815098953242644 0 -0.00045311832936019148 0.019890004210233521 0 -0.00055360894724901255 0.019946602482321135 0 -0.00053781163838219348 0.019815098953242644 0 -0.00062280239479971049 0.019854666827718314 0 -0.00055360894724901255 0.019946602482321135 0 -0.00045311832936019148 0.019890004210233521 0 -0.00055360894724901255 0.019946602482321135 0 -0.00047464307142416038 0.01997053510998708 0 -0.00047464307142416038 0.01997053510998708 0 -0.00050945499734329812 0.020064915163322473 0 -0.00041663894169512454 0.020019810232054243 0 -0.00055360894724901255 0.019946602482321135 0 -0.00047464307142416038 0.01997053510998708 0 -0.00050945499734329812 0.020064915163322473 0 -0.00055360894724901255 0.019946602482321135 0 -0.00058926103840440422 0.020063224382233541 0 -0.00050945499734329812 0.020064915163322473 0 -0.00058926103840440422 0.020063224382233541 0 -0.00055157141413928769 0.020146840211630455 0 -0.00050945499734329812 0.020064915163322473 0 -0.00055157141413928769 0.020146840211630455 0 -0.00050945499734329812 0.020064915163322473 0 -0.00050246421264599943 0.020192514440679869 0 -0.00050945499734329812 0.020064915163322473 0 -0.00044460063197234638 0.020107854850676263 0 -0.00041663894169512454 0.020019810232054243 0 -0.00050945499734329812 0.020064915163322473 0 -0.00044460063197234638 0.020107854850676263 0 -0.00050246421264599943 0.020192514440679869 0 -0.00044460063197234638 0.020107854850676263 0 -0.00041663894169512454 0.020019810232054243 0 -0.00037191516763443905 0.02007227578360872 0 -0.00036444654919244108 0.01992790315199984 0 -0.00047464307142416038 0.01997053510998708 0 -0.00041663894169512454 0.020019810232054243 0 -0.00041663894169512454 0.020019810232054243 0 -0.00033845839427568543 0.020007233414193856 0 -0.00037191516763443905 0.02007227578360872 0 -0.00036444654919244108 0.01992790315199984 0 -0.00041663894169512454 0.020019810232054243 0 -0.00033845839427568543 0.020007233414193856 0 -0.00033845839427568543 0.020007233414193856 0 -0.00037191516763443905 0.02007227578360872 0 -0.00030303536747908937 0.020048284329721923 0 -0.00037191516763443905 0.02007227578360872 0 -0.00031619168378894621 0.020112280162305551 0 -0.00030303536747908937 0.020048284329721923 0 -0.00031619168378894621 0.020112280162305551 0 -0.0003982835195924069 0.020155455514030824 0 -0.00033263081108188036 0.020199732406266879 0 -0.00037191516763443905 0.02007227578360872 0 -0.00031619168378894621 0.020112280162305551 0 -0.0003982835195924069 0.020155455514030824 0 -0.00044460063197234638 0.020107854850676263 0 -0.00037191516763443905 0.02007227578360872 0 -0.0003982835195924069 0.020155455514030824 0 -0.0003982835195924069 0.020155455514030824 0 -0.00043726582254965778 0.020248499607394128 0 -0.00050246421264599943 0.020192514440679869 0 -0.0003982835195924069 0.020155455514030824 0 -0.00043726582254965778 0.020248499607394128 0 -0.00033263081108188036 0.020199732406266879 0 -0.00061294901427444697 0.020266906242534861 0 -0.00058926103840440422 0.020063224382233541 0 -0.00055157141413928769 0.020146840211630455 0 -0.00061294901427444697 0.020266906242534861 0 -0.00055157141413928769 0.020146840211630455 0 -0.00050246421264599943 0.020192514440679869 0 -0.00044460063197234638 0.020107854850676263 0 -0.0003982835195924069 0.020155455514030824 0 -0.00050246421264599943 0.020192514440679869 0 -0.00043726582254965778 0.020248499607394128 0 -0.00050246421264599943 0.020192514440679869 0 -0.00054064206319287523 0.020294306596725514 0 -0.00061294901427444697 0.020266906242534861 0 -0.00050246421264599943 0.020192514440679869 0 -0.00054064206319287523 0.020294306596725514 0 -0.00054064206319287523 0.020294306596725514 0 -0.00048148062000654481 0.020339749952838278 0 -0.00062235356590916683 0.020374392764214232 0 -0.00043726582254965778 0.020248499607394128 0 -0.00054064206319287523 0.020294306596725514 0 -0.00048148062000654481 0.020339749952838278 0 -0.00043726582254965778 0.020248499607394128 0 -0.00033263081108188036 0.020199732406266879 0 -0.00035317049928489721 0.0203168065426182 0 -0.00043726582254965778 0.020248499607394128 0 -0.00048148062000654481 0.020339749952838278 0 -0.00035317049928489721 0.0203168065426182 0 -0.00048148062000654481 0.020339749952838278 0 -0.00035317049928489721 0.0203168065426182 0 -0.0004067331416166701 0.020493821445417754 0 -0.0007103766244493519 0.020742843291355593 0 -0.00035078256637934111 0.021704603214694865 0 -0.0011389359933475845 0.021582111720356279 0 -0.0007103766244493519 0.020742843291355593 0 -0.00035078256637934111 0.021704603214694865 0 2.1201198221939015e-05 0.020986730320179069 0 -0.0007103766244493519 0.020742843291355593 0 -0.0016994516779950926 0.021261763174455002 0 -0.0011389359933475845 0.021582111720356279 0 -0.00050738905258183279 0.020477443285735489 0 -0.0011577335030405101 0.021749861308561429 0 -0.0004067331416166701 0.020493821445417754 0 -0.00062235356590916683 0.020374392764214232 0 -0.00058537896402781385 0.020587915334428497 0 -0.00048148062000654481 0.020339749952838278 0 -0.0004067331416166701 0.020493821445417754 0 -0.00062235356590916683 0.020374392764214232 0 -0.0011088569815651101 0.023853422178873079 0 -0.00071480411840905771 0.02350097995479827 0 -0.00099362038503197632 0.023002130144274557 0 -0.00083350960418172425 0.022131998833465016 0 -0.0011577335030405101 0.021749861308561429 0 -0.00034620396184791908 0.02400284543031591 0 -0.0011088569815651101 0.023853422178873079 0 -0.00071480411840905771 0.02350097995479827 0 -0.00071480411840905771 0.02350097995479827 0 -0.00034252634695097561 0.02339808086718816 0 -0.00065134918306393149 0.023101897584651122 0 -0.00034620396184791908 0.02400284543031591 0 -0.00071480411840905771 0.02350097995479827 0 -0.00034252634695097561 0.02339808086718816 0 -0.00034252634695097561 0.02339808086718816 0 -0.00065134918306393149 0.023101897584651122 0 -0.00035293808238724819 0.022835910422871385 0 -0.00071480411840905771 0.02350097995479827 0 -0.00065134918306393149 0.023101897584651122 0 -0.00099362038503197632 0.023002130144274557 0 -0.00065134918306393149 0.023101897584651122 0 -0.00099362038503197632 0.023002130144274557 0 -0.00077870951601846661 0.022643974053977171 0 -0.00065134918306393149 0.023101897584651122 0 -0.00035293808238724819 0.022835910422871385 0 -0.00077870951601846661 0.022643974053977171 0 -0.0011088569815651101 0.023853422178873079 0 -0.00099362038503197632 0.023002130144274557 0 -0.0014110225355669441 0.022788119566005731 0 -0.00099362038503197632 0.023002130144274557 0 -0.0010332964659108539 0.022705558151498266 0 -0.00077870951601846661 0.022643974053977171 0 -0.00099362038503197632 0.023002130144274557 0 -0.0010332964659108539 0.022705558151498266 0 -0.0012482815064248473 0.022706880086702852 0 -0.0010332964659108539 0.022705558151498266 0 -0.0012482815064248473 0.022706880086702852 0 -0.0012106915601767948 0.02254886558379339 0 -0.0012482815064248473 0.022706880086702852 0 -0.0014007323841672928 0.022775636807711035 0 -0.0012106915601767948 0.02254886558379339 0 -0.00099362038503197632 0.023002130144274557 0 -0.0012482815064248473 0.022706880086702852 0 -0.0014110225355669441 0.022788119566005731 0 -0.0013340694767145754 0.021971701626855786 0 -0.0011577335030405101 0.021749861308561429 0 -0.0014007323841672928 0.022775636807711035 0 -0.0012673104113921892 0.0223104872460607 0 -0.001453906768835319 0.02200836412024192 0 -0.0011577335030405101 0.021749861308561429 0 -0.0014751294888234918 0.022078631134280623 0 -0.0014007323841672928 0.022775636807711035 0 -0.0012673104113921892 0.0223104872460607 0 -0.0012106915601767948 0.02254886558379339 0 -0.0012673104113921892 0.0223104872460607 0 -0.0012106915601767948 0.02254886558379339 0 -0.0010691596408161075 0.022468526633021797 0 -0.0010332964659108539 0.022705558151498266 0 -0.0010691596408161075 0.022468526633021797 0 -0.00077870951601846661 0.022643974053977171 0 -0.0010332964659108539 0.022705558151498266 0 -0.0012106915601767948 0.02254886558379339 0 -0.0010691596408161075 0.022468526633021797 0 -0.0010691596408161075 0.022468526633021797 0 -0.0010397980549910425 0.022180181377309476 0 -0.00077870951601846661 0.022643974053977171 0 -0.0012673104113921892 0.0223104872460607 0 -0.0010691596408161075 0.022468526633021797 0 -0.0010397980549910425 0.022180181377309476 0 -0.0012673104113921892 0.0223104872460607 0 -0.0010397980549910425 0.022180181377309476 0 -0.001453906768835319 0.02200836412024192 0 -0.0010397980549910425 0.022180181377309476 0 -0.0014748388936521087 0.022039628011916324 0 -0.001453906768835319 0.02200836412024192 0 -0.0010397980549910425 0.022180181377309476 0 -0.00077870951601846661 0.022643974053977171 0 -0.00039019913179820666 0.022264184303916926 0 -0.00035293808238724819 0.022835910422871385 0 -0.00077870951601846661 0.022643974053977171 0 -0.00039019913179820666 0.022264184303916926 0 -0.0010397980549910425 0.022180181377309476 0 -0.00039019913179820666 0.022264184303916926 0 -0.00061227599053863691 0.02160845255526736 0 3.5389813348560394e-05 0.021814548221511718 0 -0.00039019913179820666 0.022264184303916926 0 -0.00061227599053863691 0.02160845255526736 0 -0.0010397980549910425 0.022180181377309476 0 -0.00061227599053863691 0.02160845255526736 0 -0.0014748388936521087 0.022039628011916324 0 -0.00043502663413390753 0.019651707180158025 0 -0.00038008573261066859 0.020065909831705933 0 -0.00014763334638939919 0.018266835817778319 0 0.00064877137735138617 0.0180402079014624 0 0.00054840244460456771 0.0189813515322424 0 0.00064877137735138617 0.0180402079014624 0 0.0013218553427506946 0.017687731197265088 0 0.0010822494567033943 0.018419318781257167 0 -0.00038008573261066859 0.020065909831705933 0 0.00045999247734630907 0.019673829228140174 0 -0.0014748388936521087 0.022039628011916324 0 -0.00035078256637934111 0.021704603214694865 0 -0.0011389359933475845 0.021582111720356279 0 -0.0016994516779950926 0.021261763174455002 0 -0.0011389359933475845 0.021582111720356279 0 -0.001453906768835319 0.02200836412024192 0 -0.0014748388936521087 0.022039628011916324 0 -0.0011389359933475845 0.021582111720356279 0 -0.001453906768835319 0.02200836412024192 0 0.0013218553427506946 0.017687731197265088 0 0.0017777173761478107 0.017668705480370563 0 0.0010822494567033943 0.018419318781257167 0 0.0013218553427506946 0.017687731197265088 0 0.0017777173761478107 0.017668705480370563 0 0.0016485985804813334 0.017656455346663047 0 0.00045999247734630907 0.019673829228140174 0 0.001305079854553883 0.019618586152146084 0 0.0017777173761478107 0.017668705480370563 0 0.0014247264569269124 0.017239343321054788 0 0.0014875369386938193 0.017548650045679189 0 0.0017777173761478107 0.017668705480370563 0 0.0014247264569269124 0.017239343321054788 0 0.0015568255978264777 0.017047334167969989 0 0.0011498974938938106 0.017130894960326312 0 0.0009737777694367643 0.016845899526074924 0 0.0012073595299867076 0.016971894073903475 0 0.0014247264569269124 0.017239343321054788 0 0.0011498974938938106 0.017130894960326312 0 0.0012073595299867076 0.016971894073903475 0 0.0014247264569269124 0.017239343321054788 0 0.0011498974938938106 0.017130894960326312 0 0.0012594429086177849 0.017363873934028457 0 0.0014247264569269124 0.017239343321054788 0 0.0012594429086177849 0.017363873934028457 0 0.0014875369386938193 0.017548650045679189 0 0.0011498974938938106 0.017130894960326312 0 0.0010876736364821764 0.017327065703192892 0 0.00086082107583089571 0.017035318112060778 0 0.0011498974938938106 0.017130894960326312 0 0.0012594429086177849 0.017363873934028457 0 0.0010876736364821764 0.017327065703192892 0 0.0012594429086177849 0.017363873934028457 0 0.0010876736364821764 0.017327065703192892 0 0.0011987048610441549 0.017528436902131586 0 0.00035268489045666508 0.016700418433941773 0 0.00036485568486120716 0.016685957403258924 0 0.00037213631932657182 0.01667897768952659 0 0.0012978046231497964 0.017689775106313251 0 0.0012991811443625488 0.017931510447747351 0 0.0009460833805094973 0.017578769881885451 0 0.0011987048610441549 0.017528436902131586 0 0.0012978046231497964 0.017689775106313251 0 0.0009460833805094973 0.017578769881885451 0 0.0010876736364821764 0.017327065703192892 0 0.0011987048610441549 0.017528436902131586 0 0.0009460833805094973 0.017578769881885451 0 0.0011987048610441549 0.017528436902131586 0 0.0012978046231497964 0.017689775106313251 0 0.0014875369386938193 0.017548650045679189 0 0.0012594429086177849 0.017363873934028457 0 0.0011987048610441549 0.017528436902131586 0 0.0014875369386938193 0.017548650045679189 0 0.0012978046231497964 0.017689775106313251 0 0.0014875369386938193 0.017548650045679189 0 0.0016485985804813334 0.017656455346663047 0 0.0017777173761478107 0.017668705480370563 0 0.0014875369386938193 0.017548650045679189 0 0.0016485985804813334 0.017656455346663047 0 0.0018148517623897454 0.020793678890244187 0 0.00094163488292196243 0.020546655532049877 0 0.00075419504382257885 0.021235703714436612 0 0.0012978046231497964 0.017689775106313251 0 0.0012991811443625488 0.017931510447747351 0 0.0016485985804813334 0.017656455346663047 0 0.00084111780675532807 0.018122409920301452 0 0.001305079854553883 0.019618586152146084 0 0.00084111780675532807 0.018122409920301452 0 0.00062031655068295365 0.016933379845236692 0 0.00035268489045666508 0.016700418433941773 0 0.00033281081722388352 0.016690072702370207 0 0.00036485568486120716 0.016685957403258924 0 0.00035268489045666508 0.016700418433941773 0 0.00032129186746999457 0.016700537039834453 0 0.00033281081722388352 0.016690072702370207 0 0.00084111780675532807 0.018122409920301452 0 0.00039471722820754509 0.016836081222506193 0 0.00038275680829374101 0.01668983476064612 0 0.00041525715014963972 0.016745663854915768 0 0.00034785646854589431 0.016758059326666363 0 0.00038275680829374101 0.01668983476064612 0 0.00034785646854589431 0.016758059326666363 0 0.00032129186746999457 0.016700537039834453 0 0.00084111780675532807 0.018122409920301452 0 0.00097302190295818405 0.018554850413258647 0 0.0018148517623897454 0.020793678890244187 0 0.0015241758987996888 0.020279138993455008 0 0.00094163488292196243 0.020546655532049877 0 0.0015241758987996888 0.020279138993455008 0 0.00094163488292196243 0.020546655532049877 0 0.0012320972052810748 0.019750847799406977 0 0.00094163488292196243 0.020546655532049877 0 0.00026755086532932542 0.020235767886606543 0 0.0012320972052810748 0.019750847799406977 0 0.00094163488292196243 0.020546655532049877 0 2.1201198221939015e-05 0.020986730320179069 0 0.00026755086532932542 0.020235767886606543 0 0.00094163488292196243 0.020546655532049877 0 0.00075419504382257885 0.021235703714436612 0 2.1201198221939015e-05 0.020986730320179069 0 -0.00035078256637934111 0.021704603214694865 0 0.00075419504382257885 0.021235703714436612 0 2.1201198221939015e-05 0.020986730320179069 0 -0.00035317049928489721 0.0203168065426182 0 -0.0004067331416166701 0.020493821445417754 0 -0.00019038193147602887 0.020395936727806964 0 -0.00050738905258183279 0.020477443285735489 0 -9.5308491887853592e-06 0.020492492078575255 0 -0.0007103766244493519 0.020742843291355593 0 2.1201198221939015e-05 0.020986730320179069 0 0.00026755086532932542 0.020235767886606543 0 -0.00035317049928489721 0.0203168065426182 0 -0.00019038193147602887 0.020395936727806964 0 -0.00024320954300093782 0.02024112622907907 0 -0.00019038193147602887 0.020395936727806964 0 -0.00024320954300093782 0.02024112622907907 0 -0.00012197084511544453 0.020208364360439542 0 -0.00033263081108188036 0.020199732406266879 0 -0.00035317049928489721 0.0203168065426182 0 -0.00024320954300093782 0.02024112622907907 0 -9.5308491887853592e-06 0.020492492078575255 0 0.00062520921292009187 0.018858624959671062 0 -0.00019038193147602887 0.020395936727806964 0 -0.00012197084511544453 0.020208364360439542 0 8.3057298285327415e-05 0.020250349135136413 0 -0.00012197084511544453 0.020208364360439542 0 -1.0718807155184211e-05 0.020148041084406352 0 8.3057298285327415e-05 0.020250349135136413 0 -7.0693400602519089e-05 0.020114714035861691 0 -9.1300644128405948e-06 0.020033949697738317 0 -1.0718807155184211e-05 0.020148041084406352 0 -0.00012197084511544453 0.020208364360439542 0 -7.0693400602519089e-05 0.020114714035861691 0 -1.0718807155184211e-05 0.020148041084406352 0 -0.00012197084511544453 0.020208364360439542 0 -0.00013763925777012239 0.020069723464591772 0 -0.00023727092848052075 0.020131051795760076 0 -0.00012197084511544453 0.020208364360439542 0 -7.0693400602519089e-05 0.020114714035861691 0 -0.00013763925777012239 0.020069723464591772 0 -7.0693400602519089e-05 0.020114714035861691 0 -0.00013763925777012239 0.020069723464591772 0 -9.1300644128405948e-06 0.020033949697738317 0 -0.00033263081108188036 0.020199732406266879 0 -0.00024320954300093782 0.02024112622907907 0 -0.00023727092848052075 0.020131051795760076 0 -0.00024320954300093782 0.02024112622907907 0 -0.00012197084511544453 0.020208364360439542 0 -0.00023727092848052075 0.020131051795760076 0 -0.00013763925777012239 0.020069723464591772 0 -0.00020713099266313019 0.020067250457343439 0 -0.00023727092848052075 0.020131051795760076 0 -0.00020713099266313019 0.020067250457343439 0 -0.00023727092848052075 0.020131051795760076 0 -0.00025165649898801069 0.020068027601601351 0 -0.00031619168378894621 0.020112280162305551 0 -0.00033263081108188036 0.020199732406266879 0 -0.00023727092848052075 0.020131051795760076 0 -0.00031619168378894621 0.020112280162305551 0 -0.00023727092848052075 0.020131051795760076 0 -0.00025165649898801069 0.020068027601601351 0 -0.00025165649898801069 0.020068027601601351 0 -0.00030303536747908937 0.020048284329721923 0 -0.00020373979727089403 0.020007730845602496 0 -0.00062229264194130023 0.019370909616020428 0 -0.00038279095067602536 0.019733048931716769 0 -0.00093379761488573314 0.019200545025193867 0 -0.00057915613753950945 0.019417945107461015 0 -0.00048728522680862712 0.019364953974386555 0 -0.00036444654919244108 0.01992790315199984 0 -0.00033845839427568543 0.020007233414193856 0 -0.00020373979727089403 0.020007730845602496 0 -0.00062229264194130023 0.019370909616020428 0 -0.00060829422314495792 0.018999629062821211 0 -0.00033845839427568543 0.020007233414193856 0 -0.00030303536747908937 0.020048284329721923 0 -0.00020373979727089403 0.020007730845602496 0 -0.00031619168378894621 0.020112280162305551 0 -0.00025165649898801069 0.020068027601601351 0 -0.00030303536747908937 0.020048284329721923 0 -0.00020713099266313019 0.020067250457343439 0 -0.00025165649898801069 0.020068027601601351 0 -0.00020373979727089403 0.020007730845602496 0 -0.00013763925777012239 0.020069723464591772 0 -0.00020713099266313019 0.020067250457343439 0 -0.00020373979727089403 0.020007730845602496 0 -0.00063763815444698769 0.018758617131936193 0 -0.00034545522368127613 0.018731633107804478 0 -0.00016079773861108363 0.019198998106292827 0 -0.00048728522680862712 0.019364953974386555 0 5.3634410060835563e-05 0.019556388244892472 0 -0.00017119123553222958 0.019686756403309826 0 -0.00013763925777012239 0.020069723464591772 0 -0.00020373979727089403 0.020007730845602496 0 -9.1300644128405948e-06 0.020033949697738317 0 -0.00060829422314495792 0.018999629062821211 0 -7.5296648438450252e-06 0.019392677773480065 0 -0.00038279095067602536 0.019733048931716769 0 -7.209117389914229e-05 0.019861358284458803 0 -0.00057915613753950945 0.019417945107461015 0 -0.00048728522680862712 0.019364953974386555 0 -0.00017119123553222958 0.019686756403309826 0 -0.00063763815444698769 0.018758617131936193 0 -0.00053955045998487123 0.018558725690324844 0 -0.00034545522368127613 0.018731633107804478 0 -0.00045618537187397292 0.01837799914023551 0 -0.00053955045998487123 0.018558725690324844 0 -0.0002683491325329644 0.018383366277376578 0 -0.00063763815444698769 0.018758617131936193 0 -0.00053955045998487123 0.018558725690324844 0 -0.00066570041220155606 0.018579046960632818 0 -0.00071355927522208926 0.01854223628490383 0 -0.00063763815444698769 0.018758617131936193 0 -0.00066570041220155606 0.018579046960632818 0 -0.00064875191741010896 0.018455847500593932 0 -0.00053955045998487123 0.018558725690324844 0 -0.00066570041220155606 0.018579046960632818 0 -0.00064875191741010896 0.018455847500593932 0 -0.00069487814951116995 0.018543618020135523 0 -0.00066570041220155606 0.018579046960632818 0 -0.00071355927522208926 0.01854223628490383 0 -0.00069487814951116995 0.018543618020135523 0 -0.00066570041220155606 0.018579046960632818 0 0.00045018454138483037 0.017832771370193273 0 0.00022142573820699887 0.01839547222685738 0 0.00062912699378630057 0.018578344186066405 0 0.00022142573820699887 0.01839547222685738 0 4.6290776121925543e-05 0.018763146777032454 0 0.00062912699378630057 0.018578344186066405 0 0.00022142573820699887 0.01839547222685738 0 -0.0002683491325329644 0.018383366277376578 0 4.6290776121925543e-05 0.018763146777032454 0 -0.00053955045998487123 0.018558725690324844 0 -0.0002683491325329644 0.018383366277376578 0 -0.00034545522368127613 0.018731633107804478 0 -0.0002683491325329644 0.018383366277376578 0 -0.00034545522368127613 0.018731633107804478 0 4.6290776121925543e-05 0.018763146777032454 0 -0.00034545522368127613 0.018731633107804478 0 -0.00016079773861108363 0.019198998106292827 0 4.6290776121925543e-05 0.018763146777032454 0 -0.00016079773861108363 0.019198998106292827 0 4.6290776121925543e-05 0.018763146777032454 0 0.00040902926555983437 0.019086919552734029 0 4.6290776121925543e-05 0.018763146777032454 0 0.00040902926555983437 0.019086919552734029 0 0.00062912699378630057 0.018578344186066405 0 -7.5296648438450252e-06 0.019392677773480065 0 0.0006858485799236374 0.019688554112597807 0 -0.00016079773861108363 0.019198998106292827 0 0.00040902926555983437 0.019086919552734029 0 0.00072947021464679531 0.019709328616894221 0 5.3634410060835563e-05 0.019556388244892472 0 0.00050585730008776482 0.019942489001969217 0 0.00072947021464679531 0.019709328616894221 0 5.3634410060835563e-05 0.019556388244892472 0 0.00050585730008776482 0.019942489001969217 0 0.00033532725989620418 0.020022772707997957 0 5.3634410060835563e-05 0.019556388244892472 0 -0.00017119123553222958 0.019686756403309826 0 0.00033532725989620418 0.020022772707997957 0 -7.209117389914229e-05 0.019861358284458803 0 0.00030667734427322277 0.020029901444177892 0 -9.1300644128405948e-06 0.020033949697738317 0 -1.0718807155184211e-05 0.020148041084406352 0 0.00033532725989620418 0.020022772707997957 0 -1.0718807155184211e-05 0.020148041084406352 0 8.3057298285327415e-05 0.020250349135136413 0 0.00033532725989620418 0.020022772707997957 0 0.00097302190295818405 0.018554850413258647 0 0.00062520921292009187 0.018858624959671062 0 0.00050585730008776482 0.019942489001969217 0 8.3057298285327415e-05 0.020250349135136413 0 0.00033532725989620418 0.020022772707997957 0 0.00041525715014963972 0.016745663854915768 0 0.00044954493059836732 0.016811947654660327 0 0.00034785646854589431 0.016758059326666363 0 0.00037911639520140468 0.018370913204979196 0 0.00062520921292009187 0.018858624959671062 0 0.00035541819572376248 0.016837159639585143 0 0.00044954493059836732 0.016811947654660327 0 0.00034785646854589431 0.016758059326666363 0 0.00035541819572376248 0.016837159639585143 0 0.00027685743763406986 0.016767073280015261 0 0.00022381023545655523 0.016793301681090687 0 0.00035541819572376248 0.016837159639585143 0 0.00034785646854589431 0.016758059326666363 0 0.00027685743763406986 0.016767073280015261 0 0.00034785646854589431 0.016758059326666363 0 0.00027685743763406986 0.016767073280015261 0 0.00026275078748292215 0.016717085127088777 0 0.00027685743763406986 0.016767073280015261 0 0.00019144414182584312 0.01674058187702996 0 0.00026275078748292215 0.016717085127088777 0 0.00027685743763406986 0.016767073280015261 0 0.00019144414182584312 0.01674058187702996 0 0.00022381023545655523 0.016793301681090687 0 0.00019144414182584312 0.01674058187702996 0 0.00022381023545655523 0.016793301681090687 0 0.00014668517040670784 0.016785049429413099 0 0.00025352498049184324 0.016869477308781758 0 0.00010369763818010819 0.016877382057841166 0 0.00014668517040670784 0.016785049429413099 0 0.00022381023545655523 0.016793301681090687 0 0.00025352498049184324 0.016869477308781758 0 0.00014668517040670784 0.016785049429413099 0 0.00025352498049184324 0.016869477308781758 0 0.00011582387137039631 0.016933353234313227 0 0.00010369763818010819 0.016877382057841166 0 0.00035541819572376248 0.016837159639585143 0 0.00022381023545655523 0.016793301681090687 0 0.00025352498049184324 0.016869477308781758 0 0.00050585730008776482 0.019942489001969217 0 0.0012458897664238526 0.01952419770239883 0 0.00072947021464679531 0.019709328616894221 0 0.00037911639520140468 0.018370913204979196 0 0.0007960013735059001 0.018255483505348346 0 0.0012458897664238526 0.01952419770239883 0 0.00072947021464679531 0.019709328616894221 0 0.00096213394588362186 0.019085065930273211 0 0.00040902926555983437 0.019086919552734029 0 0.00072947021464679531 0.019709328616894221 0 0.00096213394588362186 0.019085065930273211 0 0.00040902926555983437 0.019086919552734029 0 0.00096213394588362186 0.019085065930273211 0 0.00062912699378630057 0.018578344186066405 0 0.0014996582110924394 0.019006202502350758 0 0.0018897890588499033 0.018317371313620469 0 0.0020377281743698141 0.019123302081854154 0 0.0007960013735059001 0.018255483505348346 0 0.00066288357796796447 0.01729598129969824 0 0.0012458897664238526 0.01952419770239883 0 0.0014996582110924394 0.019006202502350758 0 0.0020377281743698141 0.019123302081854154 0 0.0012458897664238526 0.01952419770239883 0 0.00096213394588362186 0.019085065930273211 0 0.0014996582110924394 0.019006202502350758 0 0.00096213394588362186 0.019085065930273211 0 0.0014996582110924394 0.019006202502350758 0 0.0012387169986026864 0.018593385977454805 0 0.0014996582110924394 0.019006202502350758 0 0.0012387169986026864 0.018593385977454805 0 0.0018897890588499033 0.018317371313620469 0 0.0011480513776438322 0.017962685608105149 0 0.0012387169986026864 0.018593385977454805 0 0.0018897890588499033 0.018317371313620469 0 0.00096213394588362186 0.019085065930273211 0 0.0012387169986026864 0.018593385977454805 0 0.00062912699378630057 0.018578344186066405 0 0.0011480513776438322 0.017962685608105149 0 0.0012387169986026864 0.018593385977454805 0 0.00062912699378630057 0.018578344186066405 0 0.00091694432451962043 0.012919562061031554 0 -7.5335372412600984e-05 0.014837211756115716 0 0.0021556797359507927 0.013741321225316371 0 0.0023428602364592532 0.014464500084931357 0 0.0014488244920593122 0.014772164482425075 0 0.0015045240438636594 0.016088939659689976 0 0.0017523927791124536 0.011953127885694423 0 0.00026591980603988147 0.016428979382094328 0 0.0017523927791124536 0.011953127885694423 0 0.0011454982797544653 0.012785259150902372 0 0.0013459398385608275 0.017120051827685643 0 0.00066288357796796447 0.01729598129969824 0 0.0014488244920593122 0.014772164482425075 0 0.00062162607074779479 0.014743313481140354 0 0.0015045240438636594 0.016088939659689976 0 0.0013272512398975584 0.01379758677293543 0 0.0014488244920593122 0.014772164482425075 0 0.00062162607074779479 0.014743313481140354 0 0.00062162607074779479 0.014743313481140354 0 0.0015045240438636594 0.016088939659689976 0 0.00092609932797773113 0.016373088555031695 0 0.00066288357796796447 0.01729598129969824 0 0.00022883383870839419 0.016871331183820754 0 8.1942585756502557e-05 0.01683792338924963 0 0.00010106669945028522 0.01678142963639416 0 6.5582301789522703e-05 0.016782826673015984 0 0.00037116324772746922 0.016713396997345378 0 0.00021734804449717089 0.016788635905146867 0 0.00024813378572038599 0.016949069060518511 0 0.00026591980603988147 0.016428979382094328 0 0.00022883383870839419 0.016871331183820754 0 0.00026591980603988147 0.016428979382094328 0 0.00066288357796796447 0.01729598129969824 0 8.1942585756502557e-05 0.01683792338924963 0 -2.5608917523021952e-06 0.016803925415207217 0 6.5582301789522703e-05 0.016782826673015984 0 0.00026591980603988147 0.016428979382094328 0 0.0011454982797544653 0.012785259150902372 0 8.1942585756502557e-05 0.01683792338924963 0 -2.5608917523021952e-06 0.016803925415207217 0 -0.00012322395106448533 0.01693380487680653 0 -2.5608917523021952e-06 0.016803925415207217 0 -2.2389775197796771e-05 0.016757901147139556 0 -8.785358832703283e-05 0.016795511389397173 0 -2.5608917523021952e-06 0.016803925415207217 0 -2.2389775197796771e-05 0.016757901147139556 0 2.326457781840188e-05 0.01676127007305888 0 0.00011350342528142871 0.016778724405498019 0 -4.169722388581156e-05 0.016743247616477507 0 -2.2389775197796771e-05 0.016757901147139556 0 -8.785358832703283e-05 0.016795511389397173 0 -6.275015863569721e-05 0.016737144630560606 0 -4.323235326921291e-05 0.01670259873484543 0 3.9213434209534985e-05 0.016698456756815357 0 -0.00012357344512581655 0.016684053796229951 0 -3.1683653085589706e-05 0.016726924619183126 0 -6.275015863569721e-05 0.016737144630560606 0 -6.5399361829564657e-05 0.016712799249864296 0 -3.1683653085589706e-05 0.016726924619183126 0 -2.2389775197796771e-05 0.016757901147139556 0 -6.275015863569721e-05 0.016737144630560606 0 -3.1683653085589706e-05 0.016726924619183126 0 -1.1102664996589229e-05 0.016743513750353201 0 -2.2389775197796771e-05 0.016757901147139556 0 -1.1102664996589229e-05 0.016743513750353201 0 -2.2389775197796771e-05 0.016757901147139556 0 2.326457781840188e-05 0.01676127007305888 0 -1.1102664996589229e-05 0.016743513750353201 0 8.936931055909464e-06 0.01674417975411847 0 -5.7233457716454832e-06 0.016733736841077446 0 -3.1683653085589706e-05 0.016726924619183126 0 -1.1102664996589229e-05 0.016743513750353201 0 -5.7233457716454832e-06 0.016733736841077446 0 -2.5608917523021952e-06 0.016803925415207217 0 2.326457781840188e-05 0.01676127007305888 0 6.5582301789522703e-05 0.016782826673015984 0 6.0692483252517376e-05 0.016767252432772869 0 2.326457781840188e-05 0.01676127007305888 0 6.5582301789522703e-05 0.016782826673015984 0 6.0692483252517376e-05 0.016767252432772869 0 4.67951817374821e-05 0.016755576081334704 0 2.326457781840188e-05 0.01676127007305888 0 6.0692483252517376e-05 0.016767252432772869 0 4.67951817374821e-05 0.016755576081334704 0 6.6019067447186622e-05 0.016758531333439651 0 4.67951817374821e-05 0.016755576081334704 0 2.326457781840188e-05 0.01676127007305888 0 2.7906701805052281e-05 0.016745882864410783 0 -1.1102664996589229e-05 0.016743513750353201 0 2.326457781840188e-05 0.01676127007305888 0 8.936931055909464e-06 0.01674417975411847 0 2.326457781840188e-05 0.01676127007305888 0 8.936931055909464e-06 0.01674417975411847 0 2.7906701805052281e-05 0.016745882864410783 0 8.936931055909464e-06 0.01674417975411847 0 1.0330989999429306e-05 0.016735948403499335 0 2.7906701805052281e-05 0.016745882864410783 0 1.0330989999429306e-05 0.016735948403499335 0 2.7906701805052281e-05 0.016745882864410783 0 2.3553025438847632e-05 0.016733885445942311 0 2.7906701805052281e-05 0.016745882864410783 0 2.3553025438847632e-05 0.016733885445942311 0 4.8385754607595972e-05 0.016742165522435105 0 1.0330989999429306e-05 0.016735948403499335 0 2.3553025438847632e-05 0.016733885445942311 0 -3.8493562117921092e-06 0.016722002589737495 0 4.67951817374821e-05 0.016755576081334704 0 4.8385754607595972e-05 0.016742165522435105 0 6.6019067447186622e-05 0.016758531333439651 0 4.67951817374821e-05 0.016755576081334704 0 2.7906701805052281e-05 0.016745882864410783 0 4.8385754607595972e-05 0.016742165522435105 0 4.8385754607595972e-05 0.016742165522435105 0 2.887976423070576e-05 0.016720924427463726 0 6.8053625752034858e-05 0.016731374599925443 0 4.8385754607595972e-05 0.016742165522435105 0 7.4340097552797718e-05 0.016750159686293762 0 6.8053625752034858e-05 0.016731374599925443 0 2.3553025438847632e-05 0.016733885445942311 0 4.8385754607595972e-05 0.016742165522435105 0 2.887976423070576e-05 0.016720924427463726 0 2.3553025438847632e-05 0.016733885445942311 0 2.887976423070576e-05 0.016720924427463726 0 -3.8493562117921092e-06 0.016722002589737495 0 2.887976423070576e-05 0.016720924427463726 0 -4.323235326921291e-05 0.01670259873484543 0 -3.8493562117921092e-06 0.016722002589737495 0 -3.1683653085589706e-05 0.016726924619183126 0 -4.323235326921291e-05 0.01670259873484543 0 -3.8493562117921092e-06 0.016722002589737495 0 -3.1683653085589706e-05 0.016726924619183126 0 -4.323235326921291e-05 0.01670259873484543 0 -6.5399361829564657e-05 0.016712799249864296 0 -3.1683653085589706e-05 0.016726924619183126 0 -5.7233457716454832e-06 0.016733736841077446 0 -3.8493562117921092e-06 0.016722002589737495 0 1.0330989999429306e-05 0.016735948403499335 0 -5.7233457716454832e-06 0.016733736841077446 0 -3.8493562117921092e-06 0.016722002589737495 0 8.936931055909464e-06 0.01674417975411847 0 1.0330989999429306e-05 0.016735948403499335 0 -5.7233457716454832e-06 0.016733736841077446 0 0.00010106669945028522 0.01678142963639416 0 9.2314756949265283e-05 0.016773237653430664 0 0.00010544304059204188 0.016771760241230473 0 9.2314756949265283e-05 0.016773237653430664 0 7.7675648606686336e-05 0.016770422030576417 0 8.5697198171410938e-05 0.016763641943707289 0 9.2314756949265283e-05 0.016773237653430664 0 8.8370942345435038e-05 0.01677759378112674 0 7.7675648606686336e-05 0.016770422030576417 0 0.00010106669945028522 0.01678142963639416 0 9.2314756949265283e-05 0.016773237653430664 0 8.8370942345435038e-05 0.01677759378112674 0 0.00010106669945028522 0.01678142963639416 0 8.8370942345435038e-05 0.01677759378112674 0 6.5582301789522703e-05 0.016782826673015984 0 6.0692483252517376e-05 0.016767252432772869 0 6.5582301789522703e-05 0.016782826673015984 0 7.7675648606686336e-05 0.016770422030576417 0 8.8370942345435038e-05 0.01677759378112674 0 6.5582301789522703e-05 0.016782826673015984 0 7.7675648606686336e-05 0.016770422030576417 0 7.7675648606686336e-05 0.016770422030576417 0 6.6019067447186622e-05 0.016758531333439651 0 8.5697198171410938e-05 0.016763641943707289 0 6.0692483252517376e-05 0.016767252432772869 0 7.7675648606686336e-05 0.016770422030576417 0 6.6019067447186622e-05 0.016758531333439651 0 4.8385754607595972e-05 0.016742165522435105 0 6.6019067447186622e-05 0.016758531333439651 0 7.4340097552797718e-05 0.016750159686293762 0 6.6019067447186622e-05 0.016758531333439651 0 7.4340097552797718e-05 0.016750159686293762 0 8.5697198171410938e-05 0.016763641943707289 0 7.4340097552797718e-05 0.016750159686293762 0 9.7841256459724036e-05 0.016752921768311672 0 8.5697198171410938e-05 0.016763641943707289 0 7.4340097552797718e-05 0.016750159686293762 0 9.7841256459724036e-05 0.016752921768311672 0 6.8053625752034858e-05 0.016731374599925443 0 9.7841256459724036e-05 0.016752921768311672 0 8.5697198171410938e-05 0.016763641943707289 0 0.00010544304059204188 0.016771760241230473 0 9.2314756949265283e-05 0.016773237653430664 0 8.5697198171410938e-05 0.016763641943707289 0 0.00010544304059204188 0.016771760241230473 0 0.00010106669945028522 0.01678142963639416 0 0.00010544304059204188 0.016771760241230473 0 0.00014668517040670784 0.016785049429413099 0 9.7841256459724036e-05 0.016752921768311672 0 0.00010544304059204188 0.016771760241230473 0 0.00014668517040670784 0.016785049429413099 0 0.00022883383870839419 0.016871331183820754 0 0.00015720139455632084 0.016801998031793521 0 0.00011461123862478832 0.016730887388760191 0 3.9213434209534985e-05 0.016698456756815357 0 0.00015430468341376687 0.016689730875085174 0 0.00011350342528142871 0.016778724405498019 0 0.00020054475250287572 0.016750653803442355 0 9.7841256459724036e-05 0.016752921768311672 0 0.00014668517040670784 0.016785049429413099 0 0.00011461123862478832 0.016730887388760191 0 0.00019144414182584312 0.01674058187702996 0 0.00014668517040670784 0.016785049429413099 0 0.00011461123862478832 0.016730887388760191 0 0.00011461123862478832 0.016730887388760191 0 6.8053625752034858e-05 0.016731374599925443 0 3.9213434209534985e-05 0.016698456756815357 0 9.7841256459724036e-05 0.016752921768311672 0 0.00011461123862478832 0.016730887388760191 0 6.8053625752034858e-05 0.016731374599925443 0 0.00019144414182584312 0.01674058187702996 0 0.00011461123862478832 0.016730887388760191 0 0.00015430468341376687 0.016689730875085174 0 0.00019172823158176522 0.016849356921031039 0 0.00017113840106514438 0.016823160670258568 0 0.00025062671253407801 0.01680973664771097 0 0.00019172823158176522 0.016849356921031039 0 0.00017113840106514438 0.016823160670258568 0 0.00013527271877672068 0.01688926049342903 0 2.887976423070576e-05 0.016720924427463726 0 -4.323235326921291e-05 0.01670259873484543 0 3.9213434209534985e-05 0.016698456756815357 0 2.887976423070576e-05 0.016720924427463726 0 6.8053625752034858e-05 0.016731374599925443 0 3.9213434209534985e-05 0.016698456756815357 0 1.3001864868588558e-05 0.016563042115148793 0 3.0710480353361406e-05 0.016464195515046912 0 -0.00014637889792761352 0.016293138932693796 0 -0.00014612306201833503 0.016162405107057614 0 -0.00019664842438473469 0.016194140699584653 0 0.00017113840106514438 0.016823160670258568 0 0.00020628495759748356 0.016753535890602644 0 0.00025062671253407801 0.01680973664771097 0 -0.00014612306201833503 0.016162405107057614 0 -0.00024910192234600545 0.016105936079900993 0 -0.00019664842438473469 0.016194140699584653 0 -0.00014612306201833503 0.016162405107057614 0 -0.00017968640999714409 0.016149942889769009 0 -0.00024910192234600545 0.016105936079900993 0 0.00020628495759748356 0.016753535890602644 0 0.00025062671253407801 0.01680973664771097 0 0.0002713561517500903 0.016734392635550294 0 0.00015430468341376687 0.016689730875085174 0 0.00026275078748292215 0.016717085127088777 0 0.00026863506487489488 0.016669778247191947 0 0.00020054475250287572 0.016750653803442355 0 0.00029214409074336496 0.016717720842592782 0 0.00019144414182584312 0.01674058187702996 0 0.00015430468341376687 0.016689730875085174 0 0.00026275078748292215 0.016717085127088777 0 0.00034785646854589431 0.016758059326666363 0 0.00026275078748292215 0.016717085127088777 0 0.00032129186746999457 0.016700537039834453 0 0.00026275078748292215 0.016717085127088777 0 0.00032129186746999457 0.016700537039834453 0 0.00026863506487489488 0.016669778247191947 0 0.00033281081722388352 0.016690072702370207 0 0.00026863506487489488 0.016669778247191947 0 0.00036485568486120716 0.016685957403258924 0 0.00032310050623112662 0.016762278133116502 0 0.00036485568486120716 0.016685957403258924 0 0.0003409042478009808 0.016708693083763052 0 0.00029214409074336496 0.016717720842592782 0 0.00035308306972181059 0.016689839328757911 0 0.00032129186746999457 0.016700537039834453 0 0.00033281081722388352 0.016690072702370207 0 0.00026863506487489488 0.016669778247191947 0 0.00025062671253407801 0.01680973664771097 0 0.0002713561517500903 0.016734392635550294 0 0.00032310050623112662 0.016762278133116502 0 0.0002713561517500903 0.016734392635550294 0 0.00032310050623112662 0.016762278133116502 0 0.0003409042478009808 0.016708693083763052 0 0.00031254229757235084 0.01669514514057004 0 0.00035524798941479515 0.016643000325201541 0 0.00021722621690704465 0.016689789674188032 0 0.0002713561517500903 0.016734392635550294 0 0.00031254229757235084 0.01669514514057004 0 0.00021722621690704465 0.016689789674188032 0 0.0002713561517500903 0.016734392635550294 0 0.00031254229757235084 0.01669514514057004 0 0.0003409042478009808 0.016708693083763052 0 0.00031254229757235084 0.01669514514057004 0 0.0003409042478009808 0.016708693083763052 0 0.00035291918347878429 0.01668166676940239 0 0.00031254229757235084 0.01669514514057004 0 0.00035291918347878429 0.01668166676940239 0 0.00035524798941479515 0.016643000325201541 0 0.00036485568486120716 0.016685957403258924 0 0.00036028147483846467 0.016686944648743329 0 0.00037213631932657182 0.01667897768952659 0 0.00036485568486120716 0.016685957403258924 0 0.00036028147483846467 0.016686944648743329 0 0.0003409042478009808 0.016708693083763052 0 0.00036028147483846467 0.016686944648743329 0 0.0003409042478009808 0.016708693083763052 0 0.00035291918347878429 0.01668166676940239 0 0.00035291918347878429 0.01668166676940239 0 0.00037213631932657182 0.01667897768952659 0 0.00035524798941479515 0.016643000325201541 0 0.00036028147483846467 0.016686944648743329 0 0.00035291918347878429 0.01668166676940239 0 0.00037213631932657182 0.01667897768952659 0 0.0009460833805094973 0.017578769881885451 0 0.00086082107583089571 0.017035318112060778 0 0.00045479903462041529 0.016571354000768548 0 0.00037213631932657182 0.01667897768952659 0 0.00035524798941479515 0.016643000325201541 0 0.00045479903462041529 0.016571354000768548 0 0.00062031655068295365 0.016933379845236692 0 0.00047945625166030881 0.016678790100482618 0 0.0010876736364821764 0.017327065703192892 0 0.0009460833805094973 0.017578769881885451 0 0.00086082107583089571 0.017035318112060778 0 0.00086082107583089571 0.017035318112060778 0 0.00045479903462041529 0.016571354000768548 0 0.00078135725601883687 0.016746676226679493 0 0.0011498974938938106 0.017130894960326312 0 0.00086082107583089571 0.017035318112060778 0 0.0009737777694367643 0.016845899526074924 0 0.00086082107583089571 0.017035318112060778 0 0.0009737777694367643 0.016845899526074924 0 0.00078135725601883687 0.016746676226679493 0 0.00035524798941479515 0.016643000325201541 0 0.00030784613733426768 0.016570116452591727 0 0.00045479903462041529 0.016571354000768548 0 0.00030784613733426768 0.016570116452591727 0 0.00021722621690704465 0.016689789674188032 0 0.00021118300551580571 0.016360616240728279 0 0.00035524798941479515 0.016643000325201541 0 0.00030784613733426768 0.016570116452591727 0 0.00021722621690704465 0.016689789674188032 0 7.1866886302196381e-05 0.016440759756915807 0 0.00019934212571520282 0.016335898969426131 0 -0.0001092630854261139 0.016222384867648026 0 -0.0001024905327324568 0.016223203030714572 0 0.00021118300551580571 0.016360616240728279 0 -0.00017968640999714409 0.016149942889769009 0 -0.0001092630854261139 0.016222384867648026 0 -0.0001024905327324568 0.016223203030714572 0 -0.00017968640999714409 0.016149942889769009 0 -0.0001024905327324568 0.016223203030714572 0 -0.00020549634893944678 0.01615632444534127 0 -0.00014612306201833503 0.016162405107057614 0 -0.00017968640999714409 0.016149942889769009 0 -0.0001092630854261139 0.016222384867648026 0 0.00020628495759748356 0.016753535890602644 0 0.0002713561517500903 0.016734392635550294 0 0.00021722621690704465 0.016689789674188032 0 3.0710480353361406e-05 0.016464195515046912 0 7.1866886302196381e-05 0.016440759756915807 0 -3.5557628300011158e-05 0.015537773056806403 0 0.00028924964949273026 0.015176694302253796 0 -0.00020798876565381218 0.016012934153277335 0 3.02533164040015e-05 0.016137983610401644 0 0.00030540123978431107 0.015888242587358943 0 -0.00020798876565381218 0.016012934153277335 0 0.00030540123978431107 0.015888242587358943 0 0.00030160106960518048 0.0151651184360336 0 8.6990507902140273e-05 0.015105719742805885 0 9.9949016712849584e-05 0.014866722887537076 0 -0.00020785103314236323 0.014836426154779954 0 -0.00020798876565381218 0.016012934153277335 0 -0.0001024905327324568 0.016223203030714572 0 -0.00020549634893944678 0.01615632444534127 0 -3.5557628300011158e-05 0.015537773056806403 0 -0.00018519334426172872 0.015727074405699062 0 8.6990507902140273e-05 0.015105719742805885 0 -0.00031958418810251884 0.01508806545914934 0 -0.00015241502235208322 0.015306010844847664 0 -0.00020798876565381218 0.016012934153277335 0 3.02533164040015e-05 0.016137983610401644 0 -0.0001024905327324568 0.016223203030714572 0 3.02533164040015e-05 0.016137983610401644 0 -0.0001024905327324568 0.016223203030714572 0 0.00021118300551580571 0.016360616240728279 0 0.00021118300551580571 0.016360616240728279 0 0.00061039854764456832 0.016151981161625577 0 0.00030540123978431107 0.015888242587358943 0 3.02533164040015e-05 0.016137983610401644 0 0.00021118300551580571 0.016360616240728279 0 0.00030540123978431107 0.015888242587358943 0 0.00030784613733426768 0.016570116452591727 0 0.00021118300551580571 0.016360616240728279 0 0.00045479903462041529 0.016571354000768548 0 0.00021118300551580571 0.016360616240728279 0 0.00045479903462041529 0.016571354000768548 0 0.00061039854764456832 0.016151981161625577 0 0.0009737777694367643 0.016845899526074924 0 0.00081984732344981843 0.016533605146754102 0 0.0011109625326816048 0.016667033829157327 0 0.0009737777694367643 0.016845899526074924 0 0.00078135725601883687 0.016746676226679493 0 0.00081984732344981843 0.016533605146754102 0 0.00045479903462041529 0.016571354000768548 0 0.00078135725601883687 0.016746676226679493 0 0.00081984732344981843 0.016533605146754102 0 0.00045479903462041529 0.016571354000768548 0 0.00081984732344981843 0.016533605146754102 0 0.00061039854764456832 0.016151981161625577 0 0.00081984732344981843 0.016533605146754102 0 0.0010224541620263811 0.016283218711884987 0 0.0011109625326816048 0.016667033829157327 0 0.00081984732344981843 0.016533605146754102 0 0.00061039854764456832 0.016151981161625577 0 0.0010224541620263811 0.016283218711884987 0 0.00061039854764456832 0.016151981161625577 0 0.00087617425590993416 0.015916093656353367 0 0.0010224541620263811 0.016283218711884987 0 0.00061039854764456832 0.016151981161625577 0 0.00071679144662508678 0.015683476514330896 0 0.00087617425590993416 0.015916093656353367 0 0.00087617425590993416 0.015916093656353367 0 0.0010602385356909343 0.015926421128529392 0 0.0010224541620263811 0.016283218711884987 0 0.00071679144662508678 0.015683476514330896 0 0.00087617425590993416 0.015916093656353367 0 0.00093541312660792278 0.015698705181412521 0 0.00087617425590993416 0.015916093656353367 0 0.00093541312660792278 0.015698705181412521 0 0.0010602385356909343 0.015926421128529392 0 0.00071679144662508678 0.015683476514330896 0 0.00030540123978431107 0.015888242587358943 0 0.00030160106960518048 0.0151651184360336 0 0.00061039854764456832 0.016151981161625577 0 0.00071679144662508678 0.015683476514330896 0 0.00030540123978431107 0.015888242587358943 0 0.00071679144662508678 0.015683476514330896 0 0.00030160106960518048 0.0151651184360336 0 0.00061841418832588751 0.01464600420683782 0 0.00072110320818132869 0.015605797066881602 0 0.00055281544526242829 0.014965135810389791 0 0.00030160106960518048 0.0151651184360336 0 0.00061841418832588751 0.01464600420683782 0 0.00028864836987056686 0.014800961155604907 0 0.00085427727327135007 0.015476878932951349 0 0.00086545560231204974 0.015157619621046704 0 0.0012015631518863309 0.015578887188425187 0 0.00071679144662508678 0.015683476514330896 0 0.00085427727327135007 0.015476878932951349 0 0.00051499005316631998 0.01529387371378493 0 0.00093541312660792278 0.015698705181412521 0 0.00085427727327135007 0.015476878932951349 0 0.0012015631518863309 0.015578887188425187 0 0.00071679144662508678 0.015683476514330896 0 0.00093541312660792278 0.015698705181412521 0 0.00085427727327135007 0.015476878932951349 0 0.00085427727327135007 0.015476878932951349 0 0.00086545560231204974 0.015157619621046704 0 0.00051499005316631998 0.01529387371378493 0 0.00096536629993959448 0.015498170091453023 0 0.0012692276382061929 0.015887520791520636 0 0.0010898317956690529 0.015893391398653381 0 0.0011036438190279131 0.015688887888634314 0 0.0012495148249028888 0.01589800908422059 0 0.00051499005316631998 0.01529387371378493 0 0.00029773762673753108 0.014830552804196696 0 0.00056892255570920383 0.015008807438058982 0 0.00086545560231204974 0.015157619621046704 0 0.00051499005316631998 0.01529387371378493 0 0.00056892255570920383 0.015008807438058982 0 0.00055281544526242829 0.014965135810389791 0 0.00042834587178412433 0.01445695661155736 0 0.00061841418832588751 0.01464600420683782 0 0.00023214975347050074 0.014488474992213082 0 0.00052857875982698663 0.014008889695237383 0 0.00061841418832588751 0.01464600420683782 0 0.00023214975347050074 0.014488474992213082 0 0.00028864836987056686 0.014800961155604907 0 0.00023214975347050074 0.014488474992213082 0 0.00028864836987056686 0.014800961155604907 0 9.9949016712849584e-05 0.014866722887537076 0 8.6990507902140273e-05 0.015105719742805885 0 0.00030160106960518048 0.0151651184360336 0 9.9949016712849584e-05 0.014866722887537076 0 0.00030160106960518048 0.0151651184360336 0 0.00028864836987056686 0.014800961155604907 0 9.9949016712849584e-05 0.014866722887537076 0 9.9949016712849584e-05 0.014866722887537076 0 -8.0026202389316687e-05 0.014561674293773096 0 -0.00020785103314236323 0.014836426154779954 0 0.00023214975347050074 0.014488474992213082 0 -8.0026202389316687e-05 0.014561674293773096 0 6.2764564822507664e-05 0.014281087536022535 0 0.00023214975347050074 0.014488474992213082 0 9.9949016712849584e-05 0.014866722887537076 0 -8.0026202389316687e-05 0.014561674293773096 0 0.00023214975347050074 0.014488474992213082 0 6.2764564822507664e-05 0.014281087536022535 0 0.00022781538390113107 0.014107540534213477 0 -8.0026202389316687e-05 0.014561674293773096 0 6.2764564822507664e-05 0.014281087536022535 0 -0.00012779148620312318 0.014199520207133096 0 5.3847106225159658e-05 0.013391576025889996 0 -3.3385271103132018e-07 0.015007215126194537 0 -5.4043187878904048e-07 0.011740515984682912 0 6.2764564822507664e-05 0.014281087536022535 0 5.6563962840430026e-05 0.013927710309343954 0 -0.00012779148620312318 0.014199520207133096 0 6.2764564822507664e-05 0.014281087536022535 0 5.6563962840430026e-05 0.013927710309343954 0 0.00022781538390113107 0.014107540534213477 0 5.6563962840430026e-05 0.013927710309343954 0 0.00022781538390113107 0.014107540534213477 0 0.00027106048782555659 0.013779866371480603 0 0.00023214975347050074 0.014488474992213082 0 0.00022781538390113107 0.014107540534213477 0 0.00052857875982698663 0.014008889695237383 0 0.00022781538390113107 0.014107540534213477 0 0.00052857875982698663 0.014008889695237383 0 0.00027106048782555659 0.013779866371480603 0 0.00052857875982698663 0.014008889695237383 0 0.00027106048782555659 0.013779866371480603 0 0.00036331063057827546 0.013422475783152433 0 0.00029773762673753108 0.014830552804196696 0 7.8357984729991812e-05 0.014344907085622485 0 0.00027885602165252798 0.014312481408009057 0 0.00042834587178412433 0.01445695661155736 0 0.00010087757798662207 0.013672882847123589 0 5.6563962840430026e-05 0.013927710309343954 0 3.4199786411713597e-05 0.013406380833766961 0 -0.00024624166013343827 0.013739489988027036 0 0.00010087757798662207 0.013672882847123589 0 0.00012392947465563072 0.013405611873635677 0 0.00027106048782555659 0.013779866371480603 0 0.00036331063057827546 0.013422475783152433 0 3.4199786411713597e-05 0.013406380833766961 0 5.6563962840430026e-05 0.013927710309343954 0 0.00027106048782555659 0.013779866371480603 0 3.4199786411713597e-05 0.013406380833766961 0 3.4199786411713597e-05 0.013406380833766961 0 9.746984303735993e-05 0.013181574609547735 0 5.0026582521882509e-05 0.012903078734689247 0 9.746984303735993e-05 0.013181574609547735 0 5.3847106225159658e-05 0.013391576025889996 0 5.0026582521882509e-05 0.012903078734689247 0 0.00018553279393001399 0.013343371693955499 0 3.4199786411713597e-05 0.013406380833766961 0 9.746984303735993e-05 0.013181574609547735 0 0.00031270269317598069 0.014136515387009326 0 -0.00010829891277609948 0.013248769433263124 0 0.00010087757798662207 0.013672882847123589 0 1.3230879344656278e-05 0.013083111645515491 0 9.746984303735993e-05 0.013181574609547735 0 -0.00019858094579689616 0.012951987566129553 0 5.3847106225159658e-05 0.013391576025889996 0 7.5848612641653658e-05 0.014285591813207351 0 7.1338000344434822e-05 0.01411471845822798 0 5.3847106225159658e-05 0.013391576025889996 0 -1.3932507952171179e-05 0.012924249006956396 0 9.746984303735993e-05 0.013181574609547735 0 -0.00019858094579689616 0.012951987566129553 0 0.00010087757798662207 0.013672882847123589 0 0.00031270269317598069 0.014136515387009326 0 7.1338000344434822e-05 0.01411471845822798 0 5.3847106225159658e-05 0.013391576025889996 0 3.407721247722839e-05 0.014258231349856808 0 5.3847106225159658e-05 0.013391576025889996 0 -3.3385271103132018e-07 0.015007215126194537 0 3.407721247722839e-05 0.014258231349856808 0 -3.3385271103132018e-07 0.015007215126194537 0 -7.2419801533331392e-05 0.014836529872802305 0 -4.9772040822545414e-05 0.016059018841803298 0 -3.3385271103132018e-07 0.015007215126194537 0 3.407721247722839e-05 0.014258231349856808 0 -7.2419801533331392e-05 0.014836529872802305 0 3.407721247722839e-05 0.014258231349856808 0 -7.2419801533331392e-05 0.014836529872802305 0 6.5770875584099674e-06 0.014285889268377721 0 -7.2419801533331392e-05 0.014836529872802305 0 6.5770875584099674e-06 0.014285889268377721 0 -0.00022764539473337216 0.014191684325574161 0 0.00031270269317598069 0.014136515387009326 0 -8.829734779407098e-05 0.015869862247235328 0 7.5848612641653658e-05 0.014285591813207351 0 6.5770875584099674e-06 0.014285889268377721 0 -0.00022764539473337216 0.014191684325574161 0 0.000539748419897982 0.015200065603381992 0 0.0009887072483855874 0.015134019326145965 0 0.0008000460336265242 0.015309809679473334 0 7.1338000344434822e-05 0.01411471845822798 0 3.407721247722839e-05 0.014258231349856808 0 6.5770875584099674e-06 0.014285889268377721 0 7.5848612641653658e-05 0.014285591813207351 0 7.1338000344434822e-05 0.01411471845822798 0 6.5770875584099674e-06 0.014285889268377721 0 -7.2419801533331392e-05 0.014836529872802305 0 -0.00014239742194580029 0.015828412235572478 0 -4.9772040822545414e-05 0.016059018841803298 0 -0.00021231777522515543 0.01468369801808094 0 -8.829734779407098e-05 0.015869862247235328 0 0.0009887072483855874 0.015134019326145965 0 0.00096189969944656219 0.015428842546386875 0 0.0011592218675114045 0.015488005574099815 0 -8.829734779407098e-05 0.015869862247235328 0 5.4453365135716396e-05 0.016884431856166681 0 0.0009887072483855874 0.015134019326145965 0 0.00096189969944656219 0.015428842546386875 0 0.0008000460336265242 0.015309809679473334 0 0.000539748419897982 0.015200065603381992 0 0.0008000460336265242 0.015309809679473334 0 0.00081227423244397301 0.015566387228311468 0 0.00031270269317598069 0.014136515387009326 0 0.00074673657710066035 0.015266172225906439 0 0.00029773762673753108 0.014830552804196696 0 0.00027885602165252798 0.014312481408009057 0 0.00058581875776949276 0.014749917976420501 0 0.00096189969944656219 0.015428842546386875 0 0.0008000460336265242 0.015309809679473334 0 0.00081227423244397301 0.015566387228311468 0 0.00086545560231204974 0.015157619621046704 0 0.00058581875776949276 0.014749917976420501 0 0.00056892255570920383 0.015008807438058982 0 0.00029773762673753108 0.014830552804196696 0 0.00058581875776949276 0.014749917976420501 0 0.00056892255570920383 0.015008807438058982 0 0.00096536629993959448 0.015498170091453023 0 0.00074673657710066035 0.015266172225906439 0 0.0010898317956690529 0.015893391398653381 0 0.00081227423244397301 0.015566387228311468 0 0.0011036438190279131 0.015688887888634314 0 0.0011592218675114045 0.015488005574099815 0 0.0011036438190279131 0.015688887888634314 0 0.0012928340476998444 0.015793626379334517 0 0.00096189969944656219 0.015428842546386875 0 0.0011592218675114045 0.015488005574099815 0 0.0011036438190279131 0.015688887888634314 0 0.00096189969944656219 0.015428842546386875 0 0.00081227423244397301 0.015566387228311468 0 0.0011036438190279131 0.015688887888634314 0 5.4453365135716396e-05 0.016884431856166681 0 0.00099989182775905004 0.017604419830439897 0 -0.00096846015490493988 0.018321922842953222 0 -0.0003814075277369164 0.018714242301128378 0 -0.00047219144946780868 0.019013533158473196 0 -0.00096846015490493988 0.018321922842953222 0 -0.0003814075277369164 0.018714242301128378 0 -0.00012037576195499443 0.018461015562416517 0 0.0011592218675114045 0.015488005574099815 0 0.0012928340476998444 0.015793626379334517 0 0.0013189074627443145 0.015818791106234964 0 0.0011036438190279131 0.015688887888634314 0 0.0012928340476998444 0.015793626379334517 0 0.0012495148249028888 0.01589800908422059 0 0.00093267265032179257 0.017458925291260544 0 0.00099989182775905004 0.017604419830439897 0 -0.00026126744773856538 0.018925532454969134 0 -0.0003814075277369164 0.018714242301128378 0 -8.9720460923809619e-05 0.018862653590180682 0 -0.00026126744773856538 0.018925532454969134 0 -0.0003814075277369164 0.018714242301128378 0 -0.00047219144946780868 0.019013533158473196 0 -0.0003814075277369164 0.018714242301128378 0 -8.9720460923809619e-05 0.018862653590180682 0 -0.00012037576195499443 0.018461015562416517 0 0.0002341616840841852 0.018868660540350347 0 -0.00012037576195499443 0.018461015562416517 0 0.00026429862951592978 0.018462670088658817 0 0.0002341616840841852 0.018868660540350347 0 -8.9720460923809619e-05 0.018862653590180682 0 0.00017904486187940761 0.019070831594729564 0 -0.00026126744773856538 0.018925532454969134 0 -8.9720460923809619e-05 0.018862653590180682 0 -6.5801524432358192e-05 0.019048199005818795 0 0.0002341616840841852 0.018868660540350347 0 -8.9720460923809619e-05 0.018862653590180682 0 -0.00012037576195499443 0.018461015562416517 0 -0.00012037576195499443 0.018461015562416517 0 -5.5793336120988009e-05 0.017112277422257741 0 0.00026429862951592978 0.018462670088658817 0 -0.00096846015490493988 0.018321922842953222 0 -0.00012037576195499443 0.018461015562416517 0 -5.5793336120988009e-05 0.017112277422257741 0 -3.3385271103132018e-07 0.015007215126194537 0 -4.9772040822545414e-05 0.016059018841803298 0 7.2508132700332956e-07 0.017465835546465167 0 -5.5793336120988009e-05 0.017112277422257741 0 -4.9772040822545414e-05 0.016059018841803298 0 7.2508132700332956e-07 0.017465835546465167 0 -0.0014199473544830705 0.017358683210880854 0 -0.00096846015490493988 0.018321922842953222 0 -5.5793336120988009e-05 0.017112277422257741 0 -0.00014239742194580029 0.015828412235572478 0 -5.5793336120988009e-05 0.017112277422257741 0 -4.9772040822545414e-05 0.016059018841803298 0 -8.829734779407098e-05 0.015869862247235328 0 -0.00033599212143402529 0.017209073786550989 0 -5.5793336120988009e-05 0.017112277422257741 0 0.00021716070787079658 0.018181599942921855 0 0.00026429862951592978 0.018462670088658817 0 7.2508132700332956e-07 0.017465835546465167 0 0.00021716070787079658 0.018181599942921855 0 0.00024146194750994848 0.019120131137873583 0 -5.5793336120988009e-05 0.017112277422257741 0 7.2508132700332956e-07 0.017465835546465167 0 0.00021716070787079658 0.018181599942921855 0 0.00021716070787079658 0.018181599942921855 0 0.00040903825235653283 0.018759704157172864 0 0.00024146194750994848 0.019120131137873583 0 0.00021716070787079658 0.018181599942921855 0 0.00040903825235653283 0.018759704157172864 0 0.00026429862951592978 0.018462670088658817 0 0.0002341616840841852 0.018868660540350347 0 0.00026429862951592978 0.018462670088658817 0 0.00049426840090583529 0.018977089968924304 0 0.00040903825235653283 0.018759704157172864 0 0.00026429862951592978 0.018462670088658817 0 0.00049426840090583529 0.018977089968924304 0 0.00040903825235653283 0.018759704157172864 0 0.00049426840090583529 0.018977089968924304 0 0.00061913112811311005 0.019100659098905393 0 0.00040903825235653283 0.018759704157172864 0 0.00061913112811311005 0.019100659098905393 0 0.00069913295192185589 0.019103490605829162 0 0.00067813957125237583 0.019204371719991085 0 0.00067166358240923387 0.019235035606474441 0 0.00046729638934908419 0.019130692439191341 0 0.00049426840090583529 0.018977089968924304 0 0.00067813957125237583 0.019204371719991085 0 0.00046729638934908419 0.019130692439191341 0 0.00049426840090583529 0.018977089968924304 0 0.00061913112811311005 0.019100659098905393 0 0.00067813957125237583 0.019204371719991085 0 0.00067166358240923387 0.019235035606474441 0 0.00089195624018725437 0.019169328670708391 0 0.00083655834852882673 0.019244971786659439 0 0.00067813957125237583 0.019204371719991085 0 0.00067166358240923387 0.019235035606474441 0 0.00083655834852882673 0.019244971786659439 0 0.00067166358240923387 0.019235035606474441 0 0.00046729638934908419 0.019130692439191341 0 0.00031071908668011251 0.019329414152155937 0 0.00067166358240923387 0.019235035606474441 0 0.00031071908668011251 0.019329414152155937 0 0.00089195624018725437 0.019169328670708391 0 0.0010754063521037974 0.019110001857866588 0 0.0011748095455832565 0.018691780866031453 0 0.00046729638934908419 0.019130692439191341 0 0.00017904486187940761 0.019070831594729564 0 0.00031071908668011251 0.019329414152155937 0 0.0002341616840841852 0.018868660540350347 0 0.00049426840090583529 0.018977089968924304 0 0.00046729638934908419 0.019130692439191341 0 0.0002341616840841852 0.018868660540350347 0 0.00046729638934908419 0.019130692439191341 0 0.00017904486187940761 0.019070831594729564 0 0.0019307329963963698 0.018549724322319383 0 0.0018633075621875901 0.018539384594262808 0 0.0019174020779525224 0.018514985981141336 0 0.00099989182775905004 0.017604419830439897 0 0.0010754063521037974 0.019110001857866588 0 -6.5801524432358192e-05 0.019048199005818795 0 -0.00047219144946780868 0.019013533158473196 0 0.00031071908668011251 0.019329414152155937 0 0.00017904486187940761 0.019070831594729564 0 -6.5801524432358192e-05 0.019048199005818795 0 0.00031071908668011251 0.019329414152155937 0 -8.9720460923809619e-05 0.018862653590180682 0 0.00017904486187940761 0.019070831594729564 0 -6.5801524432358192e-05 0.019048199005818795 0 0.0010898317956690529 0.015893391398653381 0 0.0012495148249028888 0.01589800908422059 0 0.001338992962082203 0.016156898507381924 0 0.00099989182775905004 0.017604419830439897 0 0.0017709765508745463 0.017261719540313764 0 0.0013162456186258083 0.015817583154544356 0 0.0013441653618337364 0.015995986172183743 0 0.0014979358888063136 0.016118349905477714 0 0.0012495148249028888 0.01589800908422059 0 0.0013441653618337364 0.015995986172183743 0 0.001338992962082203 0.016156898507381924 0 0.0012495148249028888 0.01589800908422059 0 0.0013162456186258083 0.015817583154544356 0 0.0013441653618337364 0.015995986172183743 0 0.0012928340476998444 0.015793626379334517 0 0.0012495148249028888 0.01589800908422059 0 0.0013162456186258083 0.015817583154544356 0 -0.00026126744773856538 0.018925532454969134 0 -6.5801524432358192e-05 0.019048199005818795 0 -0.00047219144946780868 0.019013533158473196 0 0.001338992962082203 0.016156898507381924 0 0.0014979358888063136 0.016118349905477714 0 0.0015914729513648264 0.016415771411668171 0 0.0013441653618337364 0.015995986172183743 0 0.001338992962082203 0.016156898507381924 0 0.0014979358888063136 0.016118349905477714 0 0.00093541312660792278 0.015698705181412521 0 0.0012015631518863309 0.015578887188425187 0 0.0010602385356909343 0.015926421128529392 0 0.0018633075621875901 0.018539384594262808 0 0.0019174020779525224 0.018514985981141336 0 0.0018970788368029147 0.018296152420575994 0 0.0014979358888063136 0.016118349905477714 0 0.0015914729513648264 0.016415771411668171 0 0.0017550938392691957 0.016437064241539238 0 0.0017709765508745463 0.017261719540313764 0 0.0017905533938347594 0.017381788414698004 0 0.0015914729513648264 0.016415771411668171 0 0.0017550938392691957 0.016437064241539238 0 0.0014943402689808953 0.016665272433856817 0 0.0015914729513648264 0.016415771411668171 0 0.0014024795231517241 0.016457537643688094 0 0.0014943402689808953 0.016665272433856817 0 0.0012015631518863309 0.015578887188425187 0 0.0015914729513648264 0.016415771411668171 0 0.0012650481670023945 0.016205350513457735 0 0.0012015631518863309 0.015578887188425187 0 0.0010602385356909343 0.015926421128529392 0 0.0012650481670023945 0.016205350513457735 0 0.0012692276382061929 0.015887520791520636 0 0.0015665802091913909 0.016355208079365888 0 0.0015914729513648264 0.016415771411668171 0 0.0012650481670023945 0.016205350513457735 0 0.0014024795231517241 0.016457537643688094 0 0.0012650481670023945 0.016205350513457735 0 0.0014024795231517241 0.016457537643688094 0 0.0012912424361108058 0.016571038292047063 0 0.0012650481670023945 0.016205350513457735 0 0.0010224541620263811 0.016283218711884987 0 0.0012912424361108058 0.016571038292047063 0 0.0010602385356909343 0.015926421128529392 0 0.0012650481670023945 0.016205350513457735 0 0.0010224541620263811 0.016283218711884987 0 0.0010224541620263811 0.016283218711884987 0 0.0012912424361108058 0.016571038292047063 0 0.0011109625326816048 0.016667033829157327 0 0.0012912424361108058 0.016571038292047063 0 0.0013723426979735031 0.016921525464353552 0 0.0011109625326816048 0.016667033829157327 0 0.0014024795231517241 0.016457537643688094 0 0.0012912424361108058 0.016571038292047063 0 0.0014943402689808953 0.016665272433856817 0 0.0012912424361108058 0.016571038292047063 0 0.0013723426979735031 0.016921525464353552 0 0.0014943402689808953 0.016665272433856817 0 0.0014247264569269124 0.017239343321054788 0 0.0013723426979735031 0.016921525464353552 0 0.0012073595299867076 0.016971894073903475 0 0.0013723426979735031 0.016921525464353552 0 0.0011109625326816048 0.016667033829157327 0 0.0012073595299867076 0.016971894073903475 0 0.0009737777694367643 0.016845899526074924 0 0.0011109625326816048 0.016667033829157327 0 0.0012073595299867076 0.016971894073903475 0 0.0017777173761478107 0.017668705480370563 0 0.0017550938392691957 0.016437064241539238 0 0.0015568255978264777 0.017047334167969989 0 0.0017550938392691957 0.016437064241539238 0 0.0014943402689808953 0.016665272433856817 0 0.0015568255978264777 0.017047334167969989 0 0.0014247264569269124 0.017239343321054788 0 0.0013723426979735031 0.016921525464353552 0 0.0015568255978264777 0.017047334167969989 0 0.0013723426979735031 0.016921525464353552 0 0.0014943402689808953 0.016665272433856817 0 0.0015568255978264777 0.017047334167969989 0 0.0017891315750817127 0.017592009320045086 0 0.0017905533938347594 0.017381788414698004 0 0.0017777173761478107 0.017668705480370563 0 0.0018970788368029147 0.018296152420575994 0 0.0016302837658643378 0.018140435114001791 0 0.0017777173761478107 0.017668705480370563 0 0.0016302837658643378 0.018140435114001791 0 0.0010822494567033943 0.018419318781257167 0 0.0016302837658643378 0.018140435114001791 0 0.001549118640632682 0.018346239914409368 0 0.0010822494567033943 0.018419318781257167 0 0.0011748095455832565 0.018691780866031453 0 0.0010507592452538748 0.018428040481327075 0 0.00089195624018725437 0.019169328670708391 0 0.0010822494567033943 0.018419318781257167 0 0.00083655834852882673 0.019244971786659439 0 0.0018633075621875901 0.018539384594262808 0 0.0018970788368029147 0.018296152420575994 0 0.001549118640632682 0.018346239914409368 0 0.0018970788368029147 0.018296152420575994 0 0.0016302837658643378 0.018140435114001791 0 0.001549118640632682 0.018346239914409368 0 0.00078064869592076838 0.019243137885229803 0 0.0010822494567033943 0.018419318781257167 0 0.00054840244460456771 0.0189813515322424 0 0.00078064869592076838 0.019243137885229803 0 0.00054840244460456771 0.0189813515322424 0 0.00067156640495016657 0.01954698784454539 0 0.00078064869592076838 0.019243137885229803 0 0.0010822494567033943 0.018419318781257167 0 0.00083655834852882673 0.019244971786659439 0 0.00064877137735138617 0.0180402079014624 0 0.0010822494567033943 0.018419318781257167 0 0.00054840244460456771 0.0189813515322424 0 -0.00014763334638939919 0.018266835817778319 0 -0.0004060165820957532 0.019119367466768716 0 0.00054840244460456771 0.0189813515322424 0 -0.0004060165820957532 0.019119367466768716 0 -0.0003970235693410483 0.02003419456085297 0 0.00061563541460492722 0.019955970383904786 0 -0.0004060165820957532 0.019119367466768716 0 0.00054840244460456771 0.0189813515322424 0 0.00061563541460492722 0.019955970383904786 0 0.00054840244460456771 0.0189813515322424 0 0.00067156640495016657 0.01954698784454539 0 0.00061563541460492722 0.019955970383904786 0 0.00067156640495016657 0.01954698784454539 0 0.00061563541460492722 0.019955970383904786 0 0.00068055980258741391 0.019430293674066616 0 0.00061563541460492722 0.019955970383904786 0 0.00031340558994768922 0.022969843929621453 0 -0.00039446912338789912 0.021226158526113044 0 -0.0003970235693410483 0.02003419456085297 0 0.00061563541460492722 0.019955970383904786 0 -0.00039446912338789912 0.021226158526113044 0 0.00066236719740073603 0.020204491392501578 0 0.00056192394385294055 0.021130202040560948 0 0.00061563541460492722 0.019955970383904786 0 0.0008815091935066489 0.019517746006767065 0 0.00068055980258741391 0.019430293674066616 0 0.00067156640495016657 0.01954698784454539 0 0.00068055980258741391 0.019430293674066616 0 0.00071013938707693174 0.019327841574873862 0 0.00078064869592076838 0.019243137885229803 0 0.00067156640495016657 0.01954698784454539 0 0.00071013938707693174 0.019327841574873862 0 0.00078064869592076838 0.019243137885229803 0 0.00083655834852882673 0.019244971786659439 0 0.00071013938707693174 0.019327841574873862 0 0.00067813957125237583 0.019204371719991085 0 0.00083655834852882673 0.019244971786659439 0 0.00071013938707693174 0.019327841574873862 0 0.00061913112811311005 0.019100659098905393 0 0.00067813957125237583 0.019204371719991085 0 0.00071013938707693174 0.019327841574873862 0 0.00061913112811311005 0.019100659098905393 0 0.00071013938707693174 0.019327841574873862 0 0.00069913295192185589 0.019103490605829162 0 7.2508132700332956e-07 0.017465835546465167 0 0.00024146194750994848 0.019120131137873583 0 1.6872444079522397e-07 0.020711798772968949 0 0.00068055980258741391 0.019430293674066616 0 0.00071013938707693174 0.019327841574873862 0 0.00069913295192185589 0.019103490605829162 0 0.00068055980258741391 0.019430293674066616 0 0.00069913295192185589 0.019103490605829162 0 0.00073684764588964656 0.019272413879399042 0 0.00027054887422716647 0.019542088222512476 0 0.00019337481562289592 0.020098733675442876 0 0.00022812162772902208 0.020247261443975397 0 0.00048632066580205844 0.01933237641942049 0 0.00061120356019890175 0.019500767041473459 0 0.00040903825235653283 0.018759704157172864 0 0.00027054887422716647 0.019542088222512476 0 0.00024146194750994848 0.019120131137873583 0 0.00027054887422716647 0.019542088222512476 0 0.00024146194750994848 0.019120131137873583 0 0.00019337481562289592 0.020098733675442876 0 0.00043768345023100603 0.018859991287012955 0 0.00048632066580205844 0.01933237641942049 0 0.00024146194750994848 0.019120131137873583 0 0.00019337481562289592 0.020098733675442876 0 1.6872444079522397e-07 0.020711798772968949 0 1.6872444079522397e-07 0.020711798772968949 0 7.6322101180749779e-05 0.020971513186696007 0 -0.00022242390952242869 0.022739691386058979 0 0.00019337481562289592 0.020098733675442876 0 1.6872444079522397e-07 0.020711798772968949 0 7.6322101180749779e-05 0.020971513186696007 0 7.6322101180749779e-05 0.020971513186696007 0 0.00022812162772902208 0.020247261443975397 0 -0.00020808043647885862 0.020537472497412661 0 0.00019337481562289592 0.020098733675442876 0 7.6322101180749779e-05 0.020971513186696007 0 0.00022812162772902208 0.020247261443975397 0 0.0008815091935066489 0.019517746006767065 0 0.00068055980258741391 0.019430293674066616 0 0.00073684764588964656 0.019272413879399042 0 0.00056192394385294055 0.021130202040560948 0 -0.00020775370825303283 0.022041524809545132 0 0.00061120356019890175 0.019500767041473459 0 -0.00020775370825303283 0.022041524809545132 0 0.0008815091935066489 0.019517746006767065 0 0.00073684764588964656 0.019272413879399042 0 0.00095317953079126984 0.01935044491409442 0 0.00031340558994768922 0.022969843929621453 0 -0.00059839893377668584 0.0243883002945499 0 -0.00088591864705578447 0.023754757872181915 0 -0.00059839893377668584 0.0243883002945499 0 -0.00070565328825224444 0.024100790814695735 0 -0.00088591864705578447 0.023754757872181915 0 1.6872444079522397e-07 0.020711798772968949 0 -0.00022242390952242869 0.022739691386058979 0 -3.5999816315744627e-07 0.024998941262343748 0 -0.00020775370825303283 0.022041524809545132 0 -0.00063477590838953229 0.024276914821622565 0 -0.00048651022588882761 0.024497156775912805 0 -0.00027058569612510808 0.024102517385950265 0 -0.00018377704908889751 0.02448444196321856 0 -0.00063477590838953229 0.024276914821622565 0 -0.0002589850546163055 0.024422063571956344 0 -0.00070565328825224444 0.024100790814695735 0 -0.00018377704908889751 0.02448444196321856 0 -0.00047425152350206572 0.024337487353896167 0 -0.00070565328825224444 0.024100790814695735 0 -0.00047425152350206572 0.024337487353896167 0 -0.00088591864705578447 0.023754757872181915 0 -0.00048651022588882761 0.024497156775912805 0 -0.00027058569612510808 0.024102517385950265 0 -0.00084578248462392812 0.023860148329929519 0 -0.00020775370825303283 0.022041524809545132 0 -0.00057971805741711957 0.022614258598184469 0 7.6322101180749779e-05 0.020971513186696007 0 -0.00020808043647885862 0.020537472497412661 0 -0.00036254300429026265 0.021171772699609272 0 -0.0010746069239200963 0.024431367833998657 0 -0.00048651022588882761 0.024497156775912805 0 -0.00084578248462392812 0.023860148329929519 0 -0.00057971805741711957 0.022614258598184469 0 -0.00031417097346157319 0.022596121620511944 0 7.6322101180749779e-05 0.020971513186696007 0 -0.00036254300429026265 0.021171772699609272 0 -0.00022242390952242869 0.022739691386058979 0 -0.00027058569612510808 0.024102517385950265 0 -0.00084578248462392812 0.023860148329929519 0 -0.00022242390952242869 0.022739691386058979 0 -0.00027058569612510808 0.024102517385950265 0 -0.00022242390952242869 0.022739691386058979 0 -1.0238291651397256e-05 0.024254738818173287 0 -3.5999816315744627e-07 0.024998941262343748 0 -1.0238291651397256e-05 0.024254738818173287 0 2.0749071357857992e-07 0.024998351326782596 0 -0.00022242390952242869 0.022739691386058979 0 -3.5999816315744627e-07 0.024998941262343748 0 -1.0238291651397256e-05 0.024254738818173287 0 -0.00027058569612510808 0.024102517385950265 0 -1.0238291651397256e-05 0.024254738818173287 0 -0.00018377704908889751 0.02448444196321856 0 -1.0238291651397256e-05 0.024254738818173287 0 2.0749071357857992e-07 0.024998351326782596 0 -0.00018377704908889751 0.02448444196321856 0 2.0749071357857992e-07 0.024998351326782596 0 -0.00018377704908889751 0.02448444196321856 0 -6.8836720590297653e-05 0.024825629435672191 0 2.0749071357857992e-07 0.024998351326782596 0 -6.8836720590297653e-05 0.024825629435672191 0 -1.9549989264172738e-07 0.025000334065728852 0 -6.8836720590297653e-05 0.024825629435672191 0 -0.00013952246750757746 0.024906046645362317 0 -1.9549989264172738e-07 0.025000334065728852 0 -0.00013952246750757746 0.024906046645362317 0 -0.00039629587239492292 0.024794703756966845 0 -0.00021454398711251007 0.024998334510860542 0 -6.8836720590297653e-05 0.024825629435672191 0 -0.00013952246750757746 0.024906046645362317 0 -0.00023063112305175452 0.024648602965231855 0 -0.00013952246750757746 0.024906046645362317 0 -0.00023063112305175452 0.024648602965231855 0 -0.00039629587239492292 0.024794703756966845 0 -0.00018377704908889751 0.02448444196321856 0 -6.8836720590297653e-05 0.024825629435672191 0 -0.00023063112305175452 0.024648602965231855 0 -0.00023063112305175452 0.024648602965231855 0 -0.00047425152350206572 0.024337487353896167 0 -0.00039629587239492292 0.024794703756966845 0 -0.00018377704908889751 0.02448444196321856 0 -0.00023063112305175452 0.024648602965231855 0 -0.00047425152350206572 0.024337487353896167 0 -0.00085921863817038549 0.023701296494336298 0 -0.0012294310333218056 0.022530394943655396 0 0.00031340558994768922 0.022969843929621453 0 -0.00088591864705578447 0.023754757872181915 0 -0.00039446912338789912 0.021226158526113044 0 -0.00047425152350206572 0.024337487353896167 0 -0.00088591864705578447 0.023754757872181915 0 -0.0006902705686319538 0.024920008526683888 0 -0.00088591864705578447 0.023754757872181915 0 -0.00039446912338789912 0.021226158526113044 0 -0.0015535182892172049 0.020071187762189593 0 -0.0003970235693410483 0.02003419456085297 0 -0.00039446912338789912 0.021226158526113044 0 -0.0015535182892172049 0.020071187762189593 0 -0.00047425152350206572 0.024337487353896167 0 -0.0006902705686319538 0.024920008526683888 0 -0.00039629587239492292 0.024794703756966845 0 -0.00039629587239492292 0.024794703756966845 0 -0.00031637958150207462 0.025183974537262881 0 -0.00021454398711251007 0.024998334510860542 0 -0.0006902705686319538 0.024920008526683888 0 -0.00039629587239492292 0.024794703756966845 0 -0.00039814886550677012 0.02531385587167282 0 -0.0006902705686319538 0.024920008526683888 0 -0.00039814886550677012 0.02531385587167282 0 -0.00054745280801651473 0.025356006491981019 0 -0.0012294310333218056 0.022530394943655396 0 -9.6721814874803998e-05 0.021908706484851683 0 -0.00038731780272833333 0.025087936345999203 0 -0.0003548078668336783 0.024609592568574146 0 -0.0004060165820957532 0.019119367466768716 0 -0.0003970235693410483 0.02003419456085297 0 -0.0015535182892172049 0.020071187762189593 0 -0.0004060165820957532 0.019119367466768716 0 -0.0015535182892172049 0.020071187762189593 0 -0.0015266190626459411 0.018547946611640997 0 -0.00014763334638939919 0.018266835817778319 0 -0.0004060165820957532 0.019119367466768716 0 -0.0015266190626459411 0.018547946611640997 0 -0.00043502663413390753 0.019651707180158025 0 -9.6721814874803998e-05 0.021908706484851683 0 9.3587892206889651e-05 0.024187707174762169 0 -0.0003548078668336783 0.024609592568574146 0 0.0001767996293905982 0.023602008071026595 0 0.00013011610896639496 0.023145174590404084 0 -9.2566183348966971e-05 0.023223082855941424 0 -0.0003548078668336783 0.024609592568574146 0 -9.6721814874803998e-05 0.021908706484851683 0 1.2756651680227415e-05 0.024984351501156805 0 9.3037286714132732e-06 0.024994282754373171 0 4.4497658903001596e-06 0.024992975155232418 0 -0.0003548078668336783 0.024609592568574146 0 -5.9266905495214947e-05 0.025046756810052688 0 9.3037286714132732e-06 0.024994282754373171 0 4.4497658903001596e-06 0.024992975155232418 0 2.3097055535214989e-06 0.02499845641443597 0 -1.060550940313847e-08 0.024999965994549643 0 7.1463485962160344e-09 0.025000016138773978 0 2.3097055535214989e-06 0.02499845641443597 0 -1.060550940313847e-08 0.024999965994549643 0 4.4497658903001596e-06 0.024992975155232418 0 2.3097055535214989e-06 0.02499845641443597 0 -0.00013952246750757746 0.024906046645362317 0 -1.9549989264172738e-07 0.025000334065728852 0 -0.00012492441571162685 0.025078779678795023 0 -2.2329984358566841e-08 0.025000016666988808 0 -5.9266905495214947e-05 0.025046756810052688 0 -0.00031637958150207462 0.025183974537262881 0 -0.00012492441571162685 0.025078779678795023 0 -0.00021454398711251007 0.024998334510860542 0 -0.00013952246750757746 0.024906046645362317 0 -0.00012492441571162685 0.025078779678795023 0 -0.00021454398711251007 0.024998334510860542 0 0.0013503790805718516 -0.00099985850080102886 0 0.00096678810491121286 -0.00050768519961711062 0 0.001582236171474353 -0.00023053544770197207 0 0.0013503790805718516 -0.00099985850080102886 0 0.0020613614008225208 -0.0012326459999017294 0 0.001582236171474353 -0.00023053544770197207 0 0.0020613614008225208 -0.0012326459999017294 0 0.001582236171474353 -0.00023053544770197207 0 0.0024276382222836236 -0.00054464190963370116 0 0.0020613614008225208 -0.0012326459999017294 0 0.0025519085772001387 -0.0018923921399535196 0 0.0012971513119056819 -0.0017970264783802698 0 0.0013503790805718516 -0.00099985850080102886 0 0.00088967532070291337 -0.001080823111816892 0 0.0012971513119056819 -0.0017970264783802698 0 0.0013503790805718516 -0.00099985850080102886 0 0.0020613614008225208 -0.0012326459999017294 0 0.0012971513119056819 -0.0017970264783802698 0 0.00032144204868312433 -0.0012952240416120929 0 0.0012971513119056819 -0.0017970264783802698 0 3.9900975908903149e-05 -0.001728318522954541 0 0.00088967532070291337 -0.001080823111816892 0 0.00032144204868312433 -0.0012952240416120929 0 0.0012971513119056819 -0.0017970264783802698 0 0.00032144204868312433 -0.0012952240416120929 0 5.6431598553513213e-05 -0.00095669630038029002 0 3.9900975908903149e-05 -0.001728318522954541 0 5.6431598553513213e-05 -0.00095669630038029002 0 3.9900975908903149e-05 -0.001728318522954541 0 -0.00053591264589303289 -0.00075351946248009255 0 0.00032144204868312433 -0.0012952240416120929 0 5.6431598553513213e-05 -0.00095669630038029002 0 0.00050662903790340717 -0.00080848621645464237 0 0.0010637722473914473 -0.00086106301359954339 0 0.00027470942064787069 0.0026769252836042357 0 5.6431598553513213e-05 -0.00095669630038029002 0 0.00050662903790340717 -0.00080848621645464237 0 9.2563764617787991e-05 -0.00034164440602799762 0 0.00027470942064787069 0.0026769252836042357 0 -9.7832962110041221e-05 0.00297561460660527 0 5.6431598553513213e-05 -0.00095669630038029002 0 9.2563764617787991e-05 -0.00034164440602799762 0 -0.00053591264589303289 -0.00075351946248009255 0 0.00050662903790340717 -0.00080848621645464237 0 0.00096678810491121286 -0.00050768519961711062 0 0.00072898134133020473 1.0297561102177065e-05 0 0.0013503790805718516 -0.00099985850080102886 0 0.00088967532070291337 -0.001080823111816892 0 0.00096678810491121286 -0.00050768519961711062 0 0.00088967532070291337 -0.001080823111816892 0 0.00050662903790340717 -0.00080848621645464237 0 0.00096678810491121286 -0.00050768519961711062 0 0.00088967532070291337 -0.001080823111816892 0 0.00032144204868312433 -0.0012952240416120929 0 0.00050662903790340717 -0.00080848621645464237 0 0.00010797609093793558 0.00094212551798484364 0 0.0002061203572997279 0.0010045720764821852 0 0.0014479026473392836 0.00054952748363485001 0 0.00096678810491121286 -0.00050768519961711062 0 0.00072898134133020473 1.0297561102177065e-05 0 0.001582236171474353 -0.00023053544770197207 0 0.00098995835813037365 0.0040515943535356213 0 0.00061288377429185746 0.0041588954542037824 0 0.0010816489805859999 0.0041106384533821858 0 0.00053877710668467525 0.0019509970701687062 0 0.00026661639938683151 0.0019199894514394164 0 0.00053877710668467525 0.0019509970701687062 0 0.00045539723774495238 0.002680427324642055 0 0.00050662903790340717 -0.00080848621645464237 0 0.00072898134133020473 1.0297561102177065e-05 0 0.00011287160889654955 -0.00038533455406809379 0 0.00061288377429185746 0.0041588954542037824 0 0.0010816489805859999 0.0041106384533821858 0 -0.00033239771881017117 0.0046121798210237821 0 0.00026661639938683151 0.0019199894514394164 0 1.8181838542399083e-05 0.0051654050559077095 0 0.00027470942064787069 0.0026769252836042357 0 -0.00035360562979512447 0.0060537723886143254 0 0.00053877710668467525 0.0019509970701687062 0 0.00027470942064787069 0.0026769252836042357 0 0.00098933891512701885 0.0040596103081564161 0 0.00061288377429185746 0.0041588954542037824 0 7.4031945765754988e-05 0.0034576908514226726 0 0.00061288377429185746 0.0041588954542037824 0 7.4031945765754988e-05 0.0034576908514226726 0 -9.4547001749925306e-05 0.0043918705893161028 0 7.4031945765754988e-05 0.0034576908514226726 0 -9.4547001749925306e-05 0.0043918705893161028 0 -0.00063921717774446181 0.0042043464786209756 0 0.00061288377429185746 0.0041588954542037824 0 -9.4547001749925306e-05 0.0043918705893161028 0 -0.00033239771881017117 0.0046121798210237821 0 -9.4547001749925306e-05 0.0043918705893161028 0 -0.00033642805456436539 0.0046234953718942307 0 -0.00063921717774446181 0.0042043464786209756 0 -0.00012873434185304718 0.0042047486030140869 0 -0.00034094729139417607 0.0042234624072916144 0 -0.00025250986977000747 0.0043689053148890881 0 6.8700596951397022e-05 0.0049212753359032212 0 1.8181838542399083e-05 0.0051654050559077095 0 -0.00012873434185304718 0.0042047486030140869 0 -2.2889079903036607e-05 0.0043578051396614354 0 -0.00012068639917539879 0.0044049726116118272 0 -0.00012873434185304718 0.0042047486030140869 0 -0.00012068639917539879 0.0044049726116118272 0 -0.00025250986977000747 0.0043689053148890881 0 0.00026661639938683151 0.0019199894514394164 0 0.00016785328573170431 0.0018372918192960173 0 -2.2889079903036607e-05 0.0043578051396614354 0 -3.9851375593195849e-05 0.0043643498401963951 0 -0.00012068639917539879 0.0044049726116118272 0 0.00031699890867668091 -0.00067368222475575653 0 0.00052284124881157021 -0.00055711944693135392 0 0.00050616060361835318 -0.0007610050436050918 0 0.00026661639938683151 0.0019199894514394164 0 0.0011862738361540148 -0.00049811069466614011 0 0.00053877710668467525 0.0019509970701687062 0 0.0011862738361540148 -0.00049811069466614011 0 0.0011862738361540148 -0.00049811069466614011 0 0.0019167990217134286 -0.0009726758487003962 0 0.0011862738361540148 -0.00049811069466614011 0 0.00096969597305461704 -0.001102649601991839 0 0.00050616060361835318 -0.0007610050436050918 0 0.00065656772098146544 -0.00064809434746327505 0 0.00070703186780846495 -0.00084257382535676893 0 0.0010653164913613032 -0.0011721331694906766 0 0.0013893270366497248 -0.0013317835471853944 0 0.0013948635122862712 -0.0013598733699817028 0 0.00052284124881157021 -0.00055711944693135392 0 0.00065656772098146544 -0.00064809434746327505 0 0.00073079071035765805 -0.00042631444508589014 0 0.00052284124881157021 -0.00055711944693135392 0 0.00050616060361835318 -0.0007610050436050918 0 0.00065656772098146544 -0.00064809434746327505 0 -2.2889079903036607e-05 0.0043578051396614354 0 -3.9851375593195849e-05 0.0043643498401963951 0 -0.00014131612624911576 0.0043916056631658354 0 0.00065656772098146544 -0.00064809434746327505 0 0.00082229003280284653 -0.00065343324120012848 0 0.00073079071035765805 -0.00042631444508589014 0 0.00082229003280284653 -0.00065343324120012848 0 0.00090277357499734829 -0.00047138403726114625 0 0.00073079071035765805 -0.00042631444508589014 0 0.00082229003280284653 -0.00065343324120012848 0 0.0010572717603878948 -0.00065710237310324937 0 0.00090277357499734829 -0.00047138403726114625 0 0.00082229003280284653 -0.00065343324120012848 0 0.0010572717603878948 -0.00065710237310324937 0 0.00091811397258065243 -0.00092493960246935018 0 0.0010572717603878948 -0.00065710237310324937 0 0.0011412292013986717 -0.0010047683708559706 0 0.00091811397258065243 -0.00092493960246935018 0 0.00065656772098146544 -0.00064809434746327505 0 0.00082229003280284653 -0.00065343324120012848 0 0.00070703186780846495 -0.00084257382535676893 0 0.00082229003280284653 -0.00065343324120012848 0 0.00070703186780846495 -0.00084257382535676893 0 0.00091811397258065243 -0.00092493960246935018 0 -0.00071595758009873817 -0.0047650839536285171 0 -0.0014102830440026754 -0.0047106641707922543 0 -0.00080630170334847684 -0.0052365308693321771 0 -0.0012603731870195758 -0.0047159300921071033 0 -0.00073846812475465999 -0.0049981681506199938 0 -0.0012378360454637319 -0.0046220088198999885 0 -0.0010017123362705213 -0.004261293573417483 0 -0.00062499734871220545 -0.0048631290496903012 0 -0.0012378360454637319 -0.0046220088198999885 0 -0.00083297023457973741 -0.0051369761427429578 0 -0.0010053698737558347 -0.0054104941432719473 0 -0.00013146892580990927 -0.0026754068064506445 0 0.00066801810812488083 -0.0031314050811350937 0 -0.0012378360454637319 -0.0046220088198999885 0 -0.00062499734871220545 -0.0048631290496903012 0 -0.00083297023457973741 -0.0051369761427429578 0 -0.00073846812475465999 -0.0049981681506199938 0 -0.00045275722305843297 -0.0053708335674327087 0 -0.00062499734871220545 -0.0048631290496903012 0 -0.00064299327145926383 -0.0053143767651951728 0 -0.00042661818168740929 -0.0053953267687266819 0 -0.00062499734871220545 -0.0048631290496903012 0 -0.00083297023457973741 -0.0051369761427429578 0 -0.00064299327145926383 -0.0053143767651951728 0 -0.00064299327145926383 -0.0053143767651951728 0 -0.0005673537304953253 -0.0055770432393848369 0 -0.00042661818168740929 -0.0053953267687266819 0 -0.00064299327145926383 -0.0053143767651951728 0 -0.00078096851149158384 -0.0054440087835599593 0 -0.0005673537304953253 -0.0055770432393848369 0 -0.00083297023457973741 -0.0051369761427429578 0 -0.00064299327145926383 -0.0053143767651951728 0 -0.00078096851149158384 -0.0054440087835599593 0 0.0019669872589992954 -0.001657048988142927 0 0.0019523768703203434 -0.00158695040648873 0 0.0016941676034941354 -0.0015223075471021334 0 -0.00078096851149158384 -0.0054440087835599593 0 -0.00090436879935495084 -0.0054815880067246138 0 -0.00092007847515766631 -0.0053977241878058121 0 -0.00054955843105896132 -0.0041968028794581932 0 0.00066801810812488083 -0.0031314050811350937 0 0.0016350897244056561 -0.00327477093035752 0 0.00066801810812488083 -0.0031314050811350937 0 -0.00083297023457973741 -0.0051369761427429578 0 -0.00078096851149158384 -0.0054440087835599593 0 -0.0010053698737558347 -0.0054104941432719473 0 0.0040642205804699962 -0.0011546306369353387 0 0.0042158926078410489 -0.0018211123498652621 0 0.0034937985526189239 -0.001550795854299486 0 0.0016350897244056561 -0.00327477093035752 0 0.002784249457128058 -0.0030412553385284848 0 -0.00078096851149158384 -0.0054440087835599593 0 -0.00090436879935495084 -0.0054815880067246138 0 -0.0005673537304953253 -0.0055770432393848369 0 0.0015586289382456178 -0.0049985571714725669 0 0.0014296544253705897 -0.0044335175134928026 0 0.00089323430611962457 -0.0048071651497975949 0 0.0016350897244056561 -0.00327477093035752 0 -1.7372594368485289e-05 -0.0051751333290876037 0 0.0014296544253705897 -0.0044335175134928026 0 0.00089323430611962457 -0.0048071651497975949 0 0.00075787034743418093 -0.0042281775124282427 0 0.0013948635122862712 -0.0013598733699817028 0 0.0016941676034941354 -0.0015223075471021334 0 0.0016838555436298347 -0.0014723489269143945 0 0.0013893270366497248 -0.0013317835471853944 0 0.0013948635122862712 -0.0013598733699817028 0 0.0016838555436298347 -0.0014723489269143945 0 0.0020613614008225208 -0.0012326459999017294 0 0.0024276382222836236 -0.00054464190963370116 0 0.0032601987337075276 -0.00085594913671621436 0 0.0019167990217134286 -0.0009726758487003962 0 0.0026545941959553883 -0.0010970274738418019 0 0.00096969597305461704 -0.001102649601991839 0 0.0014124872580862321 -0.0011144508820764931 0 0.0016350897244056561 -0.00327477093035752 0 0.0026545941959553883 -0.0010970274738418019 0 0.00066801810812488083 -0.0031314050811350937 0 0.0014124872580862321 -0.0011144508820764931 0 0.0019523768703203434 -0.00158695040648873 0 0.0016941676034941354 -0.0015223075471021334 0 0.0016838555436298347 -0.0014723489269143945 0 0.0032601987337075276 -0.00085594913671621436 0 0.0034937985526189239 -0.001550795854299486 0 0.0025519085772001387 -0.0018923921399535196 0 0.0040642205804699962 -0.0011546306369353387 0 0.0032601987337075276 -0.00085594913671621436 0 0.0034937985526189239 -0.001550795854299486 0 0.0020613614008225208 -0.0012326459999017294 0 0.0032601987337075276 -0.00085594913671621436 0 0.0025519085772001387 -0.0018923921399535196 0 0.0025519085772001387 -0.0018923921399535196 0 0.0032400755701552865 -0.0020532317181763261 0 0.0032143161691952204 -0.0025637760310544553 0 0.0034937985526189239 -0.001550795854299486 0 0.0032400755701552865 -0.0020532317181763261 0 0.0038335320938218862 -0.0023195033397768682 0 0.0032400755701552865 -0.0020532317181763261 0 0.0032143161691952204 -0.0025637760310544553 0 0.0038335320938218862 -0.0023195033397768682 0 0.0034937985526189239 -0.001550795854299486 0 0.0025519085772001387 -0.0018923921399535196 0 0.0032400755701552865 -0.0020532317181763261 0 0.0032143161691952204 -0.0025637760310544553 0 0.0038335320938218862 -0.0023195033397768682 0 0.0038290789270934906 -0.0028431142139255356 0 0.0032143161691952204 -0.0025637760310544553 0 0.0038290789270934906 -0.0028431142139255356 0 0.0032360788562680941 -0.0032067382565194986 0 0.0025519085772001387 -0.0018923921399535196 0 0.0032143161691952204 -0.0025637760310544553 0 0.0025958008848038731 -0.00307008484626814 0 0.0032143161691952204 -0.0025637760310544553 0 0.0025958008848038731 -0.00307008484626814 0 0.0032360788562680941 -0.0032067382565194986 0 0.0014296544253705897 -0.0044335175134928026 0 0.0013006941499061557 -0.0038547684397571905 0 0.00075787034743418093 -0.0042281775124282427 0 0.0025074941081825986 -0.006001793204537401 0 0.00089261345523530204 -0.0063530136064931008 0 0.001192295107423341 -0.0069100408999370382 0 0.002500593263630235 -0.0039046348666323329 0 0.00087072561587726177 -0.0056501829528418368 0 0.0042158926078410489 -0.0018211123498652621 0 0.0038335320938218862 -0.0023195033397768682 0 0.0043605295938232876 -0.0024929735085471149 0 0.0042158926078410489 -0.0018211123498652621 0 0.0034937985526189239 -0.001550795854299486 0 0.0038335320938218862 -0.0023195033397768682 0 0.002784249457128058 -0.0030412553385284848 0 0.002500593263630235 -0.0039046348666323329 0 0.0038335320938218862 -0.0023195033397768682 0 0.004267980442410598 -0.0025568842816373286 0 0.0043605295938232876 -0.0024929735085471149 0 0.0038335320938218862 -0.0023195033397768682 0 0.0038290789270934906 -0.0028431142139255356 0 0.0040167164192152173 -0.0026356379745897905 0 0.0038290789270934906 -0.0028431142139255356 0 0.004288477625190636 -0.0031022669362819641 0 0.0037433583235236948 -0.0032268832187370023 0 0.0038290789270934906 -0.0028431142139255356 0 0.0041730194378967909 -0.0028234380230099188 0 0.0042996093242431135 -0.0031204324460251801 0 0.0037125969888781047 -0.0031497784889625213 0 0.0035818601828041924 -0.0048471396524256442 0 0.0038335320938218862 -0.0023195033397768682 0 0.0040167164192152173 -0.0026356379745897905 0 0.004267980442410598 -0.0025568842816373286 0 0.0041730194378967909 -0.0028234380230099188 0 0.0040167164192152173 -0.0026356379745897905 0 0.004267980442410598 -0.0025568842816373286 0 0.0038290789270934906 -0.0028431142139255356 0 0.0041730194378967909 -0.0028234380230099188 0 0.0040167164192152173 -0.0026356379745897905 0 0.0025971807868935834 -0.0059124269005405563 0 0.0010437999434064896 -0.008132958092539333 0 0.0025074941081825986 -0.006001793204537401 0 0.0022763858569007076 -0.005007851284863361 0 0.00089261345523530204 -0.0063530136064931008 0 0.0017784751257836056 -0.0090769927467574448 0 0.0013625725944282408 -0.0088409063994321444 0 0.0010955801342424952 -0.0091043180074046326 0 0.002500593263630235 -0.0039046348666323329 0 0.0025971807868935834 -0.0059124269005405563 0 0.0041730194378967909 -0.0028234380230099188 0 0.004267980442410598 -0.0025568842816373286 0 0.0044623130920749526 -0.0029617263714004066 0 0.004267980442410598 -0.0025568842816373286 0 0.0043573380947665372 -0.0024958995753528472 0 0.0044623130920749526 -0.0029617263714004066 0 0.0029755058560178541 -0.0035679007389977581 0 0.002500593263630235 -0.0039046348666323329 0 0.0041730194378967909 -0.0028234380230099188 0 0.0044623130920749526 -0.0029617263714004066 0 0.0042996093242431135 -0.0031204324460251801 0 0.0029184290720207541 -0.0055267599009886301 0 0.0029912359765886607 -0.0058343991051142442 0 0.0027432963936109694 -0.0056981564003391596 0 0.0025971807868935834 -0.0059124269005405563 0 0.0035818601828041924 -0.0048471396524256442 0 0.0025971807868935834 -0.0059124269005405563 0 0.0030550628102406683 -0.0065815185585643369 0 0.0031198710202129652 -0.0064188320671162077 0 0.0032203044387092731 -0.0065776845073661164 0 0.0028142522508211925 -0.0063821442771470512 0 0.0030550628102406683 -0.0065815185585643369 0 0.0017356810616312383 -0.0085802563499206442 0 0.0017259152087046312 -0.0088381265328882075 0 0.0011590474679950297 -0.0085372847817983804 0 0.0013625725944282408 -0.0088409063994321444 0 0.0030566383342457517 -0.0063187418339322064 0 0.0031198710202129652 -0.0064188320671162077 0 0.0028142522508211925 -0.0063821442771470512 0 0.0030566383342457517 -0.0063187418339322064 0 0.0031198710202129652 -0.0064188320671162077 0 0.0032569282986532199 -0.0063661851626122066 0 0.0017784751257836056 -0.0090769927467574448 0 0.0017259152087046312 -0.0088381265328882075 0 0.0013625725944282408 -0.0088409063994321444 0 0.0032203044387092731 -0.0065776845073661164 0 0.0032954301877314643 -0.0064920471714920514 0 0.0032219641341217249 -0.0064590527357245167 0 0.0031198710202129652 -0.0064188320671162077 0 0.0032203044387092731 -0.0065776845073661164 0 0.0032219641341217249 -0.0064590527357245167 0 0.0030550628102406683 -0.0065815185585643369 0 0.0035818601828041924 -0.0048471396524256442 0 0.0032203044387092731 -0.0065776845073661164 0 0.0033603597889960818 -0.0066472093332223857 0 0.0032954301877314643 -0.0064920471714920514 0 0.0032954301877314643 -0.0064920471714920514 0 0.0032569282986532199 -0.0063661851626122066 0 0.003464543611877455 -0.006333129619616581 0 0.0032954301877314643 -0.0064920471714920514 0 0.0032219641341217249 -0.0064590527357245167 0 0.0032569282986532199 -0.0063661851626122066 0 0.0031198710202129652 -0.0064188320671162077 0 0.0032219641341217249 -0.0064590527357245167 0 0.0032569282986532199 -0.0063661851626122066 0 0.0035818601828041924 -0.0048471396524256442 0 0.0035738388774329858 -0.0045684996337402618 0 0.0033603597889960818 -0.0066472093332223857 0 0.003464543611877455 -0.006333129619616581 0 0.0037822045577682287 -0.0062290778304996582 0 0.004288477625190636 -0.0031022669362819641 0 0.0037433583235236948 -0.0032268832187370023 0 0.003619359898751937 -0.0037554482444305719 0 0.0033603597889960818 -0.0066472093332223857 0 0.0032954301877314643 -0.0064920471714920514 0 0.003464543611877455 -0.006333129619616581 0 0.0041413754720619348 -0.0044551325618467025 0 0.003921550544677849 -0.0043014658153309833 0 0.0032785744321425069 -0.0041230413801225801 0 0.003464543611877455 -0.006333129619616581 0 0.0035898476454358642 -0.0059672330482900288 0 0.0037822045577682287 -0.0062290778304996582 0 0.0036556709459648678 -0.0060671381024534621 0 0.0035738388774329858 -0.0045684996337402618 0 0.003921550544677849 -0.0043014658153309833 0 0.0040164068585858076 -0.0042671108089879011 0 0.0036797957590573842 -0.0037860164210033122 0 0.0041413754720619348 -0.0044551325618467025 0 0.003921550544677849 -0.0043014658153309833 0 0.0040149517404239159 -0.0042693508000405753 0 0.0037914705773872065 -0.0059256180714788052 0 0.0036556709459648678 -0.0060671381024534621 0 0.0036039214725718562 -0.0081294345105314778 0 0.0035985966863903971 -0.0081185009849585356 0 0.0036256321420786151 -0.0081211648222429822 0 0.0036556709459648678 -0.0060671381024534621 0 0.0035203292310102469 -0.0070879428436867366 0 0.0038374018067887528 -0.0059615452061422642 0 0.0036556709459648678 -0.0060671381024534621 0 0.003464543611877455 -0.006333129619616581 0 0.0035898476454358642 -0.0059672330482900288 0 0.0032110219132295476 -0.0061181767754752564 0 0.0032569282986532199 -0.0063661851626122066 0 0.003464543611877455 -0.006333129619616581 0 0.0032110219132295476 -0.0061181767754752564 0 0.0030566383342457517 -0.0063187418339322064 0 0.0032569282986532199 -0.0063661851626122066 0 0.0032110219132295476 -0.0061181767754752564 0 0.0035203292310102469 -0.0070879428436867366 0 0.0027229768159162887 -0.0088587740427857366 0 0.0030566383342457517 -0.0063187418339322064 0 0.0032110219132295476 -0.0061181767754752564 0 0.0028258354683558698 -0.006276202804316902 0 0.0025958008848038731 -0.00307008484626814 0 0.003003380164705435 -0.0036128293802771888 0 0.0032360788562680941 -0.0032067382565194986 0 0.0025958008848038731 -0.00307008484626814 0 0.003003380164705435 -0.0036128293802771888 0 0.0024770128830906243 -0.0037467178806345094 0 0.003003380164705435 -0.0036128293802771888 0 0.0032360788562680941 -0.0032067382565194986 0 0.003670495699705957 -0.0037781488320959514 0 0.0038290789270934906 -0.0028431142139255356 0 0.0037433583235236948 -0.0032268832187370023 0 0.0032360788562680941 -0.0032067382565194986 0 0.003164185488760888 -0.0031112850239861174 0 0.0035738388774329858 -0.0045684996337402618 0 0.0037433583235236948 -0.0032268832187370023 0 0.0032360788562680941 -0.0032067382565194986 0 0.003619359898751937 -0.0037554482444305719 0 0.003003380164705435 -0.0036128293802771888 0 0.0032453275543400818 -0.0038986275908870086 0 0.003670495699705957 -0.0037781488320959514 0 0.0032453275543400818 -0.0038986275908870086 0 0.0032785744321425069 -0.0041230413801225801 0 0.0028796479953287139 -0.0040249797553080814 0 0.0038374018067887528 -0.0059615452061422642 0 0.003363134565058198 -0.0039310747659206105 0 0.0032453275543400818 -0.0038986275908870086 0 0.003443291328174778 -0.0040105716783656077 0 0.0032785744321425069 -0.0041230413801225801 0 0.003921550544677849 -0.0043014658153309833 0 0.0036797957590573842 -0.0037860164210033122 0 0.003443291328174778 -0.0040105716783656077 0 0.0032453275543400818 -0.0038986275908870086 0 0.003670495699705957 -0.0037781488320959514 0 0.003443291328174778 -0.0040105716783656077 0 0.0035738388774329858 -0.0045684996337402618 0 0.0036928993046998898 -0.0041528533127997702 0 0.003921550544677849 -0.0043014658153309833 0 0.003443291328174778 -0.0040105716783656077 0 0.0032785744321425069 -0.0041230413801225801 0 0.0032302733627188819 -0.0044221353428006548 0 0.0032785744321425069 -0.0041230413801225801 0 0.0030544046787632649 -0.0042896738958304844 0 0.0032785744321425069 -0.0041230413801225801 0 0.0030544046787632649 -0.0042896738958304844 0 0.0028796479953287139 -0.0040249797553080814 0 0.0028037044691792655 -0.0045326387915781714 0 0.0030544046787632649 -0.0042896738958304844 0 0.0028796479953287139 -0.0040249797553080814 0 0.0028037044691792655 -0.0045326387915781714 0 0.0028796479953287139 -0.0040249797553080814 0 0.0024770128830906243 -0.0037467178806345094 0 0.003003380164705435 -0.0036128293802771888 0 0.0032453275543400818 -0.0038986275908870086 0 0.0028796479953287139 -0.0040249797553080814 0 0.003003380164705435 -0.0036128293802771888 0 0.0028796479953287139 -0.0040249797553080814 0 0.0024770128830906243 -0.0037467178806345094 0 0.0030097762106991613 -0.0047424828316723127 0 0.002092626297834967 -0.0040695240693803302 0 0.0028037044691792655 -0.0045326387915781714 0 0.0024770128830906243 -0.0037467178806345094 0 0.0017895074153163339 -0.0039133922716271105 0 0.0016573363786387628 -0.0047878468425170337 0 0.0024185169952040987 -0.0042412083766977344 0 0.0016042413688696034 -0.0041611836374929852 0 0.0018709591139363388 -0.0032800111596911628 0 0.0014055045918977282 -0.0028091254024920306 0 0.0012708907315225665 -0.0034278044359020167 0 0.0017895074153163339 -0.0039133922716271105 0 0.0018709591139363388 -0.0032800111596911628 0 0.0012708907315225665 -0.0034278044359020167 0 0.0017895074153163339 -0.0039133922716271105 0 0.0012708907315225665 -0.0034278044359020167 0 0.00088403538737563203 -0.0033470589796034712 0 0.002092626297834967 -0.0040695240693803302 0 0.0010606314154984276 -0.0034251295456116915 0 0.0025958008848038731 -0.00307008484626814 0 0.0024770128830906243 -0.0037467178806345094 0 0.0018709591139363388 -0.0032800111596911628 0 0.0024770128830906243 -0.0037467178806345094 0 0.0017895074153163339 -0.0039133922716271105 0 0.0018709591139363388 -0.0032800111596911628 0 0.0025519085772001387 -0.0018923921399535196 0 0.0025958008848038731 -0.00307008484626814 0 0.0019466962669963455 -0.0025993800206402786 0 0.0025958008848038731 -0.00307008484626814 0 0.0018709591139363388 -0.0032800111596911628 0 0.0019466962669963455 -0.0025993800206402786 0 0.0018709591139363388 -0.0032800111596911628 0 0.0019466962669963455 -0.0025993800206402786 0 0.0014055045918977282 -0.0028091254024920306 0 0.0019466962669963455 -0.0025993800206402786 0 0.0014055045918977282 -0.0028091254024920306 0 0.0014326058576272843 -0.0018944047757910099 0 0.0025519085772001387 -0.0018923921399535196 0 0.0019466962669963455 -0.0025993800206402786 0 0.0014326058576272843 -0.0018944047757910099 0 0.0025365975199757576 -0.001849331279108533 0 0.0013019259623544407 -0.0019871309986445314 0 0.00043291312297123616 -0.0017414753981359328 0 0.0008848794610106642 -0.0025912377851536523 0 0.00012313246392980955 -0.0022504905834020384 0 0.00050221001252047078 -0.00083105004865220787 0 0.00086949061599245713 -0.002804415478875829 0 0.0013019259623544407 -0.0019871309986445314 0 0.00050221001252047078 -0.00083105004865220787 0 0.0014055045918977282 -0.0028091254024920306 0 0.0014326058576272843 -0.0018944047757910099 0 0.00077732446856758721 -0.0026501246121856748 0 0.0014326058576272843 -0.0018944047757910099 0 0.00030840732413493332 -0.0018569907606934887 0 0.00077732446856758721 -0.0026501246121856748 0 0.00086949061599245713 -0.002804415478875829 0 0.001216913031384188 -0.0033000573287146773 0 0.0014055045918977282 -0.0028091254024920306 0 0.00077732446856758721 -0.0026501246121856748 0 0.0012708907315225665 -0.0034278044359020167 0 0.00046349564060142875 -0.0027574613119055336 0 0.00088403538737563203 -0.0033470589796034712 0 -4.5510288492409381e-05 -0.0028191002959980084 0 0.0008848794610106642 -0.0025912377851536523 0 0.00046349564060142875 -0.0027574613119055336 0 0.00012313246392980955 -0.0022504905834020384 0 0.0008848794610106642 -0.0025912377851536523 0 0.00046349564060142875 -0.0027574613119055336 0 0.00088403538737563203 -0.0033470589796034712 0 0.0004234283056116536 -0.0036461771692447181 0 0.0012633247216838684 -0.003503698937723768 0 -4.5510288492409381e-05 -0.0028191002959980084 0 0.0004234283056116536 -0.0036461771692447181 0 0.0012633247216838684 -0.003503698937723768 0 0.0010559368386071734 -0.0040992873178634908 0 0.0010606314154984276 -0.0034251295456116915 0 6.3112394896756894e-06 -0.0028501890752642848 0 0.0008848794610106642 -0.0025912377851536523 0 0.0012708907315225665 -0.0034278044359020167 0 0.00088403538737563203 -0.0033470589796034712 0 0.0024185169952040987 -0.0042412083766977344 0 0.0012633247216838684 -0.003503698937723768 0 0.0016042413688696034 -0.0041611836374929852 0 0.0012633247216838684 -0.003503698937723768 0 0.0016042413688696034 -0.0041611836374929852 0 0.0010559368386071734 -0.0040992873178634908 0 0.0016573363786387628 -0.0047878468425170337 0 0.0016042413688696034 -0.0041611836374929852 0 0.0010559368386071734 -0.0040992873178634908 0 0.0016573363786387628 -0.0047878468425170337 0 0.0010559368386071734 -0.0040992873178634908 0 0.00035908801363004347 -0.0043813520021786512 0 0.0004234283056116536 -0.0036461771692447181 0 0.0010559368386071734 -0.0040992873178634908 0 0.00035908801363004347 -0.0043813520021786512 0 0.0010772421939125281 -0.0048221379886163535 0 0.00055919735374204021 -0.0014305993456431322 0 0.0004234283056116536 -0.0036461771692447181 0 0.00035908801363004347 -0.0043813520021786512 0 -0.00028356344643814412 -0.0034792436763488549 0 0.00035908801363004347 -0.0043813520021786512 0 -0.00028356344643814412 -0.0034792436763488549 0 -0.00092554983242805163 -0.0039171964479965691 0 0.0004234283056116536 -0.0036461771692447181 0 -0.00028356344643814412 -0.0034792436763488549 0 -4.5510288492409381e-05 -0.0028191002959980084 0 -0.00028356344643814412 -0.0034792436763488549 0 -4.5510288492409381e-05 -0.0028191002959980084 0 -0.00046443821866962013 -0.0029509071128669103 0 -0.00028356344643814412 -0.0034792436763488549 0 -0.00098271588823541523 -0.0031445332394511244 0 -0.00092554983242805163 -0.0039171964479965691 0 0.00023878284542967445 0.0015475167072819499 0 0.00028013193706209061 0.0011566382708791429 0 7.3012861820162433e-05 0.0012284893832306206 0 -4.4979248525914032e-05 0.0014967589752262224 0 0.00055919735374204021 -0.0014305993456431322 0 -0.00028356344643814412 -0.0034792436763488549 0 -0.00098271588823541523 -0.0031445332394511244 0 -0.00046443821866962013 -0.0029509071128669103 0 -4.4979248525914032e-05 0.0014967589752262224 0 0.00085029715944612283 0.0036960832798254364 0 0.0012154575911765204 -0.0046143657914709648 0 0.0018568040785297757 -0.004540850394776798 0 0.0011735285235382126 -0.0042424565235132739 0 0.00055919735374204021 -0.0014305993456431322 0 0.00085029715944612283 0.0036960832798254364 0 0.0016091227728460436 0.0025792120434890244 0 0.0012229063526905397 0.0022920097024023891 0 0.00090861112760412858 0.0028065993257474467 0 0.0017156594431355877 0.0014413190017512076 0 0.0012229063526905397 0.0022920097024023891 0 0.00065827626198267553 0.002340731364366206 0 0.001344159752550109 0.00064284204864924037 0 0.00055919735374204021 -0.0014305993456431322 0 0.0017156594431355877 0.0014413190017512076 0 0.0016091227728460436 0.0025792120434890244 0 0.0012229063526905397 0.0022920097024023891 0 0.0017494114865442515 0.0056750325739123733 0 0.0015696529931077141 0.0053397739006865296 0 0.00082202189660938497 0.0059731049008909815 0 0.0021093707989926175 0.0085622764638172855 0 0.0020423381719389933 0.0084591636177799821 0 0.0021560658095973852 0.0085264577522587461 0 0.0021093707989926175 0.0085622764638172855 0 0.002222126067119602 0.0086151094293098768 0 0.0021524247984602033 0.0086276970465073155 0 0.001344159752550109 0.00064284204864924037 0 0.0016591611415356939 0.0063548936353812341 0 0.0024442235068465917 0.0091708437698608414 0 0.0016591611415356939 0.0063548936353812341 0 0.0016591611415356939 0.0063548936353812341 0 0.001162044735491185 0.0069243963618097369 0 0.00085029715944612283 0.0036960832798254364 0 0.0016591611415356939 0.0063548936353812341 0 0.0012229063526905397 0.0022920097024023891 0 0.00090861112760412858 0.0028065993257474467 0 0.00065827626198267553 0.002340731364366206 0 0.0020423381719389933 0.0084591636177799821 0 0.0021560658095973852 0.0085264577522587461 0 0.0021408484104273331 0.008445106867389451 0 0.0020423381719389933 0.0084591636177799821 0 0.0021408484104273331 0.008445106867389451 0 0.0021166432000849318 0.0083897517795922267 0 0.002227751420644596 0.0085719462122263879 0 0.0021560658095973852 0.0085264577522587461 0 0.0022106933279116502 0.0084970443551973564 0 0.0021560658095973852 0.0085264577522587461 0 0.0021408484104273331 0.008445106867389451 0 0.0022106933279116502 0.0084970443551973564 0 0.0021408484104273331 0.008445106867389451 0 0.0021990139399083388 0.0084143037568297357 0 0.0022106933279116502 0.0084970443551973564 0 0.0021990139399083388 0.0084143037568297357 0 0.0021378482676497573 0.0083804647022731986 0 0.002231440775702215 0.0082818187902293384 0 0.0021378482676497573 0.0083804647022731986 0 0.0021095643040415536 0.008388940173849585 0 0.002231440775702215 0.0082818187902293384 0 0.001162044735491185 0.0069243963618097369 0 0.0016209216162074143 0.0076973675376755734 0 0.00032089084779178718 0.0057711089471511436 0 0.00022497983941026999 0.0061719328020040879 0 -0.00023921562025215254 0.0062569734357419155 0 0.0021408484104273331 0.008445106867389451 0 0.0021990139399083388 0.0084143037568297357 0 0.0021378482676497573 0.0083804647022731986 0 0.0021408484104273331 0.008445106867389451 0 0.0021378482676497573 0.0083804647022731986 0 0.0021166432000849318 0.0083897517795922267 0 0.0014171979877235631 0.0070697382195084859 0 0.001162044735491185 0.0069243963618097369 0 0.00032089084779178718 0.0057711089471511436 0 0.00022497983941026999 0.0061719328020040879 0 0.00043872457505104496 0.0060669082711410542 0 0.00085029715944612283 0.0036960832798254364 0 0.001162044735491185 0.0069243963618097369 0 0.00088401819401816349 0.0055736292274041876 0 0.00032089084779178718 0.0057711089471511436 0 0.00068972805059776352 0.0059620131131533517 0 0.0011358335371582954 0.0060472707852179978 0 0.00088401819401816349 0.0055736292274041876 0 0.00068972805059776352 0.0059620131131533517 0 0.00032089084779178718 0.0057711089471511436 0 0.00043872457505104496 0.0060669082711410542 0 0.00068972805059776352 0.0059620131131533517 0 0.00043872457505104496 0.0060669082711410542 0 0.00068972805059776352 0.0059620131131533517 0 0.00051995811812552038 0.0063633840791651715 0 0.0011358335371582954 0.0060472707852179978 0 0.00068972805059776352 0.0059620131131533517 0 0.00081516689689015663 0.0064335119061255958 0 0.00068972805059776352 0.0059620131131533517 0 0.00081516689689015663 0.0064335119061255958 0 0.00051995811812552038 0.0063633840791651715 0 0.00081516689689015663 0.0064335119061255958 0 0.00051995811812552038 0.0063633840791651715 0 0.00063927538581710149 0.0066794347116488455 0 0.00051995811812552038 0.0063633840791651715 0 0.00063927538581710149 0.0066794347116488455 0 0.00037932988242272498 0.006749430470137624 0 0.00081516689689015663 0.0064335119061255958 0 0.00063927538581710149 0.0066794347116488455 0 0.00081208014291323546 0.0067986646427035885 0 0.00081516689689015663 0.0064335119061255958 0 0.00081208014291323546 0.0067986646427035885 0 0.0010683450326847397 0.0066972224745264434 0 0.00022497983941026999 0.0061719328020040879 0 0.00016571684971636329 0.0064697065655488772 0 -0.00023921562025215254 0.0062569734357419155 0 0.00022497983941026999 0.0061719328020040879 0 0.00051995811812552038 0.0063633840791651715 0 0.00016571684971636329 0.0064697065655488772 0 0.00022497983941026999 0.0061719328020040879 0 0.00043872457505104496 0.0060669082711410542 0 0.00051995811812552038 0.0063633840791651715 0 0.00051995811812552038 0.0063633840791651715 0 0.00016571684971636329 0.0064697065655488772 0 0.00037932988242272498 0.006749430470137624 0 0.00016571684971636329 0.0064697065655488772 0 0.00037932988242272498 0.006749430470137624 0 -8.1326300081033983e-05 0.0068152298955042401 0 0.00016571684971636329 0.0064697065655488772 0 -8.1326300081033983e-05 0.0068152298955042401 0 -0.00023921562025215254 0.0062569734357419155 0 -4.5241271499506433e-05 0.012078102999624304 0 -0.0013418606271601422 0.016297244786488072 0 0.00037932988242272498 0.006749430470137624 0 -8.1326300081033983e-05 0.0068152298955042401 0 0.00060978460426048089 0.0072668272403748476 0 -4.5241271499506433e-05 0.012078102999624304 0 -0.00020002342079524012 0.010303233489247155 0 -0.0016881825294749572 0.014308992510075209 0 -0.0010663484469447451 0.014771370625742044 0 -0.0014624401350858535 0.015134125037719085 0 0.00081552987198983207 0.0070555491801413709 0 0.0010683450326847397 0.0066972224745264434 0 0.00098430902201066656 0.0072897955071077143 0 0.00081208014291323546 0.0067986646427035885 0 0.00081552987198983207 0.0070555491801413709 0 0.0010683450326847397 0.0066972224745264434 0 0.00081208014291323546 0.0067986646427035885 0 0.0006330676361667256 0.007005458134651526 0 0.00081552987198983207 0.0070555491801413709 0 0.00063927538581710149 0.0066794347116488455 0 0.00037932988242272498 0.006749430470137624 0 0.0006330676361667256 0.007005458134651526 0 0.00037932988242272498 0.006749430470137624 0 0.0006330676361667256 0.007005458134651526 0 0.00060978460426048089 0.0072668272403748476 0 0.00063927538581710149 0.0066794347116488455 0 0.00081208014291323546 0.0067986646427035885 0 0.0006330676361667256 0.007005458134651526 0 0.0006330676361667256 0.007005458134651526 0 0.00062063904907199059 0.0072245580122219455 0 0.00081552987198983207 0.0070555491801413709 0 0.0002356658724055415 0.0075361613282294683 0 -0.00020002342079524012 0.010303233489247155 0 0.00062063904907199059 0.0072245580122219455 0 0.00081552987198983207 0.0070555491801413709 0 0.0008018735761872851 0.0072913953789097846 0 0.00081552987198983207 0.0070555491801413709 0 0.00098430902201066656 0.0072897955071077143 0 0.0008018735761872851 0.0072913953789097846 0 -0.00028232906305353136 0.0025302791099548172 0 -0.00016945928422652183 0.0022924906416644519 0 5.3467588343431667e-05 0.0027148794542985679 0 -0.00028232906305353136 0.0025302791099548172 0 5.3467588343431667e-05 0.0027148794542985679 0 -0.00047530519751386462 0.0027488495074794702 0 -0.00028232906305353136 0.0025302791099548172 0 -0.00043690309680005038 0.0023082605037382138 0 -0.00047530519751386462 0.0027488495074794702 0 0.00027979737631614527 0.0049488021725419612 0 9.426252109884711e-05 0.0047577602373038447 0 -0.00028232906305353136 0.0025302791099548172 0 -0.00043690309680005038 0.0023082605037382138 0 -0.00016945928422652183 0.0022924906416644519 0 0.00012313246392980955 -0.0022504905834020384 0 -0.00054017545269806648 -0.0023924956889620208 0 -0.00016527638192695651 -0.0017085505994660793 0 -0.00057865401514516437 -0.00055327593652831409 0 -0.00020082015507929635 0.0014611641483028097 0 0.00043291312297123616 -0.0017414753981359328 0 0.00012313246392980955 -0.0022504905834020384 0 -0.00016527638192695651 -0.0017085505994660793 0 0.00012313246392980955 -0.0022504905834020384 0 -4.5510288492409381e-05 -0.0028191002959980084 0 -0.00054017545269806648 -0.0023924956889620208 0 0.00046349564060142875 -0.0027574613119055336 0 0.00012313246392980955 -0.0022504905834020384 0 -4.5510288492409381e-05 -0.0028191002959980084 0 -4.5510288492409381e-05 -0.0028191002959980084 0 -0.00046443821866962013 -0.0029509071128669103 0 -0.00054017545269806648 -0.0023924956889620208 0 -0.00098271588823541523 -0.0031445332394511244 0 -0.00046443821866962013 -0.0029509071128669103 0 -0.00054017545269806648 -0.0023924956889620208 0 -0.00038902607677168243 0.0018587401881843533 0 -0.00043690309680005038 0.0023082605037382138 0 -0.00016945928422652183 0.0022924906416644519 0 -4.4979248525914032e-05 0.0014967589752262224 0 0.00027979737631614527 0.0049488021725419612 0 -4.4979248525914032e-05 0.0014967589752262224 0 -0.00057865401514516437 -0.00055327593652831409 0 0.0011358335371582954 0.0060472707852179978 0 0.00081516689689015663 0.0064335119061255958 0 0.0010683450326847397 0.0066972224745264434 0 -8.785358832703283e-05 0.016795511389397173 0 -0.00020823902030024571 0.016820191700731464 0 -0.00012322395106448533 0.01693380487680653 0 0.0011454982797544653 0.012785259150902372 0 0.0011271844669765141 0.012243264187356053 0 -0.00020823902030024571 0.016820191700731464 0 -0.00012322395106448533 0.01693380487680653 0 -0.00033921406796132489 0.016837073115336689 0 -2.5608917523021952e-06 0.016803925415207217 0 -8.785358832703283e-05 0.016795511389397173 0 -0.00012322395106448533 0.01693380487680653 0 -8.785358832703283e-05 0.016795511389397173 0 -0.00014991706743069174 0.016768011157249501 0 -0.00020823902030024571 0.016820191700731464 0 -8.785358832703283e-05 0.016795511389397173 0 -0.00014991706743069174 0.016768011157249501 0 -0.00010564443214323384 0.016744818619671215 0 -0.00014991706743069174 0.016768011157249501 0 -0.00023549331236875408 0.016774999690505409 0 -0.0001958558376442834 0.016725217602627712 0 -0.00023549331236875408 0.016774999690505409 0 -0.00027014040183059602 0.016711683766106256 0 -0.0001958558376442834 0.016725217602627712 0 -0.00014991706743069174 0.016768011157249501 0 -0.00023549331236875408 0.016774999690505409 0 -0.00020823902030024571 0.016820191700731464 0 0.0017808854431158084 0.010094672211299359 0 0.0016014722329652058 0.010159290960760676 0 0.0018103466065666374 0.010288973333676553 0 0.0019275830058032258 0.010089831781273397 0 0.0017808854431158084 0.010094672211299359 0 0.0018103466065666374 0.010288973333676553 0 0.0021328423085558278 0.010141182357900477 0 0.0014665275076860354 0.010487190805238085 0 0.0019508938881563716 0.010790518403352168 0 0.0022544564351478008 0.0099984471015369201 0 0.0021328423085558278 0.010141182357900477 0 0.0019508938881563716 0.010790518403352168 0 0.0024855008262311983 0.0095221287193788442 0 0.0011454982797544653 0.012785259150902372 0 0.0023613036388181151 0.0088381589539486861 0 0.0011271844669765141 0.012243264187356053 0 0.0021169683835373571 0.008629779303759362 0 0.0017397617681358477 0.0092793823403822754 0 0.0020572179667414092 0.0091849802993906344 0 0.0021328423085558278 0.010141182357900477 0 0.0019275830058032258 0.010089831781273397 0 0.0018103466065666374 0.010288973333676553 0 -0.00034615443051884669 0.016840931907853827 0 -0.00066819346762596972 0.016661142532223953 0 -0.00043790759642060368 0.016645038953195596 0 -0.00020823902030024571 0.016820191700731464 0 -0.00033921406796132489 0.016837073115336689 0 -0.00033274990373039631 0.016813109786606415 0 0.0011271844669765141 0.012243264187356053 0 0.00078175401091801558 0.013118454428024857 0 -0.00033274990373039631 0.016813109786606415 0 -0.00030555214335650278 0.016761662991985556 0 -0.00035539251979063615 0.016715708162067511 0 -0.00023549331236875408 0.016774999690505409 0 -0.00020823902030024571 0.016820191700731464 0 -0.00033274990373039631 0.016813109786606415 0 -0.00034615443051884669 0.016840931907853827 0 -0.00033274990373039631 0.016813109786606415 0 -0.00035539251979063615 0.016715708162067511 0 -0.00023549331236875408 0.016774999690505409 0 -0.00033274990373039631 0.016813109786606415 0 -0.00030555214335650278 0.016761662991985556 0 -0.00023549331236875408 0.016774999690505409 0 -0.00030555214335650278 0.016761662991985556 0 -0.00027014040183059602 0.016711683766106256 0 -0.00030555214335650278 0.016761662991985556 0 -0.00035539251979063615 0.016715708162067511 0 -0.00027014040183059602 0.016711683766106256 0 -0.00034615443051884669 0.016840931907853827 0 -0.00035539251979063615 0.016715708162067511 0 -0.00043790759642060368 0.016645038953195596 0 0.0017397617681358477 0.0092793823403822754 0 0.0020572179667414092 0.0091849802993906344 0 0.0022263409847090277 0.009619436132013548 0 0.0011271844669765141 0.012243264187356053 0 0.00095642819227089262 0.013421960864864619 0 0.0022501042417958344 0.0093086362771837503 0 0.0020572179667414092 0.0091849802993906344 0 0.0022263409847090277 0.009619436132013548 0 0.0022501042417958344 0.0093086362771837503 0 0.0020572179667414092 0.0091849802993906344 0 0.0022311524049048936 0.0089958609837304509 0 0.0021169683835373571 0.008629779303759362 0 0.0020572179667414092 0.0091849802993906344 0 0.0022311524049048936 0.0089958609837304509 0 0.0022882131417927471 0.008623646142546515 0 0.0022311524049048936 0.0089958609837304509 0 0.0025412418302386127 0.0092674682593285214 0 0.0023028166734800587 0.008588099304451275 0 0.002370808465483377 0.008930957433059045 0 0.0022882131417927471 0.008623646142546515 0 0.0022106933279116502 0.0084970443551973564 0 0.0022619867154221865 0.008376567373165316 0 0.0021990139399083388 0.0084143037568297357 0 0.0022106933279116502 0.0084970443551973564 0 0.0022619867154221865 0.008376567373165316 0 0.0021990139399083388 0.0084143037568297357 0 0.0022619867154221865 0.008376567373165316 0 0.002231440775702215 0.0082818187902293384 0 0.0025412418302386127 0.0092674682593285214 0 0.0026131915031549968 0.0095671675920895108 0 0.0022263409847090277 0.009619436132013548 0 0.0022501042417958344 0.0093086362771837503 0 0.0022311524049048936 0.0089958609837304509 0 0.0025412418302386127 0.0092674682593285214 0 0.0022501042417958344 0.0093086362771837503 0 0.0025412418302386127 0.0092674682593285214 0 0.0022263409847090277 0.009619436132013548 0 0.002370808465483377 0.008930957433059045 0 0.0016209216162074143 0.0076973675376755734 0 -0.00099045911145630313 0.016476047825974786 0 -0.00072060198280684347 0.016392720520425726 0 -0.00066819346762596972 0.016661142532223953 0 -4.5241271499506433e-05 0.012078102999624304 0 0.00095642819227089262 0.013421960864864619 0 0.0027022791351506122 0.0099755320711174527 0 0.0026131915031549968 0.0095671675920895108 0 0.0022263409847090277 0.009619436132013548 0 -4.5241271499506433e-05 0.012078102999624304 0 0.0016209216162074143 0.0076973675376755734 0 -0.00099045911145630313 0.016476047825974786 0 -0.00072060198280684347 0.016392720520425726 0 -0.00087665701910737191 0.016230356889329802 0 -0.00099045911145630313 0.016476047825974786 0 -0.00087665701910737191 0.016230356889329802 0 -0.001151800947613137 0.016136095499047605 0 -0.00072060198280684347 0.016392720520425726 0 -0.00047737421396784911 0.016312495670661464 0 -0.00066229792068743802 0.016165182050236006 0 -0.00072060198280684347 0.016392720520425726 0 -0.00051831482647728426 0.01649669349616804 0 -0.00047737421396784911 0.016312495670661464 0 -0.00072060198280684347 0.016392720520425726 0 -0.00051831482647728426 0.01649669349616804 0 -0.00066819346762596972 0.016661142532223953 0 -0.00051831482647728426 0.01649669349616804 0 -0.00066819346762596972 0.016661142532223953 0 -0.00043790759642060368 0.016645038953195596 0 -0.00035539251979063615 0.016715708162067511 0 -0.00043790759642060368 0.016645038953195596 0 -0.0003179146078178524 0.016629549740237476 0 -0.00043790759642060368 0.016645038953195596 0 -0.0003179146078178524 0.016629549740237476 0 -0.00038692974222575622 0.016549127760659657 0 -0.00035539251979063615 0.016715708162067511 0 -0.00027014040183059602 0.016711683766106256 0 -0.0003179146078178524 0.016629549740237476 0 -0.00027014040183059602 0.016711683766106256 0 -0.0003179146078178524 0.016629549740237476 0 -0.0002248518919999238 0.016667940482392767 0 -0.00038692974222575622 0.016549127760659657 0 -0.00037646942492647155 0.016441627516276779 0 -0.00028431811068021069 0.016535799284256476 0 -0.0003179146078178524 0.016629549740237476 0 -0.00038692974222575622 0.016549127760659657 0 -0.00028431811068021069 0.016535799284256476 0 -0.00051831482647728426 0.01649669349616804 0 -0.00043790759642060368 0.016645038953195596 0 -0.00038692974222575622 0.016549127760659657 0 -0.00051831482647728426 0.01649669349616804 0 -0.00047737421396784911 0.016312495670661464 0 -0.00037646942492647155 0.016441627516276779 0 -0.00051831482647728426 0.01649669349616804 0 -0.00038692974222575622 0.016549127760659657 0 -0.00037646942492647155 0.016441627516276779 0 -0.00047737421396784911 0.016312495670661464 0 -0.00037646942492647155 0.016441627516276779 0 -0.00030513793084349286 0.016354984294449496 0 -0.00037646942492647155 0.016441627516276779 0 -0.00027675772163871881 0.016445190198034924 0 -0.00030513793084349286 0.016354984294449496 0 -0.00037646942492647155 0.016441627516276779 0 -0.00027675772163871881 0.016445190198034924 0 -0.00028431811068021069 0.016535799284256476 0 1.3001864868588558e-05 0.016563042115148793 0 -4.169722388581156e-05 0.016743247616477507 0 -0.00027675772163871881 0.016445190198034924 0 -0.00022031021793924042 0.016502101184938694 0 -0.00028431811068021069 0.016535799284256476 0 -0.00014637889792761352 0.016293138932693796 0 -0.00020926926206753501 0.016416222200507796 0 -0.00018513810444646512 0.016588084706436329 0 -0.00027675772163871881 0.016445190198034924 0 -0.00030513793084349286 0.016354984294449496 0 -0.00020926926206753501 0.016416222200507796 0 -0.00027675772163871881 0.016445190198034924 0 -0.00020926926206753501 0.016416222200507796 0 -0.00022031021793924042 0.016502101184938694 0 -0.00030513793084349286 0.016354984294449496 0 -0.00020926926206753501 0.016416222200507796 0 -0.00022444664273581794 0.016300848841606534 0 -0.00014637889792761352 0.016293138932693796 0 -0.00020926926206753501 0.016416222200507796 0 -0.00022444664273581794 0.016300848841606534 0 -4.323235326921291e-05 0.01670259873484543 0 -9.1558003065826869e-05 0.016694833058587832 0 -0.00012357344512581655 0.016684053796229951 0 -4.323235326921291e-05 0.01670259873484543 0 -9.1558003065826869e-05 0.016694833058587832 0 -6.5399361829564657e-05 0.016712799249864296 0 -9.1558003065826869e-05 0.016694833058587832 0 -0.00012357344512581655 0.016684053796229951 0 -0.0001186837875522548 0.01669326080233282 0 -0.00020926926206753501 0.016416222200507796 0 -0.00022031021793924042 0.016502101184938694 0 -0.00018513810444646512 0.016588084706436329 0 -0.00022031021793924042 0.016502101184938694 0 -0.00028431811068021069 0.016535799284256476 0 -0.000232259168243918 0.01655494670709395 0 -0.00028431811068021069 0.016535799284256476 0 -0.00024299198848250366 0.016592973748382329 0 -0.000232259168243918 0.01655494670709395 0 -0.0003179146078178524 0.016629549740237476 0 -0.00028431811068021069 0.016535799284256476 0 -0.00024299198848250366 0.016592973748382329 0 -0.00022031021793924042 0.016502101184938694 0 -0.000232259168243918 0.01655494670709395 0 -0.00018513810444646512 0.016588084706436329 0 -0.00024299198848250366 0.016592973748382329 0 -0.000232259168243918 0.01655494670709395 0 -0.00018513810444646512 0.016588084706436329 0 -0.00024299198848250366 0.016592973748382329 0 -0.00018513810444646512 0.016588084706436329 0 -0.0002248518919999238 0.016667940482392767 0 -0.00012493543282478324 0.016665881971144887 0 -0.00014631382420060685 0.016678580450156008 0 -0.0002248518919999238 0.016667940482392767 0 -4.169722388581156e-05 0.016743247616477507 0 -4.5292087572952693e-05 0.016739415344008204 0 -4.169722388581156e-05 0.016743247616477507 0 -0.00012505501021577677 0.016745354093996568 0 -0.00014631382420060685 0.016678580450156008 0 -0.0002248518919999238 0.016667940482392767 0 -0.00017234101410633438 0.016697015572035522 0 -0.00014631382420060685 0.016678580450156008 0 -0.00017234101410633438 0.016697015572035522 0 -0.00013787453295053075 0.016719559155520806 0 -0.0003179146078178524 0.016629549740237476 0 -0.00024299198848250366 0.016592973748382329 0 -0.0002248518919999238 0.016667940482392767 0 -0.00027014040183059602 0.016711683766106256 0 -0.0002248518919999238 0.016667940482392767 0 -0.0001958558376442834 0.016725217602627712 0 -0.00014991706743069174 0.016768011157249501 0 -0.0001958558376442834 0.016725217602627712 0 -0.00013787453295053075 0.016719559155520806 0 -0.00017234101410633438 0.016697015572035522 0 -0.0001958558376442834 0.016725217602627712 0 -0.00013787453295053075 0.016719559155520806 0 -0.0002248518919999238 0.016667940482392767 0 -0.00017234101410633438 0.016697015572035522 0 -0.0001958558376442834 0.016725217602627712 0 -0.00014991706743069174 0.016768011157249501 0 -0.00010564443214323384 0.016744818619671215 0 -0.00013787453295053075 0.016719559155520806 0 -8.785358832703283e-05 0.016795511389397173 0 -0.00010564443214323384 0.016744818619671215 0 -6.275015863569721e-05 0.016737144630560606 0 -0.00010564443214323384 0.016744818619671215 0 -0.00013787453295053075 0.016719559155520806 0 -9.7008116729748118e-05 0.01670975798076824 0 -0.00010564443214323384 0.016744818619671215 0 -6.275015863569721e-05 0.016737144630560606 0 -9.7008116729748118e-05 0.01670975798076824 0 -6.275015863569721e-05 0.016737144630560606 0 -6.5399361829564657e-05 0.016712799249864296 0 -9.7008116729748118e-05 0.01670975798076824 0 -9.1558003065826869e-05 0.016694833058587832 0 -6.5399361829564657e-05 0.016712799249864296 0 -9.7008116729748118e-05 0.01670975798076824 0 -9.1558003065826869e-05 0.016694833058587832 0 -0.0001186837875522548 0.01669326080233282 0 -9.7008116729748118e-05 0.01670975798076824 0 -0.00012357344512581655 0.016684053796229951 0 -0.00014631382420060685 0.016678580450156008 0 -0.0001186837875522548 0.01669326080233282 0 -0.00013787453295053075 0.016719559155520806 0 -0.0001186837875522548 0.01669326080233282 0 -9.7008116729748118e-05 0.01670975798076824 0 -0.00014631382420060685 0.016678580450156008 0 -0.00013787453295053075 0.016719559155520806 0 -0.0001186837875522548 0.01669326080233282 0 -0.00024910192234600545 0.016105936079900993 0 -0.00019664842438473469 0.016194140699584653 0 -0.00029106914151385101 0.016232241588239493 0 -0.00014637889792761352 0.016293138932693796 0 -0.00019664842438473469 0.016194140699584653 0 -0.00022444664273581794 0.016300848841606534 0 -0.00019664842438473469 0.016194140699584653 0 -0.00022444664273581794 0.016300848841606534 0 -0.00029106914151385101 0.016232241588239493 0 -0.00030513793084349286 0.016354984294449496 0 -0.00022444664273581794 0.016300848841606534 0 -0.00029106914151385101 0.016232241588239493 0 -0.00024910192234600545 0.016105936079900993 0 -0.00029106914151385101 0.016232241588239493 0 -0.00042674099221660624 0.016143509595336475 0 -0.00047737421396784911 0.016312495670661464 0 -0.00030513793084349286 0.016354984294449496 0 -0.00029106914151385101 0.016232241588239493 0 -0.00047737421396784911 0.016312495670661464 0 -0.00029106914151385101 0.016232241588239493 0 -0.00042674099221660624 0.016143509595336475 0 -0.00024910192234600545 0.016105936079900993 0 -0.00042674099221660624 0.016143509595336475 0 -0.00053028919169249194 0.015936669547361084 0 -0.00053028919169249194 0.015936669547361084 0 -0.00066229792068743802 0.016165182050236006 0 -0.00086463144831053196 0.015997288267296666 0 -0.00042674099221660624 0.016143509595336475 0 -0.00053028919169249194 0.015936669547361084 0 -0.00066229792068743802 0.016165182050236006 0 -0.00047737421396784911 0.016312495670661464 0 -0.00042674099221660624 0.016143509595336475 0 -0.00066229792068743802 0.016165182050236006 0 -0.00072060198280684347 0.016392720520425726 0 -0.00066229792068743802 0.016165182050236006 0 -0.00087665701910737191 0.016230356889329802 0 -0.00066229792068743802 0.016165182050236006 0 -0.00087665701910737191 0.016230356889329802 0 -0.00086463144831053196 0.015997288267296666 0 -0.00087665701910737191 0.016230356889329802 0 -0.00086463144831053196 0.015997288267296666 0 -0.001151800947613137 0.016136095499047605 0 -0.00053028919169249194 0.015936669547361084 0 -0.00086463144831053196 0.015997288267296666 0 -0.00093007022017920827 0.015719393259370544 0 -0.00086463144831053196 0.015997288267296666 0 -0.00093007022017920827 0.015719393259370544 0 -0.0010746480726034804 0.01581515974683469 0 -0.00093007022017920827 0.015719393259370544 0 -0.0010746480726034804 0.01581515974683469 0 -0.0011434935623527765 0.015644315631874742 0 -0.00093007022017920827 0.015719393259370544 0 -0.0010564486951111919 0.015525658094045307 0 -0.0011434935623527765 0.015644315631874742 0 -0.00093007022017920827 0.015719393259370544 0 -0.00081721371303651623 0.015561239292929796 0 -0.0010564486951111919 0.015525658094045307 0 -0.0010564486951111919 0.015525658094045307 0 -0.00094898310977038964 0.015343014505044257 0 -0.0011518254188947006 0.015256242387224041 0 -0.00094898310977038964 0.015343014505044257 0 -0.0011518254188947006 0.015256242387224041 0 -0.0010676421136868314 0.015135148396825062 0 -0.00081721371303651623 0.015561239292929796 0 -0.0010564486951111919 0.015525658094045307 0 -0.00094898310977038964 0.015343014505044257 0 -0.00081721371303651623 0.015561239292929796 0 -0.00094898310977038964 0.015343014505044257 0 -0.00063475405744076922 0.015440208130713727 0 -0.00094898310977038964 0.015343014505044257 0 -0.00063475405744076922 0.015440208130713727 0 -0.00089745453392159379 0.015124303311896561 0 -0.00053028919169249194 0.015936669547361084 0 -0.00081721371303651623 0.015561239292929796 0 -0.00063475405744076922 0.015440208130713727 0 -0.00053028919169249194 0.015936669547361084 0 -0.00093007022017920827 0.015719393259370544 0 -0.00081721371303651623 0.015561239292929796 0 -0.00024910192234600545 0.016105936079900993 0 -0.00053028919169249194 0.015936669547361084 0 -0.00027797624959946077 0.01605312081396397 0 -0.00053028919169249194 0.015936669547361084 0 -0.00063475405744076922 0.015440208130713727 0 -0.00034419477873405362 0.015565385577688388 0 -0.00052118651389760316 0.015950772451960034 0 -0.00032816498496783059 0.015822060941047236 0 -0.00063475405744076922 0.015440208130713727 0 -0.00034419477873405362 0.015565385577688388 0 -0.000412009333602181 0.015302978696812965 0 -0.00032816498496783059 0.015822060941047236 0 -0.00018519334426172872 0.015727074405699062 0 -0.00034419477873405362 0.015565385577688388 0 -0.00015241502235208322 0.015306010844847664 0 -0.000412009333602181 0.015302978696812965 0 -0.00017968640999714409 0.016149942889769009 0 -0.00027797624959946077 0.01605312081396397 0 -0.00020549634893944678 0.01615632444534127 0 -0.00017968640999714409 0.016149942889769009 0 -0.00024910192234600545 0.016105936079900993 0 -0.00027797624959946077 0.01605312081396397 0 -0.000697397856149546 0.0065247562487939573 0 0.00011278415733795924 0.0062644827650590066 0 -0.0013383182504259012 0.0053288342145329645 0 -0.000697397856149546 0.0065247562487939573 0 -0.0013383182504259012 0.0053288342145329645 0 -0.001513305332276736 0.0070229090404761241 0 0.0010129883695314591 0.0068227871857654328 0 -5.9514235083787248e-05 0.006556352076096502 0 0.00011866540439972405 0.006244716402991758 0 -0.000697397856149546 0.0065247562487939573 0 -5.9514235083787248e-05 0.006556352076096502 0 0.00011278415733795924 0.0062644827650590066 0 -0.0007136798350163918 0.004963612211518296 0 -9.7832962110041221e-05 0.00297561460660527 0 0.00051297321165109531 0.0024552848141222703 0 0.0002308700749174558 0.0029303289845279694 0 0.00025014902599900229 0.0025888519566429008 0 0.0002308700749174558 0.0029303289845279694 0 0.00025014902599900229 0.0025888519566429008 0 -0.00024079799590185928 0.0026355429102811775 0 0.00025014902599900229 0.0025888519566429008 0 0.0001949097155530918 0.0024932094659892417 0 -0.00024079799590185928 0.0026355429102811775 0 0.00050221001252047078 -0.00083105004865220787 0 -9.7832962110041221e-05 0.00297561460660527 0 0.00051297321165109531 0.0024552848141222703 0 0.00025014902599900229 0.0025888519566429008 0 0.00018791029622783844 0.0024703334275487229 0 0.00050221001252047078 -0.00083105004865220787 0 -0.00020082015507929635 0.0014611641483028097 0 0.00016276206828713129 0.0022217407802315016 0 -0.00020082015507929635 0.0014611641483028097 0 -0.00020082015507929635 0.0014611641483028097 0 9.426252109884711e-05 0.0047577602373038447 0 0.0001949097155530918 0.0024932094659892417 0 -0.00023101497915399812 0.0025365774390292764 0 -0.00024079799590185928 0.0026355429102811775 0 -9.7832962110041221e-05 0.00297561460660527 0 -0.00049130636085801497 0.0066292039981762294 0 9.426252109884711e-05 0.0047577602373038447 0 -0.00049130636085801497 0.0066292039981762294 0 -0.0011904823468666275 0.0097716589770009514 0 -0.00031004898620167533 0.010353933690175867 0 -0.0013484024627816776 0.011678486807518837 0 0.00062063904907199059 0.0072245580122219455 0 0.00094491174724408876 0.0074299578562409029 0 0.0008018735761872851 0.0072913953789097846 0 9.426252109884711e-05 0.0047577602373038447 0 0.00057491173219056469 0.0053810117236131987 0 -0.00020002342079524012 0.010303233489247155 0 -0.0013886011675682251 0.013982691433316116 0 -0.00020002342079524012 0.010303233489247155 0 -0.00049130636085801497 0.0066292039981762294 0 0.0009560249868922271 0.0072817507307955023 0 0.00094491174724408876 0.0074299578562409029 0 0.0008018735761872851 0.0072913953789097846 0 -0.0010663484469447451 0.014771370625742044 0 -0.0014624401350858535 0.015134125037719085 0 -0.0012186616838624331 0.015461557164851031 0 -0.001151800947613137 0.016136095499047605 0 -0.0010746480726034804 0.01581515974683469 0 -0.0012793001092262142 0.015585428218284614 0 -0.00086463144831053196 0.015997288267296666 0 -0.001151800947613137 0.016136095499047605 0 -0.0010746480726034804 0.01581515974683469 0 -0.0014624401350858535 0.015134125037719085 0 -0.0012186616838624331 0.015461557164851031 0 -0.0012793001092262142 0.015585428218284614 0 -0.0013418606271601422 0.016297244786488072 0 -0.001316181191690318 0.015327797469718515 0 -0.00031004898620167533 0.010353933690175867 0 -0.0013484024627816776 0.011678486807518837 0 -0.00054489777448473635 0.01256365064684419 0 -0.00049130636085801497 0.0066292039981762294 0 -0.0010633104868634274 0.010136749056420123 0 -0.0013886011675682251 0.013982691433316116 0 -0.0013603004814649814 0.014416958590463077 0 -0.0013484024627816776 0.011678486807518837 0 -0.00054489777448473635 0.01256365064684419 0 -0.0014408896658693133 0.013472786790240754 0 -0.0012186616838624331 0.015461557164851031 0 -0.0013350804740581842 0.015596689103243513 0 -0.0012793001092262142 0.015585428218284614 0 -0.0010564486951111919 0.015525658094045307 0 -0.0013350804740581842 0.015596689103243513 0 -0.0011434935623527765 0.015644315631874742 0 -0.0010746480726034804 0.01581515974683469 0 -0.0011434935623527765 0.015644315631874742 0 -0.0012793001092262142 0.015585428218284614 0 -0.0013350804740581842 0.015596689103243513 0 -0.0011434935623527765 0.015644315631874742 0 -0.0012793001092262142 0.015585428218284614 0 -0.0010564486951111919 0.015525658094045307 0 -0.0013350804740581842 0.015596689103243513 0 -0.0011518254188947006 0.015256242387224041 0 -0.0013350804740581842 0.015596689103243513 0 -0.0011518254188947006 0.015256242387224041 0 -0.0013538242801835034 0.014946033812179828 0 -0.0013603004814649814 0.014416958590463077 0 -0.0013714565552685953 0.014947774297625163 0 -0.00054489777448473635 0.01256365064684419 0 -0.0014408896658693133 0.013472786790240754 0 -0.00081977710509939451 0.014490343885074594 0 -0.0014408896658693133 0.013472786790240754 0 -0.00081977710509939451 0.014490343885074594 0 -0.0013538242801835034 0.014946033812179828 0 -0.0010633104868634274 0.010136749056420123 0 -0.0014322161379373807 0.01122410695509792 0 -0.0019903138236065931 0.0095158310648863851 0 0.00039039322884675258 0.0087272895031929483 0 -0.0008843244147608894 0.010063858190923114 0 -0.0016831799659480886 0.0087712101888117455 0 -0.00069239190805429527 0.007471057723185512 0 -0.00038403974972724803 0.0083257846763671508 0 -0.0014322161379373807 0.01122410695509792 0 -0.00043804838165718054 0.007091735905103422 0 -0.00043804838165718054 0.007091735905103422 0 -0.0010095829549952352 0.0087753909553594019 0 -0.001513305332276736 0.0070229090404761241 0 -0.0016831799659480886 0.0087712101888117455 0 -0.00069239190805429527 0.007471057723185512 0 -0.000697397856149546 0.0065247562487939573 0 -5.9514235083787248e-05 0.006556352076096502 0 -0.00069239190805429527 0.007471057723185512 0 -0.000697397856149546 0.0065247562487939573 0 -0.001513305332276736 0.0070229090404761241 0 -0.00069239190805429527 0.007471057723185512 0 0.0010129883695314591 0.0068227871857654328 0 -5.9514235083787248e-05 0.006556352076096502 0 0.00031314897057315246 0.007575153395126326 0 -0.00069239190805429527 0.007471057723185512 0 0.00031314897057315246 0.007575153395126326 0 -0.00038403974972724803 0.0083257846763671508 0 -5.9514235083787248e-05 0.006556352076096502 0 -0.00069239190805429527 0.007471057723185512 0 0.00031314897057315246 0.007575153395126326 0 1.8181838542399083e-05 0.0051654050559077095 0 -0.00065230638584947277 0.0059020121310440704 0 0.0010871186164112226 0.0061063835592568656 0 -0.00037282429954973073 0.0065977362566124855 0 -0.00091898892318106743 0.0079362560258314663 0 -0.00033642805456436539 0.0046234953718942307 0 -0.00063921717774446181 0.0042043464786209756 0 -0.001365629168376397 0.0049867175755887614 0 1.8181838542399083e-05 0.0051654050559077095 0 -0.00043804838165718054 0.007091735905103422 0 -0.00035360562979512447 0.0060537723886143254 0 -0.00043804838165718054 0.007091735905103422 0 -0.00034094729139417607 0.0042234624072916144 0 -0.00069126019192638566 0.0044047738323719447 0 -0.00033939964804537062 0.0045132933511781844 0 -0.00077655982763668956 0.0047656792096930382 0 -0.00069126019192638566 0.0044047738323719447 0 -0.00033939964804537062 0.0045132933511781844 0 -0.00073919002720356875 0.0047277206534485621 0 -0.00021489929120337018 0.0044741889483240916 0 -0.00034077788116326281 0.0046438498108272953 0 -5.2490266928075123e-05 0.0043950772364673256 0 -0.00014941312467523058 0.0046031393851976984 0 -0.00034077788116326281 0.0046438498108272953 0 -0.00034512369189531889 0.0046730539377535987 0 -0.00014941312467523058 0.0046031393851976984 0 -0.00034077788116326281 0.0046438498108272953 0 -0.00077655982763668956 0.0047656792096930382 0 -5.2490266928075123e-05 0.0043950772364673256 0 -0.00032852925519713375 0.0047460299183082946 0 -0.00034405113713215302 0.0050251601588899844 0 -0.00077655982763668956 0.0047656792096930382 0 -0.00069126019192638566 0.0044047738323719447 0 -0.0014707178498183924 0.0048369042703664588 0 -0.00077655982763668956 0.0047656792096930382 0 -0.00038052120998310803 0.0054701278946605791 0 -0.0010677469562728327 0.0055360978875801615 0 -0.00034077788116326281 0.0046438498108272953 0 -0.00077655982763668956 0.0047656792096930382 0 -0.00038052120998310803 0.0054701278946605791 0 -0.00091898892318106743 0.0079362560258314663 0 -0.001395955528522026 0.0076661198014063023 0 -0.0024546284370281475 0.0087782587950965708 0 -0.00065230638584947277 0.0059020121310440704 0 -0.0018283058225268157 0.009451430220792827 0 -0.00037282429954973073 0.0065977362566124855 0 -0.00091898892318106743 0.0079362560258314663 0 -0.001395955528522026 0.0076661198014063023 0 -0.0019903138236065931 0.0095158310648863851 0 -0.0008843244147608894 0.010063858190923114 0 -0.002160992396067098 0.011396834249276781 0 -0.00091898892318106743 0.0079362560258314663 0 -0.0024894580732923821 0.0093668052307804162 0 -0.0024546284370281475 0.0087782587950965708 0 -0.0014322161379373807 0.01122410695509792 0 -0.0016497458057471023 0.012270011019164922 0 -0.00081977710509939451 0.014490343885074594 0 -0.0013538242801835034 0.014946033812179828 0 -0.0011144558086791222 0.015029939504364957 0 -0.0013538242801835034 0.014946033812179828 0 -0.0011144558086791222 0.015029939504364957 0 -0.0012488170749599345 0.014976990054311886 0 -0.0010095829549952352 0.0087753909553594019 0 -0.0016497458057471023 0.012270011019164922 0 -0.0011518254188947006 0.015256242387224041 0 -0.0012037224442893052 0.015002106652791551 0 -0.0010676421136868314 0.015135148396825062 0 -0.0011518254188947006 0.015256242387224041 0 -0.0013538242801835034 0.014946033812179828 0 -0.0012037224442893052 0.015002106652791551 0 -0.0013538242801835034 0.014946033812179828 0 -0.0012674406924642254 0.014954706264424304 0 -0.0012037224442893052 0.015002106652791551 0 -0.0012674406924642254 0.014954706264424304 0 -0.0012037224442893052 0.015002106652791551 0 -0.0012067505415100921 0.014929281590240838 0 -0.0013538242801835034 0.014946033812179828 0 -0.0012674406924642254 0.014954706264424304 0 -0.0012488170749599345 0.014976990054311886 0 -0.0011140376748468635 0.01498135555657301 0 -0.0012037224442893052 0.015002106652791551 0 -0.0010676421136868314 0.015135148396825062 0 -0.0011140376748468635 0.01498135555657301 0 -0.0012037224442893052 0.015002106652791551 0 -0.0012067505415100921 0.014929281590240838 0 -0.0011726579711339123 0.01480530646164102 0 -0.0012995004446276276 0.014860740633112947 0 -0.0011303518234603218 0.014697665889015577 0 -0.0011140376748468635 0.01498135555657301 0 -0.00113392742576694 0.014884454719739751 0 -0.0012067505415100921 0.014929281590240838 0 -0.00113392742576694 0.014884454719739751 0 -0.0012067505415100921 0.014929281590240838 0 -0.0012263860657662441 0.014881539255691422 0 -0.0012067505415100921 0.014929281590240838 0 -0.0012501768736371303 0.014936177940977589 0 -0.0012263860657662441 0.014881539255691422 0 -0.0012674406924642254 0.014954706264424304 0 -0.0012067505415100921 0.014929281590240838 0 -0.0012501768736371303 0.014936177940977589 0 -0.0012674406924642254 0.014954706264424304 0 -0.0012501768736371303 0.014936177940977589 0 -0.0012488170749599345 0.014976990054311886 0 -0.0012501768736371303 0.014936177940977589 0 -0.0012263860657662441 0.014881539255691422 0 -0.0012832029549883339 0.014907282911640602 0 -0.0012263860657662441 0.014881539255691422 0 -0.0011726579711339123 0.01480530646164102 0 -0.0012995004446276276 0.014860740633112947 0 -0.0012263860657662441 0.014881539255691422 0 -0.0012832029549883339 0.014907282911640602 0 -0.0012995004446276276 0.014860740633112947 0 -0.00113392742576694 0.014884454719739751 0 -0.0012263860657662441 0.014881539255691422 0 -0.0011726579711339123 0.01480530646164102 0 -0.00077655982763668956 0.0047656792096930382 0 -0.0014707178498183924 0.0048369042703664588 0 -0.0017753472966594555 0.0051020283617499952 0 -0.00077655982763668956 0.0047656792096930382 0 -0.0017753472966594555 0.0051020283617499952 0 -0.0010677469562728327 0.0055360978875801615 0 -0.0018283058225268157 0.009451430220792827 0 -0.0016497458057471023 0.012270011019164922 0 -0.0016497458057471023 0.012270011019164922 0 -0.0019409286482854422 0.014424554848180079 0 -0.0011144558086791222 0.015029939504364957 0 -0.0012488170749599345 0.014976990054311886 0 -0.0012832029549883339 0.014907282911640602 0 -0.0012501768736371303 0.014936177940977589 0 -0.0012488170749599345 0.014976990054311886 0 -0.0012832029549883339 0.014907282911640602 0 -0.0012792364421775298 0.014880871522535474 0 -0.0012774117850162779 0.014846554945682175 0 -0.0012832029549883339 0.014907282911640602 0 -0.0018283058225268157 0.009451430220792827 0 -0.0016675367314297632 0.0095651842150761002 0 -0.0012792364421775298 0.014880871522535474 0 -0.0012832029549883339 0.014907282911640602 0 -0.0012995004446276276 0.014860740633112947 0 -0.0017671882132061069 0.0062214635720165652 0 -0.00057420063309979185 0.006346834735615022 0 -0.0010677469562728327 0.0055360978875801615 0 -0.0017753472966594555 0.0051020283617499952 0 -0.0017671882132061069 0.0062214635720165652 0 -0.0010677469562728327 0.0055360978875801615 0 -0.0012995004446276276 0.014860740633112947 0 -0.0011303518234603218 0.014697665889015577 0 -0.0011167836571443547 0.014545217713398262 0 -0.0016675367314297632 0.0095651842150761002 0 -0.0015073461578182211 0.01190325947245491 0 -0.0017753472966594555 0.0051020283617499952 0 -0.0017671882132061069 0.0062214635720165652 0 -0.003085808435798784 0.0062694093624835381 0 -0.0017671882132061069 0.0062214635720165652 0 -0.0023981976493537495 0.0068057288235501912 0 -0.003085808435798784 0.0062694093624835381 0 -0.0023981976493537495 0.0068057288235501912 0 -0.003085808435798784 0.0062694093624835381 0 -0.0030293823551903001 0.0073784564274583433 0 -0.0017671882132061069 0.0062214635720165652 0 -0.0023981976493537495 0.0068057288235501912 0 -0.0017219418595323013 0.0074348010123420245 0 -0.0017671882132061069 0.0062214635720165652 0 -0.00057420063309979185 0.006346834735615022 0 -0.0017219418595323013 0.0074348010123420245 0 -0.00018188467384611475 0.006145756614213493 0 -0.00075934659195965896 0.0071599534211472596 0 -0.00018188467384611475 0.006145756614213493 0 5.1471623519481098e-05 0.0068139107982256083 0 -0.0004319450658241778 0.0048469594195103315 0 -0.00031892457283874004 0.0049390004160868297 0 -0.00052604987627074477 0.0050822805060092595 0 0.00036044248097808043 0.0073332764193539558 0 0.00049103952537897782 0.0070671201168341323 0 0.00038743827495606468 0.0074087748432739263 0 0.00036044248097808043 0.0073332764193539558 0 0.00049103952537897782 0.0070671201168341323 0 7.5388414063183281e-05 0.0074411062120361424 0 -0.00031892457283874004 0.0049390004160868297 0 -0.00026574440137039921 0.0047661803218849276 0 -0.00010603361117038533 0.0047980552103983956 0 -0.00031892457283874004 0.0049390004160868297 0 -0.00010405961565253325 0.0050900732914830465 0 -0.00010603361117038533 0.0047980552103983956 0 -0.0004319450658241778 0.0048469594195103315 0 -0.00031892457283874004 0.0049390004160868297 0 -0.00026574440137039921 0.0047661803218849276 0 -0.00026574440137039921 0.0047661803218849276 0 -0.00034512369189531889 0.0046730539377535987 0 -0.00014941312467523058 0.0046031393851976984 0 -0.00026574440137039921 0.0047661803218849276 0 -0.00010603361117038533 0.0047980552103983956 0 -0.00014941312467523058 0.0046031393851976984 0 -0.0004319450658241778 0.0048469594195103315 0 -0.00026574440137039921 0.0047661803218849276 0 -0.00034512369189531889 0.0046730539377535987 0 -0.00018188467384611475 0.006145756614213493 0 -0.00034405113713215302 0.0050251601588899844 0 -0.00057420063309979185 0.006346834735615022 0 -0.00038052120998310803 0.0054701278946605791 0 -0.0010677469562728327 0.0055360978875801615 0 -0.00031958418810251884 0.01508806545914934 0 -0.0006508574983541634 0.014804652226442524 0 -0.00020785103314236323 0.014836426154779954 0 8.6990507902140273e-05 0.015105719742805885 0 -0.00031958418810251884 0.01508806545914934 0 -0.00020785103314236323 0.014836426154779954 0 -0.00031958418810251884 0.01508806545914934 0 -0.00015241502235208322 0.015306010844847664 0 -0.000412009333602181 0.015302978696812965 0 -0.00031958418810251884 0.01508806545914934 0 -0.000412009333602181 0.015302978696812965 0 -0.00063550883809239172 0.015117781578103407 0 -0.00063475405744076922 0.015440208130713727 0 -0.000412009333602181 0.015302978696812965 0 -0.00063550883809239172 0.015117781578103407 0 -0.00031958418810251884 0.01508806545914934 0 -0.00063550883809239172 0.015117781578103407 0 -0.0006508574983541634 0.014804652226442524 0 -0.00086243630372298151 0.014945801519117804 0 -0.00063550883809239172 0.015117781578103407 0 -0.0006508574983541634 0.014804652226442524 0 -0.00086243630372298151 0.014945801519117804 0 -0.00088939523358030773 0.014767538778123359 0 -0.0006508574983541634 0.014804652226442524 0 -0.00063475405744076922 0.015440208130713727 0 -0.00063550883809239172 0.015117781578103407 0 -0.00089745453392159379 0.015124303311896561 0 -0.00086243630372298151 0.014945801519117804 0 -0.00063550883809239172 0.015117781578103407 0 -0.00089745453392159379 0.015124303311896561 0 -0.00094898310977038964 0.015343014505044257 0 -0.00089745453392159379 0.015124303311896561 0 -0.0010676421136868314 0.015135148396825062 0 -0.0011140376748468635 0.01498135555657301 0 -0.00089745453392159379 0.015124303311896561 0 -0.0010676421136868314 0.015135148396825062 0 -0.0011140376748468635 0.01498135555657301 0 -0.00089745453392159379 0.015124303311896561 0 -0.0010106803866587884 0.014929936827094523 0 -0.0011140376748468635 0.01498135555657301 0 -0.00113392742576694 0.014884454719739751 0 -0.0010106803866587884 0.014929936827094523 0 -0.00086243630372298151 0.014945801519117804 0 -0.00089745453392159379 0.015124303311896561 0 -0.0010106803866587884 0.014929936827094523 0 -0.00086243630372298151 0.014945801519117804 0 -0.0010414454635469118 0.014783359165602656 0 -0.00088939523358030773 0.014767538778123359 0 -0.00086243630372298151 0.014945801519117804 0 -0.0010106803866587884 0.014929936827094523 0 -0.0010414454635469118 0.014783359165602656 0 -0.00113392742576694 0.014884454719739751 0 -0.0010106803866587884 0.014929936827094523 0 -0.0010414454635469118 0.014783359165602656 0 -0.00113392742576694 0.014884454719739751 0 -0.0011726579711339123 0.01480530646164102 0 -0.0010414454635469118 0.014783359165602656 0 -0.0010158764799007222 0.014655178084307052 0 -0.0011273916058450937 0.014540894198993378 0 -0.00090000388069735708 0.014567674312650337 0 -0.0010414454635469118 0.014783359165602656 0 -0.0011303518234603218 0.014697665889015577 0 -0.0010158764799007222 0.014655178084307052 0 -0.0011726579711339123 0.01480530646164102 0 -0.0010414454635469118 0.014783359165602656 0 -0.0011303518234603218 0.014697665889015577 0 -0.0010414454635469118 0.014783359165602656 0 -0.0010158764799007222 0.014655178084307052 0 -0.00088939523358030773 0.014767538778123359 0 -0.0011303518234603218 0.014697665889015577 0 -0.0010158764799007222 0.014655178084307052 0 -0.0011093599292057671 0.014595635024894225 0 -0.0011303518234603218 0.014697665889015577 0 -0.0011093599292057671 0.014595635024894225 0 -0.0011167836571443547 0.014545217713398262 0 -0.0010158764799007222 0.014655178084307052 0 -0.0011093599292057671 0.014595635024894225 0 -0.0011273916058450937 0.014540894198993378 0 -0.0014229113785198971 0.012896138420803196 0 -0.0015073461578182211 0.01190325947245491 0 -0.0015997085812965797 0.014625461280500558 0 -0.00094819641748929639 0.014136394276350691 0 -0.0016412007339497005 0.01406433509604342 0 -0.0015073461578182211 0.01190325947245491 0 -0.0023991970101276136 0.010539041982190665 0 -0.0015073461578182211 0.01190325947245491 0 -0.0011389075569733797 0.015018883718465194 0 -0.0007346606024265411 0.014430570861058905 0 -0.00090000388069735708 0.014567674312650337 0 -0.00094819641748929639 0.014136394276350691 0 -0.0011273916058450937 0.014540894198993378 0 -0.00090000388069735708 0.014567674312650337 0 -0.00094819641748929639 0.014136394276350691 0 -0.0007346606024265411 0.014430570861058905 0 -0.00090000388069735708 0.014567674312650337 0 -0.0006508574983541634 0.014804652226442524 0 -0.00090000388069735708 0.014567674312650337 0 -0.00088939523358030773 0.014767538778123359 0 -0.0006508574983541634 0.014804652226442524 0 -0.0010158764799007222 0.014655178084307052 0 -0.00090000388069735708 0.014567674312650337 0 -0.00088939523358030773 0.014767538778123359 0 -0.0006508574983541634 0.014804652226442524 0 -0.00040508308254313258 0.014439324612218906 0 -0.00020785103314236323 0.014836426154779954 0 -0.0007346606024265411 0.014430570861058905 0 -0.0006508574983541634 0.014804652226442524 0 -0.00040508308254313258 0.014439324612218906 0 -0.0007346606024265411 0.014430570861058905 0 -0.00040508308254313258 0.014439324612218906 0 -0.00065849378405408588 0.013946092263309425 0 -8.0026202389316687e-05 0.014561674293773096 0 -0.00040508308254313258 0.014439324612218906 0 -0.00012779148620312318 0.014199520207133096 0 -0.00040508308254313258 0.014439324612218906 0 -0.00012779148620312318 0.014199520207133096 0 -0.00036316304660942347 0.014085213812496097 0 -8.0026202389316687e-05 0.014561674293773096 0 -0.00040508308254313258 0.014439324612218906 0 -0.00020785103314236323 0.014836426154779954 0 3.4199786411713597e-05 0.013406380833766961 0 -0.00024624166013343827 0.013739489988027036 0 -0.00021212254944122594 0.013297042952256066 0 -0.00024624166013343827 0.013739489988027036 0 -0.00055415923452330521 0.013515397017236093 0 -0.00021212254944122594 0.013297042952256066 0 5.6563962840430026e-05 0.013927710309343954 0 -0.00024624166013343827 0.013739489988027036 0 -0.00012779148620312318 0.014199520207133096 0 -0.00024624166013343827 0.013739489988027036 0 -0.00012779148620312318 0.014199520207133096 0 -0.00036316304660942347 0.014085213812496097 0 -0.00040508308254313258 0.014439324612218906 0 -0.00036316304660942347 0.014085213812496097 0 -0.00065849378405408588 0.013946092263309425 0 -0.00024624166013343827 0.013739489988027036 0 -0.00036316304660942347 0.014085213812496097 0 -0.00065849378405408588 0.013946092263309425 0 -0.00024624166013343827 0.013739489988027036 0 -0.00065849378405408588 0.013946092263309425 0 -0.00055415923452330521 0.013515397017236093 0 -0.00065849378405408588 0.013946092263309425 0 -0.00055415923452330521 0.013515397017236093 0 -0.00085838737747832503 0.013710967994556841 0 -0.00055415923452330521 0.013515397017236093 0 -0.00092245635741022641 0.013290617898042449 0 -0.00085838737747832503 0.013710967994556841 0 -0.00092245635741022641 0.013290617898042449 0 -0.0011909006985278124 0.013636348550984605 0 -0.001257423279811159 0.013082537015213324 0 -0.00092245635741022641 0.013290617898042449 0 -0.0011909006985278124 0.013636348550984605 0 -0.00085838737747832503 0.013710967994556841 0 -0.0011909006985278124 0.013636348550984605 0 -0.00085838737747832503 0.013710967994556841 0 -0.00094819641748929639 0.014136394276350691 0 -0.0011909006985278124 0.013636348550984605 0 -0.00094819641748929639 0.014136394276350691 0 -0.0014045756625698648 0.013811958127621928 0 -0.0007346606024265411 0.014430570861058905 0 -0.00065849378405408588 0.013946092263309425 0 -0.00094819641748929639 0.014136394276350691 0 -0.00065849378405408588 0.013946092263309425 0 -0.00085838737747832503 0.013710967994556841 0 -0.00094819641748929639 0.014136394276350691 0 -0.00094819641748929639 0.014136394276350691 0 -0.0014045756625698648 0.013811958127621928 0 -0.0016412007339497005 0.01406433509604342 0 -0.0023991970101276136 0.010539041982190665 0 -0.0014764242328562547 0.010481966095425456 0 -0.0014045756625698648 0.013811958127621928 0 -0.0016412007339497005 0.01406433509604342 0 -0.0016937346840562536 0.013489348147316125 0 -0.0011909006985278124 0.013636348550984605 0 -0.0014045756625698648 0.013811958127621928 0 -0.0016937346840562536 0.013489348147316125 0 -0.0014764242328562547 0.010481966095425456 0 -0.0017142501783710315 0.013791803722939327 0 -0.0011909006985278124 0.013636348550984605 0 -0.0016937346840562536 0.013489348147316125 0 -0.001257423279811159 0.013082537015213324 0 -0.0015505024972912787 0.013414399776409134 0 -0.0015562786674030015 0.013357583127549963 0 -0.001257423279811159 0.013082537015213324 0 -0.0014764242328562547 0.010481966095425456 0 -0.00097126973711128561 0.010096323088754553 0 -0.00010225628190424092 0.010187392160928451 0 7.0207627601821492e-05 0.010065324151749936 0 4.4428392951924508e-05 0.010222657902564639 0 -0.0015562786674030015 0.013357583127549963 0 -0.0011396679990318816 0.01285620677827529 0 -0.001257423279811159 0.013082537015213324 0 -0.00097126973711128561 0.010096323088754553 0 -0.0005304235595642294 0.011837988380814801 0 -0.00010297255593231454 0.010306328653665561 0 -0.00010225628190424092 0.010187392160928451 0 4.4428392951924508e-05 0.010222657902564639 0 -0.00097126973711128561 0.010096323088754553 0 -0.00016198834833094968 0.0090374964730968593 0 7.0207627601821492e-05 0.010065324151749936 0 5.3994325366175889e-07 0.010532156236124125 0 -5.6665225132625414e-07 0.0093282725078368354 0 -0.00010225628190424092 0.010187392160928451 0 7.0207627601821492e-05 0.010065324151749936 0 -5.6665225132625414e-07 0.0093282725078368354 0 7.0207627601821492e-05 0.010065324151749936 0 5.3994325366175889e-07 0.010532156236124125 0 4.4428392951924508e-05 0.010222657902564639 0 -0.00092245635741022641 0.013290617898042449 0 -0.0011396679990318816 0.01285620677827529 0 -0.001257423279811159 0.013082537015213324 0 -0.00055415923452330521 0.013515397017236093 0 -0.0004270057223847069 0.012997703772140327 0 -0.00021212254944122594 0.013297042952256066 0 -0.00055415923452330521 0.013515397017236093 0 -0.00092245635741022641 0.013290617898042449 0 -0.0004270057223847069 0.012997703772140327 0 -0.00092245635741022641 0.013290617898042449 0 -0.0011396679990318816 0.01285620677827529 0 -0.0004270057223847069 0.012997703772140327 0 -0.0005304235595642294 0.011837988380814801 0 2.4826947217908175e-07 0.011736933423932934 0 -0.0011396679990318816 0.01285620677827529 0 -0.0004270057223847069 0.012997703772140327 0 -5.4043187878904048e-07 0.011740515984682912 0 5.3994325366175889e-07 0.010532156236124125 0 4.4428392951924508e-05 0.010222657902564639 0 -5.4369721584365015e-07 0.011736153318079329 0 -0.0004270057223847069 0.012997703772140327 0 -5.4043187878904048e-07 0.011740515984682912 0 5.0026582521882509e-05 0.012903078734689247 0 5.3847106225159658e-05 0.013391576025889996 0 -5.4043187878904048e-07 0.011740515984682912 0 5.0026582521882509e-05 0.012903078734689247 0 -0.0004270057223847069 0.012997703772140327 0 5.0026582521882509e-05 0.012903078734689247 0 -0.00021212254944122594 0.013297042952256066 0 3.4199786411713597e-05 0.013406380833766961 0 5.0026582521882509e-05 0.012903078734689247 0 -0.00021212254944122594 0.013297042952256066 0 2.0634427982473786e-06 0.0081128901715366263 0 5.8186854126914549e-05 0.0081970180478820112 0 9.7402793704942292e-05 0.0081148606343311239 0 2.0634427982473786e-06 0.0081128901715366263 0 9.7402793704942292e-05 0.0081148606343311239 0 6.689513163229098e-05 0.0080071363684303468 0 -0.00044438751690090291 0.0053774674726942695 0 -0.00029511383448538808 0.0051742535167094541 0 -7.1487405592812295e-05 0.0054073174865464533 0 -0.00044438751690090291 0.0053774674726942695 0 -0.0003616790193114016 0.0057140161674911196 0 -7.1487405592812295e-05 0.0054073174865464533 0 -0.00029511383448538808 0.0051742535167094541 0 -7.1487405592812295e-05 0.0054073174865464533 0 -0.00010405961565253325 0.0050900732914830465 0 -0.00031892457283874004 0.0049390004160868297 0 -0.00029511383448538808 0.0051742535167094541 0 -0.00010405961565253325 0.0050900732914830465 0 -0.00025624747318140143 0.0066952506348024405 0 5.1471623519481098e-05 0.0068139107982256083 0 -0.00031892457283874004 0.0049390004160868297 0 -0.00029511383448538808 0.0051742535167094541 0 -0.00052604987627074477 0.0050822805060092595 0 5.1471623519481098e-05 0.0068139107982256083 0 0.00013654918327112267 0.0080993144570921018 0 -0.00044438751690090291 0.0053774674726942695 0 -0.00029511383448538808 0.0051742535167094541 0 -0.00052604987627074477 0.0050822805060092595 0 0.0001553107693150431 0.0070618859444926147 0 5.1471623519481098e-05 0.0068139107982256083 0 0.00036044248097808043 0.0073332764193539558 0 0.00038729748754548856 0.007412129196771226 0 7.5388414063183281e-05 0.0074411062120361424 0 0.00038729748754548856 0.007412129196771226 0 7.5388414063183281e-05 0.0074411062120361424 0 0.00014458505543107501 0.0076172715492907866 0 0.00038729748754548856 0.007412129196771226 0 0.00014458505543107501 0.0076172715492907866 0 0.00025908498677179131 0.0077694901616606896 0 7.5388414063183281e-05 0.0074411062120361424 0 0.00014458505543107501 0.0076172715492907866 0 -9.9155154989844345e-05 0.0076729748501706959 0 -0.0030293823551903001 0.0073784564274583433 0 -0.0029561636270862097 0.0085279941510584909 0 -0.0017219418595323013 0.0074348010123420245 0 -0.0014764242328562547 0.010481966095425456 0 -0.00075934659195965896 0.0071599534211472596 0 -0.00035305934221891528 0.0078495409473073596 0 7.5388414063183281e-05 0.0074411062120361424 0 -9.9155154989844345e-05 0.0076729748501706959 0 -0.0023981976493537495 0.0068057288235501912 0 -0.0030293823551903001 0.0073784564274583433 0 -0.0017219418595323013 0.0074348010123420245 0 -9.9155154989844345e-05 0.0076729748501706959 0 -4.6463971426489114e-05 0.007946266587905924 0 7.0435839465528895e-05 0.0077799837912514618 0 -0.00031446742159325469 0.0078431550521285802 0 -9.9155154989844345e-05 0.0076729748501706959 0 -4.6463971426489114e-05 0.007946266587905924 0 -0.00097126973711128561 0.010096323088754553 0 0.0003696965820219077 0.0074081994906150103 0 -0.00035305934221891528 0.0078495409473073596 0 -0.00034952815722418592 0.0079094846990947591 0 -9.9155154989844345e-05 0.0076729748501706959 0 9.7402793704942292e-05 0.0081148606343311239 0 0.00015707282345747703 0.0080423340384557368 0 6.689513163229098e-05 0.0080071363684303468 0 0.00013654918327112267 0.0080993144570921018 0 0.00017589841745572395 0.0079739318483658759 0 0.00025908498677179131 0.0077694901616606896 0 7.0435839465528895e-05 0.0077799837912514618 0 0.00015707282345747703 0.0080423340384557368 0 -4.6463971426489114e-05 0.007946266587905924 0 7.0435839465528895e-05 0.0077799837912514618 0 0.00015707282345747703 0.0080423340384557368 0 0.00014458505543107501 0.0076172715492907866 0 0.00025908498677179131 0.0077694901616606896 0 7.0435839465528895e-05 0.0077799837912514618 0 0.00014458505543107501 0.0076172715492907866 0 -9.9155154989844345e-05 0.0076729748501706959 0 7.0435839465528895e-05 0.0077799837912514618 0 0.00015707282345747703 0.0080423340384557368 0 0.00010765210703496965 0.0082873214853912032 0 0.00010850391318584841 0.0078475332147400437 0 -4.6463971426489114e-05 0.007946266587905924 0 0.00015707282345747703 0.0080423340384557368 0 0.00010765210703496965 0.0082873214853912032 0 -0.00031446742159325469 0.0078431550521285802 0 -0.00030351490867693313 0.0082491153054146827 0 -4.6463971426489114e-05 0.007946266587905924 0 -0.00030351490867693313 0.0082491153054146827 0 -4.6463971426489114e-05 0.007946266587905924 0 0.00010765210703496965 0.0082873214853912032 0 -0.00016198834833094968 0.0090374964730968593 0 -1.0297602916167014e-07 0.0093269343654165515 0 -0.00030351490867693313 0.0082491153054146827 0 -1.0828164394552288e-06 0.0093250108439791399 0 0.00010765210703496965 0.0082873214853912032 0 -1.0828164394552288e-06 0.0093250108439791399 0 0.00010765210703496965 0.0082873214853912032 0 1.0275757731241397e-06 0.0079477477974055875 0 0.00010765210703496965 0.0082873214853912032 0 1.0275757731241397e-06 0.0079477477974055875 0 0.00010850391318584841 0.0078475332147400437 0 0.00010850391318584841 0.0078475332147400437 0 -0.00014778459672989887 0.0078188758083706268 0 -1.0278958724322608e-06 0.0065704476531375901 0 1.0275757731241397e-06 0.0079477477974055875 0 0.00010850391318584841 0.0078475332147400437 0 -1.0278958724322608e-06 0.0065704476531375901 0 2.0634427982473786e-06 0.0081128901715366263 0 6.689513163229098e-05 0.0080071363684303468 0 -0.00014778459672989887 0.0078188758083706268 0 -0.00025624747318140143 0.0066952506348024405 0 -0.00020358309001569235 0.0067764670848005316 0 0.00015707282345747703 0.0080423340384557368 0 0.00010850391318584841 0.0078475332147400437 0 6.689513163229098e-05 0.0080071363684303468 0 0.00010850391318584841 0.0078475332147400437 0 6.689513163229098e-05 0.0080071363684303468 0 -0.00014778459672989887 0.0078188758083706268 0 -0.0003616790193114016 0.0057140161674911196 0 3.7436504153159851e-05 0.0057068042567132654 0 -7.1487405592812295e-05 0.0054073174865464533 0 -0.0003616790193114016 0.0057140161674911196 0 -9.8924479224010764e-07 0.006567100446584098 0 3.7436504153159851e-05 0.0057068042567132654 0 -0.00020358309001569235 0.0067764670848005316 0 -1.1077201828441269e-07 0.006568828993210595 0 -9.8924479224010764e-07 0.006567100446584098 0 8.8082923108373296e-07 0.0056371734858907943 0 3.7436504153159851e-05 0.0057068042567132654 0 8.8082923108373296e-07 0.0056371734858907943 0 0.00014734541796188879 0.0054890319346374856 0 3.7436504153159851e-05 0.0057068042567132654 0 8.8082923108373296e-07 0.0056371734858907943 0 -7.7746851993006188e-07 0.0047086165640345921 0 0.00014734541796188879 0.0054890319346374856 0 1.0165688066784709e-08 0.0047063343310594823 0 3.9210954176572626e-05 0.0045715752516016688 0 0.00014734541796188879 0.0054890319346374856 0 3.7436504153159851e-05 0.0057068042567132654 0 -7.1487405592812295e-05 0.0054073174865464533 0 -8.1053671678298072e-08 0.0047042295928175137 0 -5.6549693197996853e-07 0.0032543630478065948 0 5.9556644643264168e-05 0.0034777245826003856 0 5.9556644643264168e-05 0.0034777245826003856 0 -4.245885510864991e-05 0.0035038751800942746 0 -0.00025015201610899132 0.002750408962626578 0 -5.6549693197996853e-07 0.0032543630478065948 0 5.9556644643264168e-05 0.0034777245826003856 0 -0.00025015201610899132 0.002750408962626578 0 -8.1053671678298072e-08 0.0047042295928175137 0 -8.8795487175565994e-05 0.0036446658231619978 0 9.0647751178742447e-05 0.0036369621264035661 0 -8.1053671678298072e-08 0.0047042295928175137 0 5.9556644643264168e-05 0.0034777245826003856 0 9.0647751178742447e-05 0.0036369621264035661 0 -8.8795487175565994e-05 0.0036446658231619978 0 9.0647751178742447e-05 0.0036369621264035661 0 1.0788120436897245e-05 0.0036752490644051954 0 9.0647751178742447e-05 0.0036369621264035661 0 -4.245885510864991e-05 0.0035038751800942746 0 1.0788120436897245e-05 0.0036752490644051954 0 5.9556644643264168e-05 0.0034777245826003856 0 9.0647751178742447e-05 0.0036369621264035661 0 -4.245885510864991e-05 0.0035038751800942746 0 -0.00016961145628068943 0.0038129656502964241 0 1.0788120436897245e-05 0.0036752490644051954 0 -5.9480379625294043e-05 0.0039041327026025367 0 -4.245885510864991e-05 0.0035038751800942746 0 -0.00016961145628068943 0.0038129656502964241 0 1.0788120436897245e-05 0.0036752490644051954 0 1.0788120436897245e-05 0.0036752490644051954 0 -5.9480379625294043e-05 0.0039041327026025367 0 0.00010992133247149254 0.0037884331971479394 0 -8.8795487175565994e-05 0.0036446658231619978 0 1.0788120436897245e-05 0.0036752490644051954 0 0.00010992133247149254 0.0037884331971479394 0 -5.9480379625294043e-05 0.0039041327026025367 0 0.00010992133247149254 0.0037884331971479394 0 -1.2016259258695044e-07 0.0040550228563220898 0 -5.9480379625294043e-05 0.0039041327026025367 0 -0.00017910863503388594 0.0039585154545856288 0 -0.00011165110519103753 0.0040544081524043398 0 -0.00016961145628068943 0.0038129656502964241 0 -5.9480379625294043e-05 0.0039041327026025367 0 -0.00017910863503388594 0.0039585154545856288 0 -7.1487405592812295e-05 0.0054073174865464533 0 0.00018594217405182664 0.005266953608316219 0 -0.00010405961565253325 0.0050900732914830465 0 0.00014734541796188879 0.0054890319346374856 0 -7.1487405592812295e-05 0.0054073174865464533 0 0.00018594217405182664 0.005266953608316219 0 3.9210954176572626e-05 0.0045715752516016688 0 0.00013854050413261964 0.004532962171847817 0 0.00010992133247149254 0.0037884331971479394 0 0.00016860752169963077 0.0040855827478116398 0 -1.2016259258695044e-07 0.0040550228563220898 0 0.00013854050413261964 0.004532962171847817 0 0.00016453946840521786 0.0044996207449935982 0 0.00018594217405182664 0.005266953608316219 0 -0.00010405961565253325 0.0050900732914830465 0 0.00018401462233783622 0.0049204842657863679 0 -0.00010405961565253325 0.0050900732914830465 0 -0.00010603361117038533 0.0047980552103983956 0 0.00018401462233783622 0.0049204842657863679 0 -0.00010603361117038533 0.0047980552103983956 0 0.00010473699280690095 0.0044629479317021157 0 -0.00014941312467523058 0.0046031393851976984 0 0.00012127010203984964 0.0044606817982656621 0 0.00016453946840521786 0.0044996207449935982 0 -0.00010603361117038533 0.0047980552103983956 0 0.00010473699280690095 0.0044629479317021157 0 0.00018401462233783622 0.0049204842657863679 0 0.00010473699280690095 0.0044629479317021157 0 0.00016860752169963077 0.0040855827478116398 0 1.8870488581714722e-05 0.0042401411409416631 0 -5.9480379625294043e-05 0.0039041327026025367 0 -1.2016259258695044e-07 0.0040550228563220898 0 -0.00011165110519103753 0.0040544081524043398 0 -1.2016259258695044e-07 0.0040550228563220898 0 -8.6304230900112729e-05 0.0041951036141773083 0 1.8870488581714722e-05 0.0042401411409416631 0 0.00016860752169963077 0.0040855827478116398 0 -1.2016259258695044e-07 0.0040550228563220898 0 1.8870488581714722e-05 0.0042401411409416631 0 -0.00011165110519103753 0.0040544081524043398 0 -8.6304230900112729e-05 0.0041951036141773083 0 -0.00021736595742805228 0.0040939571483953503 0 -0.00017910863503388594 0.0039585154545856288 0 -0.00011165110519103753 0.0040544081524043398 0 -0.00021736595742805228 0.0040939571483953503 0 -1.2016259258695044e-07 0.0040550228563220898 0 -0.00011165110519103753 0.0040544081524043398 0 -8.6304230900112729e-05 0.0041951036141773083 0 -8.6304230900112729e-05 0.0041951036141773083 0 -0.00017949101158033789 0.0041979071150428041 0 -0.00021736595742805228 0.0040939571483953503 0 -8.6304230900112729e-05 0.0041951036141773083 0 -0.00011898533795819698 0.0042561660093550016 0 -0.00017949101158033789 0.0041979071150428041 0 -8.6304230900112729e-05 0.0041951036141773083 0 -0.00011898533795819698 0.0042561660093550016 0 -2.4552491145268174e-05 0.0043188117444193132 0 0.00010473699280690095 0.0044629479317021157 0 1.8870488581714722e-05 0.0042401411409416631 0 -2.4552491145268174e-05 0.0043188117444193132 0 -8.6304230900112729e-05 0.0041951036141773083 0 1.8870488581714722e-05 0.0042401411409416631 0 -2.4552491145268174e-05 0.0043188117444193132 0 -2.4552491145268174e-05 0.0043188117444193132 0 1.1890582698685089e-05 0.0043684171983049023 0 -9.6604793333424709e-05 0.0042781786230444967 0 0.00010473699280690095 0.0044629479317021157 0 -2.4552491145268174e-05 0.0043188117444193132 0 1.1890582698685089e-05 0.0043684171983049023 0 1.1890582698685089e-05 0.0043684171983049023 0 -9.6604793333424709e-05 0.0042781786230444967 0 -5.9141212522106584e-05 0.004361338342262054 0 -0.00011898533795819698 0.0042561660093550016 0 -2.4552491145268174e-05 0.0043188117444193132 0 -9.6604793333424709e-05 0.0042781786230444967 0 -0.00011898533795819698 0.0042561660093550016 0 -9.6604793333424709e-05 0.0042781786230444967 0 -0.00022694192304052071 0.004255922858408207 0 -3.9851375593195849e-05 0.0043643498401963951 0 -5.9141212522106584e-05 0.004361338342262054 0 -0.00014131612624911576 0.0043916056631658354 0 0.00016785328573170431 0.0018372918192960173 0 0.0004499317813723918 0.0021486489716865597 0 -9.6604793333424709e-05 0.0042781786230444967 0 -5.9141212522106584e-05 0.004361338342262054 0 -0.00014131612624911576 0.0043916056631658354 0 -3.9851375593195849e-05 0.0043643498401963951 0 -5.9141212522106584e-05 0.004361338342262054 0 -1.0358962046388157e-05 0.004371587055236866 0 1.1890582698685089e-05 0.0043684171983049023 0 -1.0358962046388157e-05 0.004371587055236866 0 3.3687760544154786e-05 0.0043857079162043268 0 -3.6546907044058642e-05 0.004369794961775161 0 -4.4882120090103675e-05 0.0043915933267395955 0 -3.9851375593195849e-05 0.0043643498401963951 0 -1.0358962046388157e-05 0.004371587055236866 0 3.3687760544154786e-05 0.0043857079162043268 0 1.1890582698685089e-05 0.0043684171983049023 0 -5.9141212522106584e-05 0.004361338342262054 0 -1.0358962046388157e-05 0.004371587055236866 0 1.1890582698685089e-05 0.0043684171983049023 0 3.3687760544154786e-05 0.0043857079162043268 0 3.212079157669661e-05 0.0044210785072530973 0 -4.4882120090103675e-05 0.0043915933267395955 0 -0.00021489929120337018 0.0044741889483240916 0 3.3687760544154786e-05 0.0043857079162043268 0 -5.2490266928075123e-05 0.0043950772364673256 0 3.212079157669661e-05 0.0044210785072530973 0 -0.00012068639917539879 0.0044049726116118272 0 -0.00033939964804537062 0.0045132933511781844 0 -0.00025250986977000747 0.0043689053148890881 0 -0.00034094729139417607 0.0042234624072916144 0 -0.00033939964804537062 0.0045132933511781844 0 -0.00025250986977000747 0.0043689053148890881 0 -5.2490266928075123e-05 0.0043950772364673256 0 3.212079157669661e-05 0.0044210785072530973 0 -0.00014941312467523058 0.0046031393851976984 0 0.00010473699280690095 0.0044629479317021157 0 3.212079157669661e-05 0.0044210785072530973 0 -0.00014941312467523058 0.0046031393851976984 0 0.00010473699280690095 0.0044629479317021157 0 1.1890582698685089e-05 0.0043684171983049023 0 3.212079157669661e-05 0.0044210785072530973 0 -0.001801566391831417 -0.0034977255244978676 0 -0.0013642206993341004 -0.0036598494547520582 0 -0.001418760993189283 -0.0040734526914444199 0 -0.001801566391831417 -0.0034977255244978676 0 -0.001418760993189283 -0.0040734526914444199 0 -0.0020703652448809478 -0.0039286180100790939 0 -0.001801566391831417 -0.0034977255244978676 0 -0.0013642206993341004 -0.0036598494547520582 0 -0.0011284408131570067 -0.0032886360844225047 0 -0.0008324244993064702 -0.0039231751822297852 0 -0.0011284408131570067 -0.0032886360844225047 0 -0.00026148592903771698 -0.0028607743126314337 0 -0.0013642206993341004 -0.0036598494547520582 0 -0.0008324244993064702 -0.0039231751822297852 0 -0.0011284408131570067 -0.0032886360844225047 0 -0.0013642206993341004 -0.0036598494547520582 0 -0.0008324244993064702 -0.0039231751822297852 0 -0.001418760993189283 -0.0040734526914444199 0 -0.0008324244993064702 -0.0039231751822297852 0 -0.001093297181834647 -0.0043708769725867317 0 -0.001418760993189283 -0.0040734526914444199 0 -0.00071595758009873817 -0.0047650839536285171 0 -0.0014102830440026754 -0.0047106641707922543 0 -0.001093297181834647 -0.0043708769725867317 0 -0.00071595758009873817 -0.0047650839536285171 0 -0.0008324244993064702 -0.0039231751822297852 0 -0.001093297181834647 -0.0043708769725867317 0 -0.0012603731870195758 -0.0047159300921071033 0 -0.00054748449852752915 -0.0018457986049930639 0 -0.0012378360454637319 -0.0046220088198999885 0 -0.0010017123362705213 -0.004261293573417483 0 -0.0014765678801317882 -0.0036161908915699893 0 -0.0014102830440026754 -0.0047106641707922543 0 -0.001418760993189283 -0.0040734526914444199 0 -0.0020703652448809478 -0.0039286180100790939 0 -0.0014102830440026754 -0.0047106641707922543 0 -0.001093297181834647 -0.0043708769725867317 0 -0.001418760993189283 -0.0040734526914444199 0 0.0010572717603878948 -0.00065710237310324937 0 0.00090277357499734829 -0.00047138403726114625 0 0.0009686288709083073 -0.00033226506841556514 0 -0.00013146892580990927 -0.0026754068064506445 0 -0.00054748449852752915 -0.0018457986049930639 0 0.00090277357499734829 -0.00047138403726114625 0 0.00093755864012251826 -0.00029229295185853664 0 0.0009686288709083073 -0.00033226506841556514 0 0.00090277357499734829 -0.00047138403726114625 0 0.00073079071035765805 -0.00042631444508589014 0 0.00093755864012251826 -0.00029229295185853664 0 0.0004499317813723918 0.0021486489716865597 0 -0.00036706323219850776 0.00095251788656617578 0 -0.00014131612624911576 0.0043916056631658354 0 -0.00026550172200074805 0.0042158115206668437 0 -0.00054978669652569717 0.004185299640164215 0 -9.6604793333424709e-05 0.0042781786230444967 0 -0.00014131612624911576 0.0043916056631658354 0 -0.00026550172200074805 0.0042158115206668437 0 -9.6604793333424709e-05 0.0042781786230444967 0 -0.00026550172200074805 0.0042158115206668437 0 -0.00030153938252838974 0.004087711812150327 0 -0.00026550172200074805 0.0042158115206668437 0 -0.00030153938252838974 0.004087711812150327 0 -0.00054978669652569717 0.004185299640164215 0 -0.00030153938252838974 0.004087711812150327 0 -0.00025385005760527869 0.0039305985768870117 0 -0.00040661267532311529 0.0039531093274646116 0 -9.6604793333424709e-05 0.0042781786230444967 0 -0.00030153938252838974 0.004087711812150327 0 -0.00025385005760527869 0.0039305985768870117 0 -0.00021845820580431254 0.0041401996270220556 0 5.9804464189282517e-05 0.0043858648923805815 0 -0.001801566391831417 -0.0034977255244978676 0 -0.0021215199875351219 -0.0037143056621595284 0 -0.0020703652448809478 -0.0039286180100790939 0 -0.0011193056435521156 -0.0003110963917689451 0 -0.00054748449852752915 -0.0018457986049930639 0 -0.0014044700544612911 0.00030429495556456772 0 -0.00076005860255601927 0.00073126985840465833 0 -0.00034398405766502161 -0.0010468400087782438 0 -0.00036706323219850776 0.00095251788656617578 0 -0.0011193056435521156 -0.0003110963917689451 0 -0.00036706323219850776 0.00095251788656617578 0 -0.00054748449852752915 -0.0018457986049930639 0 -0.00036706323219850776 0.00095251788656617578 0 -0.0010889385747545428 0.0042501490128737896 0 -0.00030153938252838974 0.004087711812150327 0 -0.00054978669652569717 0.004185299640164215 0 -0.00040661267532311529 0.0039531093274646116 0 -0.00056246463259938698 0.0041237611455163491 0 -0.00059384400699068109 0.0041048584616110023 0 -0.00040661267532311529 0.0039531093274646116 0 -0.001801566391831417 -0.0034977255244978676 0 -0.0021491044450630656 -0.0037175157552777061 0 -0.0019954270449736907 -0.0030928054718729002 0 -0.002558974809967102 -0.002699076192983475 0 -0.0011193056435521156 -0.0003110963917689451 0 -0.0011193056435521156 -0.0003110963917689451 0 -0.0010085202706895261 0.0009917160256053552 0 -0.0021491044450630656 -0.0037175157552777061 0 -0.0019954270449736907 -0.0030928054718729002 0 -0.0024197660014425942 -0.0026126287402364074 0 -0.00059384400699068109 0.0041048584616110023 0 -0.00050401544663650655 0.0036586986936631835 0 -0.00040661267532311529 0.0039531093274646116 0 -0.0019954270449736907 -0.0030928054718729002 0 -0.0024197660014425942 -0.0026126287402364074 0 -0.0015698759643143552 -0.0026936959667375813 0 -0.00036288127737207736 0.0041358666458311804 0 -0.00025408967714785362 0.0041682916721247649 0 -0.00021736595742805228 0.0040939571483953503 0 -0.00011898533795819698 0.0042561660093550016 0 -0.00022694192304052071 0.004255922858408207 0 -0.00017949101158033789 0.0041979071150428041 0 -0.00022694192304052071 0.004255922858408207 0 -0.00025408967714785362 0.0041682916721247649 0 -0.00017949101158033789 0.0041979071150428041 0 -0.00050401544663650655 0.0036586986936631835 0 -0.00025385005760527869 0.0039305985768870117 0 -0.00040661267532311529 0.0039531093274646116 0 -0.0010085202706895261 0.0009917160256053552 0 5.9804464189282517e-05 0.0043858648923805815 0 -0.00036288127737207736 0.0041358666458311804 0 -0.00022694192304052071 0.004255922858408207 0 -0.00025408967714785362 0.0041682916721247649 0 -0.00025408967714785362 0.0041682916721247649 0 -0.00017949101158033789 0.0041979071150428041 0 -0.00021736595742805228 0.0040939571483953503 0 -0.00036288127737207736 0.0041358666458311804 0 -0.00021736595742805228 0.0040939571483953503 0 -0.00033557398249070862 0.0039217469542841285 0 -0.0010085202706895261 0.0009917160256053552 0 -0.0012039903161398062 -0.0015965849223055044 0 -0.0005668689084735247 -0.00071770067722972091 0 -0.00033227026135917222 -0.00050720024400490327 0 -0.00065452386066910701 -0.00040772648115119876 0 -0.0010085202706895261 0.0009917160256053552 0 -0.00045856906100023837 0.0018993697165340787 0 -0.0024197660014425942 -0.0026126287402364074 0 -0.0016211065579906675 -0.0017928625075840357 0 -0.0015698759643143552 -0.0026936959667375813 0 -0.0016211065579906675 -0.0017928625075840357 0 -0.0015698759643143552 -0.0026936959667375813 0 -0.00061469447617408534 -0.002129944790385049 0 -0.001801566391831417 -0.0034977255244978676 0 -0.0015698759643143552 -0.0026936959667375813 0 -0.0011284408131570067 -0.0032886360844225047 0 -0.0015698759643143552 -0.0026936959667375813 0 -0.0011284408131570067 -0.0032886360844225047 0 -0.00061469447617408534 -0.002129944790385049 0 -0.001801566391831417 -0.0034977255244978676 0 -0.0019954270449736907 -0.0030928054718729002 0 -0.0015698759643143552 -0.0026936959667375813 0 -0.0011284408131570067 -0.0032886360844225047 0 -0.00061469447617408534 -0.002129944790385049 0 -0.00026148592903771698 -0.0028607743126314337 0 -0.00061469447617408534 -0.002129944790385049 0 -0.00037778720761044975 -0.00079347797202437289 0 -8.3537890791570372e-07 -0.0012029382354390582 0 -0.0016211065579906675 -0.0017928625075840357 0 -0.00061469447617408534 -0.002129944790385049 0 -0.00037778720761044975 -0.00079347797202437289 0 -0.00033227026135917222 -0.00050720024400490327 0 -0.00037778720761044975 -0.00079347797202437289 0 -0.00034019590005136981 -0.00025239069811900392 0 -0.0012039903161398062 -0.0015965849223055044 0 -0.00032310442740557399 -0.00064499628432648608 0 -0.00037778720761044975 -0.00079347797202437289 0 -0.00034019590005136981 -0.00025239069811900392 0 -7.8807848064060173e-05 0.0003709301598592813 0 -0.00037778720761044975 -0.00079347797202437289 0 -2.6662412929893024e-05 -0.0004174246082469707 0 -7.8807848064060173e-05 0.0003709301598592813 0 -0.00037778720761044975 -0.00079347797202437289 0 -2.6662412929893024e-05 -0.0004174246082469707 0 -8.3537890791570372e-07 -0.0012029382354390582 0 -0.00016961145628068943 0.0038129656502964241 0 -0.00017910863503388594 0.0039585154545856288 0 -0.00033557398249070862 0.0039217469542841285 0 -0.00017910863503388594 0.0039585154545856288 0 -0.00021736595742805228 0.0040939571483953503 0 -0.00033557398249070862 0.0039217469542841285 0 -0.00033227026135917222 -0.00050720024400490327 0 -0.00065452386066910701 -0.00040772648115119876 0 -0.00034019590005136981 -0.00025239069811900392 0 -0.00034019590005136981 -0.00025239069811900392 0 -0.00076980023789799737 0.00045674486646750905 0 -7.8807848064060173e-05 0.0003709301598592813 0 -0.00065452386066910701 -0.00040772648115119876 0 -0.00034019590005136981 -0.00025239069811900392 0 -0.00076980023789799737 0.00045674486646750905 0 -0.00045856906100023837 0.0018993697165340787 0 -0.00050488102224986481 0.0020439594393185613 0 -0.00016961145628068943 0.0038129656502964241 0 -0.00033557398249070862 0.0039217469542841285 0 -0.00035378098956607686 0.0036986927838523437 0 -4.245885510864991e-05 0.0035038751800942746 0 -0.00016961145628068943 0.0038129656502964241 0 -0.00035378098956607686 0.0036986927838523437 0 -4.245885510864991e-05 0.0035038751800942746 0 -0.00035378098956607686 0.0036986927838523437 0 -0.00025015201610899132 0.002750408962626578 0 -0.00076980023789799737 0.00045674486646750905 0 -0.00021305425261797456 0.0013711027827667888 0 -0.00025015201610899132 0.002750408962626578 0 -0.00050488102224986481 0.0020439594393185613 0 -0.00032567543342677401 0.0026331597091207213 0 -0.00076980023789799737 0.00045674486646750905 0 -0.00021305425261797456 0.0013711027827667888 0 -7.8807848064060173e-05 0.0003709301598592813 0 -0.00021305425261797456 0.0013711027827667888 0 -3.4097871669965369e-07 0.0018013658586711395 0 -7.8807848064060173e-05 0.0003709301598592813 0 -0.00021305425261797456 0.0013711027827667888 0 -3.4097871669965369e-07 0.0018013658586711395 0 -0.00025015201610899132 0.002750408962626578 0 -5.6549693197996853e-07 0.0032543630478065948 0 -3.4097871669965369e-07 0.0018013658586711395 0 -0.00025015201610899132 0.002750408962626578 0 -2.6662412929893024e-05 -0.0004174246082469707 0 -7.8807848064060173e-05 0.0003709301598592813 0 2.382001588608868e-07 0.00034993907910496733 0 -3.4097871669965369e-07 0.0018013658586711395 0 -7.8807848064060173e-05 0.0003709301598592813 0 2.382001588608868e-07 0.00034993907910496733 0 -2.6662412929893024e-05 -0.0004174246082469707 0 2.382001588608868e-07 0.00034993907910496733 0 0.00011146057444283245 -0.00077157915252488573 0 2.382001588608868e-07 0.00034993907910496733 0 0.00011146057444283245 -0.00077157915252488573 0 3.6754597650665556e-07 -0.001102037392992659 0 -2.6662412929893024e-05 -0.0004174246082469707 0 0.00011146057444283245 -0.00077157915252488573 0 0.00022195492921619095 -0.0011534166701357706 0 0.00027288646401813811 -0.0015549552106347004 0 0.00045548765006273668 -0.001582422031046317 0 0.00022195492921619095 -0.0011534166701357706 0 0.00011146057444283245 -0.00077157915252488573 0 0.00027288646401813811 -0.0015549552106347004 0 0.00022195492921619095 -0.0011534166701357706 0 0.00011146057444283245 -0.00077157915252488573 0 3.6754597650665556e-07 -0.001102037392992659 0 0.00027288646401813811 -0.0015549552106347004 0 5.2993161898800964e-07 -0.0025538164873499056 0 0.00020119709130664095 -0.0022003096689434593 0 0.00027288646401813811 -0.0015549552106347004 0 3.6754597650665556e-07 -0.001102037392992659 0 5.2993161898800964e-07 -0.0025538164873499056 0 0.00027288646401813811 -0.0015549552106347004 0 5.2993161898800964e-07 -0.0025538164873499056 0 0.00020119709130664095 -0.0022003096689434593 0 0.00010698298704865028 -0.0027735300706166347 0 0.00040054882834750357 -0.0019046443397390141 0 0.00010698298704865028 -0.0027735300706166347 0 6.3054265404345904e-05 -0.0020715034444296642 0 0.00020119709130664095 -0.0022003096689434593 0 0.00040054882834750357 -0.0019046443397390141 0 0.00010698298704865028 -0.0027735300706166347 0 0.00020119709130664095 -0.0022003096689434593 0 0.00027288646401813811 -0.0015549552106347004 0 0.00040054882834750357 -0.0019046443397390141 0 0.00027288646401813811 -0.0015549552106347004 0 0.00045548765006273668 -0.001582422031046317 0 0.00040054882834750357 -0.0019046443397390141 0 0.00045548765006273668 -0.001582422031046317 0 0.00040054882834750357 -0.0019046443397390141 0 0.00070274492438021782 -0.0018681290398633167 0 0.00040054882834750357 -0.0019046443397390141 0 0.00070274492438021782 -0.0018681290398633167 0 0.00032905917842348224 -0.0018906954017126384 0 0.0013439246888193245 -0.001030671602201858 0 -0.00037128653687742828 -0.0039241030412925579 0 0.00028989952034393383 -0.0021506761732276993 0 -0.00037128653687742828 -0.0039241030412925579 0 0.0013956840341325628 -0.0020398523885484334 0 0.00070274492438021782 -0.0018681290398633167 0 0.0013348049137505049 -0.0026402332730650806 0 0.0013956840341325628 -0.0020398523885484334 0 0.00070274492438021782 -0.0018681290398633167 0 0.0014852931490767342 -0.0014314731901445392 0 0.00045548765006273668 -0.001582422031046317 0 0.00070274492438021782 -0.0018681290398633167 0 0.00022441843513520943 -0.0018687628997449144 0 0.00022441843513520943 -0.0018687628997449144 0 -8.3537890791570372e-07 -0.0012029382354390582 0 0.00022195492921619095 -0.0011534166701357706 0 -0.00061469447617408534 -0.002129944790385049 0 0.00022441843513520943 -0.0018687628997449144 0 -8.3537890791570372e-07 -0.0012029382354390582 0 -2.6662412929893024e-05 -0.0004174246082469707 0 -8.3537890791570372e-07 -0.0012029382354390582 0 0.00022195492921619095 -0.0011534166701357706 0 0.00045548765006273668 -0.001582422031046317 0 0.00022441843513520943 -0.0018687628997449144 0 0.00022195492921619095 -0.0011534166701357706 0 -0.0005015262502251947 -0.0076252035847426515 0 -4.1789169156632136e-06 -0.0054614659617516579 0 1.2209072566678409e-06 -0.0066738460101980791 0 3.9288823522721317e-07 -0.0054574476284282979 0 -0.0017547996705364736 -0.0056113973717954709 0 -0.0005015262502251947 -0.0076252035847426515 0 -4.1789169156632136e-06 -0.0054614659617516579 0 -0.0013926266070656424 -0.0076604660893923497 0 -4.1789169156632136e-06 -0.0054614659617516579 0 -0.0013926266070656424 -0.0076604660893923497 0 -0.0027355353087645169 -0.0072828747764703688 0 -0.0005015262502251947 -0.0076252035847426515 0 -0.0013926266070656424 -0.0076604660893923497 0 -0.0015248274503645214 -0.0090274487525911409 0 -0.0013926266070656424 -0.0076604660893923497 0 -0.0027355353087645169 -0.0072828747764703688 0 -0.002185750807915591 -0.008361652664020237 0 -0.0027355353087645169 -0.0072828747764703688 0 -0.0041831048660513175 -0.0086398658761223171 0 -0.0029249031579272346 -0.0084303249579137079 0 -0.0027355353087645169 -0.0072828747764703688 0 -0.0029249031579272346 -0.0084303249579137079 0 -0.002185750807915591 -0.008361652664020237 0 -9.1002638468182919e-07 -0.0054568560439499638 0 -0.00023995963937942198 -0.0033418974051791024 0 3.2562892267709696e-09 -0.0040057933360872124 0 -0.00023995963937942198 -0.0033418974051791024 0 3.2562892267709696e-09 -0.0040057933360872124 0 0.00010698298704865028 -0.0027735300706166347 0 5.2993161898800964e-07 -0.0025538164873499056 0 3.2562892267709696e-09 -0.0040057933360872124 0 0.00010698298704865028 -0.0027735300706166347 0 -0.00023995963937942198 -0.0033418974051791024 0 0.00010698298704865028 -0.0027735300706166347 0 6.3054265404345904e-05 -0.0020715034444296642 0 -0.0017547996705364736 -0.0056113973717954709 0 -0.00037128653687742828 -0.0039241030412925579 0 0.0014852931490767342 -0.0014314731901445392 0 0.0018458934993415771 -0.0019799683768968027 0 0.0023525476875387702 -0.0018196769060852226 0 0.0013956840341325628 -0.0020398523885484334 0 0.0014852931490767342 -0.0014314731901445392 0 0.0018458934993415771 -0.0019799683768968027 0 0.0013956840341325628 -0.0020398523885484334 0 0.0018458934993415771 -0.0019799683768968027 0 0.0018319122095677306 -0.0023852477793689371 0 0.0018458934993415771 -0.0019799683768968027 0 0.0022163836370872321 -0.0022536361048370425 0 0.0023525476875387702 -0.0018196769060852226 0 0.0018458934993415771 -0.0019799683768968027 0 0.0022163836370872321 -0.0022536361048370425 0 0.0018319122095677306 -0.0023852477793689371 0 0.0022163836370872321 -0.0022536361048370425 0 0.0023525476875387702 -0.0018196769060852226 0 0.0026532613767093001 -0.0023174257415521757 0 -0.00037128653687742828 -0.0039241030412925579 0 4.2763941227779903e-05 -0.0054090810394821281 0 -0.0041831048660513175 -0.0086398658761223171 0 -0.0023486407718380127 -0.0093121002313788902 0 -0.0029249031579272346 -0.0084303249579137079 0 -0.0023486407718380127 -0.0093121002313788902 0 -0.0029249031579272346 -0.0084303249579137079 0 -0.002185750807915591 -0.008361652664020237 0 -0.0013926266070656424 -0.0076604660893923497 0 -0.002185750807915591 -0.008361652664020237 0 -0.0015248274503645214 -0.0090274487525911409 0 -0.0023486407718380127 -0.0093121002313788902 0 -0.002185750807915591 -0.008361652664020237 0 -0.0015248274503645214 -0.0090274487525911409 0 -0.0023486407718380127 -0.0093121002313788902 0 -0.0015248274503645214 -0.0090274487525911409 0 -0.00072072152026439874 -0.0098701626952640165 0 4.2763941227779903e-05 -0.0054090810394821281 0 -0.00011515824667906408 -0.0083472796944145319 0 0.0023525476875387702 -0.0018196769060852226 0 0.0026532613767093001 -0.0023174257415521757 0 0.0032180777406401817 -0.0022065992929113558 0 -0.0013762672866357495 -0.0094391895550223932 0 -0.00011515824667906408 -0.0083472796944145319 0 0.0026532613767093001 -0.0023174257415521757 0 0.0032180777406401817 -0.0022065992929113558 0 0.0030308187366794069 -0.0024524921716342117 0 0.0032180777406401817 -0.0022065992929113558 0 0.0032735719241707914 -0.0025204159285280689 0 0.0030308187366794069 -0.0024524921716342117 0 -0.00011515824667906408 -0.0083472796944145319 0 -0.00067866398002992454 -0.010137047741475958 0 -0.00011515824667906408 -0.0083472796944145319 0 -0.00055081920868567727 -0.0088176594978872282 0 -0.0017534679910549073 -0.010383014289004941 0 -0.00090821553503371956 -0.011205489070907721 0 -0.00064211590262016314 -0.010791535605003098 0 -0.0017534679910549073 -0.010383014289004941 0 -0.00088075696747806425 -0.011372361703884717 0 -0.00090821553503371956 -0.011205489070907721 0 0.0032180777406401817 -0.0022065992929113558 0 0.0032735719241707914 -0.0025204159285280689 0 0.0035438889567961907 -0.0025739929397995812 0 -0.0010719301949893435 -0.010173082132323609 0 -0.00067310623409728759 -0.0099183127321422725 0 -0.00064211590262016314 -0.010791535605003098 0 -0.0010719301949893435 -0.010173082132323609 0 -0.00086556720765301048 -0.0091936723970999813 0 -0.00067310623409728759 -0.0099183127321422725 0 -0.0005015262502251947 -0.0076252035847426515 0 -0.0015248274503645214 -0.0090274487525911409 0 -0.00086556720765301048 -0.0091936723970999813 0 -0.00086556720765301048 -0.0091936723970999813 0 -0.00026978489774133127 -0.0089523130788206236 0 -0.00067310623409728759 -0.0099183127321422725 0 -0.0005015262502251947 -0.0076252035847426515 0 -0.00086556720765301048 -0.0091936723970999813 0 -0.00026978489774133127 -0.0089523130788206236 0 -0.0015248274503645214 -0.0090274487525911409 0 -0.0010719301949893435 -0.010173082132323609 0 -0.00086556720765301048 -0.0091936723970999813 0 0.0032939046310371581 -0.0035198193733178952 0 0.003307075024156361 -0.0031070057066679103 0 0.003695692199622238 -0.0033657697229181778 0 0.0032939046310371581 -0.0035198193733178952 0 0.003083027645541146 -0.0031578521668670641 0 0.0028825680841492157 -0.0033655895207957251 0 0.003083027645541146 -0.0031578521668670641 0 0.0030988697013438911 -0.0028763983880050786 0 0.0028486076008335903 -0.0029388845328780183 0 0.003083027645541146 -0.0031578521668670641 0 0.003307075024156361 -0.0031070057066679103 0 0.0030988697013438911 -0.0028763983880050786 0 0.0032939046310371581 -0.0035198193733178952 0 0.003083027645541146 -0.0031578521668670641 0 0.003307075024156361 -0.0031070057066679103 0 0.003307075024156361 -0.0031070057066679103 0 0.0033486708775454371 -0.0028405285463322665 0 0.003695692199622238 -0.0033657697229181778 0 0.003307075024156361 -0.0031070057066679103 0 0.0033486708775454371 -0.0028405285463322665 0 0.0030988697013438911 -0.0028763983880050786 0 0.0033486708775454371 -0.0028405285463322665 0 0.0032735719241707914 -0.0025204159285280689 0 0.0035438889567961907 -0.0025739929397995812 0 0.0033486708775454371 -0.0028405285463322665 0 0.0032735719241707914 -0.0025204159285280689 0 0.0031296737913926844 -0.0026111855764665206 0 0.0030308187366794069 -0.0024524921716342117 0 0.0031296737913926844 -0.0026111855764665206 0 0.0028789671010608369 -0.0026086357384787172 0 0.0032735719241707914 -0.0025204159285280689 0 0.0030308187366794069 -0.0024524921716342117 0 0.0031296737913926844 -0.0026111855764665206 0 0.0031296737913926844 -0.0026111855764665206 0 0.0030988697013438911 -0.0028763983880050786 0 0.0028789671010608369 -0.0026086357384787172 0 0.0033486708775454371 -0.0028405285463322665 0 0.0031296737913926844 -0.0026111855764665206 0 0.0030988697013438911 -0.0028763983880050786 0 0.0030988697013438911 -0.0028763983880050786 0 0.0028486076008335903 -0.0029388845328780183 0 0.0028789671010608369 -0.0026086357384787172 0 0.0028486076008335903 -0.0029388845328780183 0 0.0028789671010608369 -0.0026086357384787172 0 0.0026463614534977878 -0.0027229371269244977 0 0.0026532613767093001 -0.0023174257415521757 0 0.0028789671010608369 -0.0026086357384787172 0 0.0026463614534977878 -0.0027229371269244977 0 0.0026532613767093001 -0.0023174257415521757 0 0.0030308187366794069 -0.0024524921716342117 0 0.0028789671010608369 -0.0026086357384787172 0 0.0026532613767093001 -0.0023174257415521757 0 0.0026463614534977878 -0.0027229371269244977 0 0.0022997028349535172 -0.0026887904754560941 0 0.0028486076008335903 -0.0029388845328780183 0 0.0026463614534977878 -0.0027229371269244977 0 0.0025528873753920536 -0.0030644264374936466 0 0.0026463614534977878 -0.0027229371269244977 0 0.0025528873753920536 -0.0030644264374936466 0 0.0022997028349535172 -0.0026887904754560941 0 0.0028486076008335903 -0.0029388845328780183 0 0.0025528873753920536 -0.0030644264374936466 0 0.0028825680841492157 -0.0033655895207957251 0 0.003083027645541146 -0.0031578521668670641 0 0.0028486076008335903 -0.0029388845328780183 0 0.0028825680841492157 -0.0033655895207957251 0 0.0025528873753920536 -0.0030644264374936466 0 0.0028825680841492157 -0.0033655895207957251 0 0.0024466227231732572 -0.0035536862141545547 0 0.0021609873920281747 -0.0034063650484457714 0 0.0022330180979130078 -0.0031663242339758516 0 0.0024466227231732572 -0.0035536862141545547 0 0.0025528873753920536 -0.0030644264374936466 0 0.0022330180979130078 -0.0031663242339758516 0 0.0024466227231732572 -0.0035536862141545547 0 0.0021609873920281747 -0.0034063650484457714 0 0.0022330180979130078 -0.0031663242339758516 0 0.0019284646989381092 -0.0033241353665677004 0 0.0021609873920281747 -0.0034063650484457714 0 0.0019284646989381092 -0.0033241353665677004 0 0.0020599646885478941 -0.0035627833746246906 0 0.0022330180979130078 -0.0031663242339758516 0 0.0022997028349535172 -0.0026887904754560941 0 0.0018828483068947628 -0.0029107364370557207 0 0.0022330180979130078 -0.0031663242339758516 0 0.0018828483068947628 -0.0029107364370557207 0 0.0019284646989381092 -0.0033241353665677004 0 0.0025528873753920536 -0.0030644264374936466 0 0.0022330180979130078 -0.0031663242339758516 0 0.0022997028349535172 -0.0026887904754560941 0 0.0022163836370872321 -0.0022536361048370425 0 0.0026532613767093001 -0.0023174257415521757 0 0.0022997028349535172 -0.0026887904754560941 0 0.0022163836370872321 -0.0022536361048370425 0 0.0022997028349535172 -0.0026887904754560941 0 0.0018319122095677306 -0.0023852477793689371 0 0.0022997028349535172 -0.0026887904754560941 0 0.0018319122095677306 -0.0023852477793689371 0 0.0018828483068947628 -0.0029107364370557207 0 0.0018319122095677306 -0.0023852477793689371 0 0.0018828483068947628 -0.0029107364370557207 0 0.0013348049137505049 -0.0026402332730650806 0 0.0013956840341325628 -0.0020398523885484334 0 0.0018319122095677306 -0.0023852477793689371 0 0.0013348049137505049 -0.0026402332730650806 0 0.0018828483068947628 -0.0029107364370557207 0 0.001673697991128443 -0.0032296732313755261 0 0.0013348049137505049 -0.0026402332730650806 0 0.0019284646989381092 -0.0033241353665677004 0 0.001673697991128443 -0.0032296732313755261 0 0.0018990205502650297 -0.0036872942622681766 0 0.0018828483068947628 -0.0029107364370557207 0 0.0019284646989381092 -0.0033241353665677004 0 0.001673697991128443 -0.0032296732313755261 0 0.001673697991128443 -0.0032296732313755261 0 0.0019684563453333131 -0.0036627742383968042 0 0.0012067064514562397 -0.0033761227267625061 0 0.00085538176991101136 -0.0061356156789073146 0 0.00043212042255981009 -0.0045210998292617519 0 0.0013212765160631158 -0.0030227630318991373 0 0.00085538176991101136 -0.0061356156789073146 0 -0.00024332888821769445 -0.0053315777992847709 0 -0.00035517828080155827 -0.0056358195981947232 0 -0.00032769742654412419 -0.005528847831719713 0 -0.00024332888821769445 -0.0053315777992847709 0 -0.00035517828080155827 -0.0056358195981947232 0 -0.00040945345974527619 -0.0060480629466511992 0 0.00085538176991101136 -0.0061356156789073146 0 0.00089474428840859339 -0.0094824893789830882 0 -0.00024332888821769445 -0.0053315777992847709 0 -0.00040945345974527619 -0.0060480629466511992 0 0.00048277547831828202 -0.0060759431987962445 0 0.00055246243958171552 -0.010840875083284339 0 0.0014043012752634153 -0.011258920211736205 0 0.0013693752006729101 -0.012103582020115685 0 0.00055246243958171552 -0.010840875083284339 0 0.00099219259409563448 -0.010708056170823732 0 0.0014043012752634153 -0.011258920211736205 0 0.0018990205502650297 -0.0036872942622681766 0 0.0021835934647503482 -0.0035968250188378429 0 0.0020599646885478941 -0.0035627833746246906 0 0.0019284646989381092 -0.0033241353665677004 0 0.0018990205502650297 -0.0036872942622681766 0 0.0020599646885478941 -0.0035627833746246906 0 0.00085538176991101136 -0.0061356156789073146 0 0.0016988074896196169 -0.0054338614629024081 0 0.0016988074896196169 -0.0054338614629024081 0 0.0017436733024599671 -0.0051600427135995858 0 0.0021609873920281747 -0.0034063650484457714 0 0.0021785760722339799 -0.0036016077423850746 0 0.0020599646885478941 -0.0035627833746246906 0 0.0021609873920281747 -0.0034063650484457714 0 0.0021785760722339799 -0.0036016077423850746 0 0.0024466227231732572 -0.0035536862141545547 0 0.0016988074896196169 -0.0054338614629024081 0 0.0026331507605685945 -0.0042192453093229613 0 0.0016988074896196169 -0.0054338614629024081 0 0.0029773105610971114 -0.0074994294067476036 0 0.00099219259409563448 -0.010708056170823732 0 0.0014043012752634153 -0.011258920211736205 0 0.0021043967250023335 -0.011076691601155297 0 0.0021400573173352539 -0.0036514249133685938 0 0.0024466227231732572 -0.0035536862141545547 0 0.0029813987476998444 -0.0039280216372582924 0 0.0028825680841492157 -0.0033655895207957251 0 0.0024466227231732572 -0.0035536862141545547 0 0.0029813987476998444 -0.0039280216372582924 0 0.0014043012752634153 -0.011258920211736205 0 0.0019350820427629237 -0.011564890700573652 0 0.0013693752006729101 -0.012103582020115685 0 0.0014043012752634153 -0.011258920211736205 0 0.0019350820427629237 -0.011564890700573652 0 0.0021043967250023335 -0.011076691601155297 0 0.0019350820427629237 -0.011564890700573652 0 0.0013693752006729101 -0.012103582020115685 0 0.0020728327593777826 -0.012071610564700181 0 0.0019350820427629237 -0.011564890700573652 0 0.0024552234687845041 -0.011758211355040273 0 0.0021043967250023335 -0.011076691601155297 0 0.0024552234687845041 -0.011758211355040273 0 0.0021043967250023335 -0.011076691601155297 0 0.0030628172656578644 -0.01136482833543385 0 0.0019350820427629237 -0.011564890700573652 0 0.0024552234687845041 -0.011758211355040273 0 0.0020728327593777826 -0.012071610564700181 0 0.0032939046310371581 -0.0035198193733178952 0 0.0029813987476998444 -0.0039280216372582924 0 0.0038242471375785733 -0.0042152610063492498 0 0.0029773105610971114 -0.0074994294067476036 0 0.0011145223998569318 -0.0099851434230648992 0 0.0032939046310371581 -0.0035198193733178952 0 0.0028825680841492157 -0.0033655895207957251 0 0.0029813987476998444 -0.0039280216372582924 0 -0.00026148592903771698 -0.0028607743126314337 0 0.00057289439779502371 -0.00264750704364441 0 0.00029728041010552059 -0.0035850865950722019 0 -0.00061469447617408534 -0.002129944790385049 0 0.00022441843513520943 -0.0018687628997449144 0 -0.00026148592903771698 -0.0028607743126314337 0 0.00022441843513520943 -0.0018687628997449144 0 -0.00026148592903771698 -0.0028607743126314337 0 0.00057289439779502371 -0.00264750704364441 0 0.00070274492438021782 -0.0018681290398633167 0 0.00057289439779502371 -0.00264750704364441 0 0.0013348049137505049 -0.0026402332730650806 0 0.00070274492438021782 -0.0018681290398633167 0 0.00022441843513520943 -0.0018687628997449144 0 0.00057289439779502371 -0.00264750704364441 0 0.001673697991128443 -0.0032296732313755261 0 0.0013348049137505049 -0.0026402332730650806 0 0.0012067064514562397 -0.0033761227267625061 0 0.00057289439779502371 -0.00264750704364441 0 0.0013348049137505049 -0.0026402332730650806 0 0.0012067064514562397 -0.0033761227267625061 0 0.00057289439779502371 -0.00264750704364441 0 0.0012067064514562397 -0.0033761227267625061 0 0.00029728041010552059 -0.0035850865950722019 0 0.0012067064514562397 -0.0033761227267625061 0 0.0011403588023646935 -0.00405402935870002 0 0.00029728041010552059 -0.0035850865950722019 0 0.0019684563453333131 -0.0036627742383968042 0 0.0012067064514562397 -0.0033761227267625061 0 0.0011403588023646935 -0.00405402935870002 0 -0.00032769742654412419 -0.005528847831719713 0 -0.00016064421375371066 -0.005306068598068211 0 -0.0003189546836757377 -0.005609024469111947 0 -0.00035517828080155827 -0.0056358195981947232 0 -0.00032769742654412419 -0.005528847831719713 0 -0.0003189546836757377 -0.005609024469111947 0 0.0011403588023646935 -0.00405402935870002 0 -3.1141498196777959e-05 -0.0047773158388669835 0 0.00029728041010552059 -0.0035850865950722019 0 -0.00032769742654412419 -0.005528847831719713 0 -3.1141498196777959e-05 -0.0047773158388669835 0 -0.00016064421375371066 -0.005306068598068211 0 0.00043212042255981009 -0.0045210998292617519 0 -8.549894661058053e-05 -0.0048920729172010069 0 -0.0008324244993064702 -0.0039231751822297852 0 -3.1141498196777959e-05 -0.0047773158388669835 0 0.00029728041010552059 -0.0035850865950722019 0 -0.0008324244993064702 -0.0039231751822297852 0 -0.00026148592903771698 -0.0028607743126314337 0 0.00029728041010552059 -0.0035850865950722019 0 -0.00071595758009873817 -0.0047650839536285171 0 -0.0008324244993064702 -0.0039231751822297852 0 -3.1141498196777959e-05 -0.0047773158388669835 0 -0.00071595758009873817 -0.0047650839536285171 0 -0.00080630170334847684 -0.0052365308693321771 0 -0.00037149333659785796 -0.0051995521565455591 0 -0.00071595758009873817 -0.0047650839536285171 0 -3.1141498196777959e-05 -0.0047773158388669835 0 -0.00037149333659785796 -0.0051995521565455591 0 -3.1141498196777959e-05 -0.0047773158388669835 0 -0.00016991728354435475 -0.0052484691014318173 0 -0.00037149333659785796 -0.0051995521565455591 0 -3.1141498196777959e-05 -0.0047773158388669835 0 -0.00016991728354435475 -0.0052484691014318173 0 -0.00016064421375371066 -0.005306068598068211 0 -0.00016991728354435475 -0.0052484691014318173 0 -0.00025740028733968354 -0.0053650654123174506 0 -0.00018030530416272741 -0.0053166519150318883 0 -0.00016991728354435475 -0.0052484691014318173 0 -0.00037149333659785796 -0.0051995521565455591 0 -0.00025740028733968354 -0.0053650654123174506 0 -0.00080630170334847684 -0.0052365308693321771 0 -0.00037149333659785796 -0.0051995521565455591 0 -0.00042661818168740929 -0.0053953267687266819 0 -0.00037149333659785796 -0.0051995521565455591 0 -0.00042661818168740929 -0.0053953267687266819 0 -0.00025740028733968354 -0.0053650654123174506 0 -0.00042661818168740929 -0.0053953267687266819 0 -0.00025740028733968354 -0.0053650654123174506 0 -0.0003319075498718528 -0.0056157915381165255 0 -0.00025740028733968354 -0.0053650654123174506 0 -0.0003319075498718528 -0.0056157915381165255 0 -0.0001779075195581607 -0.0054381374451294385 0 -0.00018950710592656399 -0.0064300653057372615 0 -0.0024153412902483788 -0.0081624260002527097 0 -0.00067603580936021748 -0.0071799002617279461 0 -0.0010319572623587818 -0.0070667075162541178 0 -0.002284563863566182 -0.0082793838142511452 0 -0.0010014853952738374 -0.0085433530142900362 0 -0.0024153412902483788 -0.0081624260002527097 0 -0.00018950710592656399 -0.0064300653057372615 0 -0.0010014853952738374 -0.0085433530142900362 0 -1.7372594368485289e-05 -0.0051751333290876037 0 -0.00018950710592656399 -0.0064300653057372615 0 -0.0005673537304953253 -0.0055770432393848369 0 -0.00042661818168740929 -0.0053953267687266819 0 -0.0003319075498718528 -0.0056157915381165255 0 0.00089323430611962457 -0.0048071651497975949 0 0.00021181588666678767 -0.0046106266168583427 0 0.00075787034743418093 -0.0042281775124282427 0 -0.0024162190402432899 -0.0099135748853813859 0 -0.001441194090045673 -0.010450819308667238 0 -0.0029846780684388298 -0.011018922964707807 0 -0.0024162190402432899 -0.0099135748853813859 0 -0.0015647709232589904 -0.0095070256046895351 0 -0.001441194090045673 -0.010450819308667238 0 -0.0043346301577502754 -0.010533238764254278 0 -0.0034462312843051559 -0.0096281700899992669 0 -0.0029846780684388298 -0.011018922964707807 0 -0.0024162190402432899 -0.0099135748853813859 0 -0.0034462312843051559 -0.0096281700899992669 0 -0.0029846780684388298 -0.011018922964707807 0 -0.00025740028733968354 -0.0053650654123174506 0 -0.0001779075195581607 -0.0054381374451294385 0 -0.00018030530416272741 -0.0053166519150318883 0 -0.0024162190402432899 -0.0099135748853813859 0 -0.0034462312843051559 -0.0096281700899992669 0 -0.0025834021180785208 -0.0089527772147702887 0 -0.0024153412902483788 -0.0081624260002527097 0 -0.0011955175775110721 -0.0065679822739776444 0 -0.0024153412902483788 -0.0081624260002527097 0 -0.0029758562335874318 -0.0090745903103632668 0 -0.0039660185180668637 -0.0096168696646760088 0 -0.0028907414211382758 -0.0088716912743038497 0 -0.0024023571031321364 -0.0080810922907830172 0 -0.0001779075195581607 -0.0054381374451294385 0 -0.00023830829513536646 -0.0053195071395056798 0 -0.00018030530416272741 -0.0053166519150318883 0 -0.0025834021180785208 -0.0089527772147702887 0 -0.0015647709232589904 -0.0095070256046895351 0 -0.0014550622892837517 -0.0087745580093786923 0 -0.0024162190402432899 -0.0099135748853813859 0 -0.0025834021180785208 -0.0089527772147702887 0 -0.0015647709232589904 -0.0095070256046895351 0 -0.0029758562335874318 -0.0090745903103632668 0 -0.0016919073911335829 -0.0081574710903260204 0 -0.0025834021180785208 -0.0089527772147702887 0 -0.0016773001691191022 -0.0081298454548601375 0 -0.0014550622892837517 -0.0087745580093786923 0 -0.0028907414211382758 -0.0088716912743038497 0 -0.0024023571031321364 -0.0080810922907830172 0 -0.0016773001691191022 -0.0081298454548601375 0 -0.0024023571031321364 -0.0080810922907830172 0 -0.0016773001691191022 -0.0081298454548601375 0 -0.0012247202451145191 -0.0076346999319817938 0 -0.00023830829513536646 -0.0053195071395056798 0 -0.00018030530416272741 -0.0053166519150318883 0 -0.00016064421375371066 -0.005306068598068211 0 -0.00016991728354435475 -0.0052484691014318173 0 -0.00018030530416272741 -0.0053166519150318883 0 -0.00016064421375371066 -0.005306068598068211 0 -0.00023830829513536646 -0.0053195071395056798 0 -0.00016064421375371066 -0.005306068598068211 0 -0.0003189546836757377 -0.005609024469111947 0 -0.00023830829513536646 -0.0053195071395056798 0 -0.0003189546836757377 -0.005609024469111947 0 -0.00040945345974527619 -0.0060480629466511992 0 -0.00035517828080155827 -0.0056358195981947232 0 -0.0003189546836757377 -0.005609024469111947 0 -0.00040945345974527619 -0.0060480629466511992 0 -0.0011955175775110721 -0.0065679822739776444 0 -0.00049649989431008125 -0.0060994239989747819 0 -0.00040945345974527619 -0.0060480629466511992 0 -0.0012247202451145191 -0.0076346999319817938 0 -0.00054981999272288968 -0.007676127831134992 0 -0.00040945345974527619 -0.0060480629466511992 0 0.00012025893884752837 -0.0071480540077738961 0 -0.00054981999272288968 -0.007676127831134992 0 -0.00040945345974527619 -0.0060480629466511992 0 0.00048277547831828202 -0.0060759431987962445 0 0.00012025893884752837 -0.0071480540077738961 0 0.00048277547831828202 -0.0060759431987962445 0 0.00012025893884752837 -0.0071480540077738961 0 0.00061268737939170284 -0.0077652401438746592 0 0.00012025893884752837 -0.0071480540077738961 0 3.8851664627804409e-05 -0.008279073157182933 0 -0.00054981999272288968 -0.007676127831134992 0 0.00012025893884752837 -0.0071480540077738961 0 3.8851664627804409e-05 -0.008279073157182933 0 0.00061268737939170284 -0.0077652401438746592 0 3.8851664627804409e-05 -0.008279073157182933 0 0.00061268737939170284 -0.0077652401438746592 0 0.00077106668773824509 -0.0088745137626252829 0 3.8851664627804409e-05 -0.008279073157182933 0 -0.00054981999272288968 -0.007676127831134992 0 -0.00082885824360941663 -0.0087620543206986985 0 -0.0024023571031321364 -0.0080810922907830172 0 -0.00040945345974527619 -0.0060480629466511992 0 -0.0012247202451145191 -0.0076346999319817938 0 -0.0011509870821871113 -0.0081896360456065707 0 -0.00054981999272288968 -0.007676127831134992 0 -0.00082885824360941663 -0.0087620543206986985 0 -0.0016773001691191022 -0.0081298454548601375 0 -0.0011509870821871113 -0.0081896360456065707 0 -0.0014550622892837517 -0.0087745580093786923 0 -0.0011509870821871113 -0.0081896360456065707 0 -0.0014550622892837517 -0.0087745580093786923 0 -0.00082885824360941663 -0.0087620543206986985 0 -0.0016773001691191022 -0.0081298454548601375 0 -0.0011509870821871113 -0.0081896360456065707 0 -0.0012247202451145191 -0.0076346999319817938 0 -0.0011509870821871113 -0.0081896360456065707 0 -0.0012247202451145191 -0.0076346999319817938 0 -0.00054981999272288968 -0.007676127831134992 0 0.0024956778862483811 -0.012285208524245425 0 0.0021004998272857157 -0.012595417357929878 0 0.0027011926394016252 -0.012711715066493542 0 0.0024552234687845041 -0.011758211355040273 0 0.0024956778862483811 -0.012285208524245425 0 0.0020728327593777826 -0.012071610564700181 0 0.0024956778862483811 -0.012285208524245425 0 0.0020728327593777826 -0.012071610564700181 0 0.0021004998272857157 -0.012595417357929878 0 0.00089474428840859339 -0.0094824893789830882 0 0.0018795138315206802 -0.010494588745367153 0 0.0013693752006729101 -0.012103582020115685 0 0.0020728327593777826 -0.012071610564700181 0 0.0021004998272857157 -0.012595417357929878 0 0.0013693752006729101 -0.012103582020115685 0 0.0021004998272857157 -0.012595417357929878 0 0.002220697453792937 -0.012745441285534608 0 0.00048277547831828202 -0.0060759431987962445 0 0.00061268737939170284 -0.0077652401438746592 0 0.0017268763906214859 -0.0085166917364607932 0 0.00061268737939170284 -0.0077652401438746592 0 0.0017268763906214859 -0.0085166917364607932 0 0.00077106668773824509 -0.0088745137626252829 0 0.002220697453792937 -0.012745441285534608 0 0.0016343847807611402 -0.012282133695356145 0 0.0016989722770283952 -0.012968488941009854 0 0.0021004998272857157 -0.012595417357929878 0 0.002220697453792937 -0.012745441285534608 0 0.0016989722770283952 -0.012968488941009854 0 0.0019971078427439256 -0.012654446591313387 0 0.0023867235571226999 -0.012878722030277781 0 0.0017268763906214859 -0.0085166917364607932 0 0.0013714869706874027 -0.0097522266403183913 0 0.0017737443928983478 -0.011046052008999734 0 0.002220697453792937 -0.012745441285534608 0 0.0017737443928983478 -0.011046052008999734 0 0.0016343847807611402 -0.012282133695356145 0 0.0018795138315206802 -0.010494588745367153 0 0.0017962445973112051 -0.010974296243596747 0 0.0013714869706874027 -0.0097522266403183913 0 0.00083981260885499474 -0.0097161237693747828 0 0.0013621320804193759 -0.010505254954750317 0 0.0017268763906214859 -0.0085166917364607932 0 0.0013714869706874027 -0.0097522266403183913 0 0.00077106668773824509 -0.0088745137626252829 0 0.0013714869706874027 -0.0097522266403183913 0 0.00077106668773824509 -0.0088745137626252829 0 0.00083981260885499474 -0.0097161237693747828 0 0.00077106668773824509 -0.0088745137626252829 0 0.00083981260885499474 -0.0097161237693747828 0 0.00014463790869619916 -0.0093634305645993871 0 0.00057837596231779609 -0.010351209163751509 0 0.0010561699379449576 -0.010894364887432159 0 0.0001196705131976331 -0.010928709675224217 0 0.00083981260885499474 -0.0097161237693747828 0 0.00057837596231779609 -0.010351209163751509 0 0.0013621320804193759 -0.010505254954750317 0 0.00057837596231779609 -0.010351209163751509 0 0.0010561699379449576 -0.010894364887432159 0 0.0013621320804193759 -0.010505254954750317 0 0.0010561699379449576 -0.010894364887432159 0 0.0013621320804193759 -0.010505254954750317 0 0.0017384407001139902 -0.011024751066725404 0 0.0013714869706874027 -0.0097522266403183913 0 0.0013621320804193759 -0.010505254954750317 0 0.0017737443928983478 -0.011046052008999734 0 0.0013621320804193759 -0.010505254954750317 0 0.0017384407001139902 -0.011024751066725404 0 0.0017737443928983478 -0.011046052008999734 0 -0.0015647709232589904 -0.0095070256046895351 0 -0.00082885824360941663 -0.0087620543206986985 0 -0.00053561612797253582 -0.0099569148373710066 0 -0.0015647709232589904 -0.0095070256046895351 0 -0.0014550622892837517 -0.0087745580093786923 0 -0.00082885824360941663 -0.0087620543206986985 0 -0.00082885824360941663 -0.0087620543206986985 0 0.00014463790869619916 -0.0093634305645993871 0 -0.00053561612797253582 -0.0099569148373710066 0 3.8851664627804409e-05 -0.008279073157182933 0 -0.00082885824360941663 -0.0087620543206986985 0 0.00014463790869619916 -0.0093634305645993871 0 3.8851664627804409e-05 -0.008279073157182933 0 0.00077106668773824509 -0.0088745137626252829 0 0.00014463790869619916 -0.0093634305645993871 0 0.00083981260885499474 -0.0097161237693747828 0 0.00057837596231779609 -0.010351209163751509 0 0.00014463790869619916 -0.0093634305645993871 0 0.00057837596231779609 -0.010351209163751509 0 0.00014463790869619916 -0.0093634305645993871 0 -0.00053561612797253582 -0.0099569148373710066 0 0.00057837596231779609 -0.010351209163751509 0 -0.00053561612797253582 -0.0099569148373710066 0 0.0001196705131976331 -0.010928709675224217 0 -0.00045180747524262897 -0.010084675851952178 0 -2.5002326436283754e-05 -0.01084558126766077 0 -0.00053561612797253582 -0.0099569148373710066 0 -0.001441194090045673 -0.010450819308667238 0 -1.6394591185381749e-05 -0.010849587642271641 0 -0.0015647709232589904 -0.0095070256046895351 0 -0.00053561612797253582 -0.0099569148373710066 0 -0.001441194090045673 -0.010450819308667238 0 -0.001441194090045673 -0.010450819308667238 0 -0.0015376493361982484 -0.011526580381852529 0 -1.6394591185381749e-05 -0.010849587642271641 0 -0.0011043590375985708 -0.010492961035491173 0 -0.00045116573044144003 -0.0116130177660776 0 -1.6394591185381749e-05 -0.010849587642271641 0 -0.00010523851893811982 -0.011996844357552777 0 0.00051714256681590568 -0.011762522270210175 0 -0.0015376493361982484 -0.011526580381852529 0 -1.6394591185381749e-05 -0.010849587642271641 0 -0.00010523851893811982 -0.011996844357552777 0 -2.5002326436283754e-05 -0.01084558126766077 0 -0.0011796871153544424 -0.013040039531670591 0 -8.2219728372616554e-05 -0.012802750835800441 0 -0.00048188243701646169 -0.012684061779494738 0 -0.00010193876076427932 -0.012203143954975775 0 -0.00045116573044144003 -0.0116130177660776 0 -0.0011796871153544424 -0.013040039531670591 0 -0.00045116573044144003 -0.0116130177660776 0 -0.0019656852989371199 -0.013651060888951985 0 -0.00056334605372285911 -0.0096597517091405408 0 -0.0011608878197200106 -0.0094908027646354379 0 -0.00047929457962493969 -0.0091918003102435565 0 -8.2219728372616554e-05 -0.012802750835800441 0 -0.00010193876076427932 -0.012203143954975775 0 0.00059208600704886477 -0.012538252105907617 0 -0.00045116573044144003 -0.0116130177660776 0 6.4843740405204069e-05 -0.010798805476513395 0 -0.0041092118465462166 -0.0149927012343743 0 -0.004222193809573371 -0.015289438328580901 0 -0.0038959472155667245 -0.015198900219650421 0 -0.0041092118465462166 -0.0149927012343743 0 -0.0045709154497690979 -0.015196664105887818 0 -0.004222193809573371 -0.015289438328580901 0 0.0010561699379449576 -0.010894364887432159 0 0.0017384407001139902 -0.011024751066725404 0 0.00064223611422434713 -0.011649092065781181 0 -0.0014016342708970423 -0.013080531435952903 0 -0.0011796871153544424 -0.013040039531670591 0 0.0010561699379449576 -0.010894364887432159 0 0.0001196705131976331 -0.010928709675224217 0 0.00064223611422434713 -0.011649092065781181 0 -0.0045709154497690979 -0.015196664105887818 0 -0.0044733523477705284 -0.015375658670665888 0 -0.004222193809573371 -0.015289438328580901 0 -0.0011796871153544424 -0.013040039531670591 0 -0.0019656852989371199 -0.013651060888951985 0 -0.0008857585547247716 -0.012759185781472976 0 -0.0012290887013153562 -0.0128927971439658 0 -0.0014099635781213932 -0.012600821885835082 0 -0.0019656852989371199 -0.013651060888951985 0 -0.0016460142163851313 -0.01320619722310328 0 -0.0019656852989371199 -0.013651060888951985 0 -0.0035414268234354022 -0.015023324365296641 0 -0.0022695655080803142 -0.014503393424858376 0 -0.0026143879781032483 -0.014407439117022977 0 -0.0024132055488862002 -0.014272483729846418 0 -0.0044733523477705284 -0.015375658670665888 0 -0.004222193809573371 -0.015289438328580901 0 -0.0040759530985075895 -0.015584693694475328 0 -0.004222193809573371 -0.015289438328580901 0 -0.0040759530985075895 -0.015584693694475328 0 -0.0038959472155667245 -0.015198900219650421 0 -0.0026143879781032483 -0.014407439117022977 0 -0.002636754608804995 -0.014254349256768089 0 -0.0024132055488862002 -0.014272483729846418 0 -0.0016460142163851313 -0.01320619722310328 0 -0.0017074024473674623 -0.014187967109003007 0 -0.002636754608804995 -0.014254349256768089 0 -0.0024132055488862002 -0.014272483729846418 0 -0.0025555590474527655 -0.014031577078775337 0 -0.00048188243701646169 -0.012684061779494738 0 -0.00070545089077346664 -0.012322038160552967 0 -0.00010193876076427932 -0.012203143954975775 0 -0.00070545089077346664 -0.012322038160552967 0 -0.00051747126990093139 -0.012011462501880406 0 -0.00010193876076427932 -0.012203143954975775 0 -0.00070545089077346664 -0.012322038160552967 0 -0.00051747126990093139 -0.012011462501880406 0 -0.00093451758075662524 -0.011961281585844707 0 -0.00051747126990093139 -0.012011462501880406 0 -0.00010193876076427932 -0.012203143954975775 0 -0.00032835756747031275 -0.011557050924385276 0 -0.00051747126990093139 -0.012011462501880406 0 -0.00093451758075662524 -0.011961281585844707 0 -0.00032835756747031275 -0.011557050924385276 0 -0.0017074024473674623 -0.014187967109003007 0 -5.8720777132239454e-05 -0.013044792322565014 0 -0.0014983444992303892 -0.015682605453071468 0 0.00015040323661826862 -0.014563371850810369 0 -0.0011564010468991289 -0.0142074000380532 0 -0.0017074024473674623 -0.014187967109003007 0 -0.002115721833266864 -0.014974058099202164 0 -0.00010193876076427932 -0.012203143954975775 0 0.00030652398150595611 -0.01175267808341382 0 0.00059208600704886477 -0.012538252105907617 0 -0.00010193876076427932 -0.012203143954975775 0 0.00030652398150595611 -0.01175267808341382 0 -0.00032835756747031275 -0.011557050924385276 0 0.00030652398150595611 -0.01175267808341382 0 0.00087381227019746278 -0.011947205676201611 0 0.00082879345129466286 -0.011448904742273933 0 0.00063465811563146325 -0.010620784052368755 0 6.4843740405204069e-05 -0.010798805476513395 0 0.00087381227019746278 -0.011947205676201611 0 0.0012603738270447981 -0.01227005737323684 0 0.00059208600704886477 -0.012538252105907617 0 0.00030652398150595611 -0.01175267808341382 0 0.00087381227019746278 -0.011947205676201611 0 0.00059208600704886477 -0.012538252105907617 0 0.00087381227019746278 -0.011947205676201611 0 0.0013758098685891667 -0.011729367959796882 0 0.00082879345129466286 -0.011448904742273933 0 0.00087381227019746278 -0.011947205676201611 0 0.0012603738270447981 -0.01227005737323684 0 0.0013758098685891667 -0.011729367959796882 0 0.0022671684189820383 -0.011569167751248921 0 0.0016512031021524937 -0.011055929448508063 0 0.0028334608054195131 -0.011009349473343186 0 0.0029823728674878698 -0.010962852235750397 0 0.0030006419261732402 -0.011073284013316467 0 0.0022671684189820383 -0.011569167751248921 0 0.0020349052772216723 -0.01012030827788654 0 0.0027229768159162887 -0.0088587740427857366 0 0.0043729262359212201 -0.010053072920076048 0 0.0036256321420786151 -0.0081211648222429822 0 0.0036492506738255016 -0.0081205148834054986 0 0.0036532801804557476 -0.0081689292723260629 0 0.0029823728674878698 -0.010962852235750397 0 0.0030400812250685185 -0.01105653298567574 0 0.0030740579260520305 -0.010869960485534238 0 0.0029823728674878698 -0.010962852235750397 0 0.0030400812250685185 -0.01105653298567574 0 0.0030006419261732402 -0.011073284013316467 0 0.0011466135425386953 -0.0086450163504828339 0 0.00087913327882120109 -0.0088891885306930877 0 0.0010955801342424952 -0.0091043180074046326 0 0.0011590474679950297 -0.0085372847817983804 0 0.0013625725944282408 -0.0088409063994321444 0 0.0010955801342424952 -0.0091043180074046326 0 0.0017356810616312383 -0.0085802563499206442 0 0.0011319736131768323 -0.009064953520401443 0 0.0030566383342457517 -0.0063187418339322064 0 0.0028258354683558698 -0.006276202804316902 0 0.0028142522508211925 -0.0063821442771470512 0 0.0027229768159162887 -0.0088587740427857366 0 0.0017356810616312383 -0.0085802563499206442 0 0.0011466135425386953 -0.0086450163504828339 0 0.0010126573257873462 -0.0085716427073819889 0 0.00087913327882120109 -0.0088891885306930877 0 0.0027229768159162887 -0.0088587740427857366 0 0.0020349052772216723 -0.01012030827788654 0 0.0022201263007234338 -0.0094968332076184655 0 0.0022095511046054226 -0.009582097569326457 0 0.0021203635172367063 -0.0095362747003042078 0 0.0017356810616312383 -0.0085802563499206442 0 0.0020349052772216723 -0.01012030827788654 0 0.00063465811563146325 -0.010620784052368755 0 0.0020349052772216723 -0.01012030827788654 0 0.00025213912247221815 -0.0088743000637712781 0 0.0010126573257873462 -0.0085716427073819889 0 0.00087913327882120109 -0.0088891885306930877 0 0.0012603738270447981 -0.01227005737323684 0 0.0013758098685891667 -0.011729367959796882 0 0.0019200182140930249 -0.012001270801304658 0 0.00025213912247221815 -0.0088743000637712781 0 0.00087913327882120109 -0.0088891885306930877 0 0.0005835727944351137 -0.0094042185361266576 0 0.00087913327882120109 -0.0088891885306930877 0 0.0005835727944351137 -0.0094042185361266576 0 0.0010955801342424952 -0.0091043180074046326 0 0.0017784751257836056 -0.0090769927467574448 0 0.0010955801342424952 -0.0091043180074046326 0 0.0012258005590740882 -0.0095931531631994662 0 0.0005835727944351137 -0.0094042185361266576 0 0.0010955801342424952 -0.0091043180074046326 0 0.0012258005590740882 -0.0095931531631994662 0 -0.00012768724064776181 -0.0078187390636225915 0 -0.00049607827625735451 -0.0077025941701292901 0 0.00089261345523530204 -0.0063530136064931008 0 -0.0010014853952738374 -0.0085433530142900362 0 0.0010437999434064896 -0.008132958092539333 0 -0.00012768724064776181 -0.0078187390636225915 0 0.00089261345523530204 -0.0063530136064931008 0 0.001192295107423341 -0.0069100408999370382 0 -0.00018950710592656399 -0.0064300653057372615 0 0.00087072561587726177 -0.0056501829528418368 0 0.00072127526689588664 -0.010061837603691984 0 0.0005835727944351137 -0.0094042185361266576 0 6.2211613927122726e-05 -0.0098544386897724146 0 0.00072127526689588664 -0.010061837603691984 0 0.0005835727944351137 -0.0094042185361266576 0 0.0012258005590740882 -0.0095931531631994662 0 -0.0010014853952738374 -0.0085433530142900362 0 -0.001535083465832853 -0.010587072751364078 0 0.0005835727944351137 -0.0094042185361266576 0 6.2211613927122726e-05 -0.0098544386897724146 0 -3.4501200306011138e-05 -0.0093990862467557175 0 -0.001441194090045673 -0.010450819308667238 0 -0.0015376493361982484 -0.011526580381852529 0 -0.0029846780684388298 -0.011018922964707807 0 -0.0011043590375985708 -0.010492961035491173 0 -0.001535083465832853 -0.010587072751364078 0 -0.00056334605372285911 -0.0096597517091405408 0 6.2211613927122726e-05 -0.0098544386897724146 0 -3.4501200306011138e-05 -0.0093990862467557175 0 0.00025213912247221815 -0.0088743000637712781 0 -0.00047929457962493969 -0.0091918003102435565 0 -3.4501200306011138e-05 -0.0093990862467557175 0 -0.00056334605372285911 -0.0096597517091405408 0 -0.00047929457962493969 -0.0091918003102435565 0 -3.4501200306011138e-05 -0.0093990862467557175 0 0.00025213912247221815 -0.0088743000637712781 0 0.0005835727944351137 -0.0094042185361266576 0 -3.4501200306011138e-05 -0.0093990862467557175 0 -0.0015643215901092169 -0.016074389071368007 0 -0.0014165109965993904 -0.015139275596709618 0 -0.0006528407479547317 -0.015804062988243467 0 -0.0015643215901092169 -0.016074389071368007 0 -0.0006528407479547317 -0.015804062988243467 0 -0.0010435675798845564 -0.016537607648481271 0 -0.0015643215901092169 -0.016074389071368007 0 -0.0019969806385565173 -0.015324146246081187 0 -0.0014165109965993904 -0.015139275596709618 0 -0.0015643215901092169 -0.016074389071368007 0 -0.0019969806385565173 -0.015324146246081187 0 -0.0023429327119093893 -0.015868059756450763 0 -0.0019969806385565173 -0.015324146246081187 0 -0.0014165109965993904 -0.015139275596709618 0 -0.0019291291134199515 -0.014401923764861801 0 -0.0014165109965993904 -0.015139275596709618 0 -0.00070306135047879838 -0.014943065512483616 0 -0.0006528407479547317 -0.015804062988243467 0 -0.00070306135047879838 -0.014943065512483616 0 0.00025358358982151139 -0.015290163039822214 0 -0.0006528407479547317 -0.015804062988243467 0 0.00025358358982151139 -0.015290163039822214 0 0.00020326124307222702 -0.015903408133774877 0 -0.0006528407479547317 -0.015804062988243467 0 0.00020326124307222702 -0.015903408133774877 0 -0.0006528407479547317 -0.015804062988243467 0 -0.00023578713905426872 -0.016668831130703294 0 -0.0006528407479547317 -0.015804062988243467 0 -0.0010435675798845564 -0.016537607648481271 0 -0.00023578713905426872 -0.016668831130703294 0 -0.0010435675798845564 -0.016537607648481271 0 -0.00023578713905426872 -0.016668831130703294 0 -0.00082912383132073965 -0.017705120015015542 0 0.00020326124307222702 -0.015903408133774877 0 -0.00023578713905426872 -0.016668831130703294 0 0.00044969080180250892 -0.016647304287099672 0 -0.00082912383132073965 -0.017705120015015542 0 6.3302312207257834e-05 -0.017685268326122234 0 -0.00039262967218670715 -0.018658107100646228 0 -0.00023578713905426872 -0.016668831130703294 0 -0.00082912383132073965 -0.017705120015015542 0 6.3302312207257834e-05 -0.017685268326122234 0 -0.0010435675798845564 -0.016537607648481271 0 -0.00082912383132073965 -0.017705120015015542 0 -0.0016433715246818627 -0.017065262776418517 0 -0.00082912383132073965 -0.017705120015015542 0 -0.0016433715246818627 -0.017065262776418517 0 -0.0016771017637556235 -0.018564340921358478 0 -0.0016433715246818627 -0.017065262776418517 0 -0.0019203870728280465 -0.016974475722487285 0 -0.0015797007375845096 -0.017280173843570033 0 -0.0015643215901092169 -0.016074389071368007 0 -0.0010435675798845564 -0.016537607648481271 0 -0.0016433715246818627 -0.017065262776418517 0 -0.0015643215901092169 -0.016074389071368007 0 -0.0020229589910312766 -0.016443061425184209 0 -0.0023429327119093893 -0.015868059756450763 0 -0.0015643215901092169 -0.016074389071368007 0 -0.0016433715246818627 -0.017065262776418517 0 -0.0020229589910312766 -0.016443061425184209 0 -0.0020229589910312766 -0.016443061425184209 0 -0.0019203870728280465 -0.016974475722487285 0 -0.0022841707198305969 -0.016609374958305088 0 -0.0016433715246818627 -0.017065262776418517 0 -0.0020229589910312766 -0.016443061425184209 0 -0.0019203870728280465 -0.016974475722487285 0 -0.0019203870728280465 -0.016974475722487285 0 -0.0023076139887839996 -0.016881356275129541 0 -0.0022841707198305969 -0.016609374958305088 0 -0.0023076139887839996 -0.016881356275129541 0 -0.0022841707198305969 -0.016609374958305088 0 -0.0025702784252700185 -0.016557317635130499 0 -0.0022841707198305969 -0.016609374958305088 0 -0.0025702784252700185 -0.016557317635130499 0 -0.0024854150305184445 -0.01625093070772083 0 -0.0023076139887839996 -0.016881356275129541 0 -0.0025702784252700185 -0.016557317635130499 0 -0.0027480070013213061 -0.016897709628980805 0 -0.0025702784252700185 -0.016557317635130499 0 -0.0029437648731195651 -0.016169391819074536 0 -0.0027480070013213061 -0.016897709628980805 0 -0.0032938794197578118 -0.015763670274330364 0 -0.0036831625917630776 -0.015695902339573589 0 -0.0029437648731195651 -0.016169391819074536 0 -0.003288412327926679 -0.015739462034058054 0 -0.0027480070013213061 -0.016897709628980805 0 -0.0025702784252700185 -0.016557317635130499 0 -0.0029437648731195651 -0.016169391819074536 0 -0.0024854150305184445 -0.01625093070772083 0 -0.0029437648731195651 -0.016169391819074536 0 -0.0027365554634093698 -0.015941046412475426 0 -0.0024854150305184445 -0.01625093070772083 0 -0.0029437648731195651 -0.016169391819074536 0 -0.0030589719496540943 -0.01590346397406513 0 -0.003158433187046374 -0.015980028154817773 0 -0.0029437648731195651 -0.016169391819074536 0 -0.0030589719496540943 -0.01590346397406513 0 -0.0027365554634093698 -0.015941046412475426 0 -0.0027365554634093698 -0.015941046412475426 0 -0.0024854150305184445 -0.01625093070772083 0 -0.0023429327119093893 -0.015868059756450763 0 -0.0020229589910312766 -0.016443061425184209 0 -0.0024854150305184445 -0.01625093070772083 0 -0.0023429327119093893 -0.015868059756450763 0 -0.0020229589910312766 -0.016443061425184209 0 -0.0022841707198305969 -0.016609374958305088 0 -0.0024854150305184445 -0.01625093070772083 0 -0.0025877459266810325 -0.015505664001221746 0 -0.003288412327926679 -0.015739462034058054 0 -0.0023211056394708131 -0.01440696701674259 0 -0.0018111453756962876 -0.015678105003429588 0 -0.0025877459266810325 -0.015505664001221746 0 -0.0023211056394708131 -0.01440696701674259 0 -0.0029437648731195651 -0.016169391819074536 0 -0.003288412327926679 -0.015739462034058054 0 -0.003158433187046374 -0.015980028154817773 0 -0.003288412327926679 -0.015739462034058054 0 -0.003265637130838103 -0.01604819596780831 0 -0.0031297435596761235 -0.016170776113391846 0 -0.0030589719496540943 -0.01590346397406513 0 -0.003158433187046374 -0.015980028154817773 0 -0.003228339799663923 -0.015978023104342723 0 -0.0030589719496540943 -0.01590346397406513 0 -0.003228339799663923 -0.015978023104342723 0 -0.0031946428969693284 -0.015853914053437518 0 -0.0030589719496540943 -0.01590346397406513 0 -0.0031946428969693284 -0.015853914053437518 0 -0.0031576089115608551 -0.015666251685718117 0 -0.0031946428969693284 -0.015853914053437518 0 -0.0032583370746882812 -0.015903619074197864 0 -0.0032618956642000404 -0.015750919665383434 0 -0.003228339799663923 -0.015978023104342723 0 -0.0031946428969693284 -0.015853914053437518 0 -0.0032583370746882812 -0.015903619074197864 0 -0.003228339799663923 -0.015978023104342723 0 -0.0032583370746882812 -0.015903619074197864 0 -0.003265637130838103 -0.01604819596780831 0 -0.0032583370746882812 -0.015903619074197864 0 -0.0033737450895976028 -0.01575985361593547 0 -0.0032618956642000404 -0.015750919665383434 0 -0.0032583370746882812 -0.015903619074197864 0 -0.0033430874745747712 -0.015898082196893693 0 -0.003265637130838103 -0.01604819596780831 0 -0.0032583370746882812 -0.015903619074197864 0 -0.0033430874745747712 -0.015898082196893693 0 -0.0033737450895976028 -0.01575985361593547 0 -0.0033430874745747712 -0.015898082196893693 0 -0.0035297648981677541 -0.015908966866096944 0 -0.0033737450895976028 -0.01575985361593547 0 -0.0033430874745747712 -0.015898082196893693 0 -0.003265637130838103 -0.01604819596780831 0 -0.0035297648981677541 -0.015908966866096944 0 -0.0031763248411837636 -0.015459573582686067 0 -0.0032514365289271516 -0.015301711891048888 0 -0.003288412327926679 -0.015739462034058054 0 -0.003228339799663923 -0.015978023104342723 0 -0.003265637130838103 -0.01604819596780831 0 -0.003288412327926679 -0.015739462034058054 0 -0.003158433187046374 -0.015980028154817773 0 -0.003228339799663923 -0.015978023104342723 0 -0.0018111453756962876 -0.015678105003429588 0 -0.0025877459266810325 -0.015505664001221746 0 -0.0031297435596761235 -0.016170776113391846 0 -0.002636754608804995 -0.014254349256768089 0 -0.0025555590474527655 -0.014031577078775337 0 -0.0029674951030399838 -0.014305622087623615 0 -0.0026143879781032483 -0.014407439117022977 0 -0.002636754608804995 -0.014254349256768089 0 -0.0029674951030399838 -0.014305622087623615 0 -0.0017074024473674623 -0.014187967109003007 0 -0.0032514365289271516 -0.015301711891048888 0 -0.0035414268234354022 -0.015023324365296641 0 -0.0032514365289271516 -0.015301711891048888 0 -0.0025877459266810325 -0.015505664001221746 0 -0.003288412327926679 -0.015739462034058054 0 -0.0031297435596761235 -0.016170776113391846 0 -0.0040759530985075895 -0.015584693694475328 0 -0.0035297648981677541 -0.015908966866096944 0 -0.0037430993527734005 -0.015476182745191044 0 -0.0040759530985075895 -0.015584693694475328 0 -0.0037430993527734005 -0.015476182745191044 0 -0.0038959472155667245 -0.015198900219650421 0 -0.0037430993527734005 -0.015476182745191044 0 -0.0034797281231273925 -0.015383180730474838 0 -0.0034913179487443711 -0.015655006511975902 0 -0.0035297648981677541 -0.015908966866096944 0 -0.0037430993527734005 -0.015476182745191044 0 -0.0034913179487443711 -0.015655006511975902 0 -0.0037430993527734005 -0.015476182745191044 0 -0.0034797281231273925 -0.015383180730474838 0 -0.0035926209203778004 -0.015105059806795121 0 -0.0037430993527734005 -0.015476182745191044 0 -0.0035926209203778004 -0.015105059806795121 0 -0.0038959472155667245 -0.015198900219650421 0 -0.0034797281231273925 -0.015383180730474838 0 -0.0033424282635566307 -0.015569097509672459 0 -0.003270198069739392 -0.015279535458398795 0 -0.0034797281231273925 -0.015383180730474838 0 -0.0034913179487443711 -0.015655006511975902 0 -0.0033424282635566307 -0.015569097509672459 0 -0.0034913179487443711 -0.015655006511975902 0 -0.0033737450895976028 -0.01575985361593547 0 -0.0033424282635566307 -0.015569097509672459 0 -0.0035297648981677541 -0.015908966866096944 0 -0.0034913179487443711 -0.015655006511975902 0 -0.0033737450895976028 -0.01575985361593547 0 -0.0033737450895976028 -0.01575985361593547 0 -0.0032618956642000404 -0.015750919665383434 0 -0.0033424282635566307 -0.015569097509672459 0 -0.0032618956642000404 -0.015750919665383434 0 -0.0033424282635566307 -0.015569097509672459 0 -0.0031576089115608551 -0.015666251685718117 0 -0.0031946428969693284 -0.015853914053437518 0 -0.0032618956642000404 -0.015750919665383434 0 -0.0031576089115608551 -0.015666251685718117 0 -0.0031576089115608551 -0.015666251685718117 0 -0.003270198069739392 -0.015279535458398795 0 -0.002912268760857489 -0.015512226452369634 0 -0.0033424282635566307 -0.015569097509672459 0 -0.0031576089115608551 -0.015666251685718117 0 -0.003270198069739392 -0.015279535458398795 0 -0.003270198069739392 -0.015279535458398795 0 -0.0031907177418554113 -0.014832537883583146 0 -0.002912268760857489 -0.015512226452369634 0 -0.0031907177418554113 -0.014832537883583146 0 -0.0035926209203778004 -0.015105059806795121 0 -0.0035867765832151353 -0.014680537131230782 0 -0.003270198069739392 -0.015279535458398795 0 -0.0031907177418554113 -0.014832537883583146 0 -0.0035926209203778004 -0.015105059806795121 0 -0.0034797281231273925 -0.015383180730474838 0 -0.003270198069739392 -0.015279535458398795 0 -0.0035926209203778004 -0.015105059806795121 0 -0.0035926209203778004 -0.015105059806795121 0 -0.0038959472155667245 -0.015198900219650421 0 -0.0035867765832151353 -0.014680537131230782 0 -0.0014016342708970423 -0.013080531435952903 0 -0.0012666377830958704 -0.012797322802202221 0 -0.0041092118465462166 -0.0149927012343743 0 -0.0038959472155667245 -0.015198900219650421 0 -0.0035867765832151353 -0.014680537131230782 0 -0.0019969806385565173 -0.015324146246081187 0 -0.0023429327119093893 -0.015868059756450763 0 -0.0025901221646820781 -0.015046739695712871 0 -0.0023429327119093893 -0.015868059756450763 0 -0.002912268760857489 -0.015512226452369634 0 -0.0025901221646820781 -0.015046739695712871 0 -0.0027365554634093698 -0.015941046412475426 0 -0.0023429327119093893 -0.015868059756450763 0 -0.002912268760857489 -0.015512226452369634 0 -0.0030589719496540943 -0.01590346397406513 0 -0.0027365554634093698 -0.015941046412475426 0 -0.002912268760857489 -0.015512226452369634 0 -0.0030589719496540943 -0.01590346397406513 0 -0.0031576089115608551 -0.015666251685718117 0 -0.002912268760857489 -0.015512226452369634 0 -0.0031907177418554113 -0.014832537883583146 0 -0.0025901221646820781 -0.015046739695712871 0 -0.0029926604023934578 -0.014164940116452734 0 -0.0031907177418554113 -0.014832537883583146 0 -0.002912268760857489 -0.015512226452369634 0 -0.0025901221646820781 -0.015046739695712871 0 -0.0019969806385565173 -0.015324146246081187 0 -0.0025901221646820781 -0.015046739695712871 0 -0.0019291291134199515 -0.014401923764861801 0 -0.0025901221646820781 -0.015046739695712871 0 -0.0029926604023934578 -0.014164940116452734 0 -0.0019291291134199515 -0.014401923764861801 0 -0.0029926604023934578 -0.014164940116452734 0 -0.0018210641753219233 -0.013307148894053844 0 -0.0019291291134199515 -0.014401923764861801 0 -0.00067688427136216298 -0.011852523658952667 0 -9.8453122817343644e-05 -0.012533881988429856 0 -0.0010002818439118666 -0.013255949121761259 0 -0.00067688427136216298 -0.011852523658952667 0 -0.0018210641753219233 -0.013307148894053844 0 -0.0010002818439118666 -0.013255949121761259 0 -0.0016959518089813689 -0.013205988156744359 0 -0.0016115825180031678 -0.013306487046791647 0 -0.0018210641753219233 -0.013307148894053844 0 -0.0010002818439118666 -0.013255949121761259 0 -0.001736404762117269 -0.01334518855901904 0 -0.0017641429947887978 -0.013014577421389966 0 -0.0017709544393253497 -0.013219539676336076 0 0.00098297166626326636 -0.010884372774991909 0 0.0017737443928983478 -0.011046052008999734 0 0.00082430397133040464 -0.012046929613297267 0 0.0017384407001139902 -0.011024751066725404 0 0.00098297166626326636 -0.010884372774991909 0 0.0017737443928983478 -0.011046052008999734 0 -0.00067688427136216298 -0.011852523658952667 0 0.00098297166626326636 -0.010884372774991909 0 0.00082430397133040464 -0.012046929613297267 0 -0.0017641429947887978 -0.013014577421389966 0 -0.0012666377830958704 -0.012797322802202221 0 -0.0031907177418554113 -0.014832537883583146 0 -0.0029926604023934578 -0.014164940116452734 0 -0.0035867765832151353 -0.014680537131230782 0 -0.00067688427136216298 -0.011852523658952667 0 -9.8453122817343644e-05 -0.012533881988429856 0 0.00082430397133040464 -0.012046929613297267 0 -9.8453122817343644e-05 -0.012533881988429856 0 0.00082430397133040464 -0.012046929613297267 0 0.00078937111636357641 -0.013126596424133545 0 0.00082430397133040464 -0.012046929613297267 0 0.0012125997824030199 -0.012554728196687669 0 0.00078937111636357641 -0.013126596424133545 0 0.0017737443928983478 -0.011046052008999734 0 0.00082430397133040464 -0.012046929613297267 0 0.0016343847807611402 -0.012282133695356145 0 0.00082430397133040464 -0.012046929613297267 0 0.0016343847807611402 -0.012282133695356145 0 0.0012125997824030199 -0.012554728196687669 0 0.0016343847807611402 -0.012282133695356145 0 0.0016989722770283952 -0.012968488941009854 0 0.0012125997824030199 -0.012554728196687669 0 0.0016989722770283952 -0.012968488941009854 0 0.0012125997824030199 -0.012554728196687669 0 0.00078937111636357641 -0.013126596424133545 0 0.0023867235571226999 -0.012878722030277781 0 0.00050296085245903706 -0.012504876178131848 0 -9.8453122817343644e-05 -0.012533881988429856 0 0.00078937111636357641 -0.013126596424133545 0 -0.0010002818439118666 -0.013255949121761259 0 0.00050296085245903706 -0.012504876178131848 0 -0.0016959518089813689 -0.013205988156744359 0 -0.0020858889951295722 -0.012980218284720927 0 -0.0018791604335544826 -0.013072450588709504 0 -0.0019413434457170667 -0.012895169455473003 0 -0.0020858889951295722 -0.012980218284720927 0 -0.0020166422164010363 -0.012758188017465888 0 -0.0021158481830901221 -0.012784488486476587 0 -0.0020858889951295722 -0.012980218284720927 0 -0.0020166422164010363 -0.012758188017465888 0 -0.0019413434457170667 -0.012895169455473003 0 -0.0020166422164010363 -0.012758188017465888 0 -0.0019413434457170667 -0.012895169455473003 0 -0.0019097376870315856 -0.012765561726092996 0 0.0027011926394016252 -0.012711715066493542 0 0.0032733254622670702 -0.012848177683428698 0 0.0031732420598082072 -0.01212425017541716 0 0.00050296085245903706 -0.012504876178131848 0 0.00057358353399907793 -0.012854279455348561 0 0.0024552234687845041 -0.011758211355040273 0 0.0024956778862483811 -0.012285208524245425 0 0.0031732420598082072 -0.01212425017541716 0 0.0024956778862483811 -0.012285208524245425 0 0.0027011926394016252 -0.012711715066493542 0 0.0031732420598082072 -0.01212425017541716 0 -0.0017424153826323967 -0.013030635067623135 0 -0.0018791604335544826 -0.013072450588709504 0 -0.001736404762117269 -0.01334518855901904 0 -0.0017424153826323967 -0.013030635067623135 0 -0.0018791604335544826 -0.013072450588709504 0 -0.0018187066341264564 -0.012887609521476268 0 -0.0018791604335544826 -0.013072450588709504 0 -0.0018187066341264564 -0.012887609521476268 0 -0.0019413434457170667 -0.012895169455473003 0 -0.0018187066341264564 -0.012887609521476268 0 -0.0019097376870315856 -0.012765561726092996 0 -0.0017643719016994801 -0.012643734441926036 0 -0.0018187066341264564 -0.012887609521476268 0 -0.0019413434457170667 -0.012895169455473003 0 -0.0019097376870315856 -0.012765561726092996 0 -0.0018187066341264564 -0.012887609521476268 0 -0.0016810015170293882 -0.012790353225034827 0 -0.0017643719016994801 -0.012643734441926036 0 -0.0017424153826323967 -0.013030635067623135 0 -0.0018187066341264564 -0.012887609521476268 0 -0.0016810015170293882 -0.012790353225034827 0 0.00071271045095583894 -0.014549412020179621 0 0.00076623369055294703 -0.014648580471134577 0 0.00067559180289080225 -0.014860738108980051 0 0.00071271045095583894 -0.014549412020179621 0 0.00076623369055294703 -0.014648580471134577 0 0.0008167443626194747 -0.014445744855642408 0 -0.00047481340233896963 -0.013681396987705985 0 -0.00036003141066220175 -0.013957395582580299 0 -0.0017424153826323967 -0.013030635067623135 0 -0.0016810015170293882 -0.012790353225034827 0 -0.0014246524737075163 -0.013030383771187681 0 0.00074560931894402033 -0.014759789030297673 0 0.0007325480862916254 -0.014885021288037219 0 0.0008285446574105538 -0.014588492344203561 0 0.00076623369055294703 -0.014648580471134577 0 0.00074560931894402033 -0.014759789030297673 0 0.00067559180289080225 -0.014860738108980051 0 0.00076623369055294703 -0.014648580471134577 0 0.00074560931894402033 -0.014759789030297673 0 0.0008285446574105538 -0.014588492344203561 0 0.00067559180289080225 -0.014860738108980051 0 0.00059690080028675595 -0.015137603608493085 0 0.0007325480862916254 -0.014885021288037219 0 0.00074560931894402033 -0.014759789030297673 0 0.00067559180289080225 -0.014860738108980051 0 0.0007325480862916254 -0.014885021288037219 0 -0.0017424153826323967 -0.013030635067623135 0 -0.0014246524737075163 -0.013030383771187681 0 -0.001736404762117269 -0.01334518855901904 0 -0.0014246524737075163 -0.013030383771187681 0 -0.001736404762117269 -0.01334518855901904 0 -0.0016354989322604995 -0.013657884341636058 0 -0.0014246524737075163 -0.013030383771187681 0 -0.0016354989322604995 -0.013657884341636058 0 -0.0012990125652991001 -0.014106845614753208 0 -0.0018210641753219233 -0.013307148894053844 0 -0.001736404762117269 -0.01334518855901904 0 -0.0016354989322604995 -0.013657884341636058 0 -0.0014246524737075163 -0.013030383771187681 0 -0.0012990125652991001 -0.014106845614753208 0 -0.00062579060893320506 -0.013878890871643125 0 -0.00036003141066220175 -0.013957395582580299 0 -2.1984067775030598e-05 -0.014537339921595612 0 -0.0014165109965993904 -0.015139275596709618 0 -0.00070306135047879838 -0.014943065512483616 0 -0.0012990125652991001 -0.014106845614753208 0 -0.00070306135047879838 -0.014943065512483616 0 -0.0012990125652991001 -0.014106845614753208 0 -0.00062579060893320506 -0.013878890871643125 0 -0.0016354989322604995 -0.013657884341636058 0 -0.0012990125652991001 -0.014106845614753208 0 -0.0019291291134199515 -0.014401923764861801 0 -0.0018210641753219233 -0.013307148894053844 0 -0.0016354989322604995 -0.013657884341636058 0 -0.0019291291134199515 -0.014401923764861801 0 -0.0014165109965993904 -0.015139275596709618 0 -0.0012990125652991001 -0.014106845614753208 0 -0.0019291291134199515 -0.014401923764861801 0 0.00025358358982151139 -0.015290163039822214 0 0.00063031554977720965 -0.015193153549889156 0 0.00073148167750071566 -0.015345903141740575 0 0.00025358358982151139 -0.015290163039822214 0 0.00059690080028675595 -0.015137603608493085 0 0.00063031554977720965 -0.015193153549889156 0 -0.00070306135047879838 -0.014943065512483616 0 0.00025358358982151139 -0.015290163039822214 0 -0.00062579060893320506 -0.013878890871643125 0 0.00027151385578957508 -0.01522240685510225 0 -2.1984067775030598e-05 -0.014537339921595612 0 0.00059690080028675595 -0.015137603608493085 0 0.00063031554977720965 -0.015193153549889156 0 0.00068795847487241495 -0.015061004788909668 0 0.00063031554977720965 -0.015193153549889156 0 0.00078578500991928772 -0.015019463548031362 0 0.00068795847487241495 -0.015061004788909668 0 0.00059690080028675595 -0.015137603608493085 0 0.00068795847487241495 -0.015061004788909668 0 0.0007325480862916254 -0.014885021288037219 0 0.00078578500991928772 -0.015019463548031362 0 0.00068795847487241495 -0.015061004788909668 0 0.0007325480862916254 -0.014885021288037219 0 0.0007325480862916254 -0.014885021288037219 0 0.0008006540597825161 -0.014754080975329095 0 0.0008285446574105538 -0.014588492344203561 0 0.00078578500991928772 -0.015019463548031362 0 0.0007325480862916254 -0.014885021288037219 0 0.0008006540597825161 -0.014754080975329095 0 0.00078578500991928772 -0.015019463548031362 0 0.0008006540597825161 -0.014754080975329095 0 0.00082752169187270269 -0.014807748320155625 0 0.00078578500991928772 -0.015019463548031362 0 0.00082752169187270269 -0.014807748320155625 0 0.00086778508808644866 -0.014883270655837144 0 0.00082752169187270269 -0.014807748320155625 0 0.00084504209730470916 -0.014810456176000688 0 0.00083868332888637701 -0.014649201052987153 0 0.0008006540597825161 -0.014754080975329095 0 0.00082752169187270269 -0.014807748320155625 0 0.00083868332888637701 -0.014649201052987153 0 0.00082752169187270269 -0.014807748320155625 0 0.00084504209730470916 -0.014810456176000688 0 0.00086778508808644866 -0.014883270655837144 0 0.00084504209730470916 -0.014810456176000688 0 0.00082662912880948668 -0.014784513460966877 0 0.00083868332888637701 -0.014649201052987153 0 0.00082662912880948668 -0.014784513460966877 0 0.00083868332888637701 -0.014649201052987153 0 0.00081128582503207664 -0.014708601215502683 0 0.00083868332888637701 -0.014649201052987153 0 0.00089181497768147332 -0.014375366173434092 0 0.00083079710762430485 -0.01457071681758842 0 0.00083868332888637701 -0.014649201052987153 0 0.00081128582503207664 -0.014708601215502683 0 0.00083079710762430485 -0.01457071681758842 0 0.00083868332888637701 -0.014649201052987153 0 0.0008285446574105538 -0.014588492344203561 0 0.00089181497768147332 -0.014375366173434092 0 0.0008006540597825161 -0.014754080975329095 0 0.00083868332888637701 -0.014649201052987153 0 0.0008285446574105538 -0.014588492344203561 0 0.00076623369055294703 -0.014648580471134577 0 0.0008285446574105538 -0.014588492344203561 0 0.0008167443626194747 -0.014445744855642408 0 0.0008285446574105538 -0.014588492344203561 0 0.0008167443626194747 -0.014445744855642408 0 0.00092982808442385848 -0.014165529443706774 0 0.0008167443626194747 -0.014445744855642408 0 0.00092982808442385848 -0.014165529443706774 0 0.00077830036235027142 -0.014210331939613572 0 0.00092982808442385848 -0.014165529443706774 0 0.00089181497768147332 -0.014375366173434092 0 0.00096420238077283464 -0.014126748959943076 0 0.00092982808442385848 -0.014165529443706774 0 0.00096420238077283464 -0.014126748959943076 0 0.0010426712545678512 -0.013395649928514835 0 0.0008285446574105538 -0.014588492344203561 0 0.00092982808442385848 -0.014165529443706774 0 0.00089181497768147332 -0.014375366173434092 0 0.00086708795775054792 -0.014437290305134761 0 0.00096420238077283464 -0.014126748959943076 0 0.00097332875848114776 -0.014444221523170115 0 0.00089181497768147332 -0.014375366173434092 0 0.00086708795775054792 -0.014437290305134761 0 0.00096420238077283464 -0.014126748959943076 0 0.00096420238077283464 -0.014126748959943076 0 0.00097332875848114776 -0.014444221523170115 0 0.0010426712545678512 -0.013395649928514835 0 0.0011782639121115171 -0.013290737212447263 0 0.00099149710637880424 -0.01342844658902277 0 0.00155614133967911 -0.012073611317047341 0 0.0012991995575689062 -0.012151788596718971 0 0.0014205627527510186 -0.012009011124194275 0 0.00155614133967911 -0.012073611317047341 0 0.0010426712545678512 -0.013395649928514835 0 0.0012991995575689062 -0.012151788596718971 0 0.0011782639121115171 -0.013290737212447263 0 0.00071749780471326487 -0.013665861960526528 0 0.00097332875848114776 -0.014444221523170115 0 0.0008394231498409058 -0.014599412365244615 0 0.00078588268207413253 -0.014803745046484178 0 0.00086708795775054792 -0.014437290305134761 0 0.00097332875848114776 -0.014444221523170115 0 0.0008394231498409058 -0.014599412365244615 0 0.00086708795775054792 -0.014437290305134761 0 0.0008394231498409058 -0.014599412365244615 0 0.000809179058581184 -0.014620598247636084 0 0.0008394231498409058 -0.014599412365244615 0 0.000809179058581184 -0.014620598247636084 0 0.00078550750940911435 -0.014702447013343405 0 0.000809179058581184 -0.014620598247636084 0 0.0007670102445660543 -0.014732465644270845 0 0.00079051006141920893 -0.014701074860765563 0 0.000809179058581184 -0.014620598247636084 0 0.00078550750940911435 -0.014702447013343405 0 0.0007670102445660543 -0.014732465644270845 0 0.00078550750940911435 -0.014702447013343405 0 0.00075617699311661933 -0.014762707541673702 0 0.00078588268207413253 -0.014803745046484178 0 0.0008394231498409058 -0.014599412365244615 0 0.00078550750940911435 -0.014702447013343405 0 0.00078588268207413253 -0.014803745046484178 0 0.00078550750940911435 -0.014702447013343405 0 0.00075617699311661933 -0.014762707541673702 0 0.0007670102445660543 -0.014732465644270845 0 0.00075617699311661933 -0.014762707541673702 0 0.00074462963145465627 -0.014784588748052482 0 0.00073409748415402011 -0.014784458174437428 0 0.00074462963145465627 -0.014784588748052482 0 0.00076317140014912075 -0.014782131160726231 0 0.0007670102445660543 -0.014732465644270845 0 0.00075617699311661933 -0.014762707541673702 0 0.00074462963145465627 -0.014784588748052482 0 0.0007670102445660543 -0.014732465644270845 0 0.00074643276683189041 -0.014825166968741353 0 0.0007292084054561737 -0.014806894379068583 0 0.00073204007819837355 -0.014841032795373696 0 0.00074462963145465627 -0.014784588748052482 0 0.00074643276683189041 -0.014825166968741353 0 0.0007292084054561737 -0.014806894379068583 0 0.00074462963145465627 -0.014784588748052482 0 0.00074643276683189041 -0.014825166968741353 0 0.00076317140014912075 -0.014782131160726231 0 0.00076317140014912075 -0.014782131160726231 0 0.00078718483933946871 -0.014786781567613434 0 0.00077094484111799283 -0.014849285507755687 0 0.00074643276683189041 -0.014825166968741353 0 0.00076317140014912075 -0.014782131160726231 0 0.00077094484111799283 -0.014849285507755687 0 0.00076317140014912075 -0.014782131160726231 0 0.00079051006141920893 -0.014701074860765563 0 0.00078718483933946871 -0.014786781567613434 0 0.00076317140014912075 -0.014782131160726231 0 0.0007670102445660543 -0.014732465644270845 0 0.00079051006141920893 -0.014701074860765563 0 0.00079051006141920893 -0.014701074860765563 0 0.00078718483933946871 -0.014786781567613434 0 0.00081128582503207664 -0.014708601215502683 0 0.00078718483933946871 -0.014786781567613434 0 0.00081128582503207664 -0.014708601215502683 0 0.00080892249550007739 -0.014816200637558235 0 0.00082662912880948668 -0.014784513460966877 0 0.00081128582503207664 -0.014708601215502683 0 0.00080892249550007739 -0.014816200637558235 0 0.00079051006141920893 -0.014701074860765563 0 0.00081128582503207664 -0.014708601215502683 0 0.00083079710762430485 -0.01457071681758842 0 0.00089181497768147332 -0.014375366173434092 0 0.00086708795775054792 -0.014437290305134761 0 0.00083079710762430485 -0.01457071681758842 0 0.00086708795775054792 -0.014437290305134761 0 0.000809179058581184 -0.014620598247636084 0 0.00083079710762430485 -0.01457071681758842 0 0.000809179058581184 -0.014620598247636084 0 0.00079051006141920893 -0.014701074860765563 0 0.00083079710762430485 -0.01457071681758842 0 -0.0022639749414087975 -0.012405713583607302 0 -0.0020505989962781952 -0.012235274793810326 0 -0.0023659011341776713 -0.011905537890606419 0 0.0032939046310371581 -0.0035198193733178952 0 0.0038242471375785733 -0.0042152610063492498 0 0.003695692199622238 -0.0033657697229181778 0 0.0011145223998569318 -0.0099851434230648992 0 0.00066336341795582006 -0.0069485576877847217 0 0.0024552234687845041 -0.011758211355040273 0 0.0031732420598082072 -0.01212425017541716 0 0.0030628172656578644 -0.01136482833543385 0 0.00057358353399907793 -0.012854279455348561 0 0.0011145223998569318 -0.0099851434230648992 0 -0.0020166422164010363 -0.012758188017465888 0 -0.0021290338345947121 -0.012589176218426897 0 -0.0019810863756000944 -0.012640072454570902 0 0.0011145223998569318 -0.0099851434230648992 0 -0.0024682395349328225 -0.012557509368567343 0 -0.0020166422164010363 -0.012758188017465888 0 -0.0021158481830901221 -0.012784488486476587 0 -0.0021290338345947121 -0.012589176218426897 0 -0.0020166422164010363 -0.012758188017465888 0 -0.0019097376870315856 -0.012765561726092996 0 -0.0019810863756000944 -0.012640072454570902 0 -0.0020505989962781952 -0.012235274793810326 0 -0.0017736637412036043 -0.012419865407724663 0 -0.0020159461722167988 -0.011889925625630654 0 -0.0019354213883812671 -0.012510862092075812 0 -0.0020505989962781952 -0.012235274793810326 0 -0.0017736637412036043 -0.012419865407724663 0 -0.0022639749414087975 -0.012405713583607302 0 -0.0019354213883812671 -0.012510862092075812 0 -0.0020505989962781952 -0.012235274793810326 0 -0.0006598722334576853 -0.013139814414333885 0 -0.0011444919061408146 -0.012798242389033704 0 0.00047102905327447964 -0.014023330404027536 0 0.00056420822946917626 -0.013223147945422599 0 -0.0001428257341976843 -0.01287447524843871 0 0.00047102905327447964 -0.014023330404027536 0 0.00079192632643139188 -0.013825926776672061 0 0.00056420822946917626 -0.013223147945422599 0 -0.0019354213883812671 -0.012510862092075812 0 -0.0017736637412036043 -0.012419865407724663 0 -0.0017643719016994801 -0.012643734441926036 0 -0.0019097376870315856 -0.012765561726092996 0 -0.0019810863756000944 -0.012640072454570902 0 -0.0017643719016994801 -0.012643734441926036 0 -0.0024682395349328225 -0.012557509368567343 0 -0.0015930681597479722 -0.01267243565992999 0 0.00071271045095583894 -0.014549412020179621 0 0.00047102905327447964 -0.014023330404027536 0 0.00077830036235027142 -0.014210331939613572 0 -0.0016810015170293882 -0.012790353225034827 0 -0.0017736637412036043 -0.012419865407724663 0 -0.0017643719016994801 -0.012643734441926036 0 0.00071271045095583894 -0.014549412020179621 0 0.0008167443626194747 -0.014445744855642408 0 0.00077830036235027142 -0.014210331939613572 0 -0.00047481340233896963 -0.013681396987705985 0 -0.0006598722334576853 -0.013139814414333885 0 0.00092982808442385848 -0.014165529443706774 0 0.00079192632643139188 -0.013825926776672061 0 0.0010426712545678512 -0.013395649928514835 0 0.00092982808442385848 -0.014165529443706774 0 0.00077830036235027142 -0.014210331939613572 0 0.00079192632643139188 -0.013825926776672061 0 0.00047102905327447964 -0.014023330404027536 0 0.00077830036235027142 -0.014210331939613572 0 0.00079192632643139188 -0.013825926776672061 0 0.00079192632643139188 -0.013825926776672061 0 0.0010426712545678512 -0.013395649928514835 0 0.00056420822946917626 -0.013223147945422599 0 0.0010426712545678512 -0.013395649928514835 0 0.00081518453043045731 -0.01262025462265268 0 0.00056420822946917626 -0.013223147945422599 0 0.0012991995575689062 -0.012151788596718971 0 0.00081518453043045731 -0.01262025462265268 0 0.00084233917167288435 -0.011959026306099905 0 0.0012991995575689062 -0.012151788596718971 0 0.00084233917167288435 -0.011959026306099905 0 0.00114512592047735 -0.011836259351753343 0 0.0010426712545678512 -0.013395649928514835 0 0.0012991995575689062 -0.012151788596718971 0 0.00081518453043045731 -0.01262025462265268 0 0.00084233917167288435 -0.011959026306099905 0 0.00037231685808747193 -0.012375604015827699 0 0.00047347032921672043 -0.011426028327645329 0 0.00081518453043045731 -0.01262025462265268 0 0.00084233917167288435 -0.011959026306099905 0 0.00037231685808747193 -0.012375604015827699 0 0.00037231685808747193 -0.012375604015827699 0 0.00056420822946917626 -0.013223147945422599 0 -0.0001428257341976843 -0.01287447524843871 0 0.00081518453043045731 -0.01262025462265268 0 0.00037231685808747193 -0.012375604015827699 0 0.00056420822946917626 -0.013223147945422599 0 -0.0020505989962781952 -0.012235274793810326 0 -0.0020159461722167988 -0.011889925625630654 0 -0.0023659011341776713 -0.011905537890606419 0 0.00037231685808747193 -0.012375604015827699 0 -0.0001428257341976843 -0.01287447524843871 0 -8.1863591296243006e-05 -0.01166628722673581 0 0.00037231685808747193 -0.012375604015827699 0 -8.1863591296243006e-05 -0.01166628722673581 0 0.00047347032921672043 -0.011426028327645329 0 0.0033486708775454371 -0.0028405285463322665 0 0.0035438889567961907 -0.0025739929397995812 0 0.003695692199622238 -0.0033657697229181778 0 -0.0001428257341976843 -0.01287447524843871 0 -8.1863591296243006e-05 -0.01166628722673581 0 -0.00085952025513311202 -0.011329905867112194 0 -8.1863591296243006e-05 -0.01166628722673581 0 -0.00085952025513311202 -0.011329905867112194 0 -0.00058898539786273493 -0.011229551867123409 0 -0.0011444919061408146 -0.012798242389033704 0 -0.00055081920868567727 -0.0088176594978872282 0 -0.00055081920868567727 -0.0088176594978872282 0 0.00066336341795582006 -0.0069485576877847217 0 -0.00055081920868567727 -0.0088176594978872282 0 -0.00052680810478300283 -0.0090998066176423368 0 -0.00085952025513311202 -0.011329905867112194 0 -0.00090821553503371956 -0.011205489070907721 0 -0.00074614969169029628 -0.011179917380387344 0 -0.00085952025513311202 -0.011329905867112194 0 -0.00074614969169029628 -0.011179917380387344 0 -0.00058898539786273493 -0.011229551867123409 0 -0.0020159461722167988 -0.011889925625630654 0 -0.0024409993501313199 -0.011286899836981171 0 -0.0023659011341776713 -0.011905537890606419 0 -0.00026978489774133127 -0.0089523130788206236 0 -0.00067310623409728759 -0.0099183127321422725 0 -0.00039268762904014356 -0.010129219077795291 0 -0.00026978489774133127 -0.0089523130788206236 0 -0.00039268762904014356 -0.010129219077795291 0 3.1657042870599383e-05 -0.010804438679195097 0 -0.00067310623409728759 -0.0099183127321422725 0 -0.00039268762904014356 -0.010129219077795291 0 -0.00064211590262016314 -0.010791535605003098 0 -0.00074614969169029628 -0.011179917380387344 0 -0.00058898539786273493 -0.011229551867123409 0 -0.00064211590262016314 -0.010791535605003098 0 -0.00090821553503371956 -0.011205489070907721 0 -0.00074614969169029628 -0.011179917380387344 0 -0.00064211590262016314 -0.010791535605003098 0 -0.00039268762904014356 -0.010129219077795291 0 -0.00064211590262016314 -0.010791535605003098 0 3.1657042870599383e-05 -0.010804438679195097 0 -0.00058898539786273493 -0.011229551867123409 0 -0.00064211590262016314 -0.010791535605003098 0 3.1657042870599383e-05 -0.010804438679195097 0 -8.1863591296243006e-05 -0.01166628722673581 0 -0.00058898539786273493 -0.011229551867123409 0 3.1657042870599383e-05 -0.010804438679195097 0 3.1657042870599383e-05 -0.010804438679195097 0 0.00066370454101803841 -0.010610720107006782 0 0.00047347032921672043 -0.011426028327645329 0 -8.1863591296243006e-05 -0.01166628722673581 0 3.1657042870599383e-05 -0.010804438679195097 0 0.00047347032921672043 -0.011426028327645329 0 -0.00033795045372934978 -0.0090614464081664407 0 0.00044094482111387185 -0.0094347350675368265 0 -0.00026978489774133127 -0.0089523130788206236 0 0.00032601134210449617 -0.0085807652005669387 0 0.00017155846821699416 -0.0080323973151774902 0 -0.00026978489774133127 -0.0089523130788206236 0 3.1657042870599383e-05 -0.010804438679195097 0 0.00066370454101803841 -0.010610720107006782 0 0.00066370454101803841 -0.010610720107006782 0 0.00047347032921672043 -0.011426028327645329 0 0.0010537983421973196 -0.01153486817634641 0 0.00084233917167288435 -0.011959026306099905 0 0.00047347032921672043 -0.011426028327645329 0 0.0010537983421973196 -0.01153486817634641 0 0.00066370454101803841 -0.010610720107006782 0 0.0010537983421973196 -0.01153486817634641 0 0.0014081345462434672 -0.011648191572999397 0 0.00084233917167288435 -0.011959026306099905 0 0.0010537983421973196 -0.01153486817634641 0 0.00114512592047735 -0.011836259351753343 0 0.0010537983421973196 -0.01153486817634641 0 0.00114512592047735 -0.011836259351753343 0 0.0012408353453640085 -0.011746196797283739 0 0.0012991995575689062 -0.012151788596718971 0 0.00114512592047735 -0.011836259351753343 0 0.0013173094966063244 -0.011898409910739075 0 0.00114512592047735 -0.011836259351753343 0 0.0012408353453640085 -0.011746196797283739 0 0.0013173094966063244 -0.011898409910739075 0 0.0010537983421973196 -0.01153486817634641 0 0.0013792580547528682 -0.011724970205561014 0 0.0014081345462434672 -0.011648191572999397 0 0.0010537983421973196 -0.01153486817634641 0 0.0012408353453640085 -0.011746196797283739 0 0.0013792580547528682 -0.011724970205561014 0 0.0012408353453640085 -0.011746196797283739 0 0.0013173094966063244 -0.011898409910739075 0 0.0013792580547528682 -0.011724970205561014 0 0.00059880953152065004 -0.011110745802524882 0 0.00056636541587231596 -0.011002969383181602 0 0.00032601134210449617 -0.0085807652005669387 0 0.00012707245952182583 -0.0085102079569307296 0 0.00024315584719249527 -0.0085637190121230881 0 0.00012707245952182583 -0.0085102079569307296 0 0.00024315584719249527 -0.0085637190121230881 0 -5.6218401100500547e-05 -0.0088653064802827197 0 0.00044094482111387185 -0.0094347350675368265 0 0.00056636541587231596 -0.011002969383181602 0 0.00024315584719249527 -0.0085637190121230881 0 7.8386440509642504e-07 -0.0091056261525632193 0 -5.6218401100500547e-05 -0.0088653064802827197 0 0.00024315584719249527 -0.0085637190121230881 0 7.8386440509642504e-07 -0.0091056261525632193 0 1.6973257833347338e-07 -0.0078900342530664833 0 0.00024315584719249527 -0.0085637190121230881 0 1.6973257833347338e-07 -0.0078900342530664833 0 0.00017155846821699416 -0.0080323973151774902 0 0.00032601134210449617 -0.0085807652005669387 0 0.00024315584719249527 -0.0085637190121230881 0 0.00017155846821699416 -0.0080323973151774902 0 1.6973257833347338e-07 -0.0078900342530664833 0 0.00017155846821699416 -0.0080323973151774902 0 1.2209072566678409e-06 -0.0066738460101980791 0 -0.0005015262502251947 -0.0076252035847426515 0 0.00017155846821699416 -0.0080323973151774902 0 1.2209072566678409e-06 -0.0066738460101980791 0 -0.0005015262502251947 -0.0076252035847426515 0 -0.00026978489774133127 -0.0089523130788206236 0 0.00017155846821699416 -0.0080323973151774902 0 0.00040472253344207544 -0.012324886319138801 0 0.00033098136628773359 -0.012429365217806597 0 0.00043065223802524931 -0.012530183206985124 0 0.00040472253344207544 -0.012324886319138801 0 0.00045187003926507117 -0.012438402088881275 0 0.00043065223802524931 -0.012530183206985124 0 0.00040472253344207544 -0.012324886319138801 0 0.00033098136628773359 -0.012429365217806597 0 0.00015439770339105671 -0.012182203181485642 0 0.00040472253344207544 -0.012324886319138801 0 0.00015439770339105671 -0.012182203181485642 0 0.00035494268033025276 -0.012126591114132555 0 0.00040472253344207544 -0.012324886319138801 0 0.00041188512787433711 -0.01223978722617635 0 0.00043960783189687312 -0.01230689648646959 0 0.00040472253344207544 -0.012324886319138801 0 0.00041188512787433711 -0.01223978722617635 0 0.00035494268033025276 -0.012126591114132555 0 0.00041188512787433711 -0.01223978722617635 0 0.00030008654587721336 -0.012359261156785052 0 0.0004568112795987768 -0.012227719637303264 0 0.00041188512787433711 -0.01223978722617635 0 0.00043960783189687312 -0.01230689648646959 0 0.0004568112795987768 -0.012227719637303264 0 0.00043960783189687312 -0.01230689648646959 0 0.00045187003926507117 -0.012438402088881275 0 0.0004568112795987768 -0.012227719637303264 0 0.00040472253344207544 -0.012324886319138801 0 0.00043960783189687312 -0.01230689648646959 0 0.00045187003926507117 -0.012438402088881275 0 0.00071318009579678131 -0.014771717633339015 0 0.00078588268207413253 -0.014803745046484178 0 0.00066130977422048298 -0.014701985066965493 0 0.00050521570127400235 -0.012826579867178927 0 0.00070735480482474894 -0.014804333540598034 0 0.00066130977422048298 -0.014701985066965493 0 0.00045187003926507117 -0.012438402088881275 0 0.00050521570127400235 -0.012826579867178927 0 0.0004568112795987768 -0.012227719637303264 0 0.00045961189171850824 -0.012394957054336101 0 0.00050521570127400235 -0.012826579867178927 0 0.00066130977422048298 -0.014701985066965493 0 0.00071749780471326487 -0.013665861960526528 0 0.00069592516071286556 -0.014472525001547713 0 0.00047455541017065898 -0.013031275707088504 0 0.0004785727543172801 -0.013506426776975718 0 0.00071318009579678131 -0.014771717633339015 0 0.00073409748415402011 -0.014784458174437428 0 0.00078588268207413253 -0.014803745046484178 0 0.00071318009579678131 -0.014771717633339015 0 0.00071333839444398311 -0.014812913092757335 0 0.00069726092934636484 -0.014782971541706299 0 0.00072183916282240915 -0.014793092235906994 0 0.0007292084054561737 -0.014806894379068583 0 0.00071333839444398311 -0.014812913092757335 0 0.00071318009579678131 -0.014771717633339015 0 0.00072183916282240915 -0.014793092235906994 0 0.00071333839444398311 -0.014812913092757335 0 0.00071318009579678131 -0.014771717633339015 0 0.00072183916282240915 -0.014793092235906994 0 0.00073409748415402011 -0.014784458174437428 0 0.00074462963145465627 -0.014784588748052482 0 0.0007292084054561737 -0.014806894379068583 0 0.00073409748415402011 -0.014784458174437428 0 0.00072183916282240915 -0.014793092235906994 0 0.0007292084054561737 -0.014806894379068583 0 0.00073409748415402011 -0.014784458174437428 0 0.00075617699311661933 -0.014762707541673702 0 0.00073409748415402011 -0.014784458174437428 0 0.00078588268207413253 -0.014803745046484178 0 0.00155614133967911 -0.012073611317047341 0 0.00045961189171850824 -0.012394957054336101 0 0.00051848353754656512 -0.012594793101010842 0 0.00045961189171850824 -0.012394957054336101 0 0.00050521570127400235 -0.012826579867178927 0 0.00051848353754656512 -0.012594793101010842 0 0.00050521570127400235 -0.012826579867178927 0 0.00043065223802524931 -0.012530183206985124 0 0.00051848353754656512 -0.012594793101010842 0 0.00045187003926507117 -0.012438402088881275 0 0.00050521570127400235 -0.012826579867178927 0 0.00043065223802524931 -0.012530183206985124 0 0.00033098136628773359 -0.012429365217806597 0 0.00043065223802524931 -0.012530183206985124 0 0.00051848353754656512 -0.012594793101010842 0 0.00155614133967911 -0.012073611317047341 0 0.00051848353754656512 -0.012594793101010842 0 0.0012977152828159105 -0.012348557684403448 0 0.00050781784277019568 -0.012560959820799682 0 0.00043515399642121949 -0.012490536352184915 0 0.00033098136628773359 -0.012429365217806597 0 0.00051848353754656512 -0.012594793101010842 0 -0.00025222298666328392 -0.012626148321518758 0 0.0013892789963106068 -0.011751986967577217 0 0.0012977152828159105 -0.012348557684403448 0 0.0014205627527510186 -0.012009011124194275 0 0.00056636541587231596 -0.011002969383181602 0 0.00043515399642121949 -0.012490536352184915 0 0.00155614133967911 -0.012073611317047341 0 0.0012977152828159105 -0.012348557684403448 0 0.0014205627527510186 -0.012009011124194275 0 0.0012991995575689062 -0.012151788596718971 0 0.0013173094966063244 -0.011898409910739075 0 0.0014205627527510186 -0.012009011124194275 0 0.0013173094966063244 -0.011898409910739075 0 0.0013792580547528682 -0.011724970205561014 0 0.0014205627527510186 -0.012009011124194275 0 0.0013792580547528682 -0.011724970205561014 0 0.0013892789963106068 -0.011751986967577217 0 0.0014205627527510186 -0.012009011124194275 0 0.00056636541587231596 -0.011002969383181602 0 -0.00042598848900450201 -0.010244298753505552 0 -0.00089970979662115202 -0.01253704845558315 0 -0.00025222298666328392 -0.012626148321518758 0 -0.00034581904494074256 -0.012193412985678864 0 -0.00089970979662115202 -0.01253704845558315 0 -0.00034581904494074256 -0.012193412985678864 0 -0.00068087807855811812 -0.011745662071834371 0 0.00033098136628773359 -0.012429365217806597 0 0.00015439770339105671 -0.012182203181485642 0 -0.00025222298666328392 -0.012626148321518758 0 0.00015439770339105671 -0.012182203181485642 0 -0.00025222298666328392 -0.012626148321518758 0 -0.00034581904494074256 -0.012193412985678864 0 0.00015439770339105671 -0.012182203181485642 0 -0.00034581904494074256 -0.012193412985678864 0 -5.3902292593415852e-05 -0.011762100682129951 0 -0.00034581904494074256 -0.012193412985678864 0 -5.3902292593415852e-05 -0.011762100682129951 0 -0.00068087807855811812 -0.011745662071834371 0 -0.00042598848900450201 -0.010244298753505552 0 -7.8067106331320968e-08 -0.010320961119283753 0 7.8386440509642504e-07 -0.0091056261525632193 0 -5.6218401100500547e-05 -0.0088653064802827197 0 -1.1777335978785269e-06 -0.01031870205779142 0 -1.2058253903932377e-06 -0.010323312264435202 0 9.6274797707645321e-05 -0.011281496143719278 0 7.4325059482745534e-07 -0.011525511547740288 0 -5.3902292593415852e-05 -0.011762100682129951 0 -0.00068087807855811812 -0.011745662071834371 0 -1.2058253903932377e-06 -0.010323312264435202 0 -5.3902292593415852e-05 -0.011762100682129951 0 -1.2058253903932377e-06 -0.010323312264435202 0 9.6274797707645321e-05 -0.011281496143719278 0 9.6274797707645321e-05 -0.011281496143719278 0 7.4325059482745534e-07 -0.011525511547740288 0 0.00022683486462646415 -0.01183238821313235 0 7.4325059482745534e-07 -0.011525511547740288 0 0.00022683486462646415 -0.01183238821313235 0 0.00032079041554607942 -0.012228124606380234 0 -5.3902292593415852e-05 -0.011762100682129951 0 9.6274797707645321e-05 -0.011281496143719278 0 0.00022683486462646415 -0.01183238821313235 0 0.00015439770339105671 -0.012182203181485642 0 -5.3902292593415852e-05 -0.011762100682129951 0 0.00022683486462646415 -0.01183238821313235 0 0.00015439770339105671 -0.012182203181485642 0 0.00022683486462646415 -0.01183238821313235 0 0.00035494268033025276 -0.012126591114132555 0 0.00022683486462646415 -0.01183238821313235 0 0.00035494268033025276 -0.012126591114132555 0 0.00032079041554607942 -0.012228124606380234 0 0.00041188512787433711 -0.01223978722617635 0 0.00032079041554607942 -0.012228124606380234 0 0.00030008654587721336 -0.012359261156785052 0 0.00041188512787433711 -0.01223978722617635 0 0.00035494268033025276 -0.012126591114132555 0 0.00032079041554607942 -0.012228124606380234 0 7.4325059482745534e-07 -0.011525511547740288 0 0.00032079041554607942 -0.012228124606380234 0 7.9223029189088892e-07 -0.012730670284456798 0 0.00032079041554607942 -0.012228124606380234 0 7.9223029189088892e-07 -0.012730670284456798 0 0.0001257285810910165 -0.012890169010957639 0 -1.2224838040861132e-06 -0.013933236338572521 0 0.0001257285810910165 -0.012890169010957639 0 -0.0005111553468625541 -0.013200864724453774 0 7.9223029189088892e-07 -0.012730670284456798 0 -1.2224838040861132e-06 -0.013933236338572521 0 0.0001257285810910165 -0.012890169010957639 0 0.00070135282169105344 -0.014949304324782123 0 0.00072804268984222515 -0.014981614564192777 0 0.00072934496532103257 -0.014925804990604251 0 0.0001257285810910165 -0.012890169010957639 0 2.4921298300149068e-05 -0.012425205752883207 0 -0.0005111553468625541 -0.013200864724453774 0 0.00042576531256545793 -0.013614583453084058 0 5.232766701849512e-05 -0.014645494254495298 0 2.4921298300149068e-05 -0.012425205752883207 0 0.00030008654587721336 -0.012359261156785052 0 0.0004568112795987768 -0.012227719637303264 0 0.00032079041554607942 -0.012228124606380234 0 0.0001257285810910165 -0.012890169010957639 0 0.00030008654587721336 -0.012359261156785052 0 0.0001257285810910165 -0.012890169010957639 0 2.4921298300149068e-05 -0.012425205752883207 0 0.00030008654587721336 -0.012359261156785052 0 0.00070135282169105344 -0.014949304324782123 0 0.00070735480482474894 -0.014804333540598034 0 0.00069567173334443143 -0.01491280749618855 0 0.00070735480482474894 -0.014804333540598034 0 0.00066130977422048298 -0.014701985066965493 0 0.00069567173334443143 -0.01491280749618855 0 0.00042576531256545793 -0.013614583453084058 0 0.0004785727543172801 -0.013506426776975718 0 0.00066130977422048298 -0.014701985066965493 0 0.00069567173334443143 -0.01491280749618855 0 0.00071767181382651282 -0.014847966230228203 0 0.00070135282169105344 -0.014949304324782123 0 0.00069567173334443143 -0.01491280749618855 0 0.00072804268984222515 -0.014981614564192777 0 0.00069567173334443143 -0.01491280749618855 0 0.00073486442950390911 -0.015078132701858159 0 0.00072804268984222515 -0.014981614564192777 0 0.00069567173334443143 -0.01491280749618855 0 0.0007314504315154149 -0.014970935224254502 0 0.00071767181382651282 -0.014847966230228203 0 0.00069567173334443143 -0.01491280749618855 0 0.0007314504315154149 -0.014970935224254502 0 0.00073486442950390911 -0.015078132701858159 0 0.0007314504315154149 -0.014970935224254502 0 0.00076216016851331561 -0.015080664065525695 0 0.00073486442950390911 -0.015078132701858159 0 0.0007314504315154149 -0.014970935224254502 0 0.00075533070051924365 -0.014993768363641191 0 0.00074031448117098679 -0.014920598171476403 0 0.0007314504315154149 -0.014970935224254502 0 0.00076216016851331561 -0.015080664065525695 0 0.00075533070051924365 -0.014993768363641191 0 0.00075533070051924365 -0.014993768363641191 0 0.00074031448117098679 -0.014920598171476403 0 0.00075904905697273645 -0.014950596748364482 0 0.00074031448117098679 -0.014920598171476403 0 0.00075904905697273645 -0.014950596748364482 0 0.00074540487775244199 -0.014886399040446495 0 0.00074031448117098679 -0.014920598171476403 0 0.00073074481394650684 -0.014869601748291586 0 0.00071767181382651282 -0.014847966230228203 0 0.00074031448117098679 -0.014920598171476403 0 0.00073074481394650684 -0.014869601748291586 0 0.00074540487775244199 -0.014886399040446495 0 0.00073204007819837355 -0.014841032795373696 0 0.00073074481394650684 -0.014869601748291586 0 0.00074540487775244199 -0.014886399040446495 0 0.0007292084054561737 -0.014806894379068583 0 0.00073204007819837355 -0.014841032795373696 0 0.00071333839444398311 -0.014812913092757335 0 0.00073204007819837355 -0.014841032795373696 0 0.00071333839444398311 -0.014812913092757335 0 0.00073074481394650684 -0.014869601748291586 0 0.00071333839444398311 -0.014812913092757335 0 0.00073074481394650684 -0.014869601748291586 0 0.00071767181382651282 -0.014847966230228203 0 0.00071318009579678131 -0.014771717633339015 0 0.00066130977422048298 -0.014701985066965493 0 0.00069726092934636484 -0.014782971541706299 0 0.00071333839444398311 -0.014812913092757335 0 0.00069726092934636484 -0.014782971541706299 0 0.00071767181382651282 -0.014847966230228203 0 0.00066130977422048298 -0.014701985066965493 0 0.00069726092934636484 -0.014782971541706299 0 0.00071767181382651282 -0.014847966230228203 0 0.0007314504315154149 -0.014970935224254502 0 0.00074031448117098679 -0.014920598171476403 0 0.00071767181382651282 -0.014847966230228203 0 0.00078030640308539821 -0.015270819797056938 0 0.00087954571216039394 -0.015335587422718858 0 0.00080221682691662525 -0.015578723562674264 0 0.00078030640308539821 -0.015270819797056938 0 0.00080476546143207954 -0.015365649108328109 0 0.00080221682691662525 -0.015578723562674264 0 0.00078030640308539821 -0.015270819797056938 0 0.00077658892882343953 -0.015213370395264651 0 0.00080476546143207954 -0.015365649108328109 0 0.00076216016851331561 -0.015080664065525695 0 0.00077658892882343953 -0.015213370395264651 0 0.00073486442950390911 -0.015078132701858159 0 0.00078030640308539821 -0.015270819797056938 0 0.00077658892882343953 -0.015213370395264651 0 0.00073486442950390911 -0.015078132701858159 0 0.00073486442950390911 -0.015078132701858159 0 0.00079729261869741839 -0.015030347897851799 0 0.00072804268984222515 -0.014981614564192777 0 0.00078030640308539821 -0.015270819797056938 0 0.00073486442950390911 -0.015078132701858159 0 0.00079729261869741839 -0.015030347897851799 0 0.00078030640308539821 -0.015270819797056938 0 0.00079729261869741839 -0.015030347897851799 0 0.00087954571216039394 -0.015335587422718858 0 0.00036259076013961199 -0.016029787888771494 0 0.00061404513978658912 -0.01613410161071346 0 -8.6531136547383672e-05 -0.016824346634041941 0 -0.00019659597366823877 -0.016089937832704317 0 0.00013190943440773649 -0.016327152312284689 0 0.00036259076013961199 -0.016029787888771494 0 5.232766701849512e-05 -0.014645494254495298 0 -8.6531136547383672e-05 -0.016824346634041941 0 -0.0010014777405098071 -0.015883470337449673 0 -0.00019659597366823877 -0.016089937832704317 0 0.00079729261869741839 -0.015030347897851799 0 0.00072804268984222515 -0.014981614564192777 0 0.00072934496532103257 -0.014925804990604251 0 -5.7468794306674238e-10 -0.013936784512247618 0 4.496186849114224e-07 -0.014341487720509563 0 2.2030248790920253e-09 -0.014975293821012439 0 -0.0010014777405098071 -0.015883470337449673 0 -0.00019659597366823877 -0.016089937832704317 0 -1.4152838871881651e-06 -0.014979127159466171 0 5.232766701849512e-05 -0.014645494254495298 0 -5.3762340930194358e-07 -0.014977170499139107 0 -4.2849403237307911e-07 -0.013934888420540834 0 5.232766701849512e-05 -0.014645494254495298 0 -0.00019659597366823877 -0.016089937832704317 0 -1.4152838871881651e-06 -0.014979127159466171 0 0.00013190943440773649 -0.016327152312284689 0 -1.4152838871881651e-06 -0.014979127159466171 0 0.00013190943440773649 -0.016327152312284689 0 1.0728645460715051e-06 -0.016449367483864878 0 0.00013190943440773649 -0.016327152312284689 0 1.0728645460715051e-06 -0.016449367483864878 0 0.00036775229598904946 -0.017053546785356748 0 1.0728645460715051e-06 -0.016449367483864878 0 0.00036775229598904946 -0.017053546785356748 0 0.00025548995573218845 -0.017483386443727409 0 -8.6531136547383672e-05 -0.016824346634041941 0 0.00013190943440773649 -0.016327152312284689 0 0.00036775229598904946 -0.017053546785356748 0 1.0156797962049069e-07 -0.017921524886878534 0 0.00015618881936369988 -0.018148105890990612 0 7.7916748820376709e-05 -0.018716439716126711 0 1.0728645460715051e-06 -0.016449367483864878 0 1.0156797962049069e-07 -0.017921524886878534 0 0.00025548995573218845 -0.017483386443727409 0 0.00025548995573218845 -0.017483386443727409 0 0.00015618881936369988 -0.018148105890990612 0 0.00024837839567866778 -0.017625041789940239 0 1.0156797962049069e-07 -0.017921524886878534 0 0.00025548995573218845 -0.017483386443727409 0 0.00015618881936369988 -0.018148105890990612 0 0.00015005503229164447 -0.017766399939117175 0 8.8108227934702597e-05 -0.018090327638133105 0 5.3844660738764315e-05 -0.017759044346046585 0 0.00015005503229164447 -0.017766399939117175 0 0.00013857164110291746 -0.017489991071961905 0 5.3844660738764315e-05 -0.017759044346046585 0 0.00015618881936369988 -0.018148105890990612 0 0.00015005503229164447 -0.017766399939117175 0 8.8108227934702597e-05 -0.018090327638133105 0 0.00015618881936369988 -0.018148105890990612 0 0.00015005503229164447 -0.017766399939117175 0 0.00024837839567866778 -0.017625041789940239 0 0.00015005503229164447 -0.017766399939117175 0 0.00021259172375322945 -0.017513008207378812 0 0.00013857164110291746 -0.017489991071961905 0 0.00015005503229164447 -0.017766399939117175 0 0.00021259172375322945 -0.017513008207378812 0 0.00024837839567866778 -0.017625041789940239 0 0.00025548995573218845 -0.017483386443727409 0 0.00024837839567866778 -0.017625041789940239 0 0.00031979278085289119 -0.017261939581755932 0 0.00021259172375322945 -0.017513008207378812 0 0.00024837839567866778 -0.017625041789940239 0 0.00031979278085289119 -0.017261939581755932 0 0.00031979278085289119 -0.017261939581755932 0 0.00031045790758946429 -0.016823386785637391 0 0.0002037302341537011 -0.017239558279017478 0 0.00031045790758946429 -0.016823386785637391 0 0.00019387923437571517 -0.016952387892463065 0 0.0002037302341537011 -0.017239558279017478 0 0.00021259172375322945 -0.017513008207378812 0 0.00031979278085289119 -0.017261939581755932 0 0.0002037302341537011 -0.017239558279017478 0 0.0002037302341537011 -0.017239558279017478 0 0.00013857164110291746 -0.017489991071961905 0 0.0001406259661746495 -0.01726502450220958 0 0.00021259172375322945 -0.017513008207378812 0 0.0002037302341537011 -0.017239558279017478 0 0.00013857164110291746 -0.017489991071961905 0 0.00019387923437571517 -0.016952387892463065 0 0.0002037302341537011 -0.017239558279017478 0 0.0001406259661746495 -0.01726502450220958 0 0.00019387923437571517 -0.016952387892463065 0 0.0001406259661746495 -0.01726502450220958 0 9.543564883576235e-05 -0.017198260120795263 0 0.00013857164110291746 -0.017489991071961905 0 0.0001406259661746495 -0.01726502450220958 0 6.3689067283336596e-05 -0.01737369308190596 0 0.0001406259661746495 -0.01726502450220958 0 9.543564883576235e-05 -0.017198260120795263 0 6.3689067283336596e-05 -0.01737369308190596 0 0.00013857164110291746 -0.017489991071961905 0 6.3689067283336596e-05 -0.01737369308190596 0 5.3844660738764315e-05 -0.017759044346046585 0 0.00036775229598904946 -0.017053546785356748 0 0.00045734773376782714 -0.016942446383450844 0 0.00044684029149259297 -0.01706472005391314 0 -8.6531136547383672e-05 -0.016824346634041941 0 0.00036775229598904946 -0.017053546785356748 0 0.00044684029149259297 -0.01706472005391314 0 0.00036775229598904946 -0.017053546785356748 0 0.00031979278085289119 -0.017261939581755932 0 0.00045734773376782714 -0.016942446383450844 0 0.00036775229598904946 -0.017053546785356748 0 0.00025548995573218845 -0.017483386443727409 0 0.00031979278085289119 -0.017261939581755932 0 0.00031979278085289119 -0.017261939581755932 0 0.00031045790758946429 -0.016823386785637391 0 0.00045734773376782714 -0.016942446383450844 0 0.00031045790758946429 -0.016823386785637391 0 0.00045734773376782714 -0.016942446383450844 0 0.00068436563337389807 -0.016175877051806717 0 0.00087954571216039394 -0.015335587422718858 0 0.00068436563337389807 -0.016175877051806717 0 0.00080221682691662525 -0.015578723562674264 0 0.00045734773376782714 -0.016942446383450844 0 0.00044684029149259297 -0.01706472005391314 0 0.00068436563337389807 -0.016175877051806717 0 0.00061404513978658912 -0.01613410161071346 0 0.00063752685948110957 -0.016125110021420006 0 0.00079233188081710378 -0.015613910553998647 0 0.00068436563337389807 -0.016175877051806717 0 0.00080221682691662525 -0.015578723562674264 0 0.00079233188081710378 -0.015613910553998647 0 0.00068436563337389807 -0.016175877051806717 0 0.00064935123975359908 -0.015801679353339957 0 0.00068436563337389807 -0.016175877051806717 0 0.00064935123975359908 -0.015801679353339957 0 0.00024468648351264603 -0.016185132071557442 0 0.00031045790758946429 -0.016823386785637391 0 0.00068436563337389807 -0.016175877051806717 0 0.00024468648351264603 -0.016185132071557442 0 0.00087739429901415142 -0.015724182992138881 0 0.00050900482291823905 -0.016402923374925479 0 0.00067686094699528942 -0.015421151736352185 0 0.00064935123975359908 -0.015801679353339957 0 0.00024468648351264603 -0.016185132071557442 0 0.00079990315928821503 -0.01621043758235188 0 0.0010962576573935005 -0.016008216467324064 0 0.00073726189930070326 -0.016597929034185863 0 0.00079990315928821503 -0.01621043758235188 0 0.0010962576573935005 -0.016008216467324064 0 0.00098733475459633884 -0.015971660547628302 0 0.00067686094699528942 -0.015421151736352185 0 0.0007655615499905956 -0.01550447863379004 0 0.00079976288089889981 -0.01532505309384649 0 0.00079233188081710378 -0.015613910553998647 0 0.0007655615499905956 -0.01550447863379004 0 0.00081104980092033536 -0.015424207951235981 0 0.00067686094699528942 -0.015421151736352185 0 0.0007655615499905956 -0.01550447863379004 0 0.00064935123975359908 -0.015801679353339957 0 0.00079233188081710378 -0.015613910553998647 0 0.0007655615499905956 -0.01550447863379004 0 0.00064935123975359908 -0.015801679353339957 0 9.543564883576235e-05 -0.017198260120795263 0 0.00026758467047971127 -0.01680377663321261 0 0.00073726189930070326 -0.016597929034185863 0 9.543564883576235e-05 -0.017198260120795263 0 6.3689067283336596e-05 -0.01737369308190596 0 -0.00029992438328604339 -0.01694603060827763 0 9.543564883576235e-05 -0.017198260120795263 0 -1.7526065931824736e-05 -0.0168163179454799 0 0.00026758467047971127 -0.01680377663321261 0 -1.7526065931824736e-05 -0.0168163179454799 0 0.00026758467047971127 -0.01680377663321261 0 0.00025744372151765432 -0.016599618405909317 0 0.00011311370055132088 -0.017083795879734544 0 0.00050900482291823905 -0.016402923374925479 0 0.00026758467047971127 -0.01680377663321261 0 0.00073726189930070326 -0.016597929034185863 0 0.00025744372151765432 -0.016599618405909317 0 0.00019387923437571517 -0.016952387892463065 0 9.543564883576235e-05 -0.017198260120795263 0 0.00024468648351264603 -0.016185132071557442 0 0.00031045790758946429 -0.016823386785637391 0 0.00019387923437571517 -0.016952387892463065 0 0.00024468648351264603 -0.016185132071557442 0 0.00073726189930070326 -0.016597929034185863 0 0.00042845207528879756 -0.016291098981054995 0 0.00025744372151765432 -0.016599618405909317 0 0.00079990315928821503 -0.01621043758235188 0 0.00073726189930070326 -0.016597929034185863 0 0.00042845207528879756 -0.016291098981054995 0 0.00079990315928821503 -0.01621043758235188 0 0.00042845207528879756 -0.016291098981054995 0 0.00058551564109488106 -0.016060813119578479 0 -1.7526065931824736e-05 -0.0168163179454799 0 0.00025744372151765432 -0.016599618405909317 0 5.2833843102839944e-05 -0.016305673153045257 0 0.00042845207528879756 -0.016291098981054995 0 0.00025744372151765432 -0.016599618405909317 0 5.2833843102839944e-05 -0.016305673153045257 0 0.00030050327830960012 -0.015917171276665823 0 -0.00025142670200781214 -0.016092607371523421 0 -0.00011486783000860706 -0.015566635984399444 0 5.2833843102839944e-05 -0.016305673153045257 0 0.00030050327830960012 -0.015917171276665823 0 -0.00025142670200781214 -0.016092607371523421 0 0.00042845207528879756 -0.016291098981054995 0 5.2833843102839944e-05 -0.016305673153045257 0 0.00030050327830960012 -0.015917171276665823 0 0.00030050327830960012 -0.015917171276665823 0 0.00058551564109488106 -0.016060813119578479 0 0.00080894915110902709 -0.015765041808387899 0 0.00042845207528879756 -0.016291098981054995 0 0.00030050327830960012 -0.015917171276665823 0 0.00058551564109488106 -0.016060813119578479 0 0.00058551564109488106 -0.016060813119578479 0 0.0008007604448562371 -0.01599841140982193 0 0.00080894915110902709 -0.015765041808387899 0 0.00079990315928821503 -0.01621043758235188 0 0.00058551564109488106 -0.016060813119578479 0 0.0008007604448562371 -0.01599841140982193 0 0.00030050327830960012 -0.015917171276665823 0 0.00058186543822289849 -0.015430004439907425 0 0.00080894915110902709 -0.015765041808387899 0 0.00030050327830960012 -0.015917171276665823 0 0.00058186543822289849 -0.015430004439907425 0 -0.00011486783000860706 -0.015566635984399444 0 0.0010293254173501716 -0.015479257997074114 0 0.0007249154536038354 -0.0156645001356976 0 0.0009870351034436738 -0.015913741165943334 0 0.0011478645994028238 -0.015588322019916176 0 0.0010962576573935005 -0.016008216467324064 0 0.0010962985583628764 -0.01559071982609463 0 0.0011020382726649367 -0.015513167947687024 0 0.00087739429901415142 -0.015724182992138881 0 0.00095082403927775332 -0.0153238214596608 0 0.0010962576573935005 -0.016008216467324064 0 0.00098733475459633884 -0.015971660547628302 0 0.0010962985583628764 -0.01559071982609463 0 0.00098733475459633884 -0.015971660547628302 0 0.0010872036822745571 -0.01563601223386105 0 0.0012179062433257829 -0.015588006428239971 0 0.00098733475459633884 -0.015971660547628302 0 0.00080894915110902709 -0.015765041808387899 0 0.0010872036822745571 -0.01563601223386105 0 0.00098733475459633884 -0.015971660547628302 0 0.0008007604448562371 -0.01599841140982193 0 0.00080894915110902709 -0.015765041808387899 0 0.00079990315928821503 -0.01621043758235188 0 0.00098733475459633884 -0.015971660547628302 0 0.0008007604448562371 -0.01599841140982193 0 0.00058186543822289849 -0.015430004439907425 0 0.00080894915110902709 -0.015765041808387899 0 0.0011865394594183169 -0.015434302169779276 0 0.00080894915110902709 -0.015765041808387899 0 0.0010872036822745571 -0.01563601223386105 0 0.0011865394594183169 -0.015434302169779276 0 0.0010872036822745571 -0.01563601223386105 0 0.0011693208001104436 -0.015505062743156085 0 0.0011865394594183169 -0.015434302169779276 0 0.0010872036822745571 -0.01563601223386105 0 0.0011693208001104436 -0.015505062743156085 0 0.0012179062433257829 -0.015588006428239971 0 0.0011719209199816975 -0.015478832150873095 0 0.0011403515695131321 -0.015420617571818517 0 0.0011560431381067609 -0.015430230711895128 0 0.0011478645994028238 -0.015588322019916176 0 0.0010514152052415789 -0.015265372239798439 0 0.0011693208001104436 -0.015505062743156085 0 0.0011719209199816975 -0.015478832150873095 0 0.0011560431381067609 -0.015430230711895128 0 0.0010962985583628764 -0.01559071982609463 0 0.0011020382726649367 -0.015513167947687024 0 0.00098619959114394141 -0.015166131288460073 0 0.0011403515695131321 -0.015420617571818517 0 0.0012179062433257829 -0.015588006428239971 0 0.001090592693158736 -0.015347742845991608 0 0.0011693208001104436 -0.015505062743156085 0 0.0011719209199816975 -0.015478832150873095 0 0.0012179062433257829 -0.015588006428239971 0 0.0011719209199816975 -0.015478832150873095 0 0.0011403515695131321 -0.015420617571818517 0 0.0012179062433257829 -0.015588006428239971 0 0.00067686094699528942 -0.015421151736352185 0 0.00083214850062822768 -0.015113330303575385 0 0.00079976288089889981 -0.01532505309384649 0 0.00083214850062822768 -0.015113330303575385 0 0.00083869230259409836 -0.015222604592341314 0 0.00086007744662073247 -0.015160567690723744 0 0.00083869230259409836 -0.015222604592341314 0 0.00086007744662073247 -0.015160567690723744 0 0.00085441088517687277 -0.015207271537354451 0 0.00083214850062822768 -0.015113330303575385 0 0.00083869230259409836 -0.015222604592341314 0 0.00079976288089889981 -0.01532505309384649 0 0.00083214850062822768 -0.015113330303575385 0 0.00087593926806373392 -0.015108140694422604 0 0.00089653665178641138 -0.015067318269128011 0 0.00087058426103558723 -0.01512569573789301 0 0.00088390094977984393 -0.015065311219725867 0 0.00086582928223952844 -0.015069248392274279 0 0.00087058426103558723 -0.01512569573789301 0 0.00087593926806373392 -0.015108140694422604 0 0.00088390094977984393 -0.015065311219725867 0 0.00087058426103558723 -0.01512569573789301 0 0.00086007744662073247 -0.015160567690723744 0 0.00085441088517687277 -0.015207271537354451 0 0.00087058426103558723 -0.01512569573789301 0 0.00086007744662073247 -0.015160567690723744 0 0.00087593926806373392 -0.015108140694422604 0 0.00083214850062822768 -0.015113330303575385 0 0.00086007744662073247 -0.015160567690723744 0 0.00087593926806373392 -0.015108140694422604 0 0.00088390094977984393 -0.015065311219725867 0 0.00089653665178641138 -0.015067318269128011 0 0.00089420034256365198 -0.015018897110368351 0 0.00087593926806373392 -0.015108140694422604 0 0.00088390094977984393 -0.015065311219725867 0 0.00089653665178641138 -0.015067318269128011 0 0.00095082403927775332 -0.0153238214596608 0 0.000937565832328884 -0.015102723472992189 0 0.0011020382726649367 -0.015513167947687024 0 0.00098619959114394141 -0.015166131288460073 0 0.00094043644596942188 -0.01505118732469982 0 0.00089653665178641138 -0.015067318269128011 0 0.00094043644596942188 -0.01505118732469982 0 0.00090926314444047173 -0.015027687208854142 0 0.00083214850062822768 -0.015113330303575385 0 0.00089653665178641138 -0.015067318269128011 0 0.00094043644596942188 -0.01505118732469982 0 0.0011403515695131321 -0.015420617571818517 0 0.001090592693158736 -0.015347742845991608 0 0.001096936637752713 -0.015379980770149593 0 0.0010514152052415789 -0.015265372239798439 0 0.00089649734630511642 -0.015096849496853302 0 0.00098619959114394141 -0.015166131288460073 0 0.00094043644596942188 -0.01505118732469982 0 0.00089686629493247543 -0.014945847437228595 0 0.00094043644596942188 -0.01505118732469982 0 0.00089318726245332571 -0.014976900033622084 0 0.00089686629493247543 -0.014945847437228595 0 0.00089318726245332571 -0.014976900033622084 0 0.00086193524146997865 -0.014902248745700394 0 0.00087975002929671273 -0.014973752160715594 0 0.00094043644596942188 -0.01505118732469982 0 0.00089318726245332571 -0.014976900033622084 0 0.00090926314444047173 -0.015027687208854142 0 0.00089318726245332571 -0.014976900033622084 0 0.00090926314444047173 -0.015027687208854142 0 0.00089420034256365198 -0.015018897110368351 0 0.00089653665178641138 -0.015067318269128011 0 0.00090926314444047173 -0.015027687208854142 0 0.00089420034256365198 -0.015018897110368351 0 0.00089318726245332571 -0.014976900033622084 0 0.00089420034256365198 -0.015018897110368351 0 0.00087975002929671273 -0.014973752160715594 0 0.00089318726245332571 -0.014976900033622084 0 0.00086778508808644866 -0.014883270655837144 0 0.00089686629493247543 -0.014945847437228595 0 0.00089318726245332571 -0.014976900033622084 0 0.00086778508808644866 -0.014883270655837144 0 0.00086193524146997865 -0.014902248745700394 0 0.00084504209730470916 -0.014810456176000688 0 0.00086778508808644866 -0.014883270655837144 0 0.00086193524146997865 -0.014902248745700394 0 0.00084504209730470916 -0.014810456176000688 0 0.00086193524146997865 -0.014902248745700394 0 0.00083610859700186484 -0.014874351351593275 0 0.00086193524146997865 -0.014902248745700394 0 0.00083610859700186484 -0.014874351351593275 0 0.00086141237418983557 -0.01494389456347321 0 0.00083610859700186484 -0.014874351351593275 0 0.00086141237418983557 -0.01494389456347321 0 0.00084817681483756739 -0.014959689511889846 0 0.00083610859700186484 -0.014874351351593275 0 0.00084817681483756739 -0.014959689511889846 0 0.00083094748873759538 -0.014931752237798772 0 0.00084504209730470916 -0.014810456176000688 0 0.00082662912880948668 -0.014784513460966877 0 0.00083610859700186484 -0.014874351351593275 0 0.00082662912880948668 -0.014784513460966877 0 0.00083610859700186484 -0.014874351351593275 0 0.00080892249550007739 -0.014816200637558235 0 0.00088390094977984393 -0.015065311219725867 0 0.00089420034256365198 -0.015018897110368351 0 0.00087261935866750329 -0.015001325897459509 0 0.00089420034256365198 -0.015018897110368351 0 0.00087975002929671273 -0.014973752160715594 0 0.00087261935866750329 -0.015001325897459509 0 0.00086193524146997865 -0.014902248745700394 0 0.00087975002929671273 -0.014973752160715594 0 0.00086141237418983557 -0.01494389456347321 0 0.00087975002929671273 -0.014973752160715594 0 0.00086141237418983557 -0.01494389456347321 0 0.00087261935866750329 -0.015001325897459509 0 0.00086141237418983557 -0.01494389456347321 0 0.00084817681483756739 -0.014959689511889846 0 0.00087261935866750329 -0.015001325897459509 0 0.00084817681483756739 -0.014959689511889846 0 0.00087261935866750329 -0.015001325897459509 0 0.0008525477656895023 -0.015018838363995271 0 0.00088390094977984393 -0.015065311219725867 0 0.00087261935866750329 -0.015001325897459509 0 0.00086582928223952844 -0.015069248392274279 0 0.00087261935866750329 -0.015001325897459509 0 0.00086582928223952844 -0.015069248392274279 0 0.0008525477656895023 -0.015018838363995271 0 0.00086582928223952844 -0.015069248392274279 0 0.00084297713644774705 -0.015072264819328522 0 0.0008525477656895023 -0.015018838363995271 0 0.00084297713644774705 -0.015072264819328522 0 0.0008525477656895023 -0.015018838363995271 0 0.00082761007411574414 -0.014992191253728065 0 0.00084817681483756739 -0.014959689511889846 0 0.00082761007411574414 -0.014992191253728065 0 0.00083094748873759538 -0.014931752237798772 0 0.00084817681483756739 -0.014959689511889846 0 0.0008525477656895023 -0.015018838363995271 0 0.00082761007411574414 -0.014992191253728065 0 0.00082761007411574414 -0.014992191253728065 0 0.00081313748297193796 -0.015055698316497512 0 0.00080053119697956769 -0.01496229925146206 0 0.00084297713644774705 -0.015072264819328522 0 0.00082761007411574414 -0.014992191253728065 0 0.00081313748297193796 -0.015055698316497512 0 0.00084297713644774705 -0.015072264819328522 0 0.00081313748297193796 -0.015055698316497512 0 0.00082989977402283361 -0.015156866867814964 0 0.00083610859700186484 -0.014874351351593275 0 0.00080892249550007739 -0.014816200637558235 0 0.0008099229403528194 -0.014901177392547971 0 0.00083610859700186484 -0.014874351351593275 0 0.00083094748873759538 -0.014931752237798772 0 0.0008099229403528194 -0.014901177392547971 0 0.00082761007411574414 -0.014992191253728065 0 0.00083094748873759538 -0.014931752237798772 0 0.0008099229403528194 -0.014901177392547971 0 0.00082761007411574414 -0.014992191253728065 0 0.00080053119697956769 -0.01496229925146206 0 0.0008099229403528194 -0.014901177392547971 0 0.00080053119697956769 -0.01496229925146206 0 0.00078903423448176992 -0.014898987705822452 0 0.0008099229403528194 -0.014901177392547971 0 0.00080892249550007739 -0.014816200637558235 0 0.0008099229403528194 -0.014901177392547971 0 0.00079270268967554795 -0.014850319561789628 0 0.00078903423448176992 -0.014898987705822452 0 0.0008099229403528194 -0.014901177392547971 0 0.00079270268967554795 -0.014850319561789628 0 0.00078903423448176992 -0.014898987705822452 0 0.00079270268967554795 -0.014850319561789628 0 0.00077094484111799283 -0.014849285507755687 0 0.00078718483933946871 -0.014786781567613434 0 0.00079270268967554795 -0.014850319561789628 0 0.00077094484111799283 -0.014849285507755687 0 0.00078718483933946871 -0.014786781567613434 0 0.00080892249550007739 -0.014816200637558235 0 0.00079270268967554795 -0.014850319561789628 0 0.00078903423448176992 -0.014898987705822452 0 0.00077094484111799283 -0.014849285507755687 0 0.00077320736538515186 -0.014927106504117819 0 0.00077094484111799283 -0.014849285507755687 0 0.00077320736538515186 -0.014927106504117819 0 0.00075601286996555101 -0.014868220770067912 0 0.00080053119697956769 -0.01496229925146206 0 0.00078903423448176992 -0.014898987705822452 0 0.00077320736538515186 -0.014927106504117819 0 0.00077320736538515186 -0.014927106504117819 0 0.00075904905697273645 -0.014950596748364482 0 0.00074540487775244199 -0.014886399040446495 0 0.00077320736538515186 -0.014927106504117819 0 0.00075904905697273645 -0.014950596748364482 0 0.00078027311413074462 -0.015014332989223601 0 0.00077320736538515186 -0.014927106504117819 0 0.00075601286996555101 -0.014868220770067912 0 0.00074540487775244199 -0.014886399040446495 0 0.00073204007819837355 -0.014841032795373696 0 0.00075601286996555101 -0.014868220770067912 0 0.00074540487775244199 -0.014886399040446495 0 0.00074643276683189041 -0.014825166968741353 0 0.00073204007819837355 -0.014841032795373696 0 0.00075601286996555101 -0.014868220770067912 0 0.00074643276683189041 -0.014825166968741353 0 0.00077094484111799283 -0.014849285507755687 0 0.00075601286996555101 -0.014868220770067912 0 0.00081313748297193796 -0.015055698316497512 0 0.00079486849073255345 -0.015133073164869009 0 0.00082989977402283361 -0.015156866867814964 0 0.00081313748297193796 -0.015055698316497512 0 0.00078027311413074462 -0.015014332989223601 0 0.00079486849073255345 -0.015133073164869009 0 0.00081313748297193796 -0.015055698316497512 0 0.00080053119697956769 -0.01496229925146206 0 0.00078027311413074462 -0.015014332989223601 0 0.00080053119697956769 -0.01496229925146206 0 0.00077320736538515186 -0.014927106504117819 0 0.00078027311413074462 -0.015014332989223601 0 0.00076216016851331561 -0.015080664065525695 0 0.00075533070051924365 -0.014993768363641191 0 0.00078027311413074462 -0.015014332989223601 0 0.00075533070051924365 -0.014993768363641191 0 0.00075904905697273645 -0.014950596748364482 0 0.00078027311413074462 -0.015014332989223601 0 0.00076216016851331561 -0.015080664065525695 0 0.00078027311413074462 -0.015014332989223601 0 0.00079486849073255345 -0.015133073164869009 0 0.00077658892882343953 -0.015213370395264651 0 0.00079486849073255345 -0.015133073164869009 0 0.00081591498342193963 -0.015259701787145185 0 0.00076216016851331561 -0.015080664065525695 0 0.00077658892882343953 -0.015213370395264651 0 0.00079486849073255345 -0.015133073164869009 0 0.00079486849073255345 -0.015133073164869009 0 0.00081591498342193963 -0.015259701787145185 0 0.00082989977402283361 -0.015156866867814964 0 0.00081591498342193963 -0.015259701787145185 0 0.00082337023311610555 -0.015398986353907289 0 0.00084016330653947739 -0.015252013806490668 0 0.00077658892882343953 -0.015213370395264651 0 0.00081591498342193963 -0.015259701787145185 0 0.00080476546143207954 -0.015365649108328109 0 0.00080476546143207954 -0.015365649108328109 0 0.00080221682691662525 -0.015578723562674264 0 0.00082337023311610555 -0.015398986353907289 0 0.00079233188081710378 -0.015613910553998647 0 0.00080221682691662525 -0.015578723562674264 0 0.00082337023311610555 -0.015398986353907289 0 0.00081591498342193963 -0.015259701787145185 0 0.00080476546143207954 -0.015365649108328109 0 0.00082337023311610555 -0.015398986353907289 0 0.00082337023311610555 -0.015398986353907289 0 0.00083464678632250643 -0.015310372080932375 0 0.00084016330653947739 -0.015252013806490668 0 0.00079233188081710378 -0.015613910553998647 0 0.00082337023311610555 -0.015398986353907289 0 0.00081104980092033536 -0.015424207951235981 0 0.00082337023311610555 -0.015398986353907289 0 0.00081104980092033536 -0.015424207951235981 0 0.00083464678632250643 -0.015310372080932375 0 0.0007655615499905956 -0.01550447863379004 0 0.00081104980092033536 -0.015424207951235981 0 0.00079976288089889981 -0.01532505309384649 0 0.00081104980092033536 -0.015424207951235981 0 0.00079976288089889981 -0.01532505309384649 0 0.00083464678632250643 -0.015310372080932375 0 0.00083869230259409836 -0.015222604592341314 0 0.00083464678632250643 -0.015310372080932375 0 0.00085441088517687277 -0.015207271537354451 0 0.00083464678632250643 -0.015310372080932375 0 0.00085441088517687277 -0.015207271537354451 0 0.00084016330653947739 -0.015252013806490668 0 0.00083869230259409836 -0.015222604592341314 0 0.00079976288089889981 -0.01532505309384649 0 0.00083464678632250643 -0.015310372080932375 0 0.00085441088517687277 -0.015207271537354451 0 0.00085426118131768053 -0.015148392656723953 0 0.00084016330653947739 -0.015252013806490668 0 0.00087058426103558723 -0.01512569573789301 0 0.00085441088517687277 -0.015207271537354451 0 0.00085426118131768053 -0.015148392656723953 0 0.00087058426103558723 -0.01512569573789301 0 0.00086582928223952844 -0.015069248392274279 0 0.00085426118131768053 -0.015148392656723953 0 0.00086582928223952844 -0.015069248392274279 0 0.00084297713644774705 -0.015072264819328522 0 0.00085426118131768053 -0.015148392656723953 0 0.00084297713644774705 -0.015072264819328522 0 0.00085426118131768053 -0.015148392656723953 0 0.00082989977402283361 -0.015156866867814964 0 0.00085426118131768053 -0.015148392656723953 0 0.00082989977402283361 -0.015156866867814964 0 0.00084016330653947739 -0.015252013806490668 0 0.00081591498342193963 -0.015259701787145185 0 0.00082989977402283361 -0.015156866867814964 0 0.00084016330653947739 -0.015252013806490668 0 -5.9667838794660167e-09 -0.024999792505078874 0 -3.3465669453598831e-05 -0.024714885217569857 0 -2.4529441140374773e-08 -0.024999726498128257 0 1.1536370266742885e-07 -0.024999757243628434 0 0.00010299558842835706 -0.024493182431991656 0 -3.3465669453598831e-05 -0.024714885217569857 0 -7.3566266777526224e-05 -0.024871480542385412 0 -2.4529441140374773e-08 -0.024999726498128257 0 -3.3465669453598831e-05 -0.024714885217569857 0 -0.00017380656903431105 -0.024745106089764504 0 -7.3566266777526224e-05 -0.024871480542385412 0 0.00019277894470077166 -0.024251649759165609 0 0.0002047619120361999 -0.023950776660517158 0 7.8576424377730983e-05 -0.023320438989815142 0 3.9249930770463276e-07 -0.02499766384635994 0 0.00019277894470077166 -0.024251649759165609 0 0.0002047619120361999 -0.023950776660517158 0 9.8665699770971796e-08 -0.024998703264501494 0 0.0002047619120361999 -0.023950776660517158 0 2.9554178252736522e-07 -0.022594492808997332 0 3.9249930770463276e-07 -0.02499766384635994 0 9.8665699770971796e-08 -0.024998703264501494 0 0.0002047619120361999 -0.023950776660517158 0 0.0002047619120361999 -0.023950776660517158 0 -4.3258531003358801e-05 -0.021998437232901059 0 7.8576424377730983e-05 -0.023320438989815142 0 0.00020767165468618391 -0.023639194813346597 0 -8.6793287706205465e-05 -0.02265262202996729 0 0.0002047619120361999 -0.023950776660517158 0 -1.7567011955388668e-05 -0.023212714210327015 0 2.9554178252736522e-07 -0.022594492808997332 0 -4.3258531003358801e-05 -0.021998437232901059 0 -0.00038023246068039085 -0.022528200156210751 0 7.8576424377730983e-05 -0.023320438989815142 0 -8.6793287706205465e-05 -0.02265262202996729 0 -0.00050407573134290202 -0.021548081256460575 0 -1.7567011955388668e-05 -0.023212714210327015 0 2.9554178252736522e-07 -0.022594492808997332 0 -5.8652284996519399e-05 -0.022219566834270427 0 -4.3258531003358801e-05 -0.021998437232901059 0 -0.00076721757107268604 -0.021624916230665165 0 -0.0011406235950416829 -0.020831511349438045 0 -4.3258531003358801e-05 -0.021998437232901059 0 -0.00076721757107268604 -0.021624916230665165 0 -0.00038023246068039085 -0.022528200156210751 0 -0.00076721757107268604 -0.021624916230665165 0 -0.00038023246068039085 -0.022528200156210751 0 -0.00078025650590113869 -0.02232149693021818 0 -0.00044788104603218351 -0.023265996674584937 0 1.0772646652236137e-05 -0.023762550842639028 0 -0.0011220123277624241 -0.023840728482583309 0 -0.00078025650590113869 -0.02232149693021818 0 -0.00044788104603218351 -0.023265996674584937 0 -0.0010321931657621278 -0.02282764493732763 0 -0.00044788104603218351 -0.023265996674584937 0 -0.0011220123277624241 -0.023840728482583309 0 -0.0010321931657621278 -0.02282764493732763 0 -0.00038023246068039085 -0.022528200156210751 0 -0.00078025650590113869 -0.02232149693021818 0 -0.00044788104603218351 -0.023265996674584937 0 -0.00038023246068039085 -0.022528200156210751 0 -0.00044788104603218351 -0.023265996674584937 0 7.8576424377730983e-05 -0.023320438989815142 0 0.00019277894470077166 -0.024251649759165609 0 7.8576424377730983e-05 -0.023320438989815142 0 1.0772646652236137e-05 -0.023762550842639028 0 -0.00044788104603218351 -0.023265996674584937 0 7.8576424377730983e-05 -0.023320438989815142 0 1.0772646652236137e-05 -0.023762550842639028 0 -3.3465669453598831e-05 -0.024714885217569857 0 -0.00029700670341503482 -0.024319490401357773 0 -0.00017380656903431105 -0.024745106089764504 0 0.00010299558842835706 -0.024493182431991656 0 -0.00020712260888280367 -0.024069844182203957 0 -0.00029700670341503482 -0.024319490401357773 0 -0.00076149600097816868 -0.024559506474440267 0 -0.00017380656903431105 -0.024745106089764504 0 -0.00020712260888280367 -0.024069844182203957 0 -0.001070470170262414 -0.023877521453521674 0 -0.00029700670341503482 -0.024319490401357773 0 -0.00076149600097816868 -0.024559506474440267 0 -0.0011220123277624241 -0.023840728482583309 0 -0.0015542934702906248 -0.021137279558841947 0 -0.0011879981473526362 -0.020859561059453611 0 -0.00095429190150130689 -0.018025833127734925 0 -0.0015097765133057046 -0.018446929457814523 0 -0.001352657395908156 -0.017472837069004821 0 -0.00076149600097816868 -0.024559506474440267 0 -0.0011220123277624241 -0.023840728482583309 0 -0.0013864939156434213 -0.024952101379568457 0 -0.0011220123277624241 -0.023840728482583309 0 -0.0016679834919610676 -0.023702140555647726 0 -0.0013864939156434213 -0.024952101379568457 0 -0.00095429190150130689 -0.018025833127734925 0 -0.00084818301561305964 -0.018596641568874101 0 -0.0015097765133057046 -0.018446929457814523 0 -0.00095429190150130689 -0.018025833127734925 0 -0.0005299332910217834 -0.018229601602450109 0 -0.00025737446998053593 -0.01774544385034197 0 -0.00095429190150130689 -0.018025833127734925 0 -0.0005299332910217834 -0.018229601602450109 0 -0.00084818301561305964 -0.018596641568874101 0 -0.0005299332910217834 -0.018229601602450109 0 -0.00084818301561305964 -0.018596641568874101 0 -0.00026391492411748698 -0.018844927273344303 0 -0.00084818301561305964 -0.018596641568874101 0 -0.00077745268302208657 -0.019380235988504271 0 -0.00026391492411748698 -0.018844927273344303 0 -0.0015542934702906248 -0.021137279558841947 0 -0.0014131189861715907 -0.020690604464642038 0 -0.00077745268302208657 -0.019380235988504271 0 -0.0015097765133057046 -0.018446929457814523 0 -0.0013589734257898167 -0.020681605646022078 0 -0.0016679834919610676 -0.023702140555647726 0 -0.0010321931657621278 -0.02282764493732763 0 -0.0013589734257898167 -0.020681605646022078 0 -0.00084818301561305964 -0.018596641568874101 0 -0.00077745268302208657 -0.019380235988504271 0 -0.0015097765133057046 -0.018446929457814523 0 -0.0011220123277624241 -0.023840728482583309 0 -0.0016679834919610676 -0.023702140555647726 0 -0.0010321931657621278 -0.02282764493732763 0 2.9554178252736522e-07 -0.022594492808997332 0 -5.8652284996519399e-05 -0.022219566834270427 0 -5.8978137684374852e-07 -0.020866975960329121 0 -0.00076721757107268604 -0.021624916230665165 0 -0.00078025650590113869 -0.02232149693021818 0 -0.0013589734257898167 -0.020681605646022078 0 -0.00078025650590113869 -0.02232149693021818 0 -0.0010321931657621278 -0.02282764493732763 0 -0.0013589734257898167 -0.020681605646022078 0 -0.00076721757107268604 -0.021624916230665165 0 -0.0013589734257898167 -0.020681605646022078 0 -0.0011406235950416829 -0.020831511349438045 0 -0.0013589734257898167 -0.020681605646022078 0 -0.0011406235950416829 -0.020831511349438045 0 -2.7505368443949393e-06 -0.020864737820857238 0 -0.00050407573134290202 -0.021548081256460575 0 -1.706256323487309e-07 -0.020866664343119887 0 -2.7505368443949393e-06 -0.020864737820857238 0 -0.00044139590214075362 -0.019884428866854077 0 -7.5211370752756616e-05 -0.01946588859799472 0 -0.0013589734257898167 -0.020681605646022078 0 -2.7505368443949393e-06 -0.020864737820857238 0 -0.00044139590214075362 -0.019884428866854077 0 -0.00077745268302208657 -0.019380235988504271 0 -0.0013589734257898167 -0.020681605646022078 0 -0.00044139590214075362 -0.019884428866854077 0 -0.00077745268302208657 -0.019380235988504271 0 -0.00044139590214075362 -0.019884428866854077 0 -0.00026391492411748698 -0.018844927273344303 0 -0.00044139590214075362 -0.019884428866854077 0 -7.5211370752756616e-05 -0.01946588859799472 0 -0.00026391492411748698 -0.018844927273344303 0 -7.5211370752756616e-05 -0.01946588859799472 0 2.8268754706169186e-05 -0.018640679174344591 0 -0.00026391492411748698 -0.018844927273344303 0 -2.7505368443949393e-06 -0.020864737820857238 0 -7.5211370752756616e-05 -0.01946588859799472 0 7.5020376065868767e-07 -0.019393935605055757 0 -7.5211370752756616e-05 -0.01946588859799472 0 7.7916748820376709e-05 -0.018716439716126711 0 7.5020376065868767e-07 -0.019393935605055757 0 1.0156797962049069e-07 -0.017921524886878534 0 7.7916748820376709e-05 -0.018716439716126711 0 7.5020376065868767e-07 -0.019393935605055757 0 0.00015618881936369988 -0.018148105890990612 0 2.8268754706169186e-05 -0.018640679174344591 0 8.8108227934702597e-05 -0.018090327638133105 0 -7.5211370752756616e-05 -0.01946588859799472 0 7.7916748820376709e-05 -0.018716439716126711 0 2.8268754706169186e-05 -0.018640679174344591 0 0.00015618881936369988 -0.018148105890990612 0 7.7916748820376709e-05 -0.018716439716126711 0 2.8268754706169186e-05 -0.018640679174344591 0 8.8108227934702597e-05 -0.018090327638133105 0 -1.4165783069586682e-05 -0.01811671753279363 0 5.3844660738764315e-05 -0.017759044346046585 0 2.8268754706169186e-05 -0.018640679174344591 0 8.8108227934702597e-05 -0.018090327638133105 0 -1.4165783069586682e-05 -0.01811671753279363 0 2.8268754706169186e-05 -0.018640679174344591 0 -1.4165783069586682e-05 -0.01811671753279363 0 -0.00026391492411748698 -0.018844927273344303 0 -1.4165783069586682e-05 -0.01811671753279363 0 -0.00026391492411748698 -0.018844927273344303 0 -0.00021935865830527085 -0.018149799937199819 0 -0.0005299332910217834 -0.018229601602450109 0 -0.00026391492411748698 -0.018844927273344303 0 -0.00021935865830527085 -0.018149799937199819 0 -0.0005299332910217834 -0.018229601602450109 0 -0.00021935865830527085 -0.018149799937199819 0 -0.00025737446998053593 -0.01774544385034197 0 -0.00021935865830527085 -0.018149799937199819 0 -8.3319467014017661e-05 -0.01781523497032415 0 -0.00025737446998053593 -0.01774544385034197 0 6.3689067283336596e-05 -0.01737369308190596 0 5.3844660738764315e-05 -0.017759044346046585 0 -8.3319467014017661e-05 -0.01781523497032415 0 6.3689067283336596e-05 -0.01737369308190596 0 -8.3319467014017661e-05 -0.01781523497032415 0 -0.00025737446998053593 -0.01774544385034197 0 0.00013675767888112313 -0.017565716339579481 0 -0.00063989036869770046 -0.016862429672331793 0 -1.4165783069586682e-05 -0.01811671753279363 0 5.3844660738764315e-05 -0.017759044346046585 0 -8.3319467014017661e-05 -0.01781523497032415 0 -1.4165783069586682e-05 -0.01811671753279363 0 -0.00021935865830527085 -0.018149799937199819 0 -8.3319467014017661e-05 -0.01781523497032415 0 6.3689067283336596e-05 -0.01737369308190596 0 -0.00029992438328604339 -0.01694603060827763 0 -0.00078006346189550015 -0.017112904271325169 0 -1.7526065931824736e-05 -0.0168163179454799 0 -0.00029992438328604339 -0.01694603060827763 0 -0.00024287682010154705 -0.016509464388438977 0 9.543564883576235e-05 -0.017198260120795263 0 -1.7526065931824736e-05 -0.0168163179454799 0 -0.00029992438328604339 -0.01694603060827763 0 -0.00078006346189550015 -0.017112904271325169 0 -0.0006791755450178688 -0.01648205286498541 0 -0.0011432194848400887 -0.016681657755703811 0 -0.00029992438328604339 -0.01694603060827763 0 -0.00078006346189550015 -0.017112904271325169 0 -0.0006791755450178688 -0.01648205286498541 0 -0.00029992438328604339 -0.01694603060827763 0 -0.0006791755450178688 -0.01648205286498541 0 -0.00024287682010154705 -0.016509464388438977 0 -0.0006791755450178688 -0.01648205286498541 0 -0.00024287682010154705 -0.016509464388438977 0 -0.00025142670200781214 -0.016092607371523421 0 -1.7526065931824736e-05 -0.0168163179454799 0 5.2833843102839944e-05 -0.016305673153045257 0 -0.00024287682010154705 -0.016509464388438977 0 5.2833843102839944e-05 -0.016305673153045257 0 -0.00024287682010154705 -0.016509464388438977 0 -0.00025142670200781214 -0.016092607371523421 0 -0.00025142670200781214 -0.016092607371523421 0 -0.00011486783000860706 -0.015566635984399444 0 -0.00084023352382826843 -0.015781914540438879 0 0.0007249154536038354 -0.0156645001356976 0 0.00053292444817563457 -0.015214781311567352 0 0.0017476794147298772 -0.015694189653135057 0 0.0017743670286267884 -0.015755819545815068 0 0.0017118001037303998 -0.015732373797705337 0 0.0016339865071245718 -0.015623726217510917 0 0.0017476794147298772 -0.015694189653135057 0 0.0017118001037303998 -0.015732373797705337 0 -0.0006791755450178688 -0.01648205286498541 0 -0.00084023352382826843 -0.015781914540438879 0 -0.0011514265219858607 -0.016304165139019364 0 -0.0006791755450178688 -0.01648205286498541 0 -0.00025142670200781214 -0.016092607371523421 0 -0.00084023352382826843 -0.015781914540438879 0 -0.00084023352382826843 -0.015781914540438879 0 -0.0015432140193855095 -0.016014726013375512 0 -0.0011514265219858607 -0.016304165139019364 0 0.00053292444817563457 -0.015214781311567352 0 0.00023122241247671343 -0.020147324084072046 0 0.0017476794147298772 -0.015694189653135057 0 0.0017951798944202944 -0.015747932354568551 0 0.0017743670286267884 -0.015755819545815068 0 0.0017476794147298772 -0.015694189653135057 0 0.0017951798944202944 -0.015747932354568551 0 0.0018061457465061855 -0.015751130955153608 0 0.00023122241247671343 -0.020147324084072046 0 0.001194574732975116 -0.019902932392668701 0 2.5618522803596836e-05 -0.024302357430197867 0 2.0331901513158736e-05 -0.024619135453459902 0 0.00038824564661503442 -0.023979863173760271 0 2.0331901513158736e-05 -0.024619135453459902 0 0.00017577214344450688 -0.024887359731631871 0 0.00038824564661503442 -0.023979863173760271 0 0.0017951798944202944 -0.015747932354568551 0 0.0018061457465061855 -0.015751130955153608 0 0.0018426820874000932 -0.015795876516098428 0 -0.00014377120179590833 -0.024830404465908604 0 -0.00017353738356817316 -0.024830108801077271 0 -0.00013189006463873708 -0.024847938555155439 0 0.00023122241247671343 -0.020147324084072046 0 -0.00086664626593792587 -0.020728664848284208 0 0.00023122241247671343 -0.020147324084072046 0 -0.00060995552593766248 -0.022891164322441496 0 2.0331901513158736e-05 -0.024619135453459902 0 0.00017577214344450688 -0.024887359731631871 0 -0.00013189006463873708 -0.024847938555155439 0 -0.0015432140193855095 -0.016014726013375512 0 -0.0015496914651055634 -0.016506759540546045 0 -0.0011514265219858607 -0.016304165139019364 0 -0.00086664626593792587 -0.020728664848284208 0 -0.0011879981473526362 -0.020859561059453611 0 -0.00017353738356817316 -0.024830108801077271 0 -0.00018967862310935839 -0.024884983561820184 0 -0.00021404893616076061 -0.024848857296868938 0 -0.00017353738356817316 -0.024830108801077271 0 -0.00021404893616076061 -0.024848857296868938 0 -0.00013189006463873708 -0.024847938555155439 0 -0.0015496914651055634 -0.016506759540546045 0 -0.0011432194848400887 -0.016681657755703811 0 -0.0015494123768319513 -0.016993802047085286 0 -0.0006791755450178688 -0.01648205286498541 0 -0.0011514265219858607 -0.016304165139019364 0 -0.0011432194848400887 -0.016681657755703811 0 -0.0015496914651055634 -0.016506759540546045 0 -0.0011514265219858607 -0.016304165139019364 0 -0.0011432194848400887 -0.016681657755703811 0 -0.00078006346189550015 -0.017112904271325169 0 -0.0011432194848400887 -0.016681657755703811 0 -0.0015494123768319513 -0.016993802047085286 0 -0.00095429190150130689 -0.018025833127734925 0 -0.00025737446998053593 -0.01774544385034197 0 -0.001352657395908156 -0.017472837069004821 0 -0.00063989036869770046 -0.016862429672331793 0 -0.0011879981473526362 -0.020859561059453611 0 -0.0011879981473526362 -0.020859561059453611 0 -5.961590875451177e-05 -0.02562296841290124 0 -0.00076149600097816868 -0.024559506474440267 0 -0.0013864939156434213 -0.024952101379568457 0 -0.00033964908039337715 -0.024908459020440157 0 -0.00018967862310935839 -0.024884983561820184 0 -0.00033964908039337715 -0.024908459020440157 0 -0.00021404893616076061 -0.024848857296868938 0 -0.00076149600097816868 -0.024559506474440267 0 -0.00033964908039337715 -0.024908459020440157 0 -0.00017380656903431105 -0.024745106089764504 0 -0.00033964908039337715 -0.024908459020440157 0 -0.00017380656903431105 -0.024745106089764504 0 -0.0001571604185459914 -0.024889191793848874 0 -0.00033964908039337715 -0.024908459020440157 0 -0.00021411160781732047 -0.024862725286667893 0 -0.0001571604185459914 -0.024889191793848874 0 -0.00033964908039337715 -0.024908459020440157 0 -0.00021411160781732047 -0.024862725286667893 0 -0.00021404893616076061 -0.024848857296868938 0 -0.00021404893616076061 -0.024848857296868938 0 -0.00020559784015185617 -0.024822511005430779 0 -0.00013189006463873708 -0.024847938555155439 0 -0.00021411160781732047 -0.024862725286667893 0 -0.00021404893616076061 -0.024848857296868938 0 -0.00020559784015185617 -0.024822511005430779 0 -0.00020559784015185617 -0.024822511005430779 0 -0.00013189006463873708 -0.024847938555155439 0 -0.00021418052653164916 -0.024709150415347901 0 2.0331901513158736e-05 -0.024619135453459902 0 -0.00013189006463873708 -0.024847938555155439 0 -0.00021418052653164916 -0.024709150415347901 0 2.5618522803596836e-05 -0.024302357430197867 0 2.0331901513158736e-05 -0.024619135453459902 0 -0.00021418052653164916 -0.024709150415347901 0 -0.00021418052653164916 -0.024709150415347901 0 -0.00016882053634742706 -0.024833692867266666 0 -0.00010969165767078361 -0.024892705535865509 0 -9.93092911358516e-05 -0.024901218448343157 0 -0.00011463311727956469 -0.024901397920675066 0 -0.00020559784015185617 -0.024822511005430779 0 -0.00021418052653164916 -0.024709150415347901 0 -0.00016882053634742706 -0.024833692867266666 0 -0.00021411160781732047 -0.024862725286667893 0 -0.00020559784015185617 -0.024822511005430779 0 -0.00016882053634742706 -0.024833692867266666 0 -0.00021411160781732047 -0.024862725286667893 0 -0.00016882053634742706 -0.024833692867266666 0 -0.0001571604185459914 -0.024889191793848874 0 -3.2197528512174451e-05 -0.024955287093019814 0 -1.1391883157999663e-05 -0.024983328080386551 0 -3.9518142225401319e-06 -0.024995132834780064 0 -9.93092911358516e-05 -0.024901218448343157 0 -5.3782484754728899e-05 -0.024938472556368954 0 -3.2197528512174451e-05 -0.024955287093019814 0 -1.7734165605089571e-08 -0.024999949701370944 0 -2.8718591726697018e-05 -0.024964285330511708 0 -3.2197528512174451e-05 -0.024955287093019814 0 -1.7734165605089571e-08 -0.024999949701370944 0 -1.1391883157999663e-05 -0.024983328080386551 0 -1.7734165605089571e-08 -0.024999949701370944 0 -1.1391883157999663e-05 -0.024983328080386551 0 -1.4226282139168924e-08 -0.024999976072060136 0 -1.1391883157999663e-05 -0.024983328080386551 0 -1.4226282139168924e-08 -0.024999976072060136 0 -3.9518142225401319e-06 -0.024995132834780064 0 -1.4226282139168924e-08 -0.024999976072060136 0 -3.9518142225401319e-06 -0.024995132834780064 0 5.8937606598112566e-09 -0.025000006150860274 0 -0.00011320514223842262 -0.024893039531983744 0 -0.0001571604185459914 -0.024889191793848874 0 -7.3566266777526224e-05 -0.024871480542385412 0 -0.00016882053634742706 -0.024833692867266666 0 -0.00011320514223842262 -0.024893039531983744 0 -0.0001571604185459914 -0.024889191793848874 0 -0.00017380656903431105 -0.024745106089764504 0 -0.0001571604185459914 -0.024889191793848874 0 -7.3566266777526224e-05 -0.024871480542385412 0 -5.3782484754728899e-05 -0.024938472556368954 0 -1.06900067735178e-08 -0.024999959115056005 0 -0.00011320514223842262 -0.024893039531983744 0 -7.3566266777526224e-05 -0.024871480542385412 0 -2.4529441140374773e-08 -0.024999726498128257 0 4.2987725570050109e-09 -0.024981249091319407 0 -1.2625913811994223e-05 -0.024980014840417463 0 -2.3471816011034531e-08 -0.024999953951230728 0 -1.2625913811994223e-05 -0.024980014840417463 0 -5.1274448606307643e-05 -0.024956808259540091 0 -2.3471816011034531e-08 -0.024999953951230728 0 4.2987725570050109e-09 -0.024981249091319407 0 -1.2625913811994223e-05 -0.024980014840417463 0 -5.1274448606307643e-05 -0.024956808259540091 0 -6.4450167285062452e-05 -0.024950387630596736 0 -9.8105747293472e-05 -0.024941461960162156 0 -0.00014200133308179774 -0.024926408085165174 0 -0.00013709301463704185 -0.02492656222219811 0 -0.00013583878088536296 -0.02492242741891092 0 -0.00013709301463704185 -0.02492656222219811 0 -0.00013583878088536296 -0.02492242741891092 0 -0.00013355901689961764 -0.024926890962188284 0 -0.00013709301463704185 -0.02492656222219811 0 -0.00013738279085135662 -0.024930648098660756 0 -0.00013355901689961764 -0.024926890962188284 0 -0.00014200133308179774 -0.024926408085165174 0 -0.00013709301463704185 -0.02492656222219811 0 -0.00013738279085135662 -0.024930648098660756 0 -6.4450167285062452e-05 -0.024950387630596736 0 -8.9637620595215851e-05 -0.024965512982617552 0 -1.0734808211113879e-09 -0.024981330327334648 0 -3.4556442654236886e-05 -0.02500400028418686 0 -9.0568859170284367e-06 -0.024994814143973709 0 -1.0734808211113879e-09 -0.024981330327334648 0 -9.0568859170284367e-06 -0.024994814143973709 0 -1.861409544598132e-08 -0.024999951524620572 0 -9.0568859170284367e-06 -0.024994814143973709 0 -1.861409544598132e-08 -0.024999951524620572 0 -2.8718591726697018e-05 -0.024964285330511708 0 -1.7734165605089571e-08 -0.024999949701370944 0 -1.861409544598132e-08 -0.024999951524620572 0 -2.8718591726697018e-05 -0.024964285330511708 0 -3.2197528512174451e-05 -0.024955287093019814 0 -2.8718591726697018e-05 -0.024964285330511708 0 -0.00010969165767078361 -0.024892705535865509 0 -3.4556442654236886e-05 -0.02500400028418686 0 -9.0568859170284367e-06 -0.024994814143973709 0 -2.8718591726697018e-05 -0.024964285330511708 0 -3.4556442654236886e-05 -0.02500400028418686 0 -2.8718591726697018e-05 -0.024964285330511708 0 -7.7447418308471865e-05 -0.024952268819997219 0 -8.9637620595215851e-05 -0.024965512982617552 0 -0.00014139807159240037 -0.024944209967835949 0 -0.00013738279085135662 -0.024930648098660756 0 -0.00014684551577370816 -0.02494284918974865 0 -0.0001386703870908286 -0.024933578713367252 0 -3.4556442654236886e-05 -0.02500400028418686 0 -7.7447418308471865e-05 -0.024952268819997219 0 -0.00014684551577370816 -0.02494284918974865 0 -2.8718591726697018e-05 -0.024964285330511708 0 -7.7447418308471865e-05 -0.024952268819997219 0 -0.00010969165767078361 -0.024892705535865509 0 -7.7447418308471865e-05 -0.024952268819997219 0 -0.00010969165767078361 -0.024892705535865509 0 -0.00014684551577370816 -0.02494284918974865 0 -0.00021418052653164916 -0.024709150415347901 0 -0.00010969165767078361 -0.024892705535865509 0 -0.00018200543109771889 -0.024925584488295849 0 -0.00022792325682146114 -0.024667746821789509 0 -0.00025349387988288479 -0.024253386437123475 0 2.5618522803596836e-05 -0.024302357430197867 0 -0.00021418052653164916 -0.024709150415347901 0 -0.00034692678293355057 -0.023593867477610712 0 -0.00010969165767078361 -0.024892705535865509 0 -0.00018200543109771889 -0.024925584488295849 0 -0.00014684551577370816 -0.02494284918974865 0 -0.00034692678293355057 -0.023593867477610712 0 -0.00031375904185912276 -0.022341354231453416 0 0.00045739745606305848 -0.022581373015749681 0 -0.00025349387988288479 -0.024253386437123475 0 -0.00022125959748033167 -0.023641136856881136 0 -0.00018200543109771889 -0.024925584488295849 0 -0.00014684551577370816 -0.02494284918974865 0 -0.00013322031110702377 -0.024933338156077282 0 -0.00014684551577370816 -0.02494284918974865 0 -0.00013322031110702377 -0.024933338156077282 0 -0.0001386703870908286 -0.024933578713367252 0 -0.00013738279085135662 -0.024930648098660756 0 -0.0001386703870908286 -0.024933578713367252 0 -0.00013355901689961764 -0.024926890962188284 0 -0.00013322031110702377 -0.024933338156077282 0 -0.0001386703870908286 -0.024933578713367252 0 -0.00013355901689961764 -0.024926890962188284 0 -0.00013583878088536296 -0.02492242741891092 0 -0.00013355901689961764 -0.024926890962188284 0 -0.00012559994544927196 -0.024921802976640612 0 -0.00022125959748033167 -0.023641136856881136 0 -0.00024193997281267559 -0.023028396797736217 0 -0.00012559994544927196 -0.024921802976640612 0 -0.00012530970814960974 -0.024912373018618754 0 -0.00011635489906268177 -0.024928355805922602 0 -0.00013322031110702377 -0.024933338156077282 0 -0.00013355901689961764 -0.024926890962188284 0 -0.00012530970814960974 -0.024912373018618754 0 -0.00031375904185912276 -0.022341354231453416 0 -0.00025832615786203661 -0.021162567965936172 0 3.9246558795070583e-05 -0.021777790136149396 0 -0.00013355901689961764 -0.024926890962188284 0 -0.00012559994544927196 -0.024921802976640612 0 -0.00012530970814960974 -0.024912373018618754 0 -0.00025832615786203661 -0.021162567965936172 0 0.00045944727640927056 -0.021247416384279006 0 3.9246558795070583e-05 -0.021777790136149396 0 -0.00025832615786203661 -0.021162567965936172 0 0.00045944727640927056 -0.021247416384279006 0 0.0001103690852643188 -0.020618607755313496 0 0.0018257817802932574 -0.016051212830548518 0 0.0017348675771203634 -0.016100202578653525 0 0.0018412995389635225 -0.016136799990207319 0 0.0019309062246006851 -0.016079070245762984 0 0.0018257817802932574 -0.016051212830548518 0 0.0018539606643481884 -0.015978652397240264 0 0.0019309062246006851 -0.016079070245762984 0 0.0018257817802932574 -0.016051212830548518 0 0.0018412995389635225 -0.016136799990207319 0 0.0018257817802932574 -0.016051212830548518 0 0.0018539606643481884 -0.015978652397240264 0 0.0017805696425908979 -0.015963990817273743 0 0.0018539606643481884 -0.015978652397240264 0 0.0018150900706361316 -0.015900022227208984 0 0.0018932150026119796 -0.015911918384045355 0 0.0018539606643481884 -0.015978652397240264 0 0.0018150900706361316 -0.015900022227208984 0 0.0017805696425908979 -0.015963990817273743 0 0.00045944727640927056 -0.021247416384279006 0 0.00045739745606305848 -0.022581373015749681 0 3.9246558795070583e-05 -0.021777790136149396 0 0.0019309062246006851 -0.016079070245762984 0 0.0018539606643481884 -0.015978652397240264 0 0.0018932150026119796 -0.015911918384045355 0 0.0011969386845554993 -0.018465512897095592 0 0.0011626154426950094 -0.019287397396036944 0 -0.00031375904185912276 -0.022341354231453416 0 0.00045739745606305848 -0.022581373015749681 0 3.9246558795070583e-05 -0.021777790136149396 0 0.0018932150026119796 -0.015911918384045355 0 0.0018426820874000932 -0.015795876516098428 0 0.0017956189196713045 -0.015820720171907741 0 0.0011626154426950094 -0.019287397396036944 0 0.001194574732975116 -0.019902932392668701 0 -0.00034692678293355057 -0.023593867477610712 0 0.00045739745606305848 -0.022581373015749681 0 0.00038824564661503442 -0.023979863173760271 0 2.5618522803596836e-05 -0.024302357430197867 0 -0.00034692678293355057 -0.023593867477610712 0 0.00038824564661503442 -0.023979863173760271 0 0.0017951798944202944 -0.015747932354568551 0 0.0018426820874000932 -0.015795876516098428 0 0.0017743670286267884 -0.015755819545815068 0 0.0018426820874000932 -0.015795876516098428 0 0.0017743670286267884 -0.015755819545815068 0 0.0017956189196713045 -0.015820720171907741 0 0.0018150900706361316 -0.015900022227208984 0 0.0017956189196713045 -0.015820720171907741 0 0.0017150194595619776 -0.015841186939743093 0 0.0018150900706361316 -0.015900022227208984 0 0.0018932150026119796 -0.015911918384045355 0 0.0017956189196713045 -0.015820720171907741 0 0.0017956189196713045 -0.015820720171907741 0 0.0017150194595619776 -0.015841186939743093 0 0.0017118001037303998 -0.015732373797705337 0 0.0017743670286267884 -0.015755819545815068 0 0.0017956189196713045 -0.015820720171907741 0 0.0017118001037303998 -0.015732373797705337 0 0.0016339865071245718 -0.015623726217510917 0 0.0017118001037303998 -0.015732373797705337 0 0.0015985851708023525 -0.015726343109581143 0 0.0017150194595619776 -0.015841186939743093 0 0.0016241902440661804 -0.015859448614406555 0 0.0015985851708023525 -0.015726343109581143 0 0.0017150194595619776 -0.015841186939743093 0 0.0017118001037303998 -0.015732373797705337 0 0.0015985851708023525 -0.015726343109581143 0 0.0017150194595619776 -0.015841186939743093 0 0.0016241902440661804 -0.015859448614406555 0 0.0016810649300734407 -0.01596279963911356 0 0.0018150900706361316 -0.015900022227208984 0 0.0017150194595619776 -0.015841186939743093 0 0.0017805696425908979 -0.015963990817273743 0 0.0017150194595619776 -0.015841186939743093 0 0.0017805696425908979 -0.015963990817273743 0 0.0016810649300734407 -0.01596279963911356 0 0.0017805696425908979 -0.015963990817273743 0 0.0016810649300734407 -0.01596279963911356 0 0.0017348675771203634 -0.016100202578653525 0 0.0018257817802932574 -0.016051212830548518 0 0.0017805696425908979 -0.015963990817273743 0 0.0017348675771203634 -0.016100202578653525 0 0.0016810649300734407 -0.01596279963911356 0 0.0016402316896930241 -0.016097363412434465 0 0.0017348675771203634 -0.016100202578653525 0 0.0016241902440661804 -0.015859448614406555 0 0.0016810649300734407 -0.01596279963911356 0 0.0015679487280651412 -0.015979829834771208 0 0.0016810649300734407 -0.01596279963911356 0 0.0016402316896930241 -0.016097363412434465 0 0.0015679487280651412 -0.015979829834771208 0 0.0016402316896930241 -0.016097363412434465 0 0.0016367025776376483 -0.016244267407195111 0 0.0014604352572079649 -0.016220214931928562 0 0.0016402316896930241 -0.016097363412434465 0 0.0017348675771203634 -0.016100202578653525 0 0.0016367025776376483 -0.016244267407195111 0 0.001753518396120639 -0.015622028401651748 0 0.0014131062658126264 -0.017881312345878402 0 0.0017348675771203634 -0.016100202578653525 0 0.0017914686434615734 -0.016299775800697511 0 0.0016367025776376483 -0.016244267407195111 0 0.0017348675771203634 -0.016100202578653525 0 0.0017914686434615734 -0.016299775800697511 0 0.0019161901813876804 -0.016302893534887838 0 0.00096871749753499629 -0.019397108549390207 0 0.0009418714512125885 -0.01884175870639053 0 0.00036149380438721602 -0.021460462331014108 0 0.00029722891041715488 -0.021555419248365598 0 0.00020650622008636349 -0.021487654006255699 0 0.00036149380438721602 -0.021460462331014108 0 0.00039502763889316987 -0.021445027199755703 0 0.00020650622008636349 -0.021487654006255699 0 0.00072300028397059922 -0.019640361978240598 0 0.00096871749753499629 -0.019397108549390207 0 0.00038963323170616761 -0.021519921111412703 0 0.0003911606848735133 -0.021597554828740775 0 0.00050852374528682692 -0.021532278920862104 0 0.00040677069310206883 -0.021443072232469503 0 0.00038963323170616761 -0.021519921111412703 0 0.00050852374528682692 -0.021532278920862104 0 0.00036149380438721602 -0.021460462331014108 0 0.00040677069310206883 -0.021443072232469503 0 0.00038963323170616761 -0.021519921111412703 0 0.00038963323170616761 -0.021519921111412703 0 0.00029722891041715488 -0.021555419248365598 0 0.0003911606848735133 -0.021597554828740775 0 0.00036149380438721602 -0.021460462331014108 0 0.00038963323170616761 -0.021519921111412703 0 0.00029722891041715488 -0.021555419248365598 0 0.00029722891041715488 -0.021555419248365598 0 0.00020650622008636349 -0.021487654006255699 0 0.00020277657908082097 -0.021636224017228187 0 0.00020650622008636349 -0.021487654006255699 0 0.00020277657908082097 -0.021636224017228187 0 0.00010491853069675046 -0.021613701522107773 0 0.00029722891041715488 -0.021555419248365598 0 0.00020277657908082097 -0.021636224017228187 0 0.00030985113884042211 -0.021672614418877197 0 0.00020277657908082097 -0.021636224017228187 0 0.00023006857543279884 -0.021771206343511589 0 0.00030985113884042211 -0.021672614418877197 0 0.00020277657908082097 -0.021636224017228187 0 0.00023006857543279884 -0.021771206343511589 0 0.0001116131048732768 -0.021737130956901315 0 0.00023006857543279884 -0.021771206343511589 0 0.0001116131048732768 -0.021737130956901315 0 0.00013794205601424668 -0.021908441265155492 0 0.00023006857543279884 -0.021771206343511589 0 0.00030714637034769734 -0.021917445633607809 0 0.00013794205601424668 -0.021908441265155492 0 0.00030714637034769734 -0.021917445633607809 0 0.00054090197418560013 -0.0218391195940193 0 0.00043034131862624631 -0.022111995159539793 0 0.00030714637034769734 -0.021917445633607809 0 0.00036983132841739613 -0.021771100301855962 0 0.00054090197418560013 -0.0218391195940193 0 0.00023006857543279884 -0.021771206343511589 0 0.00030714637034769734 -0.021917445633607809 0 0.00036983132841739613 -0.021771100301855962 0 0.00023006857543279884 -0.021771206343511589 0 0.00036983132841739613 -0.021771100301855962 0 0.00030985113884042211 -0.021672614418877197 0 0.00036983132841739613 -0.021771100301855962 0 0.00044648074310629668 -0.021676291175693189 0 0.00054090197418560013 -0.0218391195940193 0 0.00044648074310629668 -0.021676291175693189 0 0.00030985113884042211 -0.021672614418877197 0 0.0003911606848735133 -0.021597554828740775 0 0.00036983132841739613 -0.021771100301855962 0 0.00044648074310629668 -0.021676291175693189 0 0.00030985113884042211 -0.021672614418877197 0 0.00029722891041715488 -0.021555419248365598 0 0.00030985113884042211 -0.021672614418877197 0 0.0003911606848735133 -0.021597554828740775 0 0.00044648074310629668 -0.021676291175693189 0 0.0003911606848735133 -0.021597554828740775 0 0.00050852374528682692 -0.021532278920862104 0 0.00044648074310629668 -0.021676291175693189 0 0.00058845870836549987 -0.021656726358259198 0 0.00050852374528682692 -0.021532278920862104 0 0.00065803647944701039 -0.021573447778978565 0 0.00058845870836549987 -0.021656726358259198 0 0.00050852374528682692 -0.021532278920862104 0 0.00069155033168838138 -0.021726489994778244 0 0.00058845870836549987 -0.021656726358259198 0 0.00054090197418560013 -0.0218391195940193 0 0.00065803647944701039 -0.021573447778978565 0 0.00069155033168838138 -0.021726489994778244 0 0.00058845870836549987 -0.021656726358259198 0 0.00044648074310629668 -0.021676291175693189 0 0.00058845870836549987 -0.021656726358259198 0 0.00054090197418560013 -0.0218391195940193 0 0.00054090197418560013 -0.0218391195940193 0 0.00083154285014785815 -0.021862474702585559 0 0.00065579942761187667 -0.022082374377543502 0 0.00069155033168838138 -0.021726489994778244 0 0.00054090197418560013 -0.0218391195940193 0 0.00083154285014785815 -0.021862474702585559 0 0.00078578606628717845 -0.022557205416209619 0 0.00089169166787223593 -0.022477284146527901 0 0.00090657428406378958 -0.022690236216176288 0 0.00078578606628717845 -0.022557205416209619 0 0.00089169166787223593 -0.022477284146527901 0 0.00085742937284903587 -0.022367682951656729 0 0.00080272732781924759 -0.022254140064617001 0 0.00091122551269170082 -0.021727248713012858 0 0.00085742937284903587 -0.022367682951656729 0 0.00090313575272191735 -0.022340813806545172 0 0.00079471811325968855 -0.0222309494956217 0 0.00078578606628717845 -0.022557205416209619 0 0.00085742937284903587 -0.022367682951656729 0 0.00079471811325968855 -0.0222309494956217 0 0.00069155033168838138 -0.021726489994778244 0 0.00083154285014785815 -0.021862474702585559 0 0.00078377851805348613 -0.021571986639101707 0 0.00089169166787223593 -0.022477284146527901 0 0.00085742937284903587 -0.022367682951656729 0 0.00090490268821983623 -0.022341051606570954 0 0.00089461052740783876 -0.022759284098719478 0 0.00082253193697208644 -0.022856130750114431 0 0.00065803647944701039 -0.021573447778978565 0 0.00069155033168838138 -0.021726489994778244 0 0.00078377851805348613 -0.021571986639101707 0 0.00093487805547900929 -0.022307665075794954 0 0.0006477756178814505 -0.022022448059203212 0 0.00092076799848252915 -0.022011858812245221 0 0.00082253193697208644 -0.022856130750114431 0 0.00091122551269170082 -0.021727248713012858 0 0.0006477756178814505 -0.022022448059203212 0 0.00092076799848252915 -0.022011858812245221 0 0.0006495382267890157 -0.021733753856992249 0 0.0010630923930380074 -0.020879825880262423 0 0.0010644910018760174 -0.021658550317750779 0 0.00092076799848252915 -0.022011858812245221 0 0.0006495382267890157 -0.021733753856992249 0 0.0011734410867939935 -0.021846519983158078 0 0.00092339196113914751 -0.021612092475504947 0 0.00065663485844779843 -0.021722722962959348 0 0.0011734410867939935 -0.021846519983158078 0 0.00092339196113914751 -0.021612092475504947 0 0.00065764665248742337 -0.021448775217490702 0 0.00065663485844779843 -0.021722722962959348 0 0.00092339196113914751 -0.021612092475504947 0 0.00065764665248742337 -0.021448775217490702 0 0.0012072887585993755 -0.021430783864535889 0 0.001187011723460168 -0.019068061105941902 0 0.00041145094610572577 -0.022563373523339581 0 0.00046102600305910984 -0.020013144795346008 0 0.0001103690852643188 -0.020618607755313496 0 -0.00021990032866915426 -0.020058191239775904 0 0.001187011723460168 -0.019068061105941902 0 0.0014131062658126264 -0.017881312345878402 0 0.001939193750759907 -0.016281537871837972 0 0.0018346714408922983 -0.016272991322580033 0 0.001887423196615588 -0.016191619737685344 0 0.0011656110926442783 -0.021092736474808239 0 0.0011671589235612281 -0.020792744902397346 0 0.00077809283366738293 -0.020708301572691518 0 0.0010630923930380074 -0.020879825880262423 0 0.0010939910946131727 -0.020082303186315011 0 0.0011872329916569084 -0.019293808698781733 0 0.0011869017541772957 -0.019321458747948675 0 0.0011548489387690375 -0.019309074852078476 0 0.00091122551269170082 -0.021727248713012858 0 0.0010939910946131727 -0.020082303186315011 0 0.00065803647944701039 -0.021573447778978565 0 0.00078377851805348613 -0.021571986639101707 0 0.0006481549549769266 -0.021455472633042746 0 0.001187011723460168 -0.019068061105941902 0 0.0010630923930380074 -0.020879825880262423 0 0.00091122551269170082 -0.021727248713012858 0 0.0010630923930380074 -0.020879825880262423 0 0.00040677069310206883 -0.021443072232469503 0 0.0006481549549769266 -0.021455472633042746 0 0.00050852374528682692 -0.021532278920862104 0 0.00065803647944701039 -0.021573447778978565 0 0.0006481549549769266 -0.021455472633042746 0 0.00050852374528682692 -0.021532278920862104 0 0.00096871749753499629 -0.019397108549390207 0 0.0010939910946131727 -0.020082303186315011 0 0.00099112569932032282 -0.019353547988271068 0 0.001147259973048941 -0.019390660698671597 0 0.0011081923922320477 -0.019350084899163834 0 0.00096871749753499629 -0.019397108549390207 0 0.0014131062658126264 -0.017881312345878402 0 0.0011872329916569084 -0.019293808698781733 0 0.0011548489387690375 -0.019309074852078476 0 0.001140041807652999 -0.019289732433887298 0 0.0010939910946131727 -0.020082303186315011 0 0.0014131062658126264 -0.017881312345878402 0 0.0018346714408922983 -0.016272991322580033 0 0.0018412995389635225 -0.016136799990207319 0 0.001887423196615588 -0.016191619737685344 0 0.0017348675771203634 -0.016100202578653525 0 0.0018346714408922983 -0.016272991322580033 0 0.0018412995389635225 -0.016136799990207319 0 0.0011969386845554993 -0.018465512897095592 0 0.001187011723460168 -0.019068061105941902 0 0.0019309062246006851 -0.016079070245762984 0 0.001939193750759907 -0.016281537871837972 0 0.001887423196615588 -0.016191619737685344 0 0.00045944727640927056 -0.021247416384279006 0 0.00046102600305910984 -0.020013144795346008 0 0.0001103690852643188 -0.020618607755313496 0 0.0019309062246006851 -0.016079070245762984 0 0.0018412995389635225 -0.016136799990207319 0 0.001887423196615588 -0.016191619737685344 0 -0.00012530970814960974 -0.024912373018618754 0 -0.00011635489906268177 -0.024928355805922602 0 -0.00012518137494768329 -0.024935448271746253 0 -0.00025832615786203661 -0.021162567965936172 0 0.0001103690852643188 -0.020618607755313496 0 -0.00021990032866915426 -0.020058191239775904 0 -0.00011635489906268177 -0.024928355805922602 0 -9.4258312347120937e-05 -0.024960423467675755 0 -0.00012518137494768329 -0.024935448271746253 0 -0.00024193997281267559 -0.023028396797736217 0 0.00041145094610572577 -0.022563373523339581 0 -0.00013583878088536296 -0.02492242741891092 0 -0.00012559994544927196 -0.024921802976640612 0 -0.00011635489906268177 -0.024928355805922602 0 -9.8105747293472e-05 -0.024941461960162156 0 -0.00011634197637096469 -0.024932196961782997 0 -5.1274448606307643e-05 -0.024956808259540091 0 -0.00011635489906268177 -0.024928355805922602 0 -9.4258312347120937e-05 -0.024960423467675755 0 7.324770075162525e-05 -0.024034404806552223 0 7.6325750372428552e-05 -0.023802278928615601 0 -0.00034384922832933978 -0.024064108869951226 0 -7.9895372972686528e-05 -0.024468072854590447 0 -6.610131285564449e-05 -0.024751551070530446 0 -8.4893419567305874e-06 -0.024464894661137493 0 -6.610131285564449e-05 -0.024751551070530446 0 7.324770075162525e-05 -0.024034404806552223 0 7.6325750372428552e-05 -0.023802278928615601 0 0.00049235627451430766 -0.024005513917622501 0 0.0012072887585993755 -0.021430783864535889 0 0.0011734410867939935 -0.021846519983158078 0 0.00119879200168389 -0.022149906989383281 0 0.00041145094610572577 -0.022563373523339581 0 0.00055180063904364458 -0.023521125387686699 0 7.6325750372428552e-05 -0.023802278928615601 0 0.00049235627451430766 -0.024005513917622501 0 0.00049880565524125866 -0.02354549295208869 0 -7.9895372972686528e-05 -0.024468072854590447 0 0.00041145094610572577 -0.022563373523339581 0 0.00092339196113914751 -0.021612092475504947 0 0.0012072887585993755 -0.021430783864535889 0 0.0011734410867939935 -0.021846519983158078 0 0.00092076799848252915 -0.022011858812245221 0 0.0011734410867939935 -0.021846519983158078 0 0.00119879200168389 -0.022149906989383281 0 -8.4893419567305874e-06 -0.024464894661137493 0 0.00055180063904364458 -0.023521125387686699 0 0.00093487805547900929 -0.022307665075794954 0 0.00092076799848252915 -0.022011858812245221 0 0.00119879200168389 -0.022149906989383281 0 9.9355438401276449e-05 -0.024988434506678838 0 9.84175626702684e-05 -0.024977796985095543 0 7.6591929745259242e-05 -0.02498762373839758 0 0.00055180063904364458 -0.023521125387686699 0 0.00071455209590893522 -0.024162162899639135 0 0.00054384154869794167 -0.023445794225842684 0 0.00074088760958286495 -0.023328529622922686 0 0.00073781095061212351 -0.023637038254462277 0 0.00089169166787223593 -0.022477284146527901 0 0.00090490268821983623 -0.022341051606570954 0 0.0010090695821097584 -0.022443313313638746 0 0.00082253193697208644 -0.022856130750114431 0 0.00055180063904364458 -0.023521125387686699 0 0.00082253193697208644 -0.022856130750114431 0 0.00071455209590893522 -0.024162162899639135 0 0.00071455209590893522 -0.024162162899639135 0 0.00099284831471304117 -0.023919910921070649 0 0.00089169166787223593 -0.022477284146527901 0 0.0010090695821097584 -0.022443313313638746 0 0.00090657428406378958 -0.022690236216176288 0 0.00071455209590893522 -0.024162162899639135 0 0.00028359184398173419 -0.025274264580974426 0 9.84175626702684e-05 -0.024977796985095543 0 7.6591929745259242e-05 -0.02498762373839758 0 8.2190415555908434e-05 -0.024966980546855245 0 7.6591929745259242e-05 -0.02498762373839758 0 4.5736967185352299e-05 -0.024988158598599246 0 8.2190415555908434e-05 -0.024966980546855245 0 7.1707858897990392e-05 -0.025007871962694585 0 7.6591929745259242e-05 -0.02498762373839758 0 4.2821390594652022e-05 -0.024998016817538982 0 7.1707858897990392e-05 -0.025007871962694585 0 9.9355438401276449e-05 -0.024988434506678838 0 7.6591929745259242e-05 -0.02498762373839758 0 7.6591929745259242e-05 -0.02498762373839758 0 4.2821390594652022e-05 -0.024998016817538982 0 4.5736967185352299e-05 -0.024988158598599246 0 4.5736967185352299e-05 -0.024988158598599246 0 1.808005098689913e-08 -0.02499998356648676 0 3.7868669066593615e-08 -0.025000014252257338 0 4.2821390594652022e-05 -0.024998016817538982 0 4.5736967185352299e-05 -0.024988158598599246 0 1.808005098689913e-08 -0.02499998356648676 0 4.2821390594652022e-05 -0.024998016817538982 0 1.808005098689913e-08 -0.02499998356648676 0 1.821599365847475e-05 -0.025004683304452317 0 1.1535454581523972e-07 -0.025000098755398215 0 -6.610131285564449e-05 -0.024751551070530446 0 1.821599365847475e-05 -0.025004683304452317 0 1.4832252678705168e-08 -0.025000054028124868 0 3.8598859314869477e-05 -0.025020706034605635 0 1.808005098689913e-08 -0.02499998356648676 0 1.821599365847475e-05 -0.025004683304452317 0 1.4832252678705168e-08 -0.025000054028124868 0 4.2821390594652022e-05 -0.024998016817538982 0 1.821599365847475e-05 -0.025004683304452317 0 3.8598859314869477e-05 -0.025020706034605635 0 7.1707858897990392e-05 -0.025007871962694585 0 4.2821390594652022e-05 -0.024998016817538982 0 3.8598859314869477e-05 -0.025020706034605635 0 -5.1274448606307643e-05 -0.024956808259540091 0 -5.5414668267360911e-05 -0.024981481986837854 0 -2.3471816011034531e-08 -0.024999953951230728 0 -5.1274448606307643e-05 -0.024956808259540091 0 -9.4258312347120937e-05 -0.024960423467675755 0 -5.5414668267360911e-05 -0.024981481986837854 0 -1.2978227282398688e-09 -0.02499999766213782 0 -1.5670974141279843e-06 -0.024996463793656231 0 6.332046614630625e-10 -0.024999999374659604 0 -6.610131285564449e-05 -0.024751551070530446 0 -6.1942206265709847e-08 -0.025000175829650827 0 0.00094647732470207278 -0.015510658931992506 0 0.00115938418214648 -0.015621369490022245 0 0.0010343044589999771 -0.015426899447951795 0 0.00115938418214648 -0.015621369490022245 0 0.001372203131376135 -0.015865903091247399 0 0.0010754286633719913 -0.015847889556091066 0 0.00094647732470207278 -0.015510658931992506 0 0.00115938418214648 -0.015621369490022245 0 0.0010754286633719913 -0.015847889556091066 0 0.00094647732470207278 -0.015510658931992506 0 0.0010754286633719913 -0.015847889556091066 0 0.0008613768696508244 -0.01560293012432187 0 0.00094647732470207278 -0.015510658931992506 0 0.00073148167750071566 -0.015345903141740575 0 0.0008613768696508244 -0.01560293012432187 0 0.00025358358982151139 -0.015290163039822214 0 0.00073148167750071566 -0.015345903141740575 0 0.0008613768696508244 -0.01560293012432187 0 0.00063031554977720965 -0.015193153549889156 0 0.00073148167750071566 -0.015345903141740575 0 0.00083219143235206455 -0.015287501049085266 0 0.00094647732470207278 -0.015510658931992506 0 0.00073148167750071566 -0.015345903141740575 0 0.00083219143235206455 -0.015287501049085266 0 0.00094647732470207278 -0.015510658931992506 0 0.00083219143235206455 -0.015287501049085266 0 0.0010343044589999771 -0.015426899447951795 0 0.00083219143235206455 -0.015287501049085266 0 0.00089938629605759799 -0.015261118556861953 0 0.0010343044589999771 -0.015426899447951795 0 0.00078578500991928772 -0.015019463548031362 0 0.00083219143235206455 -0.015287501049085266 0 0.00089938629605759799 -0.015261118556861953 0 0.00063031554977720965 -0.015193153549889156 0 0.00078578500991928772 -0.015019463548031362 0 0.00083219143235206455 -0.015287501049085266 0 0.00078578500991928772 -0.015019463548031362 0 0.00086778508808644866 -0.014883270655837144 0 0.00089686629493247543 -0.014945847437228595 0 0.00078578500991928772 -0.015019463548031362 0 0.00089938629605759799 -0.015261118556861953 0 0.0009034429959473558 -0.015228843997671392 0 0.00078583673604408423 -0.015043587240266765 0 0.00089649734630511642 -0.015096849496853302 0 0.00089938629605759799 -0.015261118556861953 0 0.0009034429959473558 -0.015228843997671392 0 0.0010121773432381399 -0.01533518723911456 0 0.0009034429959473558 -0.015228843997671392 0 0.0010276287272311746 -0.015323181045765666 0 0.0010121773432381399 -0.01533518723911456 0 0.001090592693158736 -0.015347742845991608 0 0.0009034429959473558 -0.015228843997671392 0 0.0010276287272311746 -0.015323181045765666 0 0.0010276287272311746 -0.015323181045765666 0 0.001096936637752713 -0.015379980770149593 0 0.0010121773432381399 -0.01533518723911456 0 0.001090592693158736 -0.015347742845991608 0 0.0010276287272311746 -0.015323181045765666 0 0.001096936637752713 -0.015379980770149593 0 0.001096936637752713 -0.015379980770149593 0 0.0010121773432381399 -0.01533518723911456 0 0.0010910397921915776 -0.015403360022918177 0 0.00089938629605759799 -0.015261118556861953 0 0.0010121773432381399 -0.01533518723911456 0 0.0010343044589999771 -0.015426899447951795 0 0.0010121773432381399 -0.01533518723911456 0 0.0010343044589999771 -0.015426899447951795 0 0.0010910397921915776 -0.015403360022918177 0 0.00115938418214648 -0.015621369490022245 0 0.0011491505079581829 -0.015462897409373254 0 0.0012510584236210581 -0.01560515590353073 0 0.00115938418214648 -0.015621369490022245 0 0.0010343044589999771 -0.015426899447951795 0 0.0011491505079581829 -0.015462897409373254 0 0.0010343044589999771 -0.015426899447951795 0 0.0011491505079581829 -0.015462897409373254 0 0.0010910397921915776 -0.015403360022918177 0 0.0011491505079581829 -0.015462897409373254 0 0.0010910397921915776 -0.015403360022918177 0 0.0011560431381067609 -0.015430230711895128 0 0.0011403515695131321 -0.015420617571818517 0 0.001096936637752713 -0.015379980770149593 0 0.0011560431381067609 -0.015430230711895128 0 0.001096936637752713 -0.015379980770149593 0 0.0010910397921915776 -0.015403360022918177 0 0.0011560431381067609 -0.015430230711895128 0 0.0011491505079581829 -0.015462897409373254 0 0.0011560431381067609 -0.015430230711895128 0 0.0011865394594183169 -0.015434302169779276 0 0.0011491505079581829 -0.015462897409373254 0 0.0011865394594183169 -0.015434302169779276 0 0.0013105019227697711 -0.015599474157825064 0 0.0011693208001104436 -0.015505062743156085 0 0.0011560431381067609 -0.015430230711895128 0 0.0011865394594183169 -0.015434302169779276 0 0.0011865394594183169 -0.015434302169779276 0 0.0013105019227697711 -0.015599474157825064 0 0.0014673951618432914 -0.015652700558850489 0 0.0014840176294932455 -0.015535263991458435 0 0.0011865394594183169 -0.015434302169779276 0 0.0014673951618432914 -0.015652700558850489 0 0.0010293254173501716 -0.015479257997074114 0 0.0011594427453020611 -0.015443842192616524 0 0.0013105019227697711 -0.015599474157825064 0 0.0014673951618432914 -0.015652700558850489 0 0.0014586747415998634 -0.015750955605892378 0 0.0011491505079581829 -0.015462897409373254 0 0.0013105019227697711 -0.015599474157825064 0 0.0012510584236210581 -0.01560515590353073 0 0.0014840176294932455 -0.015535263991458435 0 0.0016339865071245718 -0.015623726217510917 0 0.0015985851708023525 -0.015726343109581143 0 0.0014840176294932455 -0.015535263991458435 0 0.0014673951618432914 -0.015652700558850489 0 0.0015985851708023525 -0.015726343109581143 0 0.0014673951618432914 -0.015652700558850489 0 0.001547323219524576 -0.015834575920870196 0 0.0014586747415998634 -0.015750955605892378 0 0.0014673951618432914 -0.015652700558850489 0 0.0015985851708023525 -0.015726343109581143 0 0.001547323219524576 -0.015834575920870196 0 0.0016241902440661804 -0.015859448614406555 0 0.0015985851708023525 -0.015726343109581143 0 0.001547323219524576 -0.015834575920870196 0 0.0016241902440661804 -0.015859448614406555 0 0.001547323219524576 -0.015834575920870196 0 0.0015679487280651412 -0.015979829834771208 0 0.001547323219524576 -0.015834575920870196 0 0.0014586747415998634 -0.015750955605892378 0 0.0015016206924833577 -0.015858106632583056 0 0.001547323219524576 -0.015834575920870196 0 0.0015016206924833577 -0.015858106632583056 0 0.0015477494812395425 -0.015927412989774375 0 0.0015477494812395425 -0.015927412989774375 0 0.0015679487280651412 -0.015979829834771208 0 0.0015676810833256238 -0.015982485187355493 0 0.0015016206924833577 -0.015858106632583056 0 0.0015477494812395425 -0.015927412989774375 0 0.0015355238943567289 -0.015939082630101038 0 0.0015477494812395425 -0.015927412989774375 0 0.0015355238943567289 -0.015939082630101038 0 0.0015676810833256238 -0.015982485187355493 0 0.001547323219524576 -0.015834575920870196 0 0.0015477494812395425 -0.015927412989774375 0 0.0015679487280651412 -0.015979829834771208 0 0.0013105019227697711 -0.015599474157825064 0 0.0012510584236210581 -0.01560515590353073 0 0.0013922745985609382 -0.01576166356388263 0 0.00115938418214648 -0.015621369490022245 0 0.0012510584236210581 -0.01560515590353073 0 0.0013922745985609382 -0.01576166356388263 0 0.00115938418214648 -0.015621369490022245 0 0.0013922745985609382 -0.01576166356388263 0 0.001372203131376135 -0.015865903091247399 0 0.0013105019227697711 -0.015599474157825064 0 0.0014586747415998634 -0.015750955605892378 0 0.0013922745985609382 -0.01576166356388263 0 0.0014586747415998634 -0.015750955605892378 0 0.0015016206924833577 -0.015858106632583056 0 0.0013922745985609382 -0.01576166356388263 0 0.0015016206924833577 -0.015858106632583056 0 0.0013922745985609382 -0.01576166356388263 0 0.0014623380860338824 -0.015871190524668486 0 0.0013922745985609382 -0.01576166356388263 0 0.0014623380860338824 -0.015871190524668486 0 0.001372203131376135 -0.015865903091247399 0 0.0015016206924833577 -0.015858106632583056 0 0.0014623380860338824 -0.015871190524668486 0 0.0015355238943567289 -0.015939082630101038 0 0.0014623380860338824 -0.015871190524668486 0 0.0015355238943567289 -0.015939082630101038 0 0.0015216856485986557 -0.015985580641452845 0 0.0015355238943567289 -0.015939082630101038 0 0.0015591662286073068 -0.015982379381532564 0 0.0015676810833256238 -0.015982485187355493 0 0.0015355238943567289 -0.015939082630101038 0 0.0015216856485986557 -0.015985580641452845 0 0.0015591662286073068 -0.015982379381532564 0 0.0014623380860338824 -0.015871190524668486 0 0.0015216856485986557 -0.015985580641452845 0 0.001372203131376135 -0.015865903091247399 0 0.0015216856485986557 -0.015985580641452845 0 0.001372203131376135 -0.015865903091247399 0 0.0014570020710070006 -0.016135259196160122 0 0.001372203131376135 -0.015865903091247399 0 0.0014570020710070006 -0.016135259196160122 0 0.0010754286633719913 -0.015847889556091066 0 0.0014570020710070006 -0.016135259196160122 0 0.0014764021831232081 -0.016544465090146177 0 0.0009995829320775286 -0.016607273087809828 0 0.0014570020710070006 -0.016135259196160122 0 0.0015974611150400022 -0.016060994578265056 0 0.0014764021831232081 -0.016544465090146177 0 0.0015216856485986557 -0.015985580641452845 0 0.0014570020710070006 -0.016135259196160122 0 0.0016079112435045107 -0.01603036195062469 0 0.0015631581893617086 -0.017230407321755101 0 0.0017126171854920942 -0.016818787250104949 0 0.0014570020710070006 -0.016135259196160122 0 0.0016079112435045107 -0.01603036195062469 0 0.0015974611150400022 -0.016060994578265056 0 0.0015216856485986557 -0.015985580641452845 0 0.0015591662286073068 -0.015982379381532564 0 0.0016079112435045107 -0.01603036195062469 0 0.0015591662286073068 -0.015982379381532564 0 0.0016079112435045107 -0.01603036195062469 0 0.0015676810833256238 -0.015982485187355493 0 0.0014701748974634947 -0.016817926904940664 0 0.0015631581893617086 -0.017230407321755101 0 0.0008399351642617356 -0.017224299065164438 0 0.00093341816551950174 -0.017037010880443453 0 0.0010924013536733825 -0.017099408357763399 0 0.0014701748974634947 -0.016817926904940664 0 0.00096190879302532079 -0.017824513776951604 0 0.00096190879302532079 -0.017824513776951604 0 0.0015631581893617086 -0.017230407321755101 0 0.0026461603223130038 -0.01685819124749343 0 0.0017533439173347807 -0.017287528698353424 0 0.0022374455359189136 -0.017937687966423355 0 0.00096190879302532079 -0.017824513776951604 0 0.0011840704294670895 -0.020100094515068462 0 0.0027165921766638852 -0.01688732043177844 0 0.0026461603223130038 -0.01685819124749343 0 0.0022374455359189136 -0.017937687966423355 0 4.4175499093324608e-05 -0.021526515211162868 0 6.5614438526868382e-05 -0.021633209678992762 0 7.6398955563300358e-05 -0.021706555287726283 0 0.0016402316896930241 -0.016097363412434465 0 0.0015679487280651412 -0.015979829834771208 0 0.0014604352572079649 -0.016220214931928562 0 0.0009418714512125885 -0.01884175870639053 0 0.00075212355275334217 -0.018918621120124535 0 0.0012341084327449417 -0.016155298437456792 0 0.0012205816228388299 -0.016183940791082464 0 0.0014604352572079649 -0.016220214931928562 0 0.0015679487280651412 -0.015979829834771208 0 0.0015676025279012953 -0.015983887632343166 0 0.0015676810833256238 -0.015982485187355493 0 4.4175499093324608e-05 -0.021526515211162868 0 0.0001090288341694183 -0.021526884555462651 0 8.3392953979423808e-05 -0.021577146787147779 0 0.0015679487280651412 -0.015979829834771208 0 0.0012341084327449417 -0.016155298437456792 0 0.0014604352572079649 -0.016220214931928562 0 0.0015797056803160204 -0.0157512443393765 0 0.0014701748974634947 -0.016817926904940664 0 0.00096190879302532079 -0.017824513776951604 0 0.00075212355275334217 -0.018918621120124535 0 0.0014701748974634947 -0.016817926904940664 0 0.0016119311751549485 -0.016415614034315205 0 8.3392953979423808e-05 -0.021577146787147779 0 6.5614438526868382e-05 -0.021633209678992762 0 0.00010491853069675046 -0.021613701522107773 0 4.4175499093324608e-05 -0.021526515211162868 0 8.3392953979423808e-05 -0.021577146787147779 0 6.5614438526868382e-05 -0.021633209678992762 0 0.00020650622008636349 -0.021487654006255699 0 0.0001090288341694183 -0.021526884555462651 0 0.00010491853069675046 -0.021613701522107773 0 0.0001090288341694183 -0.021526884555462651 0 8.3392953979423808e-05 -0.021577146787147779 0 0.00010491853069675046 -0.021613701522107773 0 0.00020277657908082097 -0.021636224017228187 0 0.00010491853069675046 -0.021613701522107773 0 0.0001116131048732768 -0.021737130956901315 0 0.00010491853069675046 -0.021613701522107773 0 5.0109625071580451e-05 -0.021715856210504703 0 0.0001116131048732768 -0.021737130956901315 0 6.5614438526868382e-05 -0.021633209678992762 0 5.2204649943207249e-05 -0.021696043652252875 0 5.0109625071580451e-05 -0.021715856210504703 0 6.5614438526868382e-05 -0.021633209678992762 0 0.00010491853069675046 -0.021613701522107773 0 5.0109625071580451e-05 -0.021715856210504703 0 5.0109625071580451e-05 -0.021715856210504703 0 4.1209664952019965e-05 -0.021698930109376291 0 2.4241364723107724e-05 -0.021795200286952116 0 5.2204649943207249e-05 -0.021696043652252875 0 5.0109625071580451e-05 -0.021715856210504703 0 4.1209664952019965e-05 -0.021698930109376291 0 5.0109625071580451e-05 -0.021715856210504703 0 0.0001116131048732768 -0.021737130956901315 0 2.4241364723107724e-05 -0.021795200286952116 0 0.0001116131048732768 -0.021737130956901315 0 2.4241364723107724e-05 -0.021795200286952116 0 0.00013794205601424668 -0.021908441265155492 0 0.0022374455359189136 -0.017937687966423355 0 0.0016428329517142995 -0.019182277463675346 0 0.0014587078159293725 -0.01805710312561459 0 0.0017533439173347807 -0.017287528698353424 0 0.0022374455359189136 -0.017937687966423355 0 0.0014587078159293725 -0.01805710312561459 0 5.2204649943207249e-05 -0.021696043652252875 0 7.6398955563300358e-05 -0.021706555287726283 0 4.1209664952019965e-05 -0.021698930109376291 0 6.5614438526868382e-05 -0.021633209678992762 0 5.2204649943207249e-05 -0.021696043652252875 0 7.6398955563300358e-05 -0.021706555287726283 0 7.6398955563300358e-05 -0.021706555287726283 0 4.1209664952019965e-05 -0.021698930109376291 0 0.00033418198384615127 -0.021666525380787709 0 0.0011840704294670895 -0.020100094515068462 0 0.00098271419025130124 -0.02034547297324002 0 0.0016428329517142995 -0.019182277463675346 0 0.00064467374615859759 -0.018837625274864659 0 0.00096150925609929936 -0.018303008992263479 0 0.0016428329517142995 -0.019182277463675346 0 0.0014587078159293725 -0.01805710312561459 0 0.00096150925609929936 -0.018303008992263479 0 0.00064467374615859759 -0.018837625274864659 0 -3.4922857281929001e-05 -0.01874349933503287 0 0.00032118701340928726 -0.019629438530062437 0 0.00064467374615859759 -0.018837625274864659 0 0.00052108109954261141 -0.018174386427540108 0 -3.4922857281929001e-05 -0.01874349933503287 0 0.00052108109954261141 -0.018174386427540108 0 0.00034387502951116038 -0.017165342750211629 0 -3.4922857281929001e-05 -0.01874349933503287 0 0.00052108109954261141 -0.018174386427540108 0 0.00062212573298039053 -0.01765709800884474 0 0.00034387502951116038 -0.017165342750211629 0 0.00064467374615859759 -0.018837625274864659 0 0.00052108109954261141 -0.018174386427540108 0 0.00096150925609929936 -0.018303008992263479 0 0.00052108109954261141 -0.018174386427540108 0 0.00062212573298039053 -0.01765709800884474 0 0.00096150925609929936 -0.018303008992263479 0 0.00062212573298039053 -0.01765709800884474 0 0.0014587078159293725 -0.01805710312561459 0 0.00096150925609929936 -0.018303008992263479 0 0.0017126171854920942 -0.016818787250104949 0 0.00056449605089021028 -0.017662597651772239 0 0.0017533439173347807 -0.017287528698353424 0 0.00062212573298039053 -0.01765709800884474 0 0.0014587078159293725 -0.01805710312561459 0 0.0014764021831232081 -0.016544465090146177 0 0.00062212573298039053 -0.01765709800884474 0 0.0009995829320775286 -0.016607273087809828 0 0.00062212573298039053 -0.01765709800884474 0 0.0009995829320775286 -0.016607273087809828 0 0.00034387502951116038 -0.017165342750211629 0 0.00080513814143403208 -0.016669704298941879 0 0.0010609775904929877 -0.015899499433518743 0 0.0009995829320775286 -0.016607273087809828 0 0.00034387502951116038 -0.017165342750211629 0 0.0010754286633719913 -0.015847889556091066 0 0.0012270381622017433 -0.016130152448627678 0 0.0010754286633719913 -0.015847889556091066 0 0.00096698712470029565 -0.015922157080541656 0 0.0010754286633719913 -0.015847889556091066 0 0.0008613768696508244 -0.01560293012432187 0 0.00096698712470029565 -0.015922157080541656 0 0.0014570020710070006 -0.016135259196160122 0 0.0009995829320775286 -0.016607273087809828 0 0.0010754286633719913 -0.015847889556091066 0 0.00025358358982151139 -0.015290163039822214 0 0.00020326124307222702 -0.015903408133774877 0 0.0008613768696508244 -0.01560293012432187 0 0.00020326124307222702 -0.015903408133774877 0 0.0008613768696508244 -0.01560293012432187 0 0.00066764678189288132 -0.016096111811699131 0 0.0008613768696508244 -0.01560293012432187 0 0.00096698712470029565 -0.015922157080541656 0 0.00066764678189288132 -0.016096111811699131 0 0.00096698712470029565 -0.015922157080541656 0 0.00092474333406712531 -0.016380980965916832 0 0.00066764678189288132 -0.016096111811699131 0 0.0012270381622017433 -0.016130152448627678 0 0.00096698712470029565 -0.015922157080541656 0 0.00092474333406712531 -0.016380980965916832 0 0.00020326124307222702 -0.015903408133774877 0 0.00066764678189288132 -0.016096111811699131 0 0.00044969080180250892 -0.016647304287099672 0 0.00092474333406712531 -0.016380980965916832 0 0.00066764678189288132 -0.016096111811699131 0 0.00044969080180250892 -0.016647304287099672 0 -0.00023578713905426872 -0.016668831130703294 0 0.00044969080180250892 -0.016647304287099672 0 6.3302312207257834e-05 -0.017685268326122234 0 0.00080513814143403208 -0.016669704298941879 0 0.00055683481930460688 -0.018002464574250789 0 0.00092474333406712531 -0.016380980965916832 0 0.00044969080180250892 -0.016647304287099672 0 0.0011901113411427868 -0.017270221718573925 0 0.0012270381622017433 -0.016130152448627678 0 0.00092474333406712531 -0.016380980965916832 0 0.0011901113411427868 -0.017270221718573925 0 0.00055683481930460688 -0.018002464574250789 0 0.0001780496609290726 -0.019128990097912978 0 0.0011901113411427868 -0.017270221718573925 0 6.3302312207257834e-05 -0.017685268326122234 0 0.0001614428339535842 -0.019215721469279873 0 0.00044969080180250892 -0.016647304287099672 0 0.0011901113411427868 -0.017270221718573925 0 6.3302312207257834e-05 -0.017685268326122234 0 0.0001614428339535842 -0.019215721469279873 0 -0.00039262967218670715 -0.018658107100646228 0 -0.00025451432003690459 -0.019530010748888812 0 6.3302312207257834e-05 -0.017685268326122234 0 0.0001614428339535842 -0.019215721469279873 0 -0.00039262967218670715 -0.018658107100646228 0 -3.4922857281929001e-05 -0.01874349933503287 0 0.0001614428339535842 -0.019215721469279873 0 0.00032118701340928726 -0.019629438530062437 0 0.0001614428339535842 -0.019215721469279873 0 0.00027462697372099021 -0.020202315963395175 0 0.00032118701340928726 -0.019629438530062437 0 0.0001614428339535842 -0.019215721469279873 0 0.00027462697372099021 -0.020202315963395175 0 -0.00025451432003690459 -0.019530010748888812 0 -0.00026398499532524061 -0.020152902283895761 0 0.00027462697372099021 -0.020202315963395175 0 -0.00025451432003690459 -0.019530010748888812 0 -0.00026398499532524061 -0.020152902283895761 0 0.00027462697372099021 -0.020202315963395175 0 -3.9849210444194884e-05 -0.020681957312835845 0 0.00027462697372099021 -0.020202315963395175 0 0.0003069755337019293 -0.02069172986092924 0 -3.9849210444194884e-05 -0.020681957312835845 0 0.0003069755337019293 -0.02069172986092924 0 -3.9849210444194884e-05 -0.020681957312835845 0 0.00039719638474695174 -0.020964175452548816 0 -0.00026398499532524061 -0.020152902283895761 0 -3.9849210444194884e-05 -0.020681957312835845 0 -0.00041324269053045814 -0.020479677253190803 0 -3.9849210444194884e-05 -0.020681957312835845 0 -0.00050110420732810026 -0.020751391585908632 0 -0.00041734196031838037 -0.02096037350813847 0 -3.9849210444194884e-05 -0.020681957312835845 0 -0.00050110420732810026 -0.020751391585908632 0 -0.00041324269053045814 -0.020479677253190803 0 0.0005308857683733422 -0.020803070207467227 0 0.0002592359890031531 -0.021123654764338952 0 0.00043353684151746285 -0.020881643849660576 0 0.0003069755337019293 -0.02069172986092924 0 0.0005308857683733422 -0.020803070207467227 0 0.00039719638474695174 -0.020964175452548816 0 0.00027462697372099021 -0.020202315963395175 0 0.0005308857683733422 -0.020803070207467227 0 0.00074829926172514981 -0.02068296174437197 0 0.00027462697372099021 -0.020202315963395175 0 0.0003069755337019293 -0.02069172986092924 0 0.0005308857683733422 -0.020803070207467227 0 0.0005308857683733422 -0.020803070207467227 0 0.00074829926172514981 -0.02068296174437197 0 0.0002592359890031531 -0.021123654764338952 0 0.0016428329517142995 -0.019182277463675346 0 0.00064467374615859759 -0.018837625274864659 0 0.00032118701340928726 -0.019629438530062437 0 0.0016428329517142995 -0.019182277463675346 0 0.00074829926172514981 -0.02068296174437197 0 0.00032118701340928726 -0.019629438530062437 0 0.00027462697372099021 -0.020202315963395175 0 0.00074829926172514981 -0.02068296174437197 0 0.00032118701340928726 -0.019629438530062437 0 0.00098271419025130124 -0.02034547297324002 0 0.00076627285307660276 -0.020705129892794528 0 0.00074829926172514981 -0.02068296174437197 0 5.3962250709187049e-05 -0.021517796767201565 0 0.00010460084920919035 -0.021362089017066214 0 0.00033418198384615127 -0.021666525380787709 0 0.00074829926172514981 -0.02068296174437197 0 5.3962250709187049e-05 -0.021517796767201565 0 4.1209664952019965e-05 -0.021698930109376291 0 0.00033418198384615127 -0.021666525380787709 0 5.3962250709187049e-05 -0.021517796767201565 0 4.1209664952019965e-05 -0.021698930109376291 0 5.3962250709187049e-05 -0.021517796767201565 0 -3.2111183215472305e-05 -0.021742642561247284 0 5.3962250709187049e-05 -0.021517796767201565 0 -0.00010864920230654804 -0.021763318839516523 0 0.00010460084920919035 -0.021362089017066214 0 2.4241364723107724e-05 -0.021795200286952116 0 -3.2111183215472305e-05 -0.021742642561247284 0 2.2879675130269014e-05 -0.021997197106396214 0 2.4241364723107724e-05 -0.021795200286952116 0 2.2879675130269014e-05 -0.021997197106396214 0 0.00013794205601424668 -0.021908441265155492 0 4.1209664952019965e-05 -0.021698930109376291 0 2.4241364723107724e-05 -0.021795200286952116 0 -3.2111183215472305e-05 -0.021742642561247284 0 5.3962250709187049e-05 -0.021517796767201565 0 -3.2111183215472305e-05 -0.021742642561247284 0 -0.00010864920230654804 -0.021763318839516523 0 -3.2111183215472305e-05 -0.021742642561247284 0 2.2879675130269014e-05 -0.021997197106396214 0 -0.00010864920230654804 -0.021763318839516523 0 2.2879675130269014e-05 -0.021997197106396214 0 -0.00010864920230654804 -0.021763318839516523 0 -4.5200325620603198e-06 -0.022234276828112184 0 -0.00010864920230654804 -0.021763318839516523 0 -0.00022944062505001321 -0.021680172465744118 0 0.00010460084920919035 -0.021362089017066214 0 -0.00010864920230654804 -0.021763318839516523 0 -0.00022944062505001321 -0.021680172465744118 0 -4.5200325620603198e-06 -0.022234276828112184 0 -0.00022944062505001321 -0.021680172465744118 0 -4.5200325620603198e-06 -0.022234276828112184 0 -0.00012990313783518842 -0.022976376161741984 0 0.00074829926172514981 -0.02068296174437197 0 0.00010460084920919035 -0.021362089017066214 0 0.0002592359890031531 -0.021123654764338952 0 -0.00022944062505001321 -0.021680172465744118 0 0.00010460084920919035 -0.021362089017066214 0 0.0002592359890031531 -0.021123654764338952 0 -0.00022944062505001321 -0.021680172465744118 0 0.0002592359890031531 -0.021123654764338952 0 -0.00016561717691965756 -0.021067162554756901 0 -0.00016561717691965756 -0.021067162554756901 0 -0.00079942677686044728 -0.02126750688706509 0 -0.0013781583786810301 -0.020367982476264462 0 -0.00021402582744994153 -0.020980396552484085 0 -0.0005116724914716183 -0.020655029647441168 0 0.0002592359890031531 -0.021123654764338952 0 -0.00016561717691965756 -0.021067162554756901 0 0.00043353684151746285 -0.020881643849660576 0 -0.00016561717691965756 -0.021067162554756901 0 -0.00038219223823974179 -0.021503915242037892 0 -0.00019495425015349528 -0.021323043910725179 0 -0.00038219223823974179 -0.021503915242037892 0 -0.00079942677686044728 -0.02126750688706509 0 -0.0007149074043652909 -0.021835539352798538 0 -0.00016561717691965756 -0.021067162554756901 0 -0.00038219223823974179 -0.021503915242037892 0 -0.00079942677686044728 -0.02126750688706509 0 -0.00079942677686044728 -0.02126750688706509 0 -0.0011497796724122356 -0.021780540593853388 0 -0.0014056571244513989 -0.021268452160032383 0 -0.00079942677686044728 -0.02126750688706509 0 -0.0013781583786810301 -0.020367982476264462 0 -0.0014056571244513989 -0.021268452160032383 0 -0.00022944062505001321 -0.021680172465744118 0 -0.00016561717691965756 -0.021067162554756901 0 -0.00019495425015349528 -0.021323043910725179 0 -0.00020770665607162405 -0.021771460932423221 0 -6.0090347583356902e-05 -0.022186879200369495 0 -0.00022944062505001321 -0.021680172465744118 0 -5.3263383805066912e-05 -0.021366267600815853 0 -0.00019495425015349528 -0.021323043910725179 0 -0.00038219223823974179 -0.021503915242037892 0 -0.00019495425015349528 -0.021323043910725179 0 -0.0001431075301280239 -0.021936681321888186 0 -5.3263383805066912e-05 -0.021366267600815853 0 -0.00019495425015349528 -0.021323043910725179 0 -0.0001431075301280239 -0.021936681321888186 0 -5.3263383805066912e-05 -0.021366267600815853 0 -0.0001431075301280239 -0.021936681321888186 0 0.00036768808271155946 -0.021964199106018524 0 -6.0090347583356902e-05 -0.022186879200369495 0 0.00028290778215498758 -0.022779923634655235 0 -0.0001431075301280239 -0.021936681321888186 0 -0.00012781931593733981 -0.022445816075277035 0 0.00014628735019398581 -0.02255667912865986 0 -0.0001431075301280239 -0.021936681321888186 0 0.00014628735019398581 -0.02255667912865986 0 0.00036768808271155946 -0.021964199106018524 0 -0.00038219223823974179 -0.021503915242037892 0 -0.0001431075301280239 -0.021936681321888186 0 -0.00041406872694237898 -0.021966502073637609 0 -0.0001431075301280239 -0.021936681321888186 0 -0.00039771273691221147 -0.022402745320800908 0 -0.00041406872694237898 -0.021966502073637609 0 -0.0001431075301280239 -0.021936681321888186 0 -0.00039771273691221147 -0.022402745320800908 0 -0.00012781931593733981 -0.022445816075277035 0 -0.00039771273691221147 -0.022402745320800908 0 -0.0005177004898123342 -0.022757586812673401 0 -0.0001240738226127614 -0.022865047253453102 0 -0.00039771273691221147 -0.022402745320800908 0 -0.00012781931593733981 -0.022445816075277035 0 -0.0001240738226127614 -0.022865047253453102 0 -0.00012781931593733981 -0.022445816075277035 0 0.00014628735019398581 -0.02255667912865986 0 -0.0001240738226127614 -0.022865047253453102 0 -0.00079942677686044728 -0.02126750688706509 0 -0.0011497796724122356 -0.021780540593853388 0 -0.0007149074043652909 -0.021835539352798538 0 -0.0011497796724122356 -0.021780540593853388 0 -0.0007149074043652909 -0.021835539352798538 0 -0.00098814321221763466 -0.022247700560787689 0 -0.00038219223823974179 -0.021503915242037892 0 -0.0007149074043652909 -0.021835539352798538 0 -0.00041406872694237898 -0.021966502073637609 0 -0.0007149074043652909 -0.021835539352798538 0 -0.00041406872694237898 -0.021966502073637609 0 -0.00065063412251174292 -0.022317357569953775 0 -0.0007149074043652909 -0.021835539352798538 0 -0.00065063412251174292 -0.022317357569953775 0 -0.00098814321221763466 -0.022247700560787689 0 -0.00039771273691221147 -0.022402745320800908 0 -0.00041406872694237898 -0.021966502073637609 0 -0.00065063412251174292 -0.022317357569953775 0 -0.00039771273691221147 -0.022402745320800908 0 -0.00065063412251174292 -0.022317357569953775 0 -0.0005177004898123342 -0.022757586812673401 0 -0.00065063412251174292 -0.022317357569953775 0 -0.00085491113213976948 -0.022583052463830626 0 -0.00098814321221763466 -0.022247700560787689 0 -0.00065063412251174292 -0.022317357569953775 0 -0.00085491113213976948 -0.022583052463830626 0 -0.0005177004898123342 -0.022757586812673401 0 -0.00085491113213976948 -0.022583052463830626 0 -0.00098814321221763466 -0.022247700560787689 0 -0.0011844946617903522 -0.02266741770751806 0 -0.0011497796724122356 -0.021780540593853388 0 -0.00098814321221763466 -0.022247700560787689 0 -0.0014066797619151973 -0.022206294063413713 0 -0.00098814321221763466 -0.022247700560787689 0 -0.0014066797619151973 -0.022206294063413713 0 -0.0011844946617903522 -0.02266741770751806 0 -0.0016344444398594057 -0.022528795039124073 0 -0.0014066797619151973 -0.022206294063413713 0 -0.0011844946617903522 -0.02266741770751806 0 -0.0016344444398594057 -0.022528795039124073 0 -0.0018110705291937707 -0.022193724252432698 0 -0.0021087547246258069 -0.022621951293476723 0 -0.0016344444398594057 -0.022528795039124073 0 -0.0018110705291937707 -0.022193724252432698 0 -0.0014066797619151973 -0.022206294063413713 0 -0.0018110705291937707 -0.022193724252432698 0 -0.0014066797619151973 -0.022206294063413713 0 -0.0016718665737031969 -0.021776288623146348 0 -0.0016718665737031969 -0.021776288623146348 0 -0.0022632782631872806 -0.021784414376326954 0 -0.0020144884338180948 -0.020991414530340782 0 -0.0011497796724122356 -0.021780540593853388 0 -0.0014066797619151973 -0.022206294063413713 0 -0.0016718665737031969 -0.021776288623146348 0 -0.0018110705291937707 -0.022193724252432698 0 -0.0016718665737031969 -0.021776288623146348 0 -0.0022632782631872806 -0.021784414376326954 0 -0.0016718665737031969 -0.021776288623146348 0 -0.0014056571244513989 -0.021268452160032383 0 -0.0020144884338180948 -0.020991414530340782 0 -0.0011497796724122356 -0.021780540593853388 0 -0.0016718665737031969 -0.021776288623146348 0 -0.0014056571244513989 -0.021268452160032383 0 -0.0022632782631872806 -0.021784414376326954 0 -0.0020144884338180948 -0.020991414530340782 0 -0.0027361625110534759 -0.020923121088535411 0 -0.0022632782631872806 -0.021784414376326954 0 -0.0030519260817413164 -0.02122717330106411 0 -0.0027361625110534759 -0.020923121088535411 0 -0.0022632782631872806 -0.021784414376326954 0 -0.0028379878869373818 -0.021715677194145105 0 -0.0024488320100035555 -0.022250620460477408 0 -0.0022632782631872806 -0.021784414376326954 0 -0.0028379878869373818 -0.021715677194145105 0 -0.0030519260817413164 -0.02122717330106411 0 -0.0028379878869373818 -0.021715677194145105 0 -0.0025432663265360497 -0.022614248906896315 0 -0.0033983912767381517 -0.021494869626078925 0 -0.0028379878869373818 -0.021715677194145105 0 -0.0024488320100035555 -0.022250620460477408 0 -0.0025432663265360497 -0.022614248906896315 0 -0.0022239016098404433 -0.022027550673502299 0 -0.0023937456815642413 -0.022316776950046854 0 -0.0031424287476744801 -0.02186867171979864 0 -0.0031111814257374932 -0.021846896095260186 0 -0.0022632782631872806 -0.021784414376326954 0 -0.0024488320100035555 -0.022250620460477408 0 -0.0021720918917918258 -0.022862271634892468 0 -0.0018110705291937707 -0.022193724252432698 0 -0.0022632782631872806 -0.021784414376326954 0 -0.0021087547246258069 -0.022621951293476723 0 -0.0024488320100035555 -0.022250620460477408 0 -0.0021720918917918258 -0.022862271634892468 0 -0.0025432663265360497 -0.022614248906896315 0 -0.0026939810885934193 -0.022026181891513716 0 -0.0029590322289828413 -0.021841426749691251 0 -0.0026815683599711775 -0.022158810294823857 0 -0.0023937456815642413 -0.022316776950046854 0 -0.0031424287476744801 -0.02186867171979864 0 -0.0045886624073065378 -0.020875792518567762 0 -0.0045889522190867907 -0.020838295234139229 0 -0.0046291971593709928 -0.020836950591267295 0 -0.0031424287476744801 -0.02186867171979864 0 -0.0027497345874341913 -0.021674012634403144 0 -0.0045886624073065378 -0.020875792518567762 0 -0.0045537000016161767 -0.020857240421327004 0 -0.0045889522190867907 -0.020838295234139229 0 -0.0045886624073065378 -0.020875792518567762 0 -0.0045537000016161767 -0.020857240421327004 0 -0.0045111266966081486 -0.020876630902106667 0 -0.0045537000016161767 -0.020857240421327004 0 -0.0045264055114381599 -0.020858977687620836 0 -0.0045555027505996652 -0.020826343118874348 0 -0.0025688554293236878 -0.022481448388848989 0 -0.0033983912767381517 -0.021494869626078925 0 -0.0036037726019437911 -0.021757243157629703 0 -0.0045886624073065378 -0.020875792518567762 0 -0.0045111266966081486 -0.020876630902106667 0 -0.0044765284957692143 -0.020888153126737294 0 -0.0031424287476744801 -0.02186867171979864 0 -0.0041213349775154305 -0.021223060989764488 0 -0.0045537000016161767 -0.020857240421327004 0 -0.0045264055114381599 -0.020858977687620836 0 -0.0045111266966081486 -0.020876630902106667 0 -0.0045264055114381599 -0.020858977687620836 0 -0.0045111266966081486 -0.020876630902106667 0 -0.0045277341301977799 -0.020878246218990305 0 -0.0045264055114381599 -0.020858977687620836 0 -0.0045277341301977799 -0.020878246218990305 0 -0.0045100504668276076 -0.020841504228419402 0 -0.0045150248492154873 -0.020884306945434736 0 -0.0045111266966081486 -0.020876630902106667 0 -0.0045277341301977799 -0.020878246218990305 0 -0.0045150248492154873 -0.020884306945434736 0 -0.0045111266966081486 -0.020876630902106667 0 -0.0044765284957692143 -0.020888153126737294 0 -0.0045277341301977799 -0.020878246218990305 0 -0.0045591462052620322 -0.020880094477815362 0 -0.0045100504668276076 -0.020841504228419402 0 -0.0045277341301977799 -0.020878246218990305 0 -0.0045591462052620322 -0.020880094477815362 0 -0.0045823540420568834 -0.020868682771818699 0 -0.0045150248492154873 -0.020884306945434736 0 -0.0045277341301977799 -0.020878246218990305 0 -0.0045823540420568834 -0.020868682771818699 0 -0.0045731644178749172 -0.020680130835357687 0 -0.0041213349775154305 -0.021223060989764488 0 -0.0047622475281244312 -0.018950481839673145 0 -0.0049303921042673513 -0.018136900924484844 0 -0.0040172775526140878 -0.021010508440405588 0 -0.0046406149624856801 -0.020534310059451763 0 -0.0036037726019437911 -0.021757243157629703 0 -0.0045823540420568834 -0.020868682771818699 0 -0.0046406149624856801 -0.020534310059451763 0 -0.0044765284957692143 -0.020888153126737294 0 -0.0050212000850795128 -0.017601848925452565 0 -0.0050642834992389073 -0.018525322581409046 0 -0.0048570110189335635 -0.018641741886353546 0 -0.0045823540420568834 -0.020868682771818699 0 -0.0047510099511591892 -0.020835634364898402 0 -0.0046406149624856801 -0.020534310059451763 0 -0.0047622475281244312 -0.018950481839673145 0 -0.0048542273023284297 -0.019665110208083758 0 -0.0045591462052620322 -0.020880094477815362 0 -0.0045823540420568834 -0.020868682771818699 0 -0.0047510099511591892 -0.020835634364898402 0 -0.0040172775526140878 -0.021010508440405588 0 -0.0046406149624856801 -0.020534310059451763 0 -0.0041688169839405476 -0.020388712275272385 0 -0.0040172775526140878 -0.021010508440405588 0 -0.00383923439480683 -0.020726677311442055 0 -0.0041688169839405476 -0.020388712275272385 0 -0.0047510099511591892 -0.020835634364898402 0 -0.0046406149624856801 -0.020534310059451763 0 -0.004720008830210962 -0.01967513446933734 0 -0.0050642834992389073 -0.018525322581409046 0 -0.004720008830210962 -0.01967513446933734 0 -0.0048570110189335635 -0.018641741886353546 0 -0.0028379878869373818 -0.021715677194145105 0 -0.0033983912767381517 -0.021494869626078925 0 -0.0030519260817413164 -0.02122717330106411 0 -0.0045150248492154873 -0.020884306945434736 0 -0.0045823540420568834 -0.020868682771818699 0 -0.0044765284957692143 -0.020888153126737294 0 -0.0040172775526140878 -0.021010508440405588 0 -0.0036037726019437911 -0.021757243157629703 0 -0.0036546148798707423 -0.021312971742923396 0 -0.0033983912767381517 -0.021494869626078925 0 -0.0036037726019437911 -0.021757243157629703 0 -0.0036546148798707423 -0.021312971742923396 0 -0.00383923439480683 -0.020726677311442055 0 -0.0036010969159659136 -0.021001719659210688 0 -0.0035899838782839921 -0.020527226284251469 0 -0.0033983912767381517 -0.021494869626078925 0 -0.0036546148798707423 -0.021312971742923396 0 -0.0036010969159659136 -0.021001719659210688 0 -0.0040172775526140878 -0.021010508440405588 0 -0.0036546148798707423 -0.021312971742923396 0 -0.0036010969159659136 -0.021001719659210688 0 -0.0040172775526140878 -0.021010508440405588 0 -0.00383923439480683 -0.020726677311442055 0 -0.0036010969159659136 -0.021001719659210688 0 -0.0036010969159659136 -0.021001719659210688 0 -0.0030519260817413164 -0.02122717330106411 0 -0.0035899838782839921 -0.020527226284251469 0 -0.0033983912767381517 -0.021494869626078925 0 -0.0036010969159659136 -0.021001719659210688 0 -0.0030519260817413164 -0.02122717330106411 0 -0.0035899838782839921 -0.020527226284251469 0 -0.0040033289924342602 -0.02002940961496796 0 -0.0027956845517295974 -0.019825992888992432 0 -0.0035899838782839921 -0.020527226284251469 0 -0.0027956845517295974 -0.019825992888992432 0 -0.0027361625110534759 -0.020923121088535411 0 -0.0030519260817413164 -0.02122717330106411 0 -0.0035899838782839921 -0.020527226284251469 0 -0.0027361625110534759 -0.020923121088535411 0 -0.00383923439480683 -0.020726677311442055 0 -0.0035899838782839921 -0.020527226284251469 0 -0.0041688169839405476 -0.020388712275272385 0 -0.0035899838782839921 -0.020527226284251469 0 -0.0040033289924342602 -0.02002940961496796 0 -0.0041688169839405476 -0.020388712275272385 0 -0.0046406149624856801 -0.020534310059451763 0 -0.0041688169839405476 -0.020388712275272385 0 -0.004720008830210962 -0.01967513446933734 0 -0.0048542273023284297 -0.019665110208083758 0 -0.0047865844813854965 -0.019631978329418293 0 -0.004720008830210962 -0.01967513446933734 0 -0.00465697684405197 -0.019078817984038595 0 -0.0048570110189335635 -0.018641741886353546 0 -0.0040033289924342602 -0.02002940961496796 0 -0.0041688169839405476 -0.020388712275272385 0 -0.004720008830210962 -0.01967513446933734 0 -0.0040033289924342602 -0.02002940961496796 0 -0.004720008830210962 -0.01967513446933734 0 -0.0045247019016941507 -0.019551997118912701 0 -3.9849210444194884e-05 -0.020681957312835845 0 -0.00015478893662208772 -0.021095673613038397 0 -0.00041734196031838037 -0.02096037350813847 0 -0.0040033289924342602 -0.02002940961496796 0 -0.0045247019016941507 -0.019551997118912701 0 -0.0027956845517295974 -0.019825992888992432 0 -3.9849210444194884e-05 -0.020681957312835845 0 -0.00015478893662208772 -0.021095673613038397 0 0.00039719638474695174 -0.020964175452548816 0 -0.0023520877807358775 -0.020436410026489157 0 -0.0012392760030705068 -0.020393772274351952 0 -0.0027956845517295974 -0.019825992888992432 0 -0.0013781583786810301 -0.020367982476264462 0 -0.0020144884338180948 -0.020991414530340782 0 0.0005308857683733422 -0.020803070207467227 0 0.00039719638474695174 -0.020964175452548816 0 0.00043353684151746285 -0.020881643849660576 0 -0.0012392760030705068 -0.020393772274351952 0 -0.0005116724914716183 -0.020655029647441168 0 -0.0013781583786810301 -0.020367982476264462 0 -0.0014056571244513989 -0.021268452160032383 0 -0.0020144884338180948 -0.020991414530340782 0 -0.0027956845517295974 -0.019825992888992432 0 -0.0020144884338180948 -0.020991414530340782 0 -0.0027361625110534759 -0.020923121088535411 0 1.825597762851611e-07 -0.02499987364355423 0 0.0001847912183843612 -0.024681995056847403 0 0.00017881951990989667 -0.024679710007383539 0 0.0001847912183843612 -0.024681995056847403 0 0.00017881951990989667 -0.024679710007383539 0 0.00040200400704505933 -0.024376317891975603 0 0.00017881951990989667 -0.024679710007383539 0 8.8380743073875927e-05 -0.024919580345390071 0 0.00044443813482474383 -0.024599364746822814 0 0.00017881951990989667 -0.024679710007383539 0 -1.9925412091142162e-08 -0.024999706499767512 0 8.8380743073875927e-05 -0.024919580345390071 0 1.825597762851611e-07 -0.02499987364355423 0 0.00017881951990989667 -0.024679710007383539 0 -1.9925412091142162e-08 -0.024999706499767512 0 -1.9925412091142162e-08 -0.024999706499767512 0 3.7868669066593615e-08 -0.025000014252257338 0 8.8380743073875927e-05 -0.024919580345390071 0 4.5736967185352299e-05 -0.024988158598599246 0 3.7868669066593615e-08 -0.025000014252257338 0 8.8380743073875927e-05 -0.024919580345390071 0 6.9767682242655095e-05 -0.024865335637351278 0 0.00028359184398173419 -0.025274264580974426 0 4.5736967185352299e-05 -0.024988158598599246 0 8.8380743073875927e-05 -0.024919580345390071 0 8.2190415555908434e-05 -0.024966980546855245 0 8.8380743073875927e-05 -0.024919580345390071 0 0.00044443813482474383 -0.024599364746822814 0 0.0004441225611485549 -0.024931103047684634 0 0.00044443813482474383 -0.024599364746822814 0 0.0004441225611485549 -0.024931103047684634 0 0.00090234969989963086 -0.024998664949039566 0 8.8380743073875927e-05 -0.024919580345390071 0 0.0004441225611485549 -0.024931103047684634 0 0.00044371253885272261 -0.02522214221942895 0 0.0004441225611485549 -0.024931103047684634 0 0.00044371253885272261 -0.02522214221942895 0 0.00090234969989963086 -0.024998664949039566 0 0.0010090695821097584 -0.022443313313638746 0 0.0010450456225280936 -0.02291631909212313 0 0.00090657428406378958 -0.022690236216176288 0 0.00086300907606822906 -0.025604381956762158 0 0.00044371253885272261 -0.02522214221942895 0 0.00090234969989963086 -0.024998664949039566 0 0.00044443813482474383 -0.024599364746822814 0 0.00090234969989963086 -0.024998664949039566 0 0.00086897287901741634 -0.02385491818914455 0 0.00099284831471304117 -0.023919910921070649 0 0.000879214793310258 -0.023868741322321658 0 0.0010450456225280936 -0.02291631909212313 0 0.00086897287901741634 -0.02385491818914455 0 0.00083708450107680688 -0.023238139337656488 0 0.00017881951990989667 -0.024679710007383539 0 0.00044443813482474383 -0.024599364746822814 0 0.00050536872681436885 -0.024282744518258369 0 0.00044443813482474383 -0.024599364746822814 0 0.00086897287901741634 -0.02385491818914455 0 0.00050536872681436885 -0.024282744518258369 0 0.00050536872681436885 -0.024282744518258369 0 0.00069907444910314415 -0.023997666307588449 0 0.00040200400704505933 -0.024376317891975603 0 0.00017881951990989667 -0.024679710007383539 0 0.00050536872681436885 -0.024282744518258369 0 0.00040200400704505933 -0.024376317891975603 0 0.00086897287901741634 -0.02385491818914455 0 0.00050536872681436885 -0.024282744518258369 0 0.00069907444910314415 -0.023997666307588449 0 0.00086897287901741634 -0.02385491818914455 0 0.00069907444910314415 -0.023997666307588449 0 0.00075597008299995805 -0.023564885428557419 0 0.00069907444910314415 -0.023997666307588449 0 0.00075597008299995805 -0.023564885428557419 0 0.00070940713590178809 -0.023814122585747624 0 0.00075597008299995805 -0.023564885428557419 0 0.00060856304805790846 -0.023486799640864801 0 0.00070940713590178809 -0.023814122585747624 0 0.00055048286147993712 -0.023074097766284045 0 0.00043201734469912719 -0.02303427700782032 0 0.00060856304805790846 -0.023486799640864801 0 0.00075597008299995805 -0.023564885428557419 0 0.00055048286147993712 -0.023074097766284045 0 0.00060856304805790846 -0.023486799640864801 0 0.00055048286147993712 -0.023074097766284045 0 0.00079346583099348478 -0.023274893085717514 0 0.00060950599492484714 -0.022779158752780616 0 0.00055048286147993712 -0.023074097766284045 0 0.00060950599492484714 -0.022779158752780616 0 0.00041982710228802002 -0.022562308910535869 0 0.00075597008299995805 -0.023564885428557419 0 0.00055048286147993712 -0.023074097766284045 0 0.00079346583099348478 -0.023274893085717514 0 0.00086897287901741634 -0.02385491818914455 0 0.00079346583099348478 -0.023274893085717514 0 0.00083708450107680688 -0.023238139337656488 0 0.00086897287901741634 -0.02385491818914455 0 0.00075597008299995805 -0.023564885428557419 0 0.00079346583099348478 -0.023274893085717514 0 0.00079346583099348478 -0.023274893085717514 0 0.00083708450107680688 -0.023238139337656488 0 0.00074828065329607591 -0.022978042735182568 0 0.0008059493491944362 -0.023208602826588997 0 0.00083012271857830393 -0.022651332189872142 0 0.00079346583099348478 -0.023274893085717514 0 0.00093190689791047539 -0.022304432408616202 0 0.00060950599492484714 -0.022779158752780616 0 0.0010450456225280936 -0.02291631909212313 0 0.00083708450107680688 -0.023238139337656488 0 0.00074828065329607591 -0.022978042735182568 0 0.00080272732781924759 -0.022254140064617001 0 0.00083012271857830393 -0.022651332189872142 0 0.0010450456225280936 -0.02291631909212313 0 0.00074828065329607591 -0.022978042735182568 0 0.00090657428406378958 -0.022690236216176288 0 0.00083154285014785815 -0.021862474702585559 0 0.00093190689791047539 -0.022304432408616202 0 0.00065579942761187667 -0.022082374377543502 0 0.00078578606628717845 -0.022557205416209619 0 0.00074828065329607591 -0.022978042735182568 0 0.00090657428406378958 -0.022690236216176288 0 0.00054090197418560013 -0.0218391195940193 0 0.00065579942761187667 -0.022082374377543502 0 0.00043034131862624631 -0.022111995159539793 0 0.00093190689791047539 -0.022304432408616202 0 0.00065579942761187667 -0.022082374377543502 0 0.00057853408703042346 -0.022394005148407579 0 0.00065579942761187667 -0.022082374377543502 0 0.00057853408703042346 -0.022394005148407579 0 0.00043034131862624631 -0.022111995159539793 0 0.00057853408703042346 -0.022394005148407579 0 0.00041982710228802002 -0.022562308910535869 0 0.00043034131862624631 -0.022111995159539793 0 0.00093190689791047539 -0.022304432408616202 0 0.00057853408703042346 -0.022394005148407579 0 0.00060950599492484714 -0.022779158752780616 0 0.00057853408703042346 -0.022394005148407579 0 0.00060950599492484714 -0.022779158752780616 0 0.00041982710228802002 -0.022562308910535869 0 0.00041982710228802002 -0.022562308910535869 0 0.00023338336040019169 -0.022169142662638825 0 0.00043034131862624631 -0.022111995159539793 0 0.00041982710228802002 -0.022562308910535869 0 0.00023338336040019169 -0.022169142662638825 0 0.00023583608407282849 -0.022548086568870696 0 0.00030714637034769734 -0.021917445633607809 0 0.00023338336040019169 -0.022169142662638825 0 0.00043034131862624631 -0.022111995159539793 0 0.00030714637034769734 -0.021917445633607809 0 0.00023338336040019169 -0.022169142662638825 0 0.00013794205601424668 -0.021908441265155492 0 2.2879675130269014e-05 -0.021997197106396214 0 0.00023338336040019169 -0.022169142662638825 0 0.00013794205601424668 -0.021908441265155492 0 2.2879675130269014e-05 -0.021997197106396214 0 0.00023338336040019169 -0.022169142662638825 0 0.00023583608407282849 -0.022548086568870696 0 2.2879675130269014e-05 -0.021997197106396214 0 -4.5200325620603198e-06 -0.022234276828112184 0 0.00023583608407282849 -0.022548086568870696 0 0.00055048286147993712 -0.023074097766284045 0 0.00041982710228802002 -0.022562308910535869 0 0.00023583608407282849 -0.022548086568870696 0 0.00023583608407282849 -0.022548086568870696 0 0.00043201734469912719 -0.02303427700782032 0 0.00031509279910951798 -0.023057505187827457 0 0.00055048286147993712 -0.023074097766284045 0 0.00023583608407282849 -0.022548086568870696 0 0.00043201734469912719 -0.02303427700782032 0 -4.5200325620603198e-06 -0.022234276828112184 0 0.00023583608407282849 -0.022548086568870696 0 0.00031509279910951798 -0.023057505187827457 0 -4.5200325620603198e-06 -0.022234276828112184 0 -0.00012990313783518842 -0.022976376161741984 0 0.00031509279910951798 -0.023057505187827457 0 -0.00012990313783518842 -0.022976376161741984 0 0.00031509279910951798 -0.023057505187827457 0 0.00021917928655473134 -0.023619211391501905 0 0.00043201734469912719 -0.02303427700782032 0 0.00031509279910951798 -0.023057505187827457 0 0.00060856304805790846 -0.023486799640864801 0 0.00031509279910951798 -0.023057505187827457 0 0.00048903239427370529 -0.023592063463751325 0 0.00060856304805790846 -0.023486799640864801 0 0.00031509279910951798 -0.023057505187827457 0 0.00048903239427370529 -0.023592063463751325 0 0.00021917928655473134 -0.023619211391501905 0 0.00014628735019398581 -0.02255667912865986 0 0.00036768808271155946 -0.021964199106018524 0 0.00060119283515536952 -0.022737171351581487 0 0.00014628735019398581 -0.02255667912865986 0 0.00060119283515536952 -0.022737171351581487 0 0.00029315063704091774 -0.023268625776797287 0 0.00048903239427370529 -0.023592063463751325 0 0.00054342812968282003 -0.023831121127735892 0 0.00060894984829173244 -0.023770269742257745 0 0.00048903239427370529 -0.023592063463751325 0 0.00021917928655473134 -0.023619211391501905 0 0.00054342812968282003 -0.023831121127735892 0 0.00028290778215498758 -0.022779923634655235 0 0.00054420785900951532 -0.023264394187787241 0 0.00054342812968282003 -0.023831121127735892 0 0.00060894984829173244 -0.023770269742257745 0 0.00058103262592497406 -0.023812634393783193 0 0.00054420785900951532 -0.023264394187787241 0 0.00061543557474175994 -0.023540492266233413 0 0.00054342812968282003 -0.023831121127735892 0 0.00058103262592497406 -0.023812634393783193 0 0.00062289831841821702 -0.023599828039140812 0 0.00058103262592497406 -0.023812634393783193 0 0.00062107655029316566 -0.023871568939752279 0 0.00056685080888738148 -0.023872822122483459 0 0.00058103262592497406 -0.023812634393783193 0 0.00056685080888738148 -0.023872822122483459 0 0.0005419972505993786 -0.02383072687098009 0 0.00060894984829173244 -0.023770269742257745 0 0.00058103262592497406 -0.023812634393783193 0 0.00062107655029316566 -0.023871568939752279 0 0.00060894984829173244 -0.023770269742257745 0 0.00062107655029316566 -0.023871568939752279 0 0.00066215562215690184 -0.023770813235929316 0 0.00062107655029316566 -0.023871568939752279 0 0.00066215562215690184 -0.023770813235929316 0 0.00063678403825486178 -0.02395484992711279 0 0.00048903239427370529 -0.023592063463751325 0 0.00060894984829173244 -0.023770269742257745 0 0.00060856304805790846 -0.023486799640864801 0 0.00060894984829173244 -0.023770269742257745 0 0.00066215562215690184 -0.023770813235929316 0 0.00060856304805790846 -0.023486799640864801 0 0.00066215562215690184 -0.023770813235929316 0 0.00070940713590178809 -0.023814122585747624 0 0.00063678403825486178 -0.02395484992711279 0 0.00066215562215690184 -0.023770813235929316 0 0.00060856304805790846 -0.023486799640864801 0 0.00070940713590178809 -0.023814122585747624 0 0.00070940713590178809 -0.023814122585747624 0 0.00060320306833256592 -0.024081441722174458 0 0.00063678403825486178 -0.02395484992711279 0 0.00069907444910314415 -0.023997666307588449 0 0.00070940713590178809 -0.023814122585747624 0 0.00060320306833256592 -0.024081441722174458 0 0.00069907444910314415 -0.023997666307588449 0 0.00060320306833256592 -0.024081441722174458 0 0.00040200400704505933 -0.024376317891975603 0 0.00060320306833256592 -0.024081441722174458 0 0.00040200400704505933 -0.024376317891975603 0 0.00049541412105484975 -0.024213465281306672 0 0.00049541412105484975 -0.024213465281306672 0 0.00063678403825486178 -0.02395484992711279 0 0.00056771014314537633 -0.023975864818847604 0 0.00060320306833256592 -0.024081441722174458 0 0.00049541412105484975 -0.024213465281306672 0 0.00063678403825486178 -0.02395484992711279 0 0.00062107655029316566 -0.023871568939752279 0 0.00063678403825486178 -0.02395484992711279 0 0.00056771014314537633 -0.023975864818847604 0 0.00062107655029316566 -0.023871568939752279 0 0.00056685080888738148 -0.023872822122483459 0 0.00056771014314537633 -0.023975864818847604 0 0.00056685080888738148 -0.023872822122483459 0 0.00052297721872914915 -0.023912275292990198 0 0.00056771014314537633 -0.023975864818847604 0 0.00049541412105484975 -0.024213465281306672 0 0.00056771014314537633 -0.023975864818847604 0 0.00027760755510874827 -0.024142927530245679 0 0.00034066010882855008 -0.024828926356501864 0 7.3493750635638102e-05 -0.02503295239175387 0 7.2911661068809144e-05 -0.024879615750659591 0 0.00052297721872914915 -0.023912275292990198 0 0.00056771014314537633 -0.023975864818847604 0 0.00027760755510874827 -0.024142927530245679 0 0.00040998116659756204 -0.024364342851732185 0 0.00020062145212322401 -0.024589186280669161 0 7.3493750635638102e-05 -0.02503295239175387 0 1.481731784620111e-07 -0.025000298135627312 0 7.2911661068809144e-05 -0.024879615750659591 0 7.3493750635638102e-05 -0.02503295239175387 0 1.481731784620111e-07 -0.025000298135627312 0 -4.5896935291948963e-08 -0.024999928277001145 0 0.00027760755510874827 -0.024142927530245679 0 -3.334193888312722e-08 -0.024998132638761387 0 0.00021367244896265607 -0.02465019909069352 0 0.00020062145212322401 -0.024589186280669161 0 6.1693115613448381e-08 -0.024999830799940375 0 0.00049541412105484975 -0.024213465281306672 0 0.00027760755510874827 -0.024142927530245679 0 0.00021367244896265607 -0.02465019909069352 0 0.00040200400704505933 -0.024376317891975603 0 0.00049541412105484975 -0.024213465281306672 0 0.00021367244896265607 -0.02465019909069352 0 0.0001847912183843612 -0.024681995056847403 0 0.00040200400704505933 -0.024376317891975603 0 0.00021367244896265607 -0.02465019909069352 0 1.825597762851611e-07 -0.02499987364355423 0 -3.334193888312722e-08 -0.024998132638761387 0 0.00021367244896265607 -0.02465019909069352 0 1.825597762851611e-07 -0.02499987364355423 0 0.0001847912183843612 -0.024681995056847403 0 0.00021367244896265607 -0.02465019909069352 0 7.7183230560084394e-09 -0.025000007089248079 0 7.3516791722143126e-06 -0.025001605271050345 0 8.266996785338711e-06 -0.024996440235311241 0 7.7183230560084394e-09 -0.025000007089248079 0 7.3516791722143126e-06 -0.025001605271050345 0 2.0151850004631949e-06 -0.025000627432867281 0 3.2556071500431618e-05 -0.024947051646520533 0 2.7006826477498976e-05 -0.024910746227330027 0 6.3340840718734579e-05 -0.024928401228933895 0 3.2556071500431618e-05 -0.024947051646520533 0 2.7006826477498976e-05 -0.024910746227330027 0 1.6181015637561809e-05 -0.024955905170776539 0 0.00029833575000799174 -0.023913180624789712 0 0.00028619617051699588 -0.024190048205325922 0 -9.0356426982712683e-06 -0.024204879249016806 0 2.7006826477498976e-05 -0.024910746227330027 0 6.3340840718734579e-05 -0.024928401228933895 0 9.6840786186723254e-05 -0.02484689746175086 0 0.00029833575000799174 -0.023913180624789712 0 0.00028619617051699588 -0.024190048205325922 0 0.00037231850564820127 -0.024011573798430472 0 0.0001658050935776882 -0.0244051147113447 0 6.270380349248774e-05 -0.024743715704288585 0 7.7183230560084394e-09 -0.025000007089248079 0 2.0151850004631949e-06 -0.025000627432867281 0 1.8080057961999541e-10 -0.024999999232787617 0 2.0151850004631949e-06 -0.025000627432867281 0 1.4037098031238405e-06 -0.025000282289880112 0 1.8080057961999541e-10 -0.024999999232787617 0 7.3516791722143126e-06 -0.025001605271050345 0 2.0151850004631949e-06 -0.025000627432867281 0 1.4037098031238405e-06 -0.025000282289880112 0 2.4295811067821469e-05 -0.024997678131242873 0 6.270380349248774e-05 -0.024743715704288585 0 6.270380349248774e-05 -0.024743715704288585 0 -1.0301295554280687e-07 -0.02499999044965058 0 9.9544072053203298e-07 -0.024998629856288191 0 3.2972712436497068e-09 -0.024999991642216671 0 -2.2291391108008295e-09 -0.025000005290446901 0 -9.0356426982712683e-06 -0.024204879249016806 0 0.00013978353985914248 -0.024576772663893087 0 -3.9130213460953902e-07 -0.024998550175679826 0 6.270380349248774e-05 -0.024743715704288585 0 1.6560023223079029e-08 -0.024999682746975505 0 0.00013978353985914248 -0.024576772663893087 0 -3.9130213460953902e-07 -0.024998550175679826 0 7.2911661068809144e-05 -0.024879615750659591 0 1.481731784620111e-07 -0.025000298135627312 0 -3.9130213460953902e-07 -0.024998550175679826 0 7.2911661068809144e-05 -0.024879615750659591 0 0.00013978353985914248 -0.024576772663893087 0 7.2911661068809144e-05 -0.024879615750659591 0 0.00032430759483708716 -0.024398324581113264 0 0.00034066010882855008 -0.024828926356501864 0 7.2911661068809144e-05 -0.024879615750659591 0 0.00032430759483708716 -0.024398324581113264 0 0.00028619617051699588 -0.024190048205325922 0 -9.0356426982712683e-06 -0.024204879249016806 0 0.00013978353985914248 -0.024576772663893087 0 0.00028619617051699588 -0.024190048205325922 0 0.00013978353985914248 -0.024576772663893087 0 0.00032430759483708716 -0.024398324581113264 0 0.00028619617051699588 -0.024190048205325922 0 0.00032430759483708716 -0.024398324581113264 0 0.00045248252554991694 -0.02402674407342403 0 0.00032430759483708716 -0.024398324581113264 0 0.0005431249380046712 -0.024067193542979363 0 0.00045248252554991694 -0.02402674407342403 0 0.00034066010882855008 -0.024828926356501864 0 0.00032430759483708716 -0.024398324581113264 0 0.0005431249380046712 -0.024067193542979363 0 0.00040998116659756204 -0.024364342851732185 0 0.00053374790468826549 -0.024117882493282474 0 0.00056685080888738148 -0.023872822122483459 0 0.00052297721872914915 -0.023912275292990198 0 0.0005431249380046712 -0.024067193542979363 0 0.00056685080888738148 -0.023872822122483459 0 0.0005431249380046712 -0.024067193542979363 0 0.0005419972505993786 -0.02383072687098009 0 0.0005431249380046712 -0.024067193542979363 0 0.00051247591315833646 -0.023931257093727842 0 0.00045248252554991694 -0.02402674407342403 0 0.0005431249380046712 -0.024067193542979363 0 0.00051247591315833646 -0.023931257093727842 0 0.0005419972505993786 -0.02383072687098009 0 0.00051247591315833646 -0.023931257093727842 0 0.00045286371874503752 -0.023917773408997763 0 0.00045248252554991694 -0.02402674407342403 0 0.00051247591315833646 -0.023931257093727842 0 0.00045286371874503752 -0.023917773408997763 0 0.0004602341097981362 -0.023882147741834947 0 0.00028619617051699588 -0.024190048205325922 0 0.00045248252554991694 -0.02402674407342403 0 0.00037231850564820127 -0.024011573798430472 0 0.00029833575000799174 -0.023913180624789712 0 0.00037231850564820127 -0.024011573798430472 0 0.00040669228403625329 -0.023929704919719699 0 0.00045248252554991694 -0.02402674407342403 0 0.00037231850564820127 -0.024011573798430472 0 0.00040669228403625329 -0.023929704919719699 0 0.00045286371874503752 -0.023917773408997763 0 0.00045248252554991694 -0.02402674407342403 0 0.00040669228403625329 -0.023929704919719699 0 0.00029833575000799174 -0.023913180624789712 0 0.00040669228403625329 -0.023929704919719699 0 0.00042647638087629899 -0.023847034680753422 0 2.7006826477498976e-05 -0.024910746227330027 0 -1.1641685960799782e-05 -0.024961441868962764 0 1.6181015637561809e-05 -0.024955905170776539 0 0.00045286371874503752 -0.023917773408997763 0 0.00040669228403625329 -0.023929704919719699 0 0.00042951618036192739 -0.023882350396527439 0 0.0001658050935776882 -0.0244051147113447 0 0.00020229753875877315 -0.024282232645934126 0 0.00040669228403625329 -0.023929704919719699 0 0.00042951618036192739 -0.023882350396527439 0 0.00042647638087629899 -0.023847034680753422 0 0.00023776673637555511 -0.02400211810616756 0 0.00020229753875877315 -0.024282232645934126 0 0.00042951618036192739 -0.023882350396527439 0 0.00041971947995859201 -0.023888083311555137 0 0.00035833390950518689 -0.023899669614765005 0 0.00042951618036192739 -0.023882350396527439 0 0.00035833390950518689 -0.023899669614765005 0 0.00043236912378810953 -0.023910047084683583 0 0.00041971947995859201 -0.023888083311555137 0 0.00039817535210036396 -0.023882320219838722 0 0.00035833390950518689 -0.023899669614765005 0 0.00045286371874503752 -0.023917773408997763 0 0.00041971947995859201 -0.023888083311555137 0 0.0004602341097981362 -0.023882147741834947 0 0.00041971947995859201 -0.023888083311555137 0 0.00039817535210036396 -0.023882320219838722 0 0.0004602341097981362 -0.023882147741834947 0 0.00045286371874503752 -0.023917773408997763 0 0.00042951618036192739 -0.023882350396527439 0 0.00041971947995859201 -0.023888083311555137 0 0.00039817535210036396 -0.023882320219838722 0 0.00042325475900157402 -0.023830576215991592 0 0.0004602341097981362 -0.023882147741834947 0 0.00039817535210036396 -0.023882320219838722 0 0.00042325475900157402 -0.023830576215991592 0 0.00033221277334397786 -0.023901994751185394 0 0.00039817535210036396 -0.023882320219838722 0 0.00033221277334397786 -0.023901994751185394 0 0.00035833390950518689 -0.023899669614765005 0 0.00042325475900157402 -0.023830576215991592 0 0.00033152686716786595 -0.023834439960521696 0 0.00033221277334397786 -0.023901994751185394 0 0.00042325475900157402 -0.023830576215991592 0 0.00043421804032985295 -0.023671948400265944 0 0.00033152686716786595 -0.023834439960521696 0 0.00042325475900157402 -0.023830576215991592 0 0.00051785069209082056 -0.023792100436061125 0 0.00043421804032985295 -0.023671948400265944 0 0.00042325475900157402 -0.023830576215991592 0 0.0004602341097981362 -0.023882147741834947 0 0.00051785069209082056 -0.023792100436061125 0 0.00051247591315833646 -0.023931257093727842 0 0.0004602341097981362 -0.023882147741834947 0 0.00051785069209082056 -0.023792100436061125 0 0.00051247591315833646 -0.023931257093727842 0 0.00051785069209082056 -0.023792100436061125 0 0.0005419972505993786 -0.02383072687098009 0 0.00051785069209082056 -0.023792100436061125 0 0.0005419972505993786 -0.02383072687098009 0 0.00062289831841821702 -0.023599828039140812 0 0.00058103262592497406 -0.023812634393783193 0 0.0005419972505993786 -0.02383072687098009 0 0.00062289831841821702 -0.023599828039140812 0 0.00051785069209082056 -0.023792100436061125 0 0.00062289831841821702 -0.023599828039140812 0 0.00043421804032985295 -0.023671948400265944 0 0.00062289831841821702 -0.023599828039140812 0 0.00043421804032985295 -0.023671948400265944 0 0.00029315063704091774 -0.023268625776797287 0 0.00060119283515536952 -0.022737171351581487 0 0.00062289831841821702 -0.023599828039140812 0 0.00029315063704091774 -0.023268625776797287 0 0.00029315063704091774 -0.023268625776797287 0 0.00017006990353748291 -0.023656382993104904 0 -4.6861961313940496e-05 -0.023357467993676783 0 0.00043421804032985295 -0.023671948400265944 0 0.00029315063704091774 -0.023268625776797287 0 0.00017006990353748291 -0.023656382993104904 0 0.00043421804032985295 -0.023671948400265944 0 0.00017006990353748291 -0.023656382993104904 0 0.00033152686716786595 -0.023834439960521696 0 0.00017006990353748291 -0.023656382993104904 0 0.00033152686716786595 -0.023834439960521696 0 0.00017683019608876339 -0.0238964025004097 0 0.00033152686716786595 -0.023834439960521696 0 0.00017683019608876339 -0.0238964025004097 0 0.00027613249284630528 -0.023917229049087878 0 0.00017683019608876339 -0.0238964025004097 0 0.00021606627201282383 -0.023929326169402517 0 0.00027613249284630528 -0.023917229049087878 0 0.00021606627201282383 -0.023929326169402517 0 0.00023023643353799723 -0.023921558218298073 0 0.00027613249284630528 -0.023917229049087878 0 0.00021606627201282383 -0.023929326169402517 0 0.00023023643353799723 -0.023921558218298073 0 0.00015017056310542848 -0.023984084139516821 0 0.00017683019608876339 -0.0238964025004097 0 0.00021606627201282383 -0.023929326169402517 0 0.00015017056310542848 -0.023984084139516821 0 1.1411170950533509e-05 -0.023040375397548052 0 -0.00030018343975743423 -0.022819194300788277 0 0.00028141080613445428 -0.023869163815969773 0 0.00023023643353799723 -0.023921558218298073 0 0.00015017056310542848 -0.023984084139516821 0 -0.00019919569669404181 -0.022200380676775204 0 -0.00075502027267329206 -0.021657843693656392 0 -0.00064141863549102497 -0.022199126351104617 0 -0.00075407737065782705 -0.022552234032803865 0 -0.00040950085828291786 -0.022635236073500934 0 -0.00064141863549102497 -0.022199126351104617 0 -0.00040950085828291786 -0.022635236073500934 0 -0.00019919569669404181 -0.022200380676775204 0 -0.00064141863549102497 -0.022199126351104617 0 0.00017236256839562567 -0.023403462633872388 0 0.00028141080613445428 -0.023869163815969773 0 0.00017204869225702712 -0.023723650204099635 0 0.00028141080613445428 -0.023869163815969773 0 0.00017204869225702712 -0.023723650204099635 0 0.00017457725092035441 -0.02383698747243776 0 0.00015726414610486196 -0.023339450478686442 0 1.1411170950533509e-05 -0.023040375397548052 0 0.00028141080613445428 -0.023869163815969773 0 0.00023023643353799723 -0.023921558218298073 0 0.00017457725092035441 -0.02383698747243776 0 0.00023023643353799723 -0.023921558218298073 0 0.00017457725092035441 -0.02383698747243776 0 0.00010163548847736642 -0.023849546089001951 0 0.00023023643353799723 -0.023921558218298073 0 0.00010163548847736642 -0.023849546089001951 0 0.00022334922216529887 -0.023911677626457132 0 0.00017457725092035441 -0.02383698747243776 0 4.6834447469701916e-05 -0.023765833444564687 0 0.00010163548847736642 -0.023849546089001951 0 0.00017204869225702712 -0.023723650204099635 0 0.00017457725092035441 -0.02383698747243776 0 4.6834447469701916e-05 -0.023765833444564687 0 2.5345176448818321e-06 -0.023816417274654753 0 0.00010163548847736642 -0.023849546089001951 0 4.1453272044417854e-05 -0.023862352230756716 0 4.6834447469701916e-05 -0.023765833444564687 0 2.5345176448818321e-06 -0.023816417274654753 0 0.00010163548847736642 -0.023849546089001951 0 0.00010163548847736642 -0.023849546089001951 0 0.00022334922216529887 -0.023911677626457132 0 0.00012953325192345969 -0.023866962858436779 0 0.00010163548847736642 -0.023849546089001951 0 0.00012953325192345969 -0.023866962858436779 0 4.1453272044417854e-05 -0.023862352230756716 0 0.00022334922216529887 -0.023911677626457132 0 0.000261031048694206 -0.023928909580062104 0 0.00012953325192345969 -0.023866962858436779 0 0.00023023643353799723 -0.023921558218298073 0 0.00022334922216529887 -0.023911677626457132 0 0.00027613249284630528 -0.023917229049087878 0 0.00033152686716786595 -0.023834439960521696 0 0.00027613249284630528 -0.023917229049087878 0 0.00033221277334397786 -0.023901994751185394 0 0.00022334922216529887 -0.023911677626457132 0 0.00027613249284630528 -0.023917229049087878 0 0.00033221277334397786 -0.023901994751185394 0 0.00033221277334397786 -0.023901994751185394 0 0.000261031048694206 -0.023928909580062104 0 0.00035833390950518689 -0.023899669614765005 0 0.00022334922216529887 -0.023911677626457132 0 0.00033221277334397786 -0.023901994751185394 0 0.000261031048694206 -0.023928909580062104 0 0.000261031048694206 -0.023928909580062104 0 0.00015736165473570054 -0.024023629401845995 0 0.00011173303459212492 -0.023885063206473298 0 0.0003431460536104285 -0.023858071741177451 0 0.00020229753875877315 -0.024282232645934126 0 0.000261031048694206 -0.023928909580062104 0 0.00035833390950518689 -0.023899669614765005 0 0.00043236912378810953 -0.023910047084683583 0 0.00020229753875877315 -0.024282232645934126 0 5.6271380007318321e-05 -0.024478961808843788 0 -1.1641685960799782e-05 -0.024961441868962764 0 9.9123889003754509e-06 -0.024978078120812916 0 1.7084602074774508e-05 -0.024995138094007864 0 -1.1641685960799782e-05 -0.024961441868962764 0 1.6181015637561809e-05 -0.024955905170776539 0 9.9123889003754509e-06 -0.024978078120812916 0 9.9123889003754509e-06 -0.024978078120812916 0 1.7084602074774508e-05 -0.024995138094007864 0 2.0969499834871787e-05 -0.024989192203018283 0 0.000261031048694206 -0.023928909580062104 0 0.00011173303459212492 -0.023885063206473298 0 0.00012953325192345969 -0.023866962858436779 0 0.00012953325192345969 -0.023866962858436779 0 4.1453272044417854e-05 -0.023862352230756716 0 0.00010050246391940481 -0.023863426415930127 0 3.4210225028256797e-05 -0.023958139933681413 0 4.1453272044417854e-05 -0.023862352230756716 0 0.00010050246391940481 -0.023863426415930127 0 0.00011173303459212492 -0.023885063206473298 0 0.00012953325192345969 -0.023866962858436779 0 0.00010050246391940481 -0.023863426415930127 0 5.6271380007318321e-05 -0.024478961808843788 0 7.3395967502540917e-05 -0.024420429095007818 0 1.7084602074774508e-05 -0.024995138094007864 0 4.2403644117498115e-05 -0.024990531875020545 0 1.7815125924042072e-05 -0.024997985579810707 0 4.2403644117498115e-05 -0.024990531875020545 0 5.470906260527331e-08 -0.02500007645651374 0 1.7815125924042072e-05 -0.024997985579810707 0 7.3166527408514008e-05 -0.024963307559761391 0 4.2403644117498115e-05 -0.024990531875020545 0 5.470906260527331e-08 -0.02500007645651374 0 0.00010062469647683359 -0.024513513254637329 0 7.3395967502540917e-05 -0.024420429095007818 0 5.470906260527331e-08 -0.02500007645651374 0 3.771681367055599e-09 -0.024999972710184996 0 1.7815125924042072e-05 -0.024997985579810707 0 3.771681367055599e-09 -0.024999972710184996 0 1.7815125924042072e-05 -0.024997985579810707 0 8.266996785338711e-06 -0.024996440235311241 0 1.7815125924042072e-05 -0.024997985579810707 0 2.0969499834871787e-05 -0.024989192203018283 0 8.266996785338711e-06 -0.024996440235311241 0 1.7084602074774508e-05 -0.024995138094007864 0 1.7815125924042072e-05 -0.024997985579810707 0 2.0969499834871787e-05 -0.024989192203018283 0 2.4295811067821469e-05 -0.024997678131242873 0 2.8286022338041305e-05 -0.024973580342896633 0 3.2556071500431618e-05 -0.024947051646520533 0 6.3340840718734579e-05 -0.024928401228933895 0 2.0969499834871787e-05 -0.024989192203018283 0 7.3516791722143126e-06 -0.025001605271050345 0 2.0969499834871787e-05 -0.024989192203018283 0 8.266996785338711e-06 -0.024996440235311241 0 3.2556071500431618e-05 -0.024947051646520533 0 1.6181015637561809e-05 -0.024955905170776539 0 2.0969499834871787e-05 -0.024989192203018283 0 1.6181015637561809e-05 -0.024955905170776539 0 9.9123889003754509e-06 -0.024978078120812916 0 2.0969499834871787e-05 -0.024989192203018283 0 7.7183230560084394e-09 -0.025000007089248079 0 3.771681367055599e-09 -0.024999972710184996 0 8.266996785338711e-06 -0.024996440235311241 0 -0.0046641212763571501 -0.020595509694880346 0 -0.0045419983100863197 -0.020530133261392001 0 -0.0045681395298785461 -0.020702382178592674 0 -0.0023327755121068561 -0.021213713632127335 0 -0.0034997574005168159 -0.020852717276363512 0 -0.0015237155444930961 -0.020645727661516972 0 -0.001801548885026193 -0.021130559683891055 0 -0.0019987603906517315 -0.020781375772878238 0 -0.0014836977398244859 -0.021217824024414113 0 -0.0014385520984095874 -0.021299963601192216 0 -0.0013973546028615848 -0.021279627977066121 0 -0.0022818064171508889 -0.022105886695820243 0 -0.0021366981546220428 -0.021892894456087057 0 -0.0018437368749715996 -0.021980508946506602 0 -0.0014836977398244859 -0.021217824024414113 0 -0.0013570161173739603 -0.021176151005019975 0 -0.0013973546028615848 -0.021279627977066121 0 -0.0023327755121068561 -0.021213713632127335 0 -0.0012976845029836689 -0.02245223673331749 0 -0.0014836977398244859 -0.021217824024414113 0 -0.0014385520984095874 -0.021299963601192216 0 -0.0014733506162364037 -0.021344952541175632 0 -0.0023327755121068561 -0.021213713632127335 0 -0.0012750614677536102 -0.021217115045174324 0 -0.0014385520984095874 -0.021299963601192216 0 -0.0013973546028615848 -0.021279627977066121 0 -0.0013890483137822286 -0.021371465212675082 0 -0.0014385520984095874 -0.021299963601192216 0 -0.0013890483137822286 -0.021371465212675082 0 -0.0014733506162364037 -0.021344952541175632 0 -0.001801548885026193 -0.021130559683891055 0 -0.0016807137175818426 -0.021342440915987672 0 -0.0014733506162364037 -0.021344952541175632 0 -0.0015237155444930961 -0.020645727661516972 0 -0.001801548885026193 -0.021130559683891055 0 -0.0014733506162364037 -0.021344952541175632 0 -0.0021231932580848675 -0.021151803152620836 0 -0.0024711019371440584 -0.020898586936119651 0 -0.0019987603906517315 -0.020781375772878238 0 -0.001801548885026193 -0.021130559683891055 0 -0.0021231932580848675 -0.021151803152620836 0 -0.0019987603906517315 -0.020781375772878238 0 -0.0021231932580848675 -0.021151803152620836 0 -0.0024711019371440584 -0.020898586936119651 0 -0.002391133900368598 -0.021456392021510107 0 -0.003235965495479034 -0.01418823914551014 0 -0.003230355230356541 -0.014174496795253781 0 -0.0032287071202886618 -0.014160800890453119 0 -0.0035130593734354039 -0.017125035715395559 0 -0.0017381183523080719 -0.019604087562824692 0 -0.0035130593734354039 -0.017125035715395559 0 -0.0028420360816565054 -0.01463910866994924 0 -0.0033420887743726914 -0.01419352885896643 0 -0.0033394454079289961 -0.014395190172724247 0 -0.0032587697956756537 -0.014278882241696395 0 -0.0043662244532868648 -0.02042966503732227 0 -0.0044385280868042111 -0.020565631967477984 0 -0.0043406213062044544 -0.020651193443138208 0 -0.0033420887743726914 -0.01419352885896643 0 -0.0032287071202886618 -0.014160800890453119 0 -0.0032587697956756537 -0.014278882241696395 0 -0.0035130593734354039 -0.017125035715395559 0 -0.0044355509325202389 -0.018384690111051271 0 -0.0035130593734354039 -0.017125035715395559 0 -0.0034997574005168159 -0.020852717276363512 0 -0.0045419983100863197 -0.020530133261392001 0 -0.0044903000524153941 -0.020660883354782163 0 -0.0045681395298785461 -0.020702382178592674 0 -0.0043662244532868648 -0.02042966503732227 0 -0.0045419983100863197 -0.020530133261392001 0 -0.0044385280868042111 -0.020565631967477984 0 -0.0045419983100863197 -0.020530133261392001 0 -0.0044385280868042111 -0.020565631967477984 0 -0.0044903000524153941 -0.020660883354782163 0 -0.0045483035577101299 -0.020779594345897399 0 -0.0045010884521342106 -0.020757334654238759 0 -0.0045681395298785461 -0.020702382178592674 0 -0.0044903000524153941 -0.020660883354782163 0 -0.0045010884521342106 -0.020757334654238759 0 -0.0045681395298785461 -0.020702382178592674 0 -0.004719582019404138 -0.017820043949044562 0 -0.0046254319559136418 -0.018595947136939631 0 -0.0044331293683388335 -0.017827355614883723 0 -0.0044361240818937987 -0.020671623095541748 0 -0.0044594286041561145 -0.020795634440403676 0 -0.0045010884521342106 -0.020757334654238759 0 -0.0044355509325202389 -0.018384690111051271 0 -0.0045079210999046599 -0.020040370654620578 0 -0.0047156424503101346 -0.018043557053487248 0 -0.0039847244092150432 -0.016330890705784178 0 -0.0033394454079289961 -0.014395190172724247 0 -0.0032587697956756537 -0.014278882241696395 0 -0.0032637404476304204 -0.014400227659075882 0 -0.0044355509325202389 -0.018384690111051271 0 -0.0039847244092150432 -0.016330890705784178 0 -0.0044312261057022828 -0.020266258552583665 0 -0.0044355509325202389 -0.018384690111051271 0 -0.0044385280868042111 -0.020565631967477984 0 -0.0044903000524153941 -0.020660883354782163 0 -0.0043406213062044544 -0.020651193443138208 0 -0.0044903000524153941 -0.020660883354782163 0 -0.0044361240818937987 -0.020671623095541748 0 -0.0045010884521342106 -0.020757334654238759 0 -0.0045434500571712166 -0.019333589616714792 0 -0.0044854979460266214 -0.018599503824166221 0 -0.0046254319559136418 -0.018595947136939631 0 -0.0044854979460266214 -0.018599503824166221 0 -0.0046254319559136418 -0.018595947136939631 0 -0.0044331293683388335 -0.017827355614883723 0 -0.0047622475281244312 -0.018950481839673145 0 -0.0047156424503101346 -0.018043557053487248 0 -0.0045591462052620322 -0.020880094477815362 0 -0.0044594286041561145 -0.020795634440403676 0 -0.0045100504668276076 -0.020841504228419402 0 -0.0047622475281244312 -0.018950481839673145 0 -0.0045079210999046599 -0.020040370654620578 0 -0.0044594286041561145 -0.020795634440403676 0 -0.0045100504668276076 -0.020841504228419402 0 -0.0045010884521342106 -0.020757334654238759 0 -0.0045483035577101299 -0.020779594345897399 0 -0.0045010884521342106 -0.020757334654238759 0 -0.004527246270357047 -0.020815940626232366 0 -0.0045264055114381599 -0.020858977687620836 0 -0.0045100504668276076 -0.020841504228419402 0 -0.004527246270357047 -0.020815940626232366 0 -0.0045100504668276076 -0.020841504228419402 0 -0.0045010884521342106 -0.020757334654238759 0 -0.004527246270357047 -0.020815940626232366 0 -0.0045483035577101299 -0.020779594345897399 0 -0.004527246270357047 -0.020815940626232366 0 -0.0045555027505996652 -0.020826343118874348 0 -0.0045264055114381599 -0.020858977687620836 0 -0.004527246270357047 -0.020815940626232366 0 -0.0045555027505996652 -0.020826343118874348 0 -0.0027497345874341913 -0.021674012634403144 0 -0.0035010579189623109 -0.021141848892333059 0 -0.0045555027505996652 -0.020826343118874348 0 -0.0045889522190867907 -0.020838295234139229 0 -0.0045970181849326998 -0.02078256391114932 0 -0.0045537000016161767 -0.020857240421327004 0 -0.0045555027505996652 -0.020826343118874348 0 -0.0045889522190867907 -0.020838295234139229 0 -0.0046291971593709928 -0.020836950591267295 0 -0.0045970181849326998 -0.02078256391114932 0 -0.0046518436204663867 -0.020725243911767832 0 -0.0045889522190867907 -0.020838295234139229 0 -0.0046291971593709928 -0.020836950591267295 0 -0.0045970181849326998 -0.02078256391114932 0 -0.0023937456815642413 -0.022316776950046854 0 -0.0027497345874341913 -0.021674012634403144 0 -0.0045483035577101299 -0.020779594345897399 0 -0.0045555027505996652 -0.020826343118874348 0 -0.0045970181849326998 -0.02078256391114932 0 -0.0045483035577101299 -0.020779594345897399 0 -0.0045970181849326998 -0.02078256391114932 0 -0.0045681395298785461 -0.020702382178592674 0 -0.0045970181849326998 -0.02078256391114932 0 -0.0045681395298785461 -0.020702382178592674 0 -0.0046518436204663867 -0.020725243911767832 0 -0.0046641212763571501 -0.020595509694880346 0 -0.0045681395298785461 -0.020702382178592674 0 -0.0046518436204663867 -0.020725243911767832 0 -0.0023327755121068561 -0.021213713632127335 0 -0.0035010579189623109 -0.021141848892333059 0 -0.0022818064171508889 -0.022105886695820243 0 -0.0023146088054350755 -0.021753977291678609 0 -0.0021366981546220428 -0.021892894456087057 0 -0.0021366981546220428 -0.021892894456087057 0 -0.0020963033139277721 -0.021689914723095047 0 -0.0018437368749715996 -0.021980508946506602 0 -0.0023146088054350755 -0.021753977291678609 0 -0.0021366981546220428 -0.021892894456087057 0 -0.0020963033139277721 -0.021689914723095047 0 -0.001466840148815001 -0.02309390508288443 0 -0.0014657717834219485 -0.022801543885544215 0 -0.0010694179271696909 -0.023123690263159465 0 -0.0023503058022722278 -0.021404013630004295 0 -0.0023146088054350755 -0.021753977291678609 0 -0.0020963033139277721 -0.021689914723095047 0 -0.0027497345874341913 -0.021674012634403144 0 -0.0016975673183932476 -0.022488456057060395 0 -0.0019261193206924197 -0.022582666612763008 0 -0.001466840148815001 -0.02309390508288443 0 -0.0014657717834219485 -0.022801543885544215 0 -0.0016344444398594057 -0.022528795039124073 0 -0.0021087547246258069 -0.022621951293476723 0 -0.0015452422892517756 -0.02291225880640815 0 -0.0023937456815642413 -0.022316776950046854 0 -0.0014574545166163193 -0.022895698493395476 0 -0.0019368491229744549 -0.022467880509037415 0 -0.0019261193206924197 -0.022582666612763008 0 -0.0014657717834219485 -0.022801543885544215 0 -0.0016344444398594057 -0.022528795039124073 0 -0.0015452422892517756 -0.02291225880640815 0 -0.0011844946617903522 -0.02266741770751806 0 -0.0011844946617903522 -0.02266741770751806 0 -0.0008213744120432084 -0.022906861628574516 0 -0.0010694179271696909 -0.023123690263159465 0 -0.0015452422892517756 -0.02291225880640815 0 -0.0011844946617903522 -0.02266741770751806 0 -0.0010694179271696909 -0.023123690263159465 0 -0.0014574545166163193 -0.022895698493395476 0 -0.0011602647699053119 -0.023076267740905956 0 -0.0008213744120432084 -0.022906861628574516 0 -0.00078386476652948052 -0.023195011460558634 0 -0.0010694179271696909 -0.023123690263159465 0 -0.00085491113213976948 -0.022583052463830626 0 -0.0011844946617903522 -0.02266741770751806 0 -0.0008213744120432084 -0.022906861628574516 0 -0.00085491113213976948 -0.022583052463830626 0 -0.0005177004898123342 -0.022757586812673401 0 -0.0008213744120432084 -0.022906861628574516 0 -0.0005177004898123342 -0.022757586812673401 0 -0.0008213744120432084 -0.022906861628574516 0 -0.00054828194549005579 -0.023119222213384982 0 -0.0008213744120432084 -0.022906861628574516 0 -0.00078386476652948052 -0.023195011460558634 0 -0.00054828194549005579 -0.023119222213384982 0 -0.00078386476652948052 -0.023195011460558634 0 -0.00054828194549005579 -0.023119222213384982 0 -0.00060145880667645548 -0.023376922768036663 0 -0.00054828194549005579 -0.023119222213384982 0 -0.00060145880667645548 -0.023376922768036663 0 -0.00033689825086953372 -0.02344495319079571 0 -0.00078386476652948052 -0.023195011460558634 0 -0.00060145880667645548 -0.023376922768036663 0 -0.00085004747910276521 -0.023407605045271694 0 -0.00085004747910276521 -0.023407605045271694 0 -0.0010634357592902897 -0.023484968630482606 0 -0.0010694179271696909 -0.023123690263159465 0 -0.0011179712645540925 -0.022797530644256138 0 -0.0012976845029836689 -0.02245223673331749 0 -0.0016975673183932476 -0.022488456057060395 0 -0.0012976845029836689 -0.02245223673331749 0 -0.001466840148815001 -0.02309390508288443 0 -0.0010634357592902897 -0.023484968630482606 0 -0.0010694179271696909 -0.023123690263159465 0 -0.00078386476652948052 -0.023195011460558634 0 -0.00085004747910276521 -0.023407605045271694 0 -0.0010694179271696909 -0.023123690263159465 0 0.00014628735019398581 -0.02255667912865986 0 0.00029315063704091774 -0.023268625776797287 0 -0.0001240738226127614 -0.022865047253453102 0 0.00029315063704091774 -0.023268625776797287 0 -0.0001240738226127614 -0.022865047253453102 0 -4.6861961313940496e-05 -0.023357467993676783 0 -0.0001240738226127614 -0.022865047253453102 0 -0.00029023003934506783 -0.0231233958407254 0 -4.6861961313940496e-05 -0.023357467993676783 0 -0.0005177004898123342 -0.022757586812673401 0 -0.0001240738226127614 -0.022865047253453102 0 -0.00029023003934506783 -0.0231233958407254 0 -0.0005177004898123342 -0.022757586812673401 0 -0.00054828194549005579 -0.023119222213384982 0 -0.00029023003934506783 -0.0231233958407254 0 -0.00029023003934506783 -0.0231233958407254 0 -0.00033689825086953372 -0.02344495319079571 0 -4.6861961313940496e-05 -0.023357467993676783 0 -0.00054828194549005579 -0.023119222213384982 0 -0.00029023003934506783 -0.0231233958407254 0 -0.00033689825086953372 -0.02344495319079571 0 0.00017006990353748291 -0.023656382993104904 0 -4.6861961313940496e-05 -0.023357467993676783 0 -8.9860961115342773e-05 -0.023731419802265851 0 -0.00033689825086953372 -0.02344495319079571 0 -8.9860961115342773e-05 -0.023731419802265851 0 -0.00051101005459787527 -0.023789540348528728 0 -0.00033689825086953372 -0.02344495319079571 0 -4.6861961313940496e-05 -0.023357467993676783 0 -8.9860961115342773e-05 -0.023731419802265851 0 -8.9860961115342773e-05 -0.023731419802265851 0 -0.00051101005459787527 -0.023789540348528728 0 -0.00011309896643781594 -0.023959347279705001 0 -0.00085781360976294253 -0.0225135662193428 0 -0.00058865462532909068 -0.022690937105126829 0 0.00017006990353748291 -0.023656382993104904 0 0.00017683019608876339 -0.0238964025004097 0 -8.9860961115342773e-05 -0.023731419802265851 0 -0.0012976845029836689 -0.02245223673331749 0 -0.00085781360976294253 -0.0225135662193428 0 -0.00085004747910276521 -0.023407605045271694 0 -0.0009865229056152257 -0.023446867597889918 0 -0.00051101005459787527 -0.023789540348528728 0 -0.0013570161173739603 -0.021176151005019975 0 -0.0012260598968897706 -0.021294191859636324 0 -0.0013311223371618756 -0.021300707686876308 0 -0.0013570161173739603 -0.021176151005019975 0 -0.0013311223371618756 -0.021300707686876308 0 -0.0013973546028615848 -0.021279627977066121 0 -0.00060145880667645548 -0.023376922768036663 0 -0.00085004747910276521 -0.023407605045271694 0 -0.00051101005459787527 -0.023789540348528728 0 -0.00060145880667645548 -0.023376922768036663 0 -0.00033689825086953372 -0.02344495319079571 0 -0.00051101005459787527 -0.023789540348528728 0 -0.0012260598968897706 -0.021294191859636324 0 -0.0013311223371618756 -0.021300707686876308 0 -0.0012838477381118469 -0.021401000146962241 0 -0.0013311223371618756 -0.021300707686876308 0 -0.0013890483137822286 -0.021371465212675082 0 -0.0012838477381118469 -0.021401000146962241 0 -0.0013311223371618756 -0.021300707686876308 0 -0.0013973546028615848 -0.021279627977066121 0 -0.0013890483137822286 -0.021371465212675082 0 -0.0013890483137822286 -0.021371465212675082 0 -0.0013660729062102868 -0.021480893205791867 0 -0.0014361805863832139 -0.021441146859623571 0 -0.0013660729062102868 -0.021480893205791867 0 -0.0012838477381118469 -0.021401000146962241 0 -0.0012842503866140437 -0.021543091169736486 0 -0.0013890483137822286 -0.021371465212675082 0 -0.0013660729062102868 -0.021480893205791867 0 -0.0012838477381118469 -0.021401000146962241 0 -0.0012260598968897706 -0.021294191859636324 0 -0.0012838477381118469 -0.021401000146962241 0 -0.0010527157229718036 -0.021427990126099281 0 -0.0012838477381118469 -0.021401000146962241 0 -0.0012842503866140437 -0.021543091169736486 0 -0.0010527157229718036 -0.021427990126099281 0 -0.0012842503866140437 -0.021543091169736486 0 -0.0012139682421690853 -0.021661168569092847 0 -0.0010527157229718036 -0.021427990126099281 0 -0.0012842503866140437 -0.021543091169736486 0 -0.0012139682421690853 -0.021661168569092847 0 -0.0013182287320740711 -0.021673382608331255 0 -0.0012842503866140437 -0.021543091169736486 0 -0.0013891230747621248 -0.021585859376502422 0 -0.0013182287320740711 -0.021673382608331255 0 -0.0013660729062102868 -0.021480893205791867 0 -0.0013891230747621248 -0.021585859376502422 0 -0.0014577607731093055 -0.021522966102326565 0 -0.0013660729062102868 -0.021480893205791867 0 -0.0012842503866140437 -0.021543091169736486 0 -0.0013891230747621248 -0.021585859376502422 0 0.00017683019608876339 -0.0238964025004097 0 -0.00011309896643781594 -0.023959347279705001 0 0.00015017056310542848 -0.023984084139516821 0 0.00017683019608876339 -0.0238964025004097 0 -8.9860961115342773e-05 -0.023731419802265851 0 -0.00011309896643781594 -0.023959347279705001 0 -0.0012139682421690853 -0.021661168569092847 0 -0.0010527157229718036 -0.021427990126099281 0 -0.0011009482649938958 -0.021795619045358951 0 -0.00058865462532909068 -0.022690937105126829 0 -0.00030018343975743423 -0.022819194300788277 0 -0.0010527157229718036 -0.021427990126099281 0 -0.00075502027267329206 -0.021657843693656392 0 -0.0011009482649938958 -0.021795619045358951 0 -0.00075502027267329206 -0.021657843693656392 0 -0.0011009482649938958 -0.021795619045358951 0 -0.00098171066817532475 -0.022064483660212353 0 -0.00075502027267329206 -0.021657843693656392 0 -0.00098171066817532475 -0.022064483660212353 0 -0.00064141863549102497 -0.022199126351104617 0 -0.0012527193435809757 -0.022167194153103413 0 -0.0011009482649938958 -0.021795619045358951 0 -0.0012854198593684298 -0.021838735111189302 0 -0.0012527193435809757 -0.022167194153103413 0 -0.0011009482649938958 -0.021795619045358951 0 -0.00098171066817532475 -0.022064483660212353 0 -0.0012527193435809757 -0.022167194153103413 0 -0.00075407737065782705 -0.022552234032803865 0 -0.00098171066817532475 -0.022064483660212353 0 -0.00075407737065782705 -0.022552234032803865 0 -0.00098171066817532475 -0.022064483660212353 0 -0.00064141863549102497 -0.022199126351104617 0 -0.0013891230747621248 -0.021585859376502422 0 -0.0013182287320740711 -0.021673382608331255 0 -0.0013958018311372919 -0.021691786117946688 0 -0.0013182287320740711 -0.021673382608331255 0 -0.0012854198593684298 -0.021838735111189302 0 -0.0013958018311372919 -0.021691786117946688 0 -0.0012139682421690853 -0.021661168569092847 0 -0.0011009482649938958 -0.021795619045358951 0 -0.0012854198593684298 -0.021838735111189302 0 -0.0012139682421690853 -0.021661168569092847 0 -0.0013182287320740711 -0.021673382608331255 0 -0.0012854198593684298 -0.021838735111189302 0 -0.0012448409699030584 -0.02196547139096016 0 -0.0012527193435809757 -0.022167194153103413 0 -0.0012854198593684298 -0.021838735111189302 0 -0.0012448409699030584 -0.02196547139096016 0 -0.0012854198593684298 -0.021838735111189302 0 -0.0013252897088040579 -0.02181629111063502 0 -0.0012854198593684298 -0.021838735111189302 0 -0.0013252897088040579 -0.02181629111063502 0 -0.0013958018311372919 -0.021691786117946688 0 -0.001353367621114789 -0.021783485526557778 0 -0.0013252897088040579 -0.02181629111063502 0 -0.0013958018311372919 -0.021691786117946688 0 -0.001353367621114789 -0.021783485526557778 0 -0.0013958018311372919 -0.021691786117946688 0 -0.0014402794025045972 -0.021661085365205807 0 -0.0013958018311372919 -0.021691786117946688 0 -0.0014402794025045972 -0.021661085365205807 0 -0.0014721482455474439 -0.02158020780209716 0 -0.0014402794025045972 -0.021661085365205807 0 -0.0014742968694429154 -0.021584386592920536 0 -0.0014721482455474439 -0.02158020780209716 0 -0.0014742968694429154 -0.021584386592920536 0 -0.0014721482455474439 -0.02158020780209716 0 -0.001489591207330392 -0.021509274921561097 0 -0.0014721482455474439 -0.02158020780209716 0 -0.0014532738207977676 -0.02157319582152618 0 -0.0015025332656350067 -0.021513775014350575 0 -0.0014721482455474439 -0.02158020780209716 0 -0.0015025332656350067 -0.021513775014350575 0 -0.001489591207330392 -0.021509274921561097 0 -0.0013958018311372919 -0.021691786117946688 0 -0.0014721482455474439 -0.02158020780209716 0 -0.0014532738207977676 -0.02157319582152618 0 -0.0013891230747621248 -0.021585859376502422 0 -0.0013958018311372919 -0.021691786117946688 0 -0.0014532738207977676 -0.02157319582152618 0 -0.0014532738207977676 -0.02157319582152618 0 -0.0014577607731093055 -0.021522966102326565 0 -0.0015025332656350067 -0.021513775014350575 0 -0.0013891230747621248 -0.021585859376502422 0 -0.0014532738207977676 -0.02157319582152618 0 -0.0014577607731093055 -0.021522966102326565 0 -0.0014577607731093055 -0.021522966102326565 0 -0.0015025332656350067 -0.021513775014350575 0 -0.0015161339104101034 -0.021487378468553954 0 -0.0015370354397255795 -0.021493134650854989 0 -0.0017467453851187937 -0.021489295164178263 0 -0.0015161339104101034 -0.021487378468553954 0 -0.0016807137175818426 -0.021342440915987672 0 -0.0019584022010338056 -0.021493453754525101 0 -0.0015025332656350067 -0.021513775014350575 0 -0.0015161339104101034 -0.021487378468553954 0 -0.0015065897683202184 -0.021500894043717446 0 -0.001801548885026193 -0.021130559683891055 0 -0.0016807137175818426 -0.021342440915987672 0 -0.0019584022010338056 -0.021493453754525101 0 -0.0015161339104101034 -0.021487378468553954 0 -0.0016807137175818426 -0.021342440915987672 0 -0.0014733506162364037 -0.021344952541175632 0 -0.0015161339104101034 -0.021487378468553954 0 -0.0014733506162364037 -0.021344952541175632 0 -0.0014361805863832139 -0.021441146859623571 0 -0.0013890483137822286 -0.021371465212675082 0 -0.0014733506162364037 -0.021344952541175632 0 -0.0014361805863832139 -0.021441146859623571 0 -0.0013660729062102868 -0.021480893205791867 0 -0.0014577607731093055 -0.021522966102326565 0 -0.0014361805863832139 -0.021441146859623571 0 -0.0014577607731093055 -0.021522966102326565 0 -0.0015161339104101034 -0.021487378468553954 0 -0.0014361805863832139 -0.021441146859623571 0 -0.0017381183523080719 -0.019604087562824692 0 -0.0024811648233379916 -0.017618526652616855 0 -0.0014695642049673034 -0.021390220146441676 0 -0.0014770974514276972 -0.021408785018394591 0 -0.0014709678391184083 -0.021400720480253165 0 -0.0017381183523080719 -0.019604087562824692 0 -0.0017467453851187937 -0.021489295164178263 0 -0.0021231932580848675 -0.021151803152620836 0 -0.002391133900368598 -0.021456392021510107 0 -0.0019584022010338056 -0.021493453754525101 0 -0.001801548885026193 -0.021130559683891055 0 -0.0021231932580848675 -0.021151803152620836 0 -0.0019584022010338056 -0.021493453754525101 0 -0.0014847161383543272 -0.021491703211634849 0 -0.0015065897683202184 -0.021500894043717446 0 -0.0014861427293696493 -0.021463488420628778 0 -0.0015025332656350067 -0.021513775014350575 0 -0.0015065897683202184 -0.021500894043717446 0 -0.0014861427293696493 -0.021463488420628778 0 -0.0014861427293696493 -0.021463488420628778 0 -0.001463793721728029 -0.021389352737959604 0 -0.0014770974514276972 -0.021408785018394591 0 -0.0014695642049673034 -0.021390220146441676 0 -0.0014861427293696493 -0.021463488420628778 0 -0.0014770974514276972 -0.021408785018394591 0 -0.0017381183523080719 -0.019604087562824692 0 -0.0013799100321955436 -0.022226744386451908 0 -0.0014861427293696493 -0.021463488420628778 0 -0.0014803695651444892 -0.02140702111605948 0 -0.001463793721728029 -0.021389352737959604 0 -0.0014861427293696493 -0.021463488420628778 0 -0.001489591207330392 -0.021509274921561097 0 -0.0014877786718461002 -0.021459949967232741 0 -0.0015025332656350067 -0.021513775014350575 0 -0.0014861427293696493 -0.021463488420628778 0 -0.001489591207330392 -0.021509274921561097 0 -0.001477366812349381 -0.021513319282825211 0 -0.001489591207330392 -0.021509274921561097 0 -0.0014877786718461002 -0.021459949967232741 0 -0.001477366812349381 -0.021513319282825211 0 -0.0014742968694429154 -0.021584386592920536 0 -0.001489591207330392 -0.021509274921561097 0 -0.0014897400994149691 -0.021394579181003622 0 -0.0014803695651444892 -0.02140702111605948 0 -0.0014877786718461002 -0.021459949967232741 0 -0.0014861427293696493 -0.021463488420628778 0 -0.0014803695651444892 -0.02140702111605948 0 -0.0014877786718461002 -0.021459949967232741 0 -0.0014897400994149691 -0.021394579181003622 0 -0.0014675612822322513 -0.021336964139437819 0 -0.0014803695651444892 -0.02140702111605948 0 -0.0014675612822322513 -0.021336964139437819 0 -0.0014803695651444892 -0.02140702111605948 0 -0.0014539118997919098 -0.021356186414442795 0 -0.0014675612822322513 -0.021336964139437819 0 -0.0014256069675192876 -0.021275077180447171 0 -0.0014539118997919098 -0.021356186414442795 0 -0.0014256069675192876 -0.021275077180447171 0 -0.0014539118997919098 -0.021356186414442795 0 -0.0014089303617824296 -0.0213280763698711 0 -0.0014256069675192876 -0.021275077180447171 0 -0.0014089303617824296 -0.0213280763698711 0 -0.0013790011687159511 -0.021269141517941615 0 -0.0014539118997919098 -0.021356186414442795 0 -0.0014089303617824296 -0.0213280763698711 0 -0.001463793721728029 -0.021389352737959604 0 -0.0014089303617824296 -0.0213280763698711 0 -0.001463793721728029 -0.021389352737959604 0 -0.0014006860127797 -0.021363074906826443 0 -0.0014803695651444892 -0.02140702111605948 0 -0.0014539118997919098 -0.021356186414442795 0 -0.001463793721728029 -0.021389352737959604 0 -0.001336366112373123 -0.021185809326720619 0 -0.0013074137758046311 -0.021272894713081174 0 -0.0012158515922342133 -0.021189154245850907 0 -0.0013074137758046311 -0.021272894713081174 0 -0.0012172880123963337 -0.021265777787348859 0 -0.0012158515922342133 -0.021189154245850907 0 -0.001336366112373123 -0.021185809326720619 0 -0.0013074137758046311 -0.021272894713081174 0 -0.0013790011687159511 -0.021269141517941615 0 -0.0013074137758046311 -0.021272894713081174 0 -0.0013790011687159511 -0.021269141517941615 0 -0.0013633443802046235 -0.021319374896795154 0 -0.0014089303617824296 -0.0213280763698711 0 -0.0013790011687159511 -0.021269141517941615 0 -0.0013633443802046235 -0.021319374896795154 0 -0.0014256069675192876 -0.021275077180447171 0 -0.001336366112373123 -0.021185809326720619 0 -0.0013790011687159511 -0.021269141517941615 0 -0.0014089303617824296 -0.0213280763698711 0 -0.0013633443802046235 -0.021319374896795154 0 -0.0014006860127797 -0.021363074906826443 0 -0.0013074137758046311 -0.021272894713081174 0 -0.0013633443802046235 -0.021319374896795154 0 -0.0013313614170374691 -0.02133755574485861 0 -0.0013633443802046235 -0.021319374896795154 0 -0.0013313614170374691 -0.02133755574485861 0 -0.0014006860127797 -0.021363074906826443 0 -0.0013074137758046311 -0.021272894713081174 0 -0.0012696710862132332 -0.021310326218753017 0 -0.0012172880123963337 -0.021265777787348859 0 -0.0013074137758046311 -0.021272894713081174 0 -0.0012696710862132332 -0.021310326218753017 0 -0.0013313614170374691 -0.02133755574485861 0 -0.0026053191846314595 -0.01595243848581419 0 -0.0017781197708580587 -0.01772960268884664 0 -0.0012696710862132332 -0.021310326218753017 0 -0.0012922048186181823 -0.021349794845606077 0 -0.0011944198132873695 -0.021321748884492207 0 -0.0012922048186181823 -0.021349794845606077 0 -0.0013510955469176382 -0.021372137781735079 0 -0.0013171474512425486 -0.021395539522916444 0 -0.0012922048186181823 -0.021349794845606077 0 -0.0013171474512425486 -0.021395539522916444 0 -0.0011944198132873695 -0.021321748884492207 0 -0.0012696710862132332 -0.021310326218753017 0 -0.0012922048186181823 -0.021349794845606077 0 -0.0013313614170374691 -0.02133755574485861 0 -0.0012922048186181823 -0.021349794845606077 0 -0.0013510955469176382 -0.021372137781735079 0 -0.0013313614170374691 -0.02133755574485861 0 -0.0013510955469176382 -0.021372137781735079 0 -0.0014006860127797 -0.021363074906826443 0 -0.001405553907623828 -0.021403165891697721 0 -0.0013510955469176382 -0.021372137781735079 0 -0.0013313614170374691 -0.02133755574485861 0 -0.0014006860127797 -0.021363074906826443 0 -0.0029437396901914386 -0.013902010129073985 0 -0.0030843916782024136 -0.014008864532429768 0 -0.003051050701976928 -0.01403659515020725 0 -0.0026053191846314595 -0.01595243848581419 0 -0.0021023896260461039 -0.017827761848625747 0 -0.0029437396901914386 -0.013902010129073985 0 -0.0029332237626472964 -0.013886084271678008 0 -0.0030843916782024136 -0.014008864532429768 0 -0.0013510955469176382 -0.021372137781735079 0 -0.0013171474512425486 -0.021395539522916444 0 -0.001405553907623828 -0.021403165891697721 0 -0.0026053191846314595 -0.01595243848581419 0 -0.0026693801512003542 -0.01372095308363875 0 -0.0029292951568376836 -0.013870765497105102 0 -0.0028594596407947575 -0.013910091599045807 0 -0.0027408760084292718 -0.013741292491253975 0 -0.0029437396901914386 -0.013902010129073985 0 -0.0029292951568376836 -0.013870765497105102 0 -0.0028594596407947575 -0.013910091599045807 0 -0.0025069791766995472 -0.015716564284929971 0 -0.0026053191846314595 -0.01595243848581419 0 -0.0014770974514276972 -0.021408785018394591 0 -0.001446570711545643 -0.021390203298893181 0 -0.0014709678391184083 -0.021400720480253165 0 -0.001463793721728029 -0.021389352737959604 0 -0.0014770974514276972 -0.021408785018394591 0 -0.001446570711545643 -0.021390203298893181 0 -0.001446570711545643 -0.021390203298893181 0 -0.0014006860127797 -0.021363074906826443 0 -0.001405553907623828 -0.021403165891697721 0 -0.001463793721728029 -0.021389352737959604 0 -0.001446570711545643 -0.021390203298893181 0 -0.0014006860127797 -0.021363074906826443 0 -0.0030843916782024136 -0.014008864532429768 0 -0.0031963151007939968 -0.014105342988525773 0 -0.0031524121600517282 -0.014119522769436134 0 -0.0021023896260461039 -0.017827761848625747 0 -0.0024811648233379916 -0.017618526652616855 0 -0.001446570711545643 -0.021390203298893181 0 -0.001405553907623828 -0.021403165891697721 0 -0.0014709678391184083 -0.021400720480253165 0 -0.003230355230356541 -0.014174496795253781 0 -0.0031963151007939968 -0.014105342988525773 0 -0.0032287071202886618 -0.014160800890453119 0 -0.0032287071202886618 -0.014160800890453119 0 -0.0032020819219237772 -0.0141919914259796 0 -0.0031524121600517282 -0.014119522769436134 0 -0.0031963151007939968 -0.014105342988525773 0 -0.0032287071202886618 -0.014160800890453119 0 -0.0031524121600517282 -0.014119522769436134 0 -0.0032020819219237772 -0.0141919914259796 0 -0.0031760170003498197 -0.014216416740816085 0 -0.0031524121600517282 -0.014119522769436134 0 -0.0032287071202886618 -0.014160800890453119 0 -0.0032020819219237772 -0.0141919914259796 0 -0.0032587697956756537 -0.014278882241696395 0 -0.0031760170003498197 -0.014216416740816085 0 -0.0032679184407430843 -0.014328334011760795 0 -0.0031128985628147555 -0.014291295502478636 0 -0.0032020819219237772 -0.0141919914259796 0 -0.0032587697956756537 -0.014278882241696395 0 -0.0031760170003498197 -0.014216416740816085 0 -0.0032587697956756537 -0.014278882241696395 0 -0.0031760170003498197 -0.014216416740816085 0 -0.0032679184407430843 -0.014328334011760795 0 -0.0035053205366382591 -0.014134781812074917 0 -0.0039847244092150432 -0.016330890705784178 0 -0.0031760170003498197 -0.014216416740816085 0 -0.0030701182147733924 -0.014129694959516759 0 -0.0031128985628147555 -0.014291295502478636 0 -0.0031760170003498197 -0.014216416740816085 0 -0.0031524121600517282 -0.014119522769436134 0 -0.0030701182147733924 -0.014129694959516759 0 -0.0031524121600517282 -0.014119522769436134 0 -0.003051050701976928 -0.01403659515020725 0 -0.0030701182147733924 -0.014129694959516759 0 -0.0030843916782024136 -0.014008864532429768 0 -0.0031524121600517282 -0.014119522769436134 0 -0.003051050701976928 -0.01403659515020725 0 -0.0029437396901914386 -0.013902010129073985 0 -0.003051050701976928 -0.01403659515020725 0 -0.0029565318665136326 -0.014022459279953065 0 -0.003051050701976928 -0.01403659515020725 0 -0.0030701182147733924 -0.014129694959516759 0 -0.0029565318665136326 -0.014022459279953065 0 -0.0029437396901914386 -0.013902010129073985 0 -0.0028594596407947575 -0.013910091599045807 0 -0.0029565318665136326 -0.014022459279953065 0 -0.0028594596407947575 -0.013910091599045807 0 -0.0029565318665136326 -0.014022459279953065 0 -0.0028378616237751376 -0.01404199634643952 0 -0.0028378616237751376 -0.01404199634643952 0 -0.0029539686277049353 -0.014153982783959212 0 -0.0027552798497929225 -0.014133034195514925 0 -0.0029539686277049353 -0.014153982783959212 0 -0.0028976396277981902 -0.014285225354517072 0 -0.0027552798497929225 -0.014133034195514925 0 -0.0029565318665136326 -0.014022459279953065 0 -0.0028378616237751376 -0.01404199634643952 0 -0.0029539686277049353 -0.014153982783959212 0 -0.0030701182147733924 -0.014129694959516759 0 -0.0029539686277049353 -0.014153982783959212 0 -0.0031128985628147555 -0.014291295502478636 0 -0.0030701182147733924 -0.014129694959516759 0 -0.0029565318665136326 -0.014022459279953065 0 -0.0029539686277049353 -0.014153982783959212 0 -0.0029539686277049353 -0.014153982783959212 0 -0.0028976396277981902 -0.014285225354517072 0 -0.0031128985628147555 -0.014291295502478636 0 -0.0034881421142789483 -0.016828533894053452 0 -0.0037696271019698395 -0.017138753021407851 0 -0.0040682572504921882 -0.016779367425376546 0 -0.003179195630679023 -0.015552082917151617 0 -0.0036172754336727905 -0.015434178425936442 0 -0.0034881421142789483 -0.016828533894053452 0 -0.0034855742896189733 -0.017236434245693343 0 -0.0032422828927213807 -0.017035191287951557 0 -0.0034881421142789483 -0.016828533894053452 0 -0.0034855742896189733 -0.017236434245693343 0 -0.0037696271019698395 -0.017138753021407851 0 -0.0034855742896189733 -0.017236434245693343 0 -0.0037696271019698395 -0.017138753021407851 0 -0.0038196337531208667 -0.017576064284293594 0 -0.0037696271019698395 -0.017138753021407851 0 -0.0041234333253566385 -0.017336859571356035 0 -0.0038196337531208667 -0.017576064284293594 0 -0.0037696271019698395 -0.017138753021407851 0 -0.0041234333253566385 -0.017336859571356035 0 -0.0040682572504921882 -0.016779367425376546 0 -0.0041234333253566385 -0.017336859571356035 0 -0.0044822452586866139 -0.017138326907755644 0 -0.0040682572504921882 -0.016779367425376546 0 -0.0041234333253566385 -0.017336859571356035 0 -0.0044822452586866139 -0.017138326907755644 0 -0.0045021696266409486 -0.017631240760466519 0 -0.004908554943071991 -0.017262879610180568 0 -0.0044822452586866139 -0.017138326907755644 0 -0.0045021696266409486 -0.017631240760466519 0 -0.0039847244092150432 -0.016330890705784178 0 -0.0036172754336727905 -0.015434178425936442 0 -0.0044822452586866139 -0.017138326907755644 0 -0.0048509962326625071 -0.01672601335527835 0 -0.0040682572504921882 -0.016779367425376546 0 -0.004908554943071991 -0.017262879610180568 0 -0.0044822452586866139 -0.017138326907755644 0 -0.0048509962326625071 -0.01672601335527835 0 -0.002523308347827631 -0.015725252278074149 0 -0.0033723395819054585 -0.015701427786056387 0 -0.0024082817185306876 -0.014646021411333331 0 -0.0020897107455146984 -0.015225717947224457 0 -0.002523308347827631 -0.015725252278074149 0 -0.0017479321846647466 -0.0156937842953308 0 -0.002523308347827631 -0.015725252278074149 0 -0.0017479321846647466 -0.0156937842953308 0 -0.0022039163514133348 -0.016303201155126928 0 -0.002523308347827631 -0.015725252278074149 0 -0.0022039163514133348 -0.016303201155126928 0 -0.0027510324413241834 -0.016384165344626184 0 -0.0020897107455146984 -0.015225717947224457 0 -0.0017479321846647466 -0.0156937842953308 0 -0.0015402419558167124 -0.014682246287893637 0 -0.0017479321846647466 -0.0156937842953308 0 -0.0015402419558167124 -0.014682246287893637 0 -0.00099839236698355321 -0.015468808355802766 0 -0.0017479321846647466 -0.0156937842953308 0 -0.0012807076060143063 -0.016065392988242704 0 -0.00099839236698355321 -0.015468808355802766 0 -0.0017479321846647466 -0.0156937842953308 0 -0.0012807076060143063 -0.016065392988242704 0 -0.0016621071871789216 -0.016521359188505582 0 -0.0017479321846647466 -0.0156937842953308 0 -0.0016621071871789216 -0.016521359188505582 0 -0.0022039163514133348 -0.016303201155126928 0 -0.0012807076060143063 -0.016065392988242704 0 -0.0016621071871789216 -0.016521359188505582 0 -0.0012068365299434019 -0.016740132718160727 0 -0.0016621071871789216 -0.016521359188505582 0 -0.0022039163514133348 -0.016303201155126928 0 -0.0020681524015001493 -0.016820289685905446 0 -0.0022039163514133348 -0.016303201155126928 0 -0.0024965636455957117 -0.01682614161133681 0 -0.0027510324413241834 -0.016384165344626184 0 -0.0022039163514133348 -0.016303201155126928 0 -0.0024965636455957117 -0.01682614161133681 0 -0.0020681524015001493 -0.016820289685905446 0 -0.0027510324413241834 -0.016384165344626184 0 -0.0030004338641995963 -0.016977454338030166 0 -0.003249871850250061 -0.016546275208343598 0 -0.0024965636455957117 -0.01682614161133681 0 -0.0027510324413241834 -0.016384165344626184 0 -0.0030004338641995963 -0.016977454338030166 0 -0.0034855742896189733 -0.017236434245693343 0 -0.0030004338641995963 -0.016977454338030166 0 -0.003249871850250061 -0.016546275208343598 0 -0.0034373555787807655 -0.017116492651058659 0 -0.0033017860898566214 -0.016853568944341861 0 -0.0034881421142789483 -0.016828533894053452 0 -0.0032422828927213807 -0.017035191287951557 0 -0.0030143384568531175 -0.016824756697607943 0 -0.003179195630679023 -0.015552082917151617 0 -0.0028201205372162426 -0.015701657212293774 0 -0.0028976396277981902 -0.014285225354517072 0 -0.0025514593526270168 -0.014311667382533599 0 -0.0027552798497929225 -0.014133034195514925 0 -0.0033017860898566214 -0.016853568944341861 0 -0.0028201205372162426 -0.015701657212293774 0 -0.0027510324413241834 -0.016384165344626184 0 -0.003249871850250061 -0.016546275208343598 0 -0.0029108947251872941 -0.015934042155640933 0 -0.002523308347827631 -0.015725252278074149 0 -0.0027510324413241834 -0.016384165344626184 0 -0.0029108947251872941 -0.015934042155640933 0 -0.002680662180056814 -0.015750424820222497 0 -0.0028201205372162426 -0.015701657212293774 0 -0.0028201205372162426 -0.015701657212293774 0 -0.0022953093944578038 -0.014226581830258869 0 -0.0025514593526270168 -0.014311667382533599 0 -0.0025622374418980101 -0.013983125406662808 0 -0.0022629959366772304 -0.01406254431235527 0 -0.0028378616237751376 -0.01404199634643952 0 -0.0027552798497929225 -0.014133034195514925 0 -0.0027193824719012401 -0.013914384964047097 0 -0.0025622374418980101 -0.013983125406662808 0 -0.0027552798497929225 -0.014133034195514925 0 -0.0027193824719012401 -0.013914384964047097 0 -0.0025514593526270168 -0.014311667382533599 0 -0.0025622374418980101 -0.013983125406662808 0 -0.0027552798497929225 -0.014133034195514925 0 -0.0028594596407947575 -0.013910091599045807 0 -0.0028378616237751376 -0.01404199634643952 0 -0.0027193824719012401 -0.013914384964047097 0 -0.0028594596407947575 -0.013910091599045807 0 -0.0027193824719012401 -0.013914384964047097 0 -0.0027408760084292718 -0.013741292491253975 0 -0.0025622374418980101 -0.013983125406662808 0 -0.0023769641466017673 -0.013732287110216601 0 -0.0024701396844388308 -0.013618381215996041 0 -0.0025622374418980101 -0.013983125406662808 0 -0.0023769641466017673 -0.013732287110216601 0 -0.0022629959366772304 -0.01406254431235527 0 -0.0025622374418980101 -0.013983125406662808 0 -0.0027193824719012401 -0.013914384964047097 0 -0.0024701396844388308 -0.013618381215996041 0 -0.0023769641466017673 -0.013732287110216601 0 -0.0021323228887533251 -0.013477000608711301 0 -0.0022629959366772304 -0.01406254431235527 0 -0.0023769641466017673 -0.013732287110216601 0 -0.0021323228887533251 -0.013477000608711301 0 -0.0023592956204354634 -0.013541994108621697 0 -0.0020897107455146984 -0.015225717947224457 0 -0.002523308347827631 -0.015725252278074149 0 -0.0024082817185306876 -0.014646021411333331 0 -0.0024082817185306876 -0.014646021411333331 0 -0.0015402419558167124 -0.014682246287893637 0 -0.001586158323568598 -0.013537505137241697 0 -0.0020897107455146984 -0.015225717947224457 0 -0.0024082817185306876 -0.014646021411333331 0 -0.0015402419558167124 -0.014682246287893637 0 -0.0022953093944578038 -0.014226581830258869 0 -0.0016274039044768729 -0.013623313670614151 0 -0.0021323228887533251 -0.013477000608711301 0 -0.0022629959366772304 -0.01406254431235527 0 -0.001586158323568598 -0.013537505137241697 0 -0.0015402419558167124 -0.014682246287893637 0 -0.001586158323568598 -0.013537505137241697 0 -0.00099868405907384229 -0.014051457561011903 0 -0.001586158323568598 -0.013537505137241697 0 -0.001772739647687812 -0.012709629406813616 0 -0.0011361245904596708 -0.012662541373549234 0 -0.001772739647687812 -0.012709629406813616 0 -0.0015970686569002949 -0.012011891075424429 0 -0.0011361245904596708 -0.012662541373549234 0 -0.0021323228887533251 -0.013477000608711301 0 -0.001586158323568598 -0.013537505137241697 0 -0.001772739647687812 -0.012709629406813616 0 -0.0021323228887533251 -0.013477000608711301 0 -0.0023592956204354634 -0.013541994108621697 0 -0.0023907160465779049 -0.013506414361977553 0 -0.002108804270511935 -0.013541314489631414 0 -0.0023559941496963527 -0.012594801500449808 0 -0.0021323228887533251 -0.013477000608711301 0 -0.001772739647687812 -0.012709629406813616 0 -0.0022523409229644941 -0.011974829792766617 0 -0.001772739647687812 -0.012709629406813616 0 -0.0022523409229644941 -0.011974829792766617 0 -0.0015970686569002949 -0.012011891075424429 0 -0.0022523409229644941 -0.011974829792766617 0 -0.0015970686569002949 -0.012011891075424429 0 -0.0017160525050712206 -0.011561818284177143 0 -0.0026693801512003542 -0.01372095308363875 0 -0.0024696714598373059 -0.013647059092316819 0 -0.0026212693140421272 -0.013653349679253178 0 -0.0025324768755759976 -0.013635487053367245 0 -0.0025040782073407954 -0.013522624467890071 0 -0.0027193824719012401 -0.013914384964047097 0 -0.0027408760084292718 -0.013741292491253975 0 -0.0024701396844388308 -0.013618381215996041 0 -0.0025324768755759976 -0.013635487053367245 0 -0.0024701396844388308 -0.013618381215996041 0 -0.002446230786129966 -0.013541904444377069 0 -0.0023769641466017673 -0.013732287110216601 0 -0.0023592956204354634 -0.013541994108621697 0 -0.0024701396844388308 -0.013618381215996041 0 -0.0023592956204354634 -0.013541994108621697 0 -0.0024701396844388308 -0.013618381215996041 0 -0.002446230786129966 -0.013541904444377069 0 -0.0023592956204354634 -0.013541994108621697 0 -0.0023907160465779049 -0.013506414361977553 0 -0.002446230786129966 -0.013541904444377069 0 -0.0023907160465779049 -0.013506414361977553 0 -0.0024390566726053943 -0.013505837841951673 0 -0.002446230786129966 -0.013541904444377069 0 -0.0024390566726053943 -0.013505837841951673 0 -0.002446230786129966 -0.013541904444377069 0 -0.0025040782073407954 -0.013522624467890071 0 -0.0025324768755759976 -0.013635487053367245 0 -0.002446230786129966 -0.013541904444377069 0 -0.0025040782073407954 -0.013522624467890071 0 -0.0011944198132873695 -0.021321748884492207 0 -0.0012172880123963337 -0.021265777787348859 0 -0.0011546596392208038 -0.021244514256358 0 -0.0011944198132873695 -0.021321748884492207 0 -0.0011546596392208038 -0.021244514256358 0 -0.0010929722761399486 -0.021238756532948874 0 -0.0012696710862132332 -0.021310326218753017 0 -0.0011944198132873695 -0.021321748884492207 0 -0.0012172880123963337 -0.021265777787348859 0 -0.0017781197708580587 -0.01772960268884664 0 -0.002120601431348981 -0.017178214927719478 0 -0.0023907160465779049 -0.013506414361977553 0 -0.0024390566726053943 -0.013505837841951673 0 -0.0024325575806110997 -0.013469352181473677 0 -0.0024390566726053943 -0.013505837841951673 0 -0.0024453281171160465 -0.013485659460765324 0 -0.0024325575806110997 -0.013469352181473677 0 -0.0024390566726053943 -0.013505837841951673 0 -0.0025040782073407954 -0.013522624467890071 0 -0.0024453281171160465 -0.013485659460765324 0 -0.0019329009068088548 -0.016431486672351298 0 -0.0015029275403226469 -0.0159393107111282 0 -0.0016204566129254454 -0.015551749555688771 0 -0.002120601431348981 -0.017178214927719478 0 -0.0013949538210007127 -0.017317455973147839 0 -0.002120601431348981 -0.017178214927719478 0 -0.002156086362571078 -0.013272873310480644 0 -0.002156086362571078 -0.013272873310480644 0 -0.0013949538210007127 -0.017317455973147839 0 -0.0022116725758224674 -0.011652692540934527 0 -0.0022494034553968327 -0.011520430455372679 0 -0.0020344892607468122 -0.011398317035560828 0 -0.0011135075974823018 -0.021135863400588199 0 -0.0010475974303897862 -0.021158660099137843 0 -0.0011343885793316905 -0.021192977998930676 0 -0.0010929722761399486 -0.021238756532948874 0 -0.0010475974303897862 -0.021158660099137843 0 -0.0011343885793316905 -0.021192977998930676 0 -0.0011546596392208038 -0.021244514256358 0 -0.0010929722761399486 -0.021238756532948874 0 -0.0011343885793316905 -0.021192977998930676 0 -0.0012172880123963337 -0.021265777787348859 0 -0.0011546596392208038 -0.021244514256358 0 -0.0011343885793316905 -0.021192977998930676 0 -0.0011135075974823018 -0.021135863400588199 0 -0.0011343885793316905 -0.021192977998930676 0 -0.0012158515922342133 -0.021189154245850907 0 -0.0012172880123963337 -0.021265777787348859 0 -0.0011343885793316905 -0.021192977998930676 0 -0.0012158515922342133 -0.021189154245850907 0 -0.001597877781385677 -0.011957133977342315 0 -0.0016028494917028826 -0.011040299458768154 0 -0.0022523409229644941 -0.011974829792766617 0 -0.0017160525050712206 -0.011561818284177143 0 -0.0019756493168700154 -0.011519240126737518 0 -0.0022523409229644941 -0.011974829792766617 0 -0.0022212962947851063 -0.011533727118994242 0 -0.0019756493168700154 -0.011519240126737518 0 -0.0023559941496963527 -0.012594801500449808 0 -0.002156086362571078 -0.013272873310480644 0 -0.0016978367860681863 -0.011230909389023304 0 -0.0019756493168700154 -0.011519240126737518 0 -0.0020344892607468122 -0.011398317035560828 0 -0.002156086362571078 -0.013272873310480644 0 -0.0017454692818273296 -0.011260785504418364 0 -0.0022212962947851063 -0.011533727118994242 0 -0.0019756493168700154 -0.011519240126737518 0 -0.0020344892607468122 -0.011398317035560828 0 -0.0015249443685428979 -0.010525292724551315 0 -0.0016028494917028826 -0.011040299458768154 0 -0.0016978367860681863 -0.011230909389023304 0 -0.0017160525050712206 -0.011561818284177143 0 -0.0019756493168700154 -0.011519240126737518 0 -0.0009149555422777191 -0.0098471229054476264 0 -0.0013516039882024878 -0.0098109502948471837 0 -0.0015082012955419633 -0.010442196349895516 0 -0.0009149555422777191 -0.0098471229054476264 0 -0.0015082012955419633 -0.010442196349895516 0 -0.00033181404742289953 -0.010481038172801787 0 -0.0015082012955419633 -0.010442196349895516 0 -0.00033181404742289953 -0.010481038172801787 0 -0.00072174308124446922 -0.011587888204572362 0 -0.00033181404742289953 -0.010481038172801787 0 0.0005693296982731158 -0.011430021866398764 0 -0.00072174308124446922 -0.011587888204572362 0 -0.00087132120946635484 -0.0093220613573634509 0 -0.00037743232096217196 -0.01045283970048334 0 0.00024831510533659783 -0.0088368625457244734 0 -0.00084021896790729923 -0.0088226441818979821 0 -0.00033181404742289953 -0.010481038172801787 0 0.00024831510533659783 -0.0088368625457244734 0 0.0012717747471238802 -0.0093216891619003622 0 0.00078305084567825678 -0.010384389719838339 0 0.00024831510533659783 -0.0088368625457244734 0 -0.00033181404742289953 -0.010481038172801787 0 0.00078305084567825678 -0.010384389719838339 0 0.0012717747471238802 -0.0093216891619003622 0 0.001640095407591962 -0.010817201831099094 0 0.00078305084567825678 -0.010384389719838339 0 0.0012717747471238802 -0.0093216891619003622 0 0.001640095407591962 -0.010817201831099094 0 0.002295116786394746 -0.010185664675039868 0 -0.00033181404742289953 -0.010481038172801787 0 0.00078305084567825678 -0.010384389719838339 0 0.0005693296982731158 -0.011430021866398764 0 0.001640095407591962 -0.010817201831099094 0 0.00078305084567825678 -0.010384389719838339 0 0.0005693296982731158 -0.011430021866398764 0 0.001640095407591962 -0.010817201831099094 0 0.0005693296982731158 -0.011430021866398764 0 0.0015483742988417811 -0.012373488325351947 0 0.001640095407591962 -0.010817201831099094 0 0.0015483742988417811 -0.012373488325351947 0 0.0024197158681835158 -0.011569545415024144 0 0.0015483742988417811 -0.012373488325351947 0 0.0024197158681835158 -0.011569545415024144 0 0.0021337100446260364 -0.012403614303291784 0 0.0015483742988417811 -0.012373488325351947 0 -0.00017770559727666233 -0.012603050255539193 0 0.00043249047638794445 -0.013497880431936617 0 0.0005693296982731158 -0.011430021866398764 0 0.0015483742988417811 -0.012373488325351947 0 -0.00017770559727666233 -0.012603050255539193 0 -0.00017770559727666233 -0.012603050255539193 0 -0.0011361245904596708 -0.012662541373549234 0 -0.00072174308124446922 -0.011587888204572362 0 -0.00017770559727666233 -0.012603050255539193 0 -0.0011361245904596708 -0.012662541373549234 0 -0.00094813446577373501 -0.013366267601392121 0 -0.0015970686569002949 -0.012011891075424429 0 -0.0011361245904596708 -0.012662541373549234 0 -0.00072174308124446922 -0.011587888204572362 0 -0.0015970686569002949 -0.012011891075424429 0 -0.0015082012955419633 -0.010442196349895516 0 -0.00072174308124446922 -0.011587888204572362 0 0.0005693296982731158 -0.011430021866398764 0 -0.00017770559727666233 -0.012603050255539193 0 -0.00072174308124446922 -0.011587888204572362 0 0.0040875041058593556 -0.011037284504136649 0 0.0041885110484546602 -0.010058415148905089 0 0.0036356468569833994 -0.010639955610576178 0 0.0032871545866651271 -0.0087979431747144295 0 0.0034419983948128447 -0.0085934924871818221 0 0.0034113917800876678 -0.0090295212569647971 0 0.0031081784654481549 -0.0084847710068574004 0 0.0032871545866651271 -0.0087979431747144295 0 0.0034419983948128447 -0.0085934924871818221 0 0.003676615512528022 -0.0099778751076745956 0 0.0044414104661269094 -0.0088442441874448142 0 0.0032871545866651271 -0.0087979431747144295 0 0.0033764591819230435 -0.0090661474030984072 0 0.0034113917800876678 -0.0090295212569647971 0 0.0052276627276217477 -0.0088784859138810925 0 0.0051935097367044646 -0.0091627455258564573 0 0.0043196109489435433 -0.0089434945350509512 0 0.0047553146026339246 -0.0077333254877678219 0 0.0047806239580997128 -0.0077582197910641294 0 0.0047836879989174739 -0.0077044495393248369 0 0.0049672529185563752 -0.0080289943524496331 0 0.0044414104661269094 -0.0088442441874448142 0 0.0047942306136315024 -0.0081890510149894361 0 0.0048743928262762332 -0.0083784271095817577 0 0.004785822706777557 -0.0082920224539004567 0 0.00509197946694653 -0.0072230778149640967 0 0.0049672529185563752 -0.0080289943524496331 0 0.00509197946694653 -0.0072230778149640967 0 0.0044414104661269094 -0.0088442441874448142 0 0.0044414104661269094 -0.0088442441874448142 0 0.0038809498527926632 -0.010494647401843702 0 0.0051935097367044646 -0.0091627455258564573 0 0.0043196109489435433 -0.0089434945350509512 0 0.0041927011881422995 -0.010177821140973162 0 0.0043196109489435433 -0.0089434945350509512 0 0.0037418395063334364 -0.0094523207222159088 0 0.0041927011881422995 -0.010177821140973162 0 0.0033991722842328003 -0.0086641527048785891 0 0.0043196109489435433 -0.0089434945350509512 0 0.0037418395063334364 -0.0094523207222159088 0 0.0040875041058593556 -0.011037284504136649 0 0.0036356468569833994 -0.010639955610576178 0 0.0036218546251542845 -0.01108133592683651 0 0.0036356468569833994 -0.010639955610576178 0 0.0032077003742810159 -0.011118030890085328 0 0.0036218546251542845 -0.01108133592683651 0 0.0038809498527926632 -0.010494647401843702 0 0.0032905591114256163 -0.011031135163036006 0 0.0030968047358444868 -0.0099240263339527811 0 0.002295116786394746 -0.010185664675039868 0 0.0032077003742810159 -0.011118030890085328 0 0.0041927011881422995 -0.010177821140973162 0 0.0030968047358444868 -0.0099240263339527811 0 0.0032077003742810159 -0.011118030890085328 0 0.0033991722842328003 -0.0086641527048785891 0 0.0023775826320948331 -0.0089852397510933827 0 0.0030968047358444868 -0.0099240263339527811 0 0.0033991722842328003 -0.0086641527048785891 0 0.0037418395063334364 -0.0094523207222159088 0 0.0030968047358444868 -0.0099240263339527811 0 0.0037418395063334364 -0.0094523207222159088 0 0.0041927011881422995 -0.010177821140973162 0 0.0030968047358444868 -0.0099240263339527811 0 0.0023775826320948331 -0.0089852397510933827 0 0.0012717747471238802 -0.0093216891619003622 0 0.002295116786394746 -0.010185664675039868 0 0.0023775826320948331 -0.0089852397510933827 0 0.0030968047358444868 -0.0099240263339527811 0 0.002295116786394746 -0.010185664675039868 0 0.001640095407591962 -0.010817201831099094 0 0.002295116786394746 -0.010185664675039868 0 0.0024197158681835158 -0.011569545415024144 0 0.002295116786394746 -0.010185664675039868 0 0.0024197158681835158 -0.011569545415024144 0 0.0032077003742810159 -0.011118030890085328 0 0.0024197158681835158 -0.011569545415024144 0 0.0028093052910714059 -0.012139880852313536 0 0.0021337100446260364 -0.012403614303291784 0 0.0024197158681835158 -0.011569545415024144 0 0.0028093052910714059 -0.012139880852313536 0 0.0032852152987860868 -0.011795632394490463 0 0.0032852152987860868 -0.011795632394490463 0 0.0036074951350852729 -0.011913200811482776 0 0.003281081082773299 -0.012172736092709153 0 0.0028093052910714059 -0.012139880852313536 0 0.0032852152987860868 -0.011795632394490463 0 0.003281081082773299 -0.012172736092709153 0 0.0024197158681835158 -0.011569545415024144 0 0.0032852152987860868 -0.011795632394490463 0 0.0032077003742810159 -0.011118030890085328 0 0.0032852152987860868 -0.011795632394490463 0 0.0032077003742810159 -0.011118030890085328 0 0.0036231333701763008 -0.01154506787900607 0 0.0040875041058593556 -0.011037284504136649 0 0.0036231333701763008 -0.01154506787900607 0 0.003736360904023411 -0.012121428671413954 0 0.0032077003742810159 -0.011118030890085328 0 0.0036218546251542845 -0.01108133592683651 0 0.0036231333701763008 -0.01154506787900607 0 0.0040875041058593556 -0.011037284504136649 0 0.0036218546251542845 -0.01108133592683651 0 0.0036231333701763008 -0.01154506787900607 0 0.0032852152987860868 -0.011795632394490463 0 0.0036231333701763008 -0.01154506787900607 0 0.0036074951350852729 -0.011913200811482776 0 0.0036074951350852729 -0.011913200811482776 0 0.0037881085217545815 -0.01175456461728595 0 0.003281081082773299 -0.012172736092709153 0 0.0036074951350852729 -0.011913200811482776 0 0.003736360904023411 -0.012121428671413954 0 0.0037881085217545815 -0.01175456461728595 0 0.0036231333701763008 -0.01154506787900607 0 0.0036074951350852729 -0.011913200811482776 0 0.003736360904023411 -0.012121428671413954 0 0.0034970381402673035 -0.0081308853997422003 0 0.0032470493226431341 -0.0080738679644073129 0 0.0033484259656273055 -0.0078612470379522213 0 0.0034970381402673035 -0.0081308853997422003 0 0.0032470493226431341 -0.0080738679644073129 0 0.0032914586220139557 -0.0083161183696783339 0 0.0034419983948128447 -0.0085934924871818221 0 0.0034970381402673035 -0.0081308853997422003 0 0.0032914586220139557 -0.0083161183696783339 0 0.0031081784654481549 -0.0084847710068574004 0 0.0034419983948128447 -0.0085934924871818221 0 0.0032914586220139557 -0.0083161183696783339 0 0.003676615512528022 -0.0099778751076745956 0 0.0036155408341732392 -0.010035292685946396 0 0.0031536580116919657 -0.0073087367707212036 0 0.0033049547910266779 -0.0076276471879000119 0 0.0034415264303743432 -0.0074154437789192744 0 0.0033049547910266779 -0.0076276471879000119 0 0.0035585981013214799 -0.0076387231975910252 0 0.0034415264303743432 -0.0074154437789192744 0 0.0036155408341732392 -0.010035292685946396 0 0.0034969428743633446 -0.0090532269847360507 0 0.0034970381402673035 -0.0081308853997422003 0 0.0033484259656273055 -0.0078612470379522213 0 0.0035585981013214799 -0.0076387231975910252 0 0.003122550613462264 -0.0078359434689679874 0 0.0033049547910266779 -0.0076276471879000119 0 0.0033484259656273055 -0.0078612470379522213 0 0.003122550613462264 -0.0078359434689679874 0 0.0032470493226431341 -0.0080738679644073129 0 0.0033484259656273055 -0.0078612470379522213 0 0.0033049547910266779 -0.0076276471879000119 0 0.0033484259656273055 -0.0078612470379522213 0 0.0035585981013214799 -0.0076387231975910252 0 0.0037881085217545815 -0.01175456461728595 0 0.0031381836958600819 -0.013181581237305725 0 0.003281081082773299 -0.012172736092709153 0 0.0037881085217545815 -0.01175456461728595 0 0.0040873655413372059 -0.01093560639641959 0 0.0033462999652692951 -0.010548652971368165 0 0.003736360904023411 -0.012121428671413954 0 0.0037881085217545815 -0.01175456461728595 0 0.0033462999652692951 -0.010548652971368165 0 0.0037881085217545815 -0.01175456461728595 0 0.0040873655413372059 -0.01093560639641959 0 0.0050491166687830404 -0.010265527003047035 0 0.0034627922702226365 -0.012048812569318562 0 0.0049510460484006556 -0.011212329718268589 0 0.0040873655413372059 -0.01093560639641959 0 0.0045240788084292341 -0.0093261879900762845 0 0.0055715270897318155 -0.0097963290647555667 0 0.0044740802666005074 -0.010656710558386807 0 0.0049510460484006556 -0.011212329718268589 0 0.0033462999652692951 -0.010548652971368165 0 0.0045240788084292341 -0.0093261879900762845 0 0.0037408060426250577 -0.0073764558717597257 0 0.0040873655413372059 -0.01093560639641959 0 0.0033462999652692951 -0.010548652971368165 0 0.0045240788084292341 -0.0093261879900762845 0 0.0045240788084292341 -0.0093261879900762845 0 0.0055715270897318155 -0.0097963290647555667 0 0.0056360892454226132 -0.0080231555112951405 0 0.0031381836958600819 -0.013181581237305725 0 0.0026787603340405176 -0.012642719321618565 0 0.0025107190303914752 -0.013184476319811567 0 0.0031381836958600819 -0.013181581237305725 0 0.003281081082773299 -0.012172736092709153 0 0.0026787603340405176 -0.012642719321618565 0 0.0028093052910714059 -0.012139880852313536 0 0.003281081082773299 -0.012172736092709153 0 0.0026787603340405176 -0.012642719321618565 0 0.0028093052910714059 -0.012139880852313536 0 0.0026787603340405176 -0.012642719321618565 0 0.0021337100446260364 -0.012403614303291784 0 0.0026787603340405176 -0.012642719321618565 0 0.0021337100446260364 -0.012403614303291784 0 0.0022921662605085297 -0.012882925316959899 0 0.0049510460484006556 -0.011212329718268589 0 0.0032105436162234743 -0.013123488408465918 0 0.0022921662605085297 -0.012882925316959899 0 0.0025107190303914752 -0.013184476319811567 0 0.0020254345692623395 -0.013351109462992467 0 0.0031381836958600819 -0.013181581237305725 0 0.0025107190303914752 -0.013184476319811567 0 0.002324166289881139 -0.013731463933057722 0 0.0026787603340405176 -0.012642719321618565 0 0.0022921662605085297 -0.012882925316959899 0 0.0025107190303914752 -0.013184476319811567 0 0.0025107190303914752 -0.013184476319811567 0 0.002324166289881139 -0.013731463933057722 0 0.0020254345692623395 -0.013351109462992467 0 0.0049510460484006556 -0.011212329718268589 0 0.0045347536178726427 -0.0092131498863206908 0 0.0060898986731062529 -0.011043660537056507 0 0.0043511985606844023 -0.012229253550559043 0 0.0044006615790609365 -0.012972905785155772 0 0.0043511985606844023 -0.012229253550559043 0 0.0044006615790609365 -0.012972905785155772 0 0.0040212794850150871 -0.012763111119234121 0 0.0045347536178726427 -0.0092131498863206908 0 0.0049531434900879703 -0.010198643201613585 0 0.0027974942585585788 -0.0048709071523473065 0 0.0027798276938755446 -0.0057080833321351485 0 0.0037528466855999095 -0.0055362792584536533 0 0.0072321171452602827 -0.0077065453039496584 0 0.0051499896932330593 -0.0065234283100374432 0 0.0056360892454226132 -0.0080231555112951405 0 0.0045347536178726427 -0.0092131498863206908 0 0.0043962395735472996 -0.0056878802617351589 0 0.0051499896932330593 -0.0065234283100374432 0 0.0056360892454226132 -0.0080231555112951405 0 0.0037408060426250577 -0.0073764558717597257 0 0.0055715270897318155 -0.0097963290647555667 0 0.0072321171452602827 -0.0077065453039496584 0 0.0056360892454226132 -0.0080231555112951405 0 0.0045240788084292341 -0.0093261879900762845 0 0.0056360892454226132 -0.0080231555112951405 0 0.0037408060426250577 -0.0073764558717597257 0 0.0034969428743633446 -0.0090532269847360507 0 0.0036985760577047458 -0.0074808804860021522 0 0.0051499896932330593 -0.0065234283100374432 0 0.004007756211412446 -0.0066394580348697746 0 0.003672809763749577 -0.0060854081037646441 0 0.0051499896932330593 -0.0065234283100374432 0 0.0037408060426250577 -0.0073764558717597257 0 0.004007756211412446 -0.0066394580348697746 0 0.004007756211412446 -0.0066394580348697746 0 0.003559174814065663 -0.0066511389216616906 0 0.003672809763749577 -0.0060854081037646441 0 0.0037408060426250577 -0.0073764558717597257 0 0.004007756211412446 -0.0066394580348697746 0 0.003559174814065663 -0.0066511389216616906 0 0.0037408060426250577 -0.0073764558717597257 0 0.003559174814065663 -0.0066511389216616906 0 0.0032952123084889198 -0.0069237431759029333 0 0.0031171940668686536 -0.0063753402897983443 0 0.003559174814065663 -0.0066511389216616906 0 0.0032952123084889198 -0.0069237431759029333 0 0.0035585981013214799 -0.0076387231975910252 0 0.0037408060426250577 -0.0073764558717597257 0 0.0034415264303743432 -0.0074154437789192744 0 0.0037408060426250577 -0.0073764558717597257 0 0.0032952123084889198 -0.0069237431759029333 0 0.0034415264303743432 -0.0074154437789192744 0 0.0031536580116919657 -0.0073087367707212036 0 0.0032952123084889198 -0.0069237431759029333 0 0.0034415264303743432 -0.0074154437789192744 0 0.00018133084295584112 -0.01468048202950591 0 -0.00065756048913324136 -0.014734959502791977 0 -0.00015568894441083959 -0.015632286716446259 0 0.00018133084295584112 -0.01468048202950591 0 -0.00065756048913324136 -0.014734959502791977 0 -0.00037718738332405747 -0.01384121985100038 0 -0.0015402419558167124 -0.014682246287893637 0 -0.00065756048913324136 -0.014734959502791977 0 -0.00099839236698355321 -0.015468808355802766 0 -0.0015402419558167124 -0.014682246287893637 0 -0.00065756048913324136 -0.014734959502791977 0 -0.00099868405907384229 -0.014051457561011903 0 -0.00065756048913324136 -0.014734959502791977 0 -0.00099868405907384229 -0.014051457561011903 0 -0.00037718738332405747 -0.01384121985100038 0 -0.00099868405907384229 -0.014051457561011903 0 -0.00094813446577373501 -0.013366267601392121 0 -0.00037718738332405747 -0.01384121985100038 0 -0.00017770559727666233 -0.012603050255539193 0 -0.00094813446577373501 -0.013366267601392121 0 -0.00037718738332405747 -0.01384121985100038 0 -0.001586158323568598 -0.013537505137241697 0 -0.00099868405907384229 -0.014051457561011903 0 -0.00094813446577373501 -0.013366267601392121 0 -0.001586158323568598 -0.013537505137241697 0 -0.0011361245904596708 -0.012662541373549234 0 -0.00094813446577373501 -0.013366267601392121 0 0.00018133084295584112 -0.01468048202950591 0 0.00043249047638794445 -0.013497880431936617 0 -0.00037718738332405747 -0.01384121985100038 0 -0.00017770559727666233 -0.012603050255539193 0 0.00043249047638794445 -0.013497880431936617 0 -0.00037718738332405747 -0.01384121985100038 0 0.0015431372283218909 -0.012473427956979359 0 0.001290225263047298 -0.013510722236095838 0 0.0015483742988417811 -0.012373488325351947 0 0.00043249047638794445 -0.013497880431936617 0 0.0012312974058112155 -0.01406523665717278 0 0.0021337100446260364 -0.012403614303291784 0 0.0022921662605085297 -0.012882925316959899 0 0.0013706616207406442 -0.012996684828427658 0 0.0015483742988417811 -0.012373488325351947 0 0.0021337100446260364 -0.012403614303291784 0 0.0013706616207406442 -0.012996684828427658 0 0.0022921662605085297 -0.012882925316959899 0 0.0020254345692623395 -0.013351109462992467 0 0.0013706616207406442 -0.012996684828427658 0 0.0020254345692623395 -0.013351109462992467 0 0.0013706616207406442 -0.012996684828427658 0 0.0016257472155954656 -0.01360192526034352 0 0.00018133084295584112 -0.01468048202950591 0 0.0012312974058112155 -0.01406523665717278 0 0.00078135592489923897 -0.015449830787166881 0 0.001290225263047298 -0.013510722236095838 0 0.00094172448650601062 -0.014664927093776977 0 0.00018133084295584112 -0.01468048202950591 0 0.00043249047638794445 -0.013497880431936617 0 0.0012312974058112155 -0.01406523665717278 0 0.0013706616207406442 -0.012996684828427658 0 0.0010942853639530413 -0.013849478395172312 0 0.0016257472155954656 -0.01360192526034352 0 0.0010942853639530413 -0.013849478395172312 0 0.0016257472155954656 -0.01360192526034352 0 0.0015835579940224223 -0.01423246983054101 0 0.0044143892338499892 -0.013008632474089106 0 0.0040212794850150871 -0.012763111119234121 0 0.0024603461759755496 -0.013521593011279065 0 0.0018894702345453804 -0.013729958817855761 0 0.0016257472155954656 -0.01360192526034352 0 0.0015835579940224223 -0.01423246983054101 0 0.0032105436162234743 -0.013123488408465918 0 0.0021238813498063074 -0.013754387258328764 0 0.002324166289881139 -0.013731463933057722 0 0.0018894702345453804 -0.013729958817855761 0 0.0015835579940224223 -0.01423246983054101 0 0.0043511985606844023 -0.012229253550559043 0 0.0040212794850150871 -0.012763111119234121 0 0.0024603461759755496 -0.013521593011279065 0 0.0020254345692623395 -0.013351109462992467 0 0.0018894702345453804 -0.013729958817855761 0 0.0016257472155954656 -0.01360192526034352 0 0.002324166289881139 -0.013731463933057722 0 0.0020254345692623395 -0.013351109462992467 0 0.0018894702345453804 -0.013729958817855761 0 0.0044143892338499892 -0.013008632474089106 0 0.0024603461759755496 -0.013521593011279065 0 0.002603911584468677 -0.015107607144228362 0 0.0045347536178726427 -0.0092131498863206908 0 0.0020139469310323983 -0.010450065311129493 0 0.0027974942585585788 -0.0048709071523473065 0 0.0027798276938755446 -0.0057080833321351485 0 0.0018158786799204628 -0.005753378003780763 0 0.0021238813498063074 -0.013754387258328764 0 0.00050269502312402792 -0.015598750352460814 0 0.00094172448650601062 -0.014664927093776977 0 0.00050269502312402792 -0.015598750352460814 0 0.0010942853639530413 -0.013849478395172312 0 0.0015835579940224223 -0.01423246983054101 0 0.00081728931438449762 -0.014753357522931873 0 0.0024603461759755496 -0.013521593011279065 0 0.00053439280344857857 -0.014884149751491171 0 0.002603911584468677 -0.015107607144228362 0 0.00033629903926578808 -0.016651912131104341 0 -0.00015568894441083959 -0.015632286716446259 0 -0.00075701034674667805 -0.016313818293543361 0 0.00078135592489923897 -0.015449830787166881 0 0.00033629903926578808 -0.016651912131104341 0 -0.00015568894441083959 -0.015632286716446259 0 0.00018133084295584112 -0.01468048202950591 0 0.00078135592489923897 -0.015449830787166881 0 -0.00015568894441083959 -0.015632286716446259 0 -0.0012807076060143063 -0.016065392988242704 0 -0.00099839236698355321 -0.015468808355802766 0 -0.00075701034674667805 -0.016313818293543361 0 -0.00065756048913324136 -0.014734959502791977 0 -0.00015568894441083959 -0.015632286716446259 0 -0.00099839236698355321 -0.015468808355802766 0 -0.00015568894441083959 -0.015632286716446259 0 -0.00099839236698355321 -0.015468808355802766 0 -0.00075701034674667805 -0.016313818293543361 0 -0.0012807076060143063 -0.016065392988242704 0 -0.00075701034674667805 -0.016313818293543361 0 -0.0012068365299434019 -0.016740132718160727 0 -0.00075701034674667805 -0.016313818293543361 0 -0.0012068365299434019 -0.016740132718160727 0 -0.0007268184977989034 -0.017236098180753685 0 -0.0012068365299434019 -0.016740132718160727 0 -0.0007268184977989034 -0.017236098180753685 0 -0.00171043823846963 -0.017104449925168377 0 -0.00065632016930230617 -0.01665641879722226 0 -0.00071537581310525064 -0.017452225454725443 0 -0.0016265009997593538 -0.017569729028897214 0 -0.000754601148903734 -0.017043656280783977 0 -0.0015033330617670337 -0.017478284002467488 0 -0.00071537581310525064 -0.017452225454725443 0 -0.00058195292358046661 -0.018332525870794605 0 -0.0016265009997593538 -0.017569729028897214 0 -0.00065632016930230617 -0.01665641879722226 0 -0.00071537581310525064 -0.017452225454725443 0 5.4957846191322872e-05 -0.017049286594988181 0 -0.00071537581310525064 -0.017452225454725443 0 5.4957846191322872e-05 -0.017049286594988181 0 -0.00058195292358046661 -0.018332525870794605 0 5.4957846191322872e-05 -0.017049286594988181 0 0.00072588473924446967 -0.017205940474022085 0 -0.00058195292358046661 -0.018332525870794605 0 0.00086638658836700737 -0.012008198605263042 0 -0.0020823516785014608 -0.012890852284872318 0 0.00053439280344857857 -0.014884149751491171 0 5.4957846191322872e-05 -0.017049286594988181 0 0.00072588473924446967 -0.017205940474022085 0 0.00050269502312402792 -0.015598750352460814 0 8.0759033193880902e-05 -0.016847780309114279 0 0.00050269502312402792 -0.015598750352460814 0 -0.000754601148903734 -0.017043656280783977 0 0.00037973562735417124 -0.015950801549361356 0 -0.00065632016930230617 -0.01665641879722226 0 5.4957846191322872e-05 -0.017049286594988181 0 0.00033629903926578808 -0.016651912131104341 0 -0.00075701034674667805 -0.016313818293543361 0 -0.0007268184977989034 -0.017236098180753685 0 0.0018158786799204628 -0.005753378003780763 0 0.0017659484231485976 -0.0066947032203896672 0 0.0005254703278626886 -0.006840957555880549 0 0.0020139469310323983 -0.010450065311129493 0 0.00086638658836700737 -0.012008198605263042 0 0.00053439280344857857 -0.014884149751491171 0 0.002603911584468677 -0.015107607144228362 0 0.00072588473924446967 -0.017205940474022085 0 0.0023537215758028447 -0.006119186269833831 0 0.0017659484231485976 -0.0066947032203896672 0 0.0028008286063481201 -0.0065990808570707262 0 0.0027798276938755446 -0.0057080833321351485 0 0.0023537215758028447 -0.006119186269833831 0 0.0018158786799204628 -0.005753378003780763 0 0.0023537215758028447 -0.006119186269833831 0 0.0018158786799204628 -0.005753378003780763 0 0.0017659484231485976 -0.0066947032203896672 0 0.0017659484231485976 -0.0066947032203896672 0 0.0019714095711990814 -0.0075310945914725197 0 0.0028008286063481201 -0.0065990808570707262 0 0.0017659484231485976 -0.0066947032203896672 0 0.0010569283559172086 -0.0074512163690471905 0 0.0019714095711990814 -0.0075310945914725197 0 0.0005254703278626886 -0.006840957555880549 0 0.0010569283559172086 -0.0074512163690471905 0 0.0003645963264524719 -0.0079681752371229698 0 0.0017659484231485976 -0.0066947032203896672 0 0.0005254703278626886 -0.006840957555880549 0 0.0010569283559172086 -0.0074512163690471905 0 0.0010569283559172086 -0.0074512163690471905 0 0.0019714095711990814 -0.0075310945914725197 0 0.0010956887252694151 -0.0086646103416966949 0 0.0010569283559172086 -0.0074512163690471905 0 0.0010956887252694151 -0.0086646103416966949 0 0.0003645963264524719 -0.0079681752371229698 0 0.0010956887252694151 -0.0086646103416966949 0 -1.8337988305910902e-05 -0.0087529294144034903 0 0.0003645963264524719 -0.0079681752371229698 0 0.0019714095711990814 -0.0075310945914725197 0 0.0022001476459194589 -0.008570143570199076 0 0.0010956887252694151 -0.0086646103416966949 0 0.0019714095711990814 -0.0075310945914725197 0 0.0022001476459194589 -0.008570143570199076 0 0.0030110943370454937 -0.007607363457051354 0 0.0022001476459194589 -0.008570143570199076 0 0.001915319299885484 -0.0095752547834316651 0 0.0010956887252694151 -0.0086646103416966949 0 0.0022001476459194589 -0.008570143570199076 0 0.001915319299885484 -0.0095752547834316651 0 0.0030763783821367405 -0.0092106546160672272 0 0.001915319299885484 -0.0095752547834316651 0 0.0010956887252694151 -0.0086646103416966949 0 0.00098852027317565408 -0.010050299504862135 0 0.0010956887252694151 -0.0086646103416966949 0 0.0001299961469499227 -0.0095888724144293294 0 0.00098852027317565408 -0.010050299504862135 0 0.0010956887252694151 -0.0086646103416966949 0 0.0001299961469499227 -0.0095888724144293294 0 -1.8337988305910902e-05 -0.0087529294144034903 0 0.0001299961469499227 -0.0095888724144293294 0 -1.8337988305910902e-05 -0.0087529294144034903 0 -0.00079790539342525148 -0.0093045899778484049 0 -1.8337988305910902e-05 -0.0087529294144034903 0 -0.00079790539342525148 -0.0093045899778484049 0 -0.00097715035629467517 -0.0082133655240464662 0 0.0001299961469499227 -0.0095888724144293294 0 -0.00079790539342525148 -0.0093045899778484049 0 -0.00098509921567886747 -0.010250042371221303 0 -0.00079790539342525148 -0.0093045899778484049 0 -0.00097715035629467517 -0.0082133655240464662 0 -0.0022479631032915029 -0.009684182856632825 0 -0.0020823516785014608 -0.012890852284872318 0 -0.0040363270914503604 -0.013037265857641391 0 -0.00079790539342525148 -0.0093045899778484049 0 -0.00098509921567886747 -0.010250042371221303 0 -0.0022479631032915029 -0.009684182856632825 0 -0.0020823516785014608 -0.012890852284872318 0 -0.00396287118845741 -0.018211352382426847 0 -1.8337988305910902e-05 -0.0087529294144034903 0 -0.00097715035629467517 -0.0082133655240464662 0 0.0003645963264524719 -0.0079681752371229698 0 0.0005254703278626886 -0.006840957555880549 0 -0.0008311068001871202 -0.0082316682427997813 0 0.0003645963264524719 -0.0079681752371229698 0 -0.0020823516785014608 -0.012890852284872318 0 0.00088046496226180709 -0.0079178073267300083 0 0.0053567765533425616 -0.0066763482174671167 0 0.0045992681438649088 -0.0061427106989493914 0 0.0045796502292159971 -0.0066230619520344057 0 0.0040221562221925064 -0.0071414319521294033 0 0.0041816139574150108 -0.0070640187924417945 0 0.0042931567513217264 -0.0070600655412699784 0 0.0040054757152156312 -0.0066449914598213757 0 0.0045572361346795124 -0.0068550865369443525 0 0.0041816139574150108 -0.0070640187924417945 0 0.0042931567513217264 -0.0070600655412699784 0 0.0043060096863928874 -0.0072183604793935371 0 0.0030433286812370569 -0.0059678700741487636 0 0.0031171940668686536 -0.0063753402897983443 0 0.003672809763749577 -0.0060854081037646441 0 0.0040054757152156312 -0.0066449914598213757 0 0.004214000870741791 -0.006138132118405761 0 0.0031171940668686536 -0.0063753402897983443 0 0.003559174814065663 -0.0066511389216616906 0 0.003672809763749577 -0.0060854081037646441 0 0.0045992681438649088 -0.0061427106989493914 0 0.0045796502292159971 -0.0066230619520344057 0 0.0037207309315771221 -0.0065967820145953265 0 0.0037528466855999095 -0.0055362792584536533 0 0.0045992681438649088 -0.0061427106989493914 0 0.0037207309315771221 -0.0065967820145953265 0 0.0043962395735472996 -0.0056878802617351589 0 0.004214000870741791 -0.006138132118405761 0 0.0045572361346795124 -0.0068550865369443525 0 0.0037936297738291251 -0.006702639764167578 0 0.0042931567513217264 -0.0070600655412699784 0 0.0040301944384927455 -0.0068010756923778184 0 0.0043060096863928874 -0.0072183604793935371 0 0.0037528466855999095 -0.0055362792584536533 0 0.0037207309315771221 -0.0065967820145953265 0 0.0032711173169412337 -0.0061126372284416542 0 0.0027798276938755446 -0.0057080833321351485 0 0.0037528466855999095 -0.0055362792584536533 0 0.0032711173169412337 -0.0061126372284416542 0 0.0037207309315771221 -0.0065967820145953265 0 0.0032711173169412337 -0.0061126372284416542 0 0.0028008286063481201 -0.0065990808570707262 0 0.0027798276938755446 -0.0057080833321351485 0 0.0032711173169412337 -0.0061126372284416542 0 0.0028008286063481201 -0.0065990808570707262 0 0.0027798276938755446 -0.0057080833321351485 0 0.0023537215758028447 -0.006119186269833831 0 0.0028008286063481201 -0.0065990808570707262 0 0.0019714095711990814 -0.0075310945914725197 0 0.0028008286063481201 -0.0065990808570707262 0 0.0030110943370454937 -0.007607363457051354 0 0.0037936297738291251 -0.006702639764167578 0 0.0029013434671019338 -0.0066115693932861574 0 0.0040301944384927455 -0.0068010756923778184 0 0.0028008286063481201 -0.0065990808570707262 0 0.0030110943370454937 -0.007607363457051354 0 0.0030110943370454937 -0.007607363457051354 0 0.0030763783821367405 -0.0092106546160672272 0 0.004232379091992023 -0.0076822860949522587 0 0.0022001476459194589 -0.008570143570199076 0 0.0030110943370454937 -0.007607363457051354 0 0.0030763783821367405 -0.0092106546160672272 0 0.0030763783821367405 -0.0092106546160672272 0 0.004232379091992023 -0.0076822860949522587 0 0.0042495750091072525 -0.0095954704882228268 0 0.0040301944384927455 -0.0068010756923778184 0 0.0030110943370454937 -0.007607363457051354 0 0.004232379091992023 -0.0076822860949522587 0 0.0040301944384927455 -0.0068010756923778184 0 0.004232379091992023 -0.0076822860949522587 0 0.0043060096863928874 -0.0072183604793935371 0 0.004232379091992023 -0.0076822860949522587 0 0.0043060096863928874 -0.0072183604793935371 0 0.0042117097731561798 -0.0069338453910748688 0 0.004232379091992023 -0.0076822860949522587 0 0.0042117097731561798 -0.0069338453910748688 0 0.0043292397666912282 -0.0065673378444007337 0 0.0042439246234410996 -0.0075742157621591271 0 0.0050690832774836457 -0.0084022257357633662 0 0.004232379091992023 -0.0076822860949522587 0 0.0057539408641567895 -0.0098790224380052478 0 0.0042495750091072525 -0.0095954704882228268 0 0.0040759862986180411 -0.0064429853133188882 0 0.003971142430093829 -0.0066618421885628661 0 0.0042117097731561798 -0.0069338453910748688 0 0.003971142430093829 -0.0066618421885628661 0 0.0042117097731561798 -0.0069338453910748688 0 0.0041303461088631772 -0.0069449169298023391 0 0.0040759862986180411 -0.0064429853133188882 0 0.0042117097731561798 -0.0069338453910748688 0 0.0043292397666912282 -0.0065673378444007337 0 0.0041816139574150108 -0.0070640187924417945 0 0.0043060096863928874 -0.0072183604793935371 0 0.0041303461088631772 -0.0069449169298023391 0 0.0043060096863928874 -0.0072183604793935371 0 0.0042117097731561798 -0.0069338453910748688 0 0.0041303461088631772 -0.0069449169298023391 0 0.0040211721463000814 -0.0069894908893085184 0 0.0041816139574150108 -0.0070640187924417945 0 0.0041303461088631772 -0.0069449169298023391 0 0.0053305470410446518 -0.0081042078249534584 0 0.0050690832774836457 -0.0084022257357633662 0 0.0069126920535287871 -0.011608117141323794 0 0.0057539408641567895 -0.0098790224380052478 0 0.0058389573603204346 -0.011201926033255852 0 0.0069126920535287871 -0.011608117141323794 0 0.0058389573603204346 -0.011201926033255852 0 0.0068991795665922697 -0.011723974723352687 0 0.0055389067038802116 -0.011257192248067996 0 0.0055010191224802258 -0.012019316491803326 0 0.0064037928224075528 -0.01170901613313766 0 0.0048069584001224136 -0.0075497191237974878 0 0.0053305470410446518 -0.0081042078249534584 0 0.0052830483411544105 -0.0082237735275155766 0 0.0057337587377942123 -0.0088446082541700447 0 0.0057739244714523682 -0.0084682334544625201 0 0.0053305470410446518 -0.0081042078249534584 0 0.0056277795901485102 -0.0092087280400662015 0 0.0059777930584098745 -0.011374847881383722 0 0.0056277795901485102 -0.0092087280400662015 0 0.0040759862986180411 -0.0064429853133188882 0 0.004133105604691289 -0.006244554646987522 0 0.0043292397666912282 -0.0065673378444007337 0 0.0057539408641567895 -0.0098790224380052478 0 0.0058389573603204346 -0.011201926033255852 0 0.0046397004059278765 -0.010706229216540171 0 0.0057539408641567895 -0.0098790224380052478 0 0.0046397004059278765 -0.010706229216540171 0 0.0042495750091072525 -0.0095954704882228268 0 0.0059777930584098745 -0.011374847881383722 0 0.0046443896540202508 -0.010708045702660967 0 0.0055389067038802116 -0.011257192248067996 0 0.0046060166442934572 -0.011633586313048255 0 0.0046397004059278765 -0.010706229216540171 0 0.0055389067038802116 -0.011257192248067996 0 0.0046060166442934572 -0.011633586313048255 0 0.0055010191224802258 -0.012019316491803326 0 0.0046060166442934572 -0.011633586313048255 0 0.0038214274829275812 -0.011233654253941379 0 0.0039670070544838929 -0.011839454028411113 0 0.0038214274829275812 -0.011233654253941379 0 0.0035480249463943534 -0.011649340586482267 0 0.0039670070544838929 -0.011839454028411113 0 0.0038214274829275812 -0.011233654253941379 0 0.0046397004059278765 -0.010706229216540171 0 0.0036969170839704882 -0.010393298791647123 0 0.0046060166442934572 -0.011633586313048255 0 0.0038214274829275812 -0.011233654253941379 0 0.0046397004059278765 -0.010706229216540171 0 0.0046397004059278765 -0.010706229216540171 0 0.0042495750091072525 -0.0095954704882228268 0 0.0036969170839704882 -0.010393298791647123 0 0.0030763783821367405 -0.0092106546160672272 0 0.0042495750091072525 -0.0095954704882228268 0 0.0036969170839704882 -0.010393298791647123 0 0.0030763783821367405 -0.0092106546160672272 0 0.0036969170839704882 -0.010393298791647123 0 0.0028795261905096713 -0.010538852818358865 0 0.0030763783821367405 -0.0092106546160672272 0 0.0028795261905096713 -0.010538852818358865 0 0.0022554098205688172 -0.010245272850907079 0 0.0036969170839704882 -0.010393298791647123 0 0.0028795261905096713 -0.010538852818358865 0 0.0032897558105417172 -0.01101288440822008 0 0.0028795261905096713 -0.010538852818358865 0 0.0028125033394881859 -0.01135916407616271 0 0.0022303049367295318 -0.011148889972837648 0 0.0028795261905096713 -0.010538852818358865 0 0.0032897558105417172 -0.01101288440822008 0 0.0028125033394881859 -0.01135916407616271 0 0.0038214274829275812 -0.011233654253941379 0 0.0036969170839704882 -0.010393298791647123 0 0.0032897558105417172 -0.01101288440822008 0 0.0038214274829275812 -0.011233654253941379 0 0.0032897558105417172 -0.01101288440822008 0 0.0032406041855542705 -0.011524960268020388 0 0.0032897558105417172 -0.01101288440822008 0 0.0032406041855542705 -0.011524960268020388 0 0.0028125033394881859 -0.01135916407616271 0 0.0038214274829275812 -0.011233654253941379 0 0.0032406041855542705 -0.011524960268020388 0 0.0035480249463943534 -0.011649340586482267 0 0.0032406041855542705 -0.011524960268020388 0 0.0035480249463943534 -0.011649340586482267 0 0.0031664516508814943 -0.011992767843290206 0 0.0032406041855542705 -0.011524960268020388 0 0.0029312351189195924 -0.011780460789442469 0 0.0031664516508814943 -0.011992767843290206 0 0.0029312351189195924 -0.011780460789442469 0 0.0028125033394881859 -0.01135916407616271 0 0.0023114091971236763 -0.012039286520735295 0 0.0032406041855542705 -0.011524960268020388 0 0.0029312351189195924 -0.011780460789442469 0 0.0028125033394881859 -0.01135916407616271 0 0.0026064697356766638 -0.010738572318230081 0 0.0026422407676975164 -0.010935765545850908 0 0.0024351657643786138 -0.010847327033914722 0 0.0028944089385633505 -0.011743317223648783 0 0.0025788887037313125 -0.011950808842971259 0 0.0029312351189195924 -0.011780460789442469 0 0.0030058789607096828 -0.012115972016783926 0 0.0023114091971236763 -0.012039286520735295 0 0.0029312351189195924 -0.011780460789442469 0 0.0030058789607096828 -0.012115972016783926 0 0.0031664516508814943 -0.011992767843290206 0 0.0028944089385633505 -0.011743317223648783 0 0.0029140647844949994 -0.011763029023039211 0 0.0035480249463943534 -0.011649340586482267 0 0.0031664516508814943 -0.011992767843290206 0 0.0039670070544838929 -0.011839454028411113 0 0.0028334608054195131 -0.011009349473343186 0 0.0026422407676975164 -0.010935765545850908 0 0.002856789176596152 -0.010811295270450331 0 0.0026064697356766638 -0.010738572318230081 0 0.0026422407676975164 -0.010935765545850908 0 0.002856789176596152 -0.010811295270450331 0 0.0028944089385633505 -0.011743317223648783 0 0.0038716241008792561 -0.011869570528135117 0 0.0030134532902529338 -0.012098637706026349 0 0.0031664516508814943 -0.011992767843290206 0 0.0047405801247529114 -0.012500726903677312 0 0.0031664516508814943 -0.011992767843290206 0 0.0039670070544838929 -0.011839454028411113 0 0.0047405801247529114 -0.012500726903677312 0 0.0046060166442934572 -0.011633586313048255 0 0.0039670070544838929 -0.011839454028411113 0 0.0047405801247529114 -0.012500726903677312 0 0.0055010191224802258 -0.012019316491803326 0 0.0047405801247529114 -0.012500726903677312 0 0.006258660846974985 -0.012929674943845089 0 0.0046060166442934572 -0.011633586313048255 0 0.0055010191224802258 -0.012019316491803326 0 0.0047405801247529114 -0.012500726903677312 0 0.0029823728674878698 -0.010962852235750397 0 0.002856789176596152 -0.010811295270450331 0 0.0030740579260520305 -0.010869960485534238 0 0.0028334608054195131 -0.011009349473343186 0 0.0029823728674878698 -0.010962852235750397 0 0.002856789176596152 -0.010811295270450331 0 0.0038716241008792561 -0.011869570528135117 0 0.0043729262359212201 -0.010053072920076048 0 0.0043729262359212201 -0.010053072920076048 0 0.0056277795901485102 -0.0092087280400662015 0 0.0046690649304433176 -0.0086537251870711027 0 0.004887419465542585 -0.0076767227416560026 0 0.0047764955056253961 -0.0087080793715741001 0 0.0055010191224802258 -0.012019316491803326 0 0.006258660846974985 -0.012929674943845089 0 0.0064037928224075528 -0.01170901613313766 0 0.0048069584001224136 -0.0075497191237974878 0 0.0056277795901485102 -0.0092087280400662015 0 -0.00011694900298143142 -0.011317430067180279 0 -0.0008318127457692425 -0.012165598175865405 0 -0.00096490633259110089 -0.011153602099510537 0 -0.00011694900298143142 -0.011317430067180279 0 0.00016604522421155609 -0.012231085881934211 0 -0.0008318127457692425 -0.012165598175865405 0 -0.00011694900298143142 -0.011317430067180279 0 0.00016604522421155609 -0.012231085881934211 0 0.00044721918752776399 -0.01158776176349237 0 -0.0019809631036460632 -0.011951313712215425 0 -0.00096490633259110089 -0.011153602099510537 0 -0.0019740551341273917 -0.01085584357203139 0 -0.0008318127457692425 -0.012165598175865405 0 -0.0019809631036460632 -0.011951313712215425 0 -0.00096490633259110089 -0.011153602099510537 0 -0.0019740551341273917 -0.01085584357203139 0 -0.00098509921567886747 -0.010250042371221303 0 -0.0022479631032915029 -0.009684182856632825 0 -0.00096490633259110089 -0.011153602099510537 0 -0.0019740551341273917 -0.01085584357203139 0 -0.00098509921567886747 -0.010250042371221303 0 0.0001299961469499227 -0.0095888724144293294 0 -0.00098509921567886747 -0.010250042371221303 0 -1.3058977022424859e-05 -0.010564846225050814 0 -0.00096490633259110089 -0.011153602099510537 0 -0.00098509921567886747 -0.010250042371221303 0 -1.3058977022424859e-05 -0.010564846225050814 0 -0.00011694900298143142 -0.011317430067180279 0 -0.00096490633259110089 -0.011153602099510537 0 -1.3058977022424859e-05 -0.010564846225050814 0 -0.00011694900298143142 -0.011317430067180279 0 -1.3058977022424859e-05 -0.010564846225050814 0 0.0008050271671959828 -0.011003411940768367 0 0.0001299961469499227 -0.0095888724144293294 0 -1.3058977022424859e-05 -0.010564846225050814 0 0.00098852027317565408 -0.010050299504862135 0 0.00098852027317565408 -0.010050299504862135 0 0.0016253741337552434 -0.010642461655352211 0 0.0008050271671959828 -0.011003411940768367 0 -1.3058977022424859e-05 -0.010564846225050814 0 0.00098852027317565408 -0.010050299504862135 0 0.0008050271671959828 -0.011003411940768367 0 0.001915319299885484 -0.0095752547834316651 0 0.0030763783821367405 -0.0092106546160672272 0 0.0022554098205688172 -0.010245272850907079 0 0.001915319299885484 -0.0095752547834316651 0 0.0016253741337552434 -0.010642461655352211 0 0.0022554098205688172 -0.010245272850907079 0 0.001915319299885484 -0.0095752547834316651 0 0.00098852027317565408 -0.010050299504862135 0 0.0016253741337552434 -0.010642461655352211 0 0.0028795261905096713 -0.010538852818358865 0 0.0022554098205688172 -0.010245272850907079 0 0.0022303049367295318 -0.011148889972837648 0 0.0016253741337552434 -0.010642461655352211 0 0.0022554098205688172 -0.010245272850907079 0 0.0022303049367295318 -0.011148889972837648 0 0.0016253741337552434 -0.010642461655352211 0 0.0022303049367295318 -0.011148889972837648 0 0.0015602228411818195 -0.011551370976872677 0 0.0015602228411818195 -0.011551370976872677 0 0.0023114091971236763 -0.012039286520735295 0 0.0015306984994437806 -0.012365016331015612 0 0.0028125033394881859 -0.01135916407616271 0 0.0022303049367295318 -0.011148889972837648 0 0.0023114091971236763 -0.012039286520735295 0 0.0022303049367295318 -0.011148889972837648 0 0.0015602228411818195 -0.011551370976872677 0 0.0023114091971236763 -0.012039286520735295 0 0.0008050271671959828 -0.011003411940768367 0 0.00044721918752776399 -0.01158776176349237 0 0.00090441662953302121 -0.011923834542578976 0 -0.00011694900298143142 -0.011317430067180279 0 0.0008050271671959828 -0.011003411940768367 0 0.00044721918752776399 -0.01158776176349237 0 0.0015602228411818195 -0.011551370976872677 0 0.0008050271671959828 -0.011003411940768367 0 0.00090441662953302121 -0.011923834542578976 0 0.0016253741337552434 -0.010642461655352211 0 0.0015602228411818195 -0.011551370976872677 0 0.0008050271671959828 -0.011003411940768367 0 0.0015602228411818195 -0.011551370976872677 0 0.00090441662953302121 -0.011923834542578976 0 0.0015306984994437806 -0.012365016331015612 0 0.00016604522421155609 -0.012231085881934211 0 0.00044721918752776399 -0.01158776176349237 0 0.00090441662953302121 -0.011923834542578976 0 0.00016604522421155609 -0.012231085881934211 0 0.00083443044985042573 -0.012486404664788864 0 0.00056944942466324649 -0.013061675211940703 0 0.00016604522421155609 -0.012231085881934211 0 0.00090441662953302121 -0.011923834542578976 0 0.00083443044985042573 -0.012486404664788864 0 0.00083443044985042573 -0.012486404664788864 0 0.0011965702461094367 -0.012792107362377219 0 0.00056944942466324649 -0.013061675211940703 0 0.00090441662953302121 -0.011923834542578976 0 0.00083443044985042573 -0.012486404664788864 0 0.0015306984994437806 -0.012365016331015612 0 0.00083443044985042573 -0.012486404664788864 0 0.0011965702461094367 -0.012792107362377219 0 0.0015306984994437806 -0.012365016331015612 0 0.0011965702461094367 -0.012792107362377219 0 0.00056944942466324649 -0.013061675211940703 0 0.0016192068898217716 -0.013214520620386553 0 0.0028944089385633505 -0.011743317223648783 0 0.0013657595195123869 -0.01192393785338074 0 0.003212745684440339 -0.012355567815640334 0 0.0020419379906628557 -0.012639238761558423 0 0.0018257038893491413 -0.013325298535963041 0 0.003212745684440339 -0.012355567815640334 0 0.0023114091971236763 -0.012039286520735295 0 0.0020419379906628557 -0.012639238761558423 0 0.0023114091971236763 -0.012039286520735295 0 0.0020419379906628557 -0.012639238761558423 0 0.0015306984994437806 -0.012365016331015612 0 0.0020419379906628557 -0.012639238761558423 0 0.0015306984994437806 -0.012365016331015612 0 0.0016015763903749999 -0.01274815861118829 0 0.0011965702461094367 -0.012792107362377219 0 0.0015306984994437806 -0.012365016331015612 0 0.0016015763903749999 -0.01274815861118829 0 0.0020419379906628557 -0.012639238761558423 0 0.0016192068898217716 -0.013214520620386553 0 0.0018257038893491413 -0.013325298535963041 0 0.0011965702461094367 -0.012792107362377219 0 0.0016015763903749999 -0.01274815861118829 0 0.0016192068898217716 -0.013214520620386553 0 0.0015684466603740092 -0.012136995759547967 0 0.0013657595195123869 -0.01192393785338074 0 0.0020419379906628557 -0.012639238761558423 0 0.0016015763903749999 -0.01274815861118829 0 0.0016192068898217716 -0.013214520620386553 0 0.00030652398150595611 -0.01175267808341382 0 0.00082879345129466286 -0.011448904742273933 0 0.00027860277009901388 -0.011161039916250741 0 0.0016512031021524937 -0.011055929448508063 0 0.0013657595195123869 -0.01192393785338074 0 0.0016192068898217716 -0.013214520620386553 0 0.0018320108803332148 -0.01332524899244477 0 0.00015040323661826862 -0.014563371850810369 0 0.00030652398150595611 -0.01175267808341382 0 0.00027860277009901388 -0.011161039916250741 0 -0.00032835756747031275 -0.011557050924385276 0 0.0013657595195123869 -0.01192393785338074 0 -5.8720777132239454e-05 -0.013044792322565014 0 0.00056944942466324649 -0.013061675211940703 0 0.0016192068898217716 -0.013214520620386553 0 0.00015040323661826862 -0.014563371850810369 0 0.00056944942466324649 -0.013061675211940703 0 0.00015040323661826862 -0.014563371850810369 0 -0.00047433886186355848 -0.013205359738426976 0 0.00015040323661826862 -0.014563371850810369 0 -0.00047433886186355848 -0.013205359738426976 0 -0.0011564010468991289 -0.0142074000380532 0 0.00016604522421155609 -0.012231085881934211 0 -0.0008318127457692425 -0.012165598175865405 0 -0.00047433886186355848 -0.013205359738426976 0 0.00016604522421155609 -0.012231085881934211 0 0.00056944942466324649 -0.013061675211940703 0 -0.00047433886186355848 -0.013205359738426976 0 -0.0008318127457692425 -0.012165598175865405 0 -0.0019809631036460632 -0.011951313712215425 0 -0.0016095291314120212 -0.01312959042960625 0 -0.0008318127457692425 -0.012165598175865405 0 -0.00047433886186355848 -0.013205359738426976 0 -0.0016095291314120212 -0.01312959042960625 0 -0.00047433886186355848 -0.013205359738426976 0 -0.0016095291314120212 -0.01312959042960625 0 -0.0011564010468991289 -0.0142074000380532 0 -0.0014983444992303892 -0.015682605453071468 0 -0.0011564010468991289 -0.0142074000380532 0 -0.0023211056394708131 -0.01440696701674259 0 -0.0016095291314120212 -0.01312959042960625 0 -0.0011564010468991289 -0.0142074000380532 0 -0.0023211056394708131 -0.01440696701674259 0 -0.0023211056394708131 -0.01440696701674259 0 -0.0037409684579944209 -0.014092467591489098 0 -0.0029559844841745534 -0.012998086609724326 0 -0.003288412327926679 -0.015739462034058054 0 -0.0023211056394708131 -0.01440696701674259 0 -0.0037409684579944209 -0.014092467591489098 0 -0.003288412327926679 -0.015739462034058054 0 -0.0037409684579944209 -0.014092467591489098 0 -0.0048108407931834974 -0.014398247123454866 0 -0.0037409684579944209 -0.014092467591489098 0 -0.0029559844841745534 -0.012998086609724326 0 -0.0044418299867346684 -0.012887070924517534 0 -0.0016095291314120212 -0.01312959042960625 0 -0.0023211056394708131 -0.01440696701674259 0 -0.0029559844841745534 -0.012998086609724326 0 -0.0019809631036460632 -0.011951313712215425 0 -0.0016095291314120212 -0.01312959042960625 0 -0.0029559844841745534 -0.012998086609724326 0 -0.0019809631036460632 -0.011951313712215425 0 -0.0029559844841745534 -0.012998086609724326 0 -0.0034274882018644932 -0.01125593268291079 0 -0.0019809631036460632 -0.011951313712215425 0 -0.0019740551341273917 -0.01085584357203139 0 -0.0034274882018644932 -0.01125593268291079 0 -0.0029559844841745534 -0.012998086609724326 0 -0.0034274882018644932 -0.01125593268291079 0 -0.0044418299867346684 -0.012887070924517534 0 -0.0043987052664074379 -0.01361973440345767 0 -0.0047257423032673815 -0.014089308429007815 0 -0.0054545070832955327 -0.016029848894261546 0 -0.0049470019477597469 -0.015898136052123556 0 -0.0051326036118311677 -0.015317670328554859 0 -0.0054545070832955327 -0.016029848894261546 0 -0.0054213515838246323 -0.016406471283280849 0 -0.0052099299866201982 -0.016439508530936616 0 -0.0054545070832955327 -0.016029848894261546 0 -0.0049470019477597469 -0.015898136052123556 0 -0.0052099299866201982 -0.016439508530936616 0 -0.0019740551341273917 -0.01085584357203139 0 -0.0034274882018644932 -0.01125593268291079 0 -0.0022479631032915029 -0.009684182856632825 0 -0.0043987052664074379 -0.01361973440345767 0 -0.0040363270914503604 -0.013037265857641391 0 -0.0054545070832955327 -0.016029848894261546 0 -0.0054213515838246323 -0.016406471283280849 0 -0.0055465141849589047 -0.016456565222789602 0 -0.0043818151971776083 -0.01603391772565944 0 -0.0043257805812388812 -0.016497783213169272 0 -0.0038385277828465792 -0.016334698974392832 0 -0.0043818151971776083 -0.01603391772565944 0 -0.0043257805812388812 -0.016497783213169272 0 -0.0047913016329938904 -0.016359533748750012 0 -0.0047913016329938904 -0.016359533748750012 0 -0.0049470019477597469 -0.015898136052123556 0 -0.0052099299866201982 -0.016439508530936616 0 -0.0043818151971776083 -0.01603391772565944 0 -0.0047913016329938904 -0.016359533748750012 0 -0.0049470019477597469 -0.015898136052123556 0 -0.0049470019477597469 -0.015898136052123556 0 -0.0043568853691208437 -0.015246291494382423 0 -0.0051326036118311677 -0.015317670328554859 0 -0.0043818151971776083 -0.01603391772565944 0 -0.0049470019477597469 -0.015898136052123556 0 -0.0043568853691208437 -0.015246291494382423 0 -0.0043818151971776083 -0.01603391772565944 0 -0.0043568853691208437 -0.015246291494382423 0 -0.0037905558387618227 -0.01568081349119687 0 -0.0043568853691208437 -0.015246291494382423 0 -0.0051326036118311677 -0.015317670328554859 0 -0.0046214017449057948 -0.014446775602505362 0 -0.0043568853691208437 -0.015246291494382423 0 -0.0046214017449057948 -0.014446775602505362 0 -0.0038531681709917079 -0.014556462898366363 0 -0.0047257423032673815 -0.014089308429007815 0 -0.004633835219936387 -0.014342814274368692 0 -0.0037409684579944209 -0.014092467591489098 0 -0.0044418299867346684 -0.012887070924517534 0 -0.0044034678543618247 -0.013924056738436288 0 -0.0044418299867346684 -0.012887070924517534 0 -0.0044034678543618247 -0.013924056738436288 0 -0.0046214017449057948 -0.014446775602505362 0 -0.0037409684579944209 -0.014092467591489098 0 -0.0044034678543618247 -0.013924056738436288 0 -0.0048108407931834974 -0.014398247123454866 0 -0.0044034678543618247 -0.013924056738436288 0 -0.0048108407931834974 -0.014398247123454866 0 -0.0046214017449057948 -0.014446775602505362 0 -0.0036831625917630776 -0.015695902339573589 0 -0.0029767999374408238 -0.01578350519965219 0 -0.0048108407931834974 -0.014398247123454866 0 -0.0046214017449057948 -0.014446775602505362 0 -0.0038531681709917079 -0.014556462898366363 0 -0.0023076139887839996 -0.016881356275129541 0 -0.0027480070013213061 -0.016897709628980805 0 -0.0019823984821490627 -0.017397235492390837 0 -0.0019203870728280465 -0.016974475722487285 0 -0.0023076139887839996 -0.016881356275129541 0 -0.0019823984821490627 -0.017397235492390837 0 -0.0019203870728280465 -0.016974475722487285 0 -0.0015797007375845096 -0.017280173843570033 0 -0.0019823984821490627 -0.017397235492390837 0 -0.0016912917317239934 -0.017093730508149781 0 -0.0015423934377736743 -0.018127423856023155 0 -0.0015423934377736743 -0.018127423856023155 0 -0.0018966488835334458 -0.017679744093501107 0 -0.0033143722638552327 -0.015243518905258137 0 -0.0038531681709917079 -0.014556462898366363 0 -0.0024051386413055723 -0.015240132139866124 0 -0.0029767999374408238 -0.01578350519965219 0 -0.0018966488835334458 -0.017679744093501107 0 -0.0015797007375845096 -0.017280173843570033 0 -0.0019823984821490627 -0.017397235492390837 0 -0.0014907309193225964 -0.017659882529991486 0 -0.0033143722638552327 -0.015243518905258137 0 -0.00383901477106432 -0.015185227724720585 0 -0.0038531681709917079 -0.014556462898366363 0 -0.0043568853691208437 -0.015246291494382423 0 -0.00383901477106432 -0.015185227724720585 0 -0.0038531681709917079 -0.014556462898366363 0 -0.00082912383132073965 -0.017705120015015542 0 -0.00039262967218670715 -0.018658107100646228 0 -0.0010092451751530563 -0.019066641581709537 0 -0.00082912383132073965 -0.017705120015015542 0 -0.0016771017637556235 -0.018564340921358478 0 -0.0010092451751530563 -0.019066641581709537 0 -0.0016771017637556235 -0.018564340921358478 0 -0.0014470653822274584 -0.019716908331892127 0 -0.0010092451751530563 -0.019066641581709537 0 -0.0014470653822274584 -0.019716908331892127 0 -0.0010092451751530563 -0.019066641581709537 0 -0.0012990178718020331 -0.019796903111954908 0 -0.0010092451751530563 -0.019066641581709537 0 -0.00077903606287844495 -0.019662577023571423 0 -0.0012990178718020331 -0.019796903111954908 0 -0.0010092451751530563 -0.019066641581709537 0 -0.00025451432003690459 -0.019530010748888812 0 -0.00077903606287844495 -0.019662577023571423 0 -0.00039262967218670715 -0.018658107100646228 0 -0.0010092451751530563 -0.019066641581709537 0 -0.00025451432003690459 -0.019530010748888812 0 -0.00026398499532524061 -0.020152902283895761 0 -0.00025451432003690459 -0.019530010748888812 0 -0.00077903606287844495 -0.019662577023571423 0 -0.00026398499532524061 -0.020152902283895761 0 -0.00077903606287844495 -0.019662577023571423 0 -0.00078590196231212786 -0.020161118366562276 0 -0.00026398499532524061 -0.020152902283895761 0 -0.00078590196231212786 -0.020161118366562276 0 -0.00041324269053045814 -0.020479677253190803 0 -0.00077903606287844495 -0.019662577023571423 0 -0.00078590196231212786 -0.020161118366562276 0 -0.00098307102040286784 -0.019918254946608913 0 -0.0018966488835334458 -0.017679744093501107 0 -0.0014641515322888459 -0.018578570334257884 0 -0.0024051386413055723 -0.015240132139866124 0 -0.0020607437632125052 -0.016565215953602091 0 -0.0025653704266838571 -0.015713908858446941 0 -0.0014095411998085216 -0.019744160344067514 0 -0.0011266259784816987 -0.020223786023683861 0 -0.0010972172973049256 -0.020561124876956903 0 -0.00078590196231212786 -0.020161118366562276 0 -0.0011266259784816987 -0.020223786023683861 0 -0.00093815542775576449 -0.020371114810249807 0 -0.00078590196231212786 -0.020161118366562276 0 -0.0011266259784816987 -0.020223786023683861 0 -0.00098307102040286784 -0.019918254946608913 0 -0.00077903606287844495 -0.019662577023571423 0 -0.00098307102040286784 -0.019918254946608913 0 -0.0012990178718020331 -0.019796903111954908 0 -0.0011266259784816987 -0.020223786023683861 0 -0.00098307102040286784 -0.019918254946608913 0 -0.0012037508596368042 -0.019945853293363822 0 -0.00098307102040286784 -0.019918254946608913 0 -0.0012037508596368042 -0.019945853293363822 0 -0.0012990178718020331 -0.019796903111954908 0 -0.0014095411998085216 -0.019744160344067514 0 -0.0011266259784816987 -0.020223786023683861 0 -0.0012037508596368042 -0.019945853293363822 0 -0.0014095411998085216 -0.019744160344067514 0 -0.0012037508596368042 -0.019945853293363822 0 -0.0012990178718020331 -0.019796903111954908 0 -0.0018966488835334458 -0.017679744093501107 0 -0.001548990596331313 -0.018040223147040808 0 -0.0020607437632125052 -0.016565215953602091 0 -0.0025653704266838571 -0.015713908858446941 0 -0.0025482720653863537 -0.016065850112621596 0 -0.0025264201466593341 -0.016424034338039246 0 -0.0020607437632125052 -0.016565215953602091 0 -0.0025482720653863537 -0.016065850112621596 0 -0.0025264201466593341 -0.016424034338039246 0 -0.0023818067606009587 -0.016661511694672327 0 -0.0020607437632125052 -0.016565215953602091 0 -0.0023818067606009587 -0.016661511694672327 0 -0.0021587940016251292 -0.017074302742032872 0 -0.0020607437632125052 -0.016565215953602091 0 -0.0023818067606009587 -0.016661511694672327 0 -0.0021587940016251292 -0.017074302742032872 0 -0.0027695658734497742 -0.01658410470348818 0 -0.0010972172973049256 -0.020561124876956903 0 -0.00074809734683389014 -0.020528362399350811 0 -0.00078191796910021406 -0.020813569446615134 0 -0.0010972172973049256 -0.020561124876956903 0 -0.00093815542775576449 -0.020371114810249807 0 -0.00074809734683389014 -0.020528362399350811 0 -0.0011266259784816987 -0.020223786023683861 0 -0.0010972172973049256 -0.020561124876956903 0 -0.00093815542775576449 -0.020371114810249807 0 -0.00078590196231212786 -0.020161118366562276 0 -0.00074809734683389014 -0.020528362399350811 0 -0.00041324269053045814 -0.020479677253190803 0 -0.00078590196231212786 -0.020161118366562276 0 -0.00093815542775576449 -0.020371114810249807 0 -0.00074809734683389014 -0.020528362399350811 0 -0.00074809734683389014 -0.020528362399350811 0 -0.00050110420732810026 -0.020751391585908632 0 -0.00078191796910021406 -0.020813569446615134 0 -0.00074809734683389014 -0.020528362399350811 0 -0.00050110420732810026 -0.020751391585908632 0 -0.00041324269053045814 -0.020479677253190803 0 -0.0037905558387618227 -0.01568081349119687 0 -0.0032444491432815641 -0.015685698607904343 0 -0.003286392159529361 -0.016113942901705924 0 -0.0043568853691208437 -0.015246291494382423 0 -0.00383901477106432 -0.015185227724720585 0 -0.0037905558387618227 -0.01568081349119687 0 -0.0033143722638552327 -0.015243518905258137 0 -0.00383901477106432 -0.015185227724720585 0 -0.0037905558387618227 -0.01568081349119687 0 -0.0033143722638552327 -0.015243518905258137 0 -0.0037905558387618227 -0.01568081349119687 0 -0.0032444491432815641 -0.015685698607904343 0 -0.0033143722638552327 -0.015243518905258137 0 -0.0024051386413055723 -0.015240132139866124 0 -0.002805802753627309 -0.015430368255399445 0 -0.0033143722638552327 -0.015243518905258137 0 -0.002805802753627309 -0.015430368255399445 0 -0.0029319778444383774 -0.015537545037803663 0 -0.0033143722638552327 -0.015243518905258137 0 -0.0029319778444383774 -0.015537545037803663 0 -0.0032444491432815641 -0.015685698607904343 0 -0.0024051386413055723 -0.015240132139866124 0 -0.002805802753627309 -0.015430368255399445 0 -0.0025653704266838571 -0.015713908858446941 0 -0.002805802753627309 -0.015430368255399445 0 -0.0029319778444383774 -0.015537545037803663 0 -0.0025653704266838571 -0.015713908858446941 0 -0.0025653704266838571 -0.015713908858446941 0 -0.0028649083570902742 -0.015851509043042208 0 -0.0025482720653863537 -0.016065850112621596 0 -0.0029319778444383774 -0.015537545037803663 0 -0.0025653704266838571 -0.015713908858446941 0 -0.0028649083570902742 -0.015851509043042208 0 -0.0028649083570902742 -0.015851509043042208 0 -0.0025482720653863537 -0.016065850112621596 0 -0.0028555112952523996 -0.016179669728494252 0 -0.0028649083570902742 -0.015851509043042208 0 -0.003286392159529361 -0.016113942901705924 0 -0.0028555112952523996 -0.016179669728494252 0 -0.0028649083570902742 -0.015851509043042208 0 -0.0032444491432815641 -0.015685698607904343 0 -0.003286392159529361 -0.016113942901705924 0 -0.0029319778444383774 -0.015537545037803663 0 -0.0028649083570902742 -0.015851509043042208 0 -0.0032444491432815641 -0.015685698607904343 0 -0.003286392159529361 -0.016113942901705924 0 -0.0027695658734497742 -0.01658410470348818 0 -0.0034099149908073077 -0.01649355588675536 0 -0.0021587940016251292 -0.017074302742032872 0 -0.0027695658734497742 -0.01658410470348818 0 -0.0037148090488367436 -0.016935693182562165 0 -0.003286392159529361 -0.016113942901705924 0 -0.0028555112952523996 -0.016179669728494252 0 -0.0027695658734497742 -0.01658410470348818 0 -0.0027695658734497742 -0.01658410470348818 0 -0.0034099149908073077 -0.01649355588675536 0 -0.0037148090488367436 -0.016935693182562165 0 -0.0025264201466593341 -0.016424034338039246 0 -0.0025482720653863537 -0.016065850112621596 0 -0.0028555112952523996 -0.016179669728494252 0 -0.0025264201466593341 -0.016424034338039246 0 -0.0028555112952523996 -0.016179669728494252 0 -0.0027695658734497742 -0.01658410470348818 0 -0.0025264201466593341 -0.016424034338039246 0 -0.0023818067606009587 -0.016661511694672327 0 -0.0027695658734497742 -0.01658410470348818 0 -0.0034099149908073077 -0.01649355588675536 0 -0.0038385277828465792 -0.016334698974392832 0 -0.0037148090488367436 -0.016935693182562165 0 -0.003286392159529361 -0.016113942901705924 0 -0.0034099149908073077 -0.01649355588675536 0 -0.0038385277828465792 -0.016334698974392832 0 -0.0037905558387618227 -0.01568081349119687 0 -0.003286392159529361 -0.016113942901705924 0 -0.0038385277828465792 -0.016334698974392832 0 -0.0043818151971776083 -0.01603391772565944 0 -0.0037905558387618227 -0.01568081349119687 0 -0.0038385277828465792 -0.016334698974392832 0 -0.0043257805812388812 -0.016497783213169272 0 -0.0038385277828465792 -0.016334698974392832 0 -0.0037148090488367436 -0.016935693182562165 0 -0.0030349594425717876 -0.017815911608391917 0 -0.0026728793032759156 -0.017946062916103532 0 -0.0030401270641231149 -0.018029154974891375 0 -0.0021587940016251292 -0.017074302742032872 0 -0.0030349594425717876 -0.017815911608391917 0 -0.0026728793032759156 -0.017946062916103532 0 -0.0021704277202686437 -0.017082777337356567 0 -0.0033242948586772046 -0.017381507287715561 0 -0.0038263314868127894 -0.018786331850106395 0 -0.0037442536393212213 -0.018381171425573231 0 -0.0040752205766795609 -0.018727496954565853 0 -0.0037442536393212213 -0.018381171425573231 0 -0.0040752205766795609 -0.018727496954565853 0 -0.0040213744506279667 -0.018396194860147187 0 -0.0038263314868127894 -0.018786331850106395 0 -0.0037442536393212213 -0.018381171425573231 0 -0.0033410165052410136 -0.018508374129575716 0 -0.0037442536393212213 -0.018381171425573231 0 -0.0033410165052410136 -0.018508374129575716 0 -0.0034033332568220347 -0.018176299238343449 0 -0.0033305789671834846 -0.018310384848946457 0 -0.003181948631570303 -0.018286745737846156 0 -0.0033410165052410136 -0.018508374129575716 0 -0.0034033332568220347 -0.018176299238343449 0 -0.003174818940447677 -0.018232044347656896 0 -0.00015478893662208772 -0.021095673613038397 0 -0.00041734196031838037 -0.02096037350813847 0 -0.00088560136480286605 -0.021202506323034387 0 -0.0023520877807358775 -0.020436410026489157 0 -0.0025891561120112479 -0.019398762950645205 0 -0.00041734196031838037 -0.02096037350813847 0 -0.00064003660767114937 -0.02094129946207901 0 -0.00088560136480286605 -0.021202506323034387 0 -0.00050110420732810026 -0.020751391585908632 0 -0.00041734196031838037 -0.02096037350813847 0 -0.00064003660767114937 -0.02094129946207901 0 -0.00050110420732810026 -0.020751391585908632 0 -0.00064003660767114937 -0.02094129946207901 0 -0.00078191796910021406 -0.020813569446615134 0 -0.00064003660767114937 -0.02094129946207901 0 -0.00078191796910021406 -0.020813569446615134 0 -0.00088560136480286605 -0.021202506323034387 0 -0.0021587940016251292 -0.017074302742032872 0 -0.0020607437632125052 -0.016565215953602091 0 -0.0017490853812063014 -0.017870119912771969 0 -0.0010972172973049256 -0.020561124876956903 0 -0.00078191796910021406 -0.020813569446615134 0 -0.00088560136480286605 -0.021202506323034387 0 -0.0033305789671834846 -0.018310384848946457 0 -0.0025891561120112479 -0.019398762950645205 0 -0.0014641515322888459 -0.018578570334257884 0 -0.0025891561120112479 -0.019398762950645205 0 -0.0021587940016251292 -0.017074302742032872 0 -0.0026728793032759156 -0.017946062916103532 0 -0.0017490853812063014 -0.017870119912771969 0 -0.0038263314868127894 -0.018786331850106395 0 -0.00426464006694738 -0.019035187529742793 0 -0.0040752205766795609 -0.018727496954565853 0 -0.0040752205766795609 -0.018727496954565853 0 -0.0042065721930179259 -0.018624712601621695 0 -0.0040213744506279667 -0.018396194860147187 0 -0.0040752205766795609 -0.018727496954565853 0 -0.004328553038834118 -0.019012259495451576 0 -0.0042065721930179259 -0.018624712601621695 0 -0.0025891561120112479 -0.019398762950645205 0 -0.0038505987079887026 -0.018816699806238239 0 -0.00426464006694738 -0.019035187529742793 0 -0.0040752205766795609 -0.018727496954565853 0 -0.004328553038834118 -0.019012259495451576 0 -0.004720008830210962 -0.01967513446933734 0 -0.0045247019016941507 -0.019551997118912701 0 -0.0044086345188769265 -0.019380342154354527 0 -0.004720008830210962 -0.01967513446933734 0 -0.0044086345188769265 -0.019380342154354527 0 -0.0045325449103732424 -0.019172353908630493 0 -0.0044086345188769265 -0.019380342154354527 0 -0.004328553038834118 -0.019012259495451576 0 -0.0045325449103732424 -0.019172353908630493 0 -0.004328553038834118 -0.019012259495451576 0 -0.0045325449103732424 -0.019172353908630493 0 -0.0045424848122942963 -0.018794160072286851 0 -0.004720008830210962 -0.01967513446933734 0 -0.0045325449103732424 -0.019172353908630493 0 -0.00465697684405197 -0.019078817984038595 0 -0.0045325449103732424 -0.019172353908630493 0 -0.00465697684405197 -0.019078817984038595 0 -0.0045424848122942963 -0.018794160072286851 0 -0.0049771520607057107 -0.017872965290946809 0 -0.0046613314402680238 -0.018187054496545708 0 -0.0048570110189335635 -0.018641741886353546 0 -0.0046613314402680238 -0.018187054496545708 0 -0.0043973518821320183 -0.018496011813840071 0 -0.0041780782867855797 -0.018017822859166747 0 -0.0046613314402680238 -0.018187054496545708 0 -0.0048570110189335635 -0.018641741886353546 0 -0.0046060778159015096 -0.018523065045322213 0 -0.00465697684405197 -0.019078817984038595 0 -0.0048570110189335635 -0.018641741886353546 0 -0.0045424848122942963 -0.018794160072286851 0 -0.0048570110189335635 -0.018641741886353546 0 -0.0045424848122942963 -0.018794160072286851 0 -0.0046060778159015096 -0.018523065045322213 0 -0.004328553038834118 -0.019012259495451576 0 -0.0045424848122942963 -0.018794160072286851 0 -0.0043973518821320183 -0.018496011813840071 0 -0.0045424848122942963 -0.018794160072286851 0 -0.0046060778159015096 -0.018523065045322213 0 -0.0043973518821320183 -0.018496011813840071 0 -0.0046613314402680238 -0.018187054496545708 0 -0.0046060778159015096 -0.018523065045322213 0 -0.0043973518821320183 -0.018496011813840071 0 -0.0043973518821320183 -0.018496011813840071 0 -0.0042065721930179259 -0.018624712601621695 0 -0.0041780782867855797 -0.018017822859166747 0 -0.0042065721930179259 -0.018624712601621695 0 -0.0040213744506279667 -0.018396194860147187 0 -0.0041780782867855797 -0.018017822859166747 0 -0.004328553038834118 -0.019012259495451576 0 -0.0043973518821320183 -0.018496011813840071 0 -0.0042065721930179259 -0.018624712601621695 0 -0.0040213744506279667 -0.018396194860147187 0 -0.0041780782867855797 -0.018017822859166747 0 -0.0039050686392763444 -0.017999128266282142 0 -0.0041234333253566385 -0.017336859571356035 0 -0.0041780782867855797 -0.018017822859166747 0 -0.0045021696266409486 -0.017631240760466519 0 -0.0041234333253566385 -0.017336859571356035 0 -0.0041780782867855797 -0.018017822859166747 0 -0.0038196337531208667 -0.017576064284293594 0 -0.0046613314402680238 -0.018187054496545708 0 -0.0041780782867855797 -0.018017822859166747 0 -0.0045021696266409486 -0.017631240760466519 0 -0.0049771520607057107 -0.017872965290946809 0 -0.004908554943071991 -0.017262879610180568 0 -0.0045021696266409486 -0.017631240760466519 0 -0.0049771520607057107 -0.017872965290946809 0 -0.0046613314402680238 -0.018187054496545708 0 -0.0045021696266409486 -0.017631240760466519 0 -0.0036317748292948094 -0.018020283492348008 0 -0.0033895077827811632 -0.017857740460598993 0 -0.0035293730459748946 -0.017619303252568309 0 -0.0036317748292948094 -0.018020283492348008 0 -0.0033895077827811632 -0.017857740460598993 0 -0.0034033332568220347 -0.018176299238343449 0 -0.0033895077827811632 -0.017857740460598993 0 -0.0034033332568220347 -0.018176299238343449 0 -0.003128637403224058 -0.017947360368808452 0 -0.0037442536393212213 -0.018381171425573231 0 -0.0036317748292948094 -0.018020283492348008 0 -0.0034033332568220347 -0.018176299238343449 0 -0.0037442536393212213 -0.018381171425573231 0 -0.0036317748292948094 -0.018020283492348008 0 -0.0039050686392763444 -0.017999128266282142 0 -0.0037442536393212213 -0.018381171425573231 0 -0.0040213744506279667 -0.018396194860147187 0 -0.0039050686392763444 -0.017999128266282142 0 -0.0036317748292948094 -0.018020283492348008 0 -0.0039050686392763444 -0.017999128266282142 0 -0.0038196337531208667 -0.017576064284293594 0 -0.0036317748292948094 -0.018020283492348008 0 -0.0038196337531208667 -0.017576064284293594 0 -0.0035293730459748946 -0.017619303252568309 0 -0.0041780782867855797 -0.018017822859166747 0 -0.0039050686392763444 -0.017999128266282142 0 -0.0038196337531208667 -0.017576064284293594 0 -0.0034855742896189733 -0.017236434245693343 0 -0.0038196337531208667 -0.017576064284293594 0 -0.0035293730459748946 -0.017619303252568309 0 -0.0033895077827811632 -0.017857740460598993 0 -0.0035293730459748946 -0.017619303252568309 0 -0.0032385862952036123 -0.017526181045080413 0 -0.0034855742896189733 -0.017236434245693343 0 -0.0035293730459748946 -0.017619303252568309 0 -0.0032385862952036123 -0.017526181045080413 0 -0.0034855742896189733 -0.017236434245693343 0 -0.0030004338641995963 -0.016977454338030166 0 -0.0032385862952036123 -0.017526181045080413 0 -0.0030004338641995963 -0.016977454338030166 0 -0.0032385862952036123 -0.017526181045080413 0 -0.0027932295888576791 -0.017485337961730046 0 -0.0033895077827811632 -0.017857740460598993 0 -0.0032385862952036123 -0.017526181045080413 0 -0.003128637403224058 -0.017947360368808452 0 -0.0032385862952036123 -0.017526181045080413 0 -0.003128637403224058 -0.017947360368808452 0 -0.0027932295888576791 -0.017485337961730046 0 -0.003128637403224058 -0.017947360368808452 0 -0.002795186708357779 -0.017944986438013684 0 -0.0029944598627172931 -0.018109382911738279 0 -0.0027932295888576791 -0.017485337961730046 0 -0.0022287893163242404 -0.017288393983512635 0 -0.0024184973201946194 -0.017781998165764114 0 -0.002795186708357779 -0.017944986438013684 0 -0.0024184973201946194 -0.017781998165764114 0 -0.002647735668206831 -0.018147708824177919 0 -0.003128637403224058 -0.017947360368808452 0 -0.002795186708357779 -0.017944986438013684 0 -0.0027932295888576791 -0.017485337961730046 0 -0.002795186708357779 -0.017944986438013684 0 -0.0027932295888576791 -0.017485337961730046 0 -0.0024184973201946194 -0.017781998165764114 0 -0.0024965636455957117 -0.01682614161133681 0 -0.0027932295888576791 -0.017485337961730046 0 -0.0022287893163242404 -0.017288393983512635 0 -0.0024965636455957117 -0.01682614161133681 0 -0.0030004338641995963 -0.016977454338030166 0 -0.0027932295888576791 -0.017485337961730046 0 -0.0024965636455957117 -0.01682614161133681 0 -0.0020681524015001493 -0.016820289685905446 0 -0.0022287893163242404 -0.017288393983512635 0 -0.0020681524015001493 -0.016820289685905446 0 -0.0022287893163242404 -0.017288393983512635 0 -0.00171043823846963 -0.017104449925168377 0 -0.0007268184977989034 -0.017236098180753685 0 -0.00171043823846963 -0.017104449925168377 0 -0.0016265009997593538 -0.017569729028897214 0 -0.0022287893163242404 -0.017288393983512635 0 -0.00171043823846963 -0.017104449925168377 0 -0.0016265009997593538 -0.017569729028897214 0 -0.0016621071871789216 -0.016521359188505582 0 -0.0012068365299434019 -0.016740132718160727 0 -0.00171043823846963 -0.017104449925168377 0 -0.0016621071871789216 -0.016521359188505582 0 -0.0020681524015001493 -0.016820289685905446 0 -0.00171043823846963 -0.017104449925168377 0 -0.0016265009997593538 -0.017569729028897214 0 -0.0024184973201946194 -0.017781998165764114 0 -0.0022937972690932618 -0.018175627626429113 0 -0.0022287893163242404 -0.017288393983512635 0 -0.0016265009997593538 -0.017569729028897214 0 -0.0024184973201946194 -0.017781998165764114 0 -0.0022937972690932618 -0.018175627626429113 0 -0.0019301487314328188 -0.018495805250798188 0 -0.0028823634994445064 -0.018379912243389102 0 -0.0024184973201946194 -0.017781998165764114 0 -0.0022937972690932618 -0.018175627626429113 0 -0.002647735668206831 -0.018147708824177919 0 -0.0016265009997593538 -0.017569729028897214 0 -0.0022937972690932618 -0.018175627626429113 0 -0.0019301487314328188 -0.018495805250798188 0 -0.00058195292358046661 -0.018332525870794605 0 -0.0016265009997593538 -0.017569729028897214 0 -0.0019301487314328188 -0.018495805250798188 0 -0.0055497220186445442 -0.01650048037430165 0 -0.0054513600773932703 -0.016607927323674613 0 -0.0055465141849589047 -0.016456565222789602 0 -0.0054513600773932703 -0.016607927323674613 0 -0.0054213515838246323 -0.016406471283280849 0 -0.0055465141849589047 -0.016456565222789602 0 -0.00396287118845741 -0.018211352382426847 0 -0.0037328161913879033 -0.017463684536274993 0 -0.0054513600773932703 -0.016607927323674613 0 -0.0052099299866201982 -0.016439508530936616 0 -0.0048151325469597663 -0.016779569132658323 0 -0.0054513600773932703 -0.016607927323674613 0 -0.0054213515838246323 -0.016406471283280849 0 -0.0052099299866201982 -0.016439508530936616 0 -0.0047913016329938904 -0.016359533748750012 0 -0.0052099299866201982 -0.016439508530936616 0 -0.0048151325469597663 -0.016779569132658323 0 -0.0030349594425717876 -0.017815911608391917 0 -0.0030401270641231149 -0.018029154974891375 0 -0.0028823634994445064 -0.018379912243389102 0 -0.0043257805812388812 -0.016497783213169272 0 -0.0047913016329938904 -0.016359533748750012 0 -0.0048151325469597663 -0.016779569132658323 0 -0.0033242948586772046 -0.017381507287715561 0 -0.0037328161913879033 -0.017463684536274993 0 -0.0043257805812388812 -0.016497783213169272 0 -0.0037148090488367436 -0.016935693182562165 0 -0.0048151325469597663 -0.016779569132658323 0 -0.003181948631570303 -0.018286745737846156 0 -0.0029212748013484162 -0.018261171058703521 0 -0.0030401270641231149 -0.018029154974891375 0 -0.0028823634994445064 -0.018379912243389102 0 -0.0028558096298489338 -0.01826371052213319 0 -0.0033410165052410136 -0.018508374129575716 0 -0.003174818940447677 -0.018232044347656896 0 -0.0028558096298489338 -0.01826371052213319 0 -0.0034033332568220347 -0.018176299238343449 0 -0.003128637403224058 -0.017947360368808452 0 -0.003174818940447677 -0.018232044347656896 0 -0.003174818940447677 -0.018232044347656896 0 -0.0029944598627172931 -0.018109382911738279 0 -0.0028558096298489338 -0.01826371052213319 0 -0.003128637403224058 -0.017947360368808452 0 -0.003174818940447677 -0.018232044347656896 0 -0.0029944598627172931 -0.018109382911738279 0 -0.002795186708357779 -0.017944986438013684 0 -0.002647735668206831 -0.018147708824177919 0 -0.0028558096298489338 -0.01826371052213319 0 -0.002795186708357779 -0.017944986438013684 0 -0.0029944598627172931 -0.018109382911738279 0 -0.0028558096298489338 -0.01826371052213319 0 -0.0022937972690932618 -0.018175627626429113 0 -0.0028823634994445064 -0.018379912243389102 0 -0.002647735668206831 -0.018147708824177919 0 -0.0028823634994445064 -0.018379912243389102 0 -0.002647735668206831 -0.018147708824177919 0 -0.0028558096298489338 -0.01826371052213319 0 
</DataArray>
</PointData>
<CellData Scalars="region_id,cross_section_updated," Vectors="" Tensors="stress,">
<DataArray type="Float64" Name="region_id" format="ascii">
6 5 5 5 5 5 5 5 5 6 5 5 5 6 5 5 5 5 5 5 5 5 5 5 5 5 5 5 5 6 5 5 6 5 5 5 6 5 5 5 6 5 5 5 5 5 5 5 5 6 5 5 5 5 5 5 6 5 5 5 5 5 5 5 5 5 6 5 5 6 5 5 5 6 5 6 5 6 6 5 5 5 5 5 5 5 5 5 6 5 6 5 5 6 5 5 5 5 5 5 5 5 5 5 5 5 5 5 5 6 5 5 5 5 6 5 5 6 6 5 5 6 5 5 5 6 6 6 5 6 5 5 5 5 5 5 5 5 5 6 6 5 5 5 5 5 5 6 5 5 5 5 5 6 6 5 5 6 5 5 6 6 5 6 6 5 5 5 5 5 5 5 5 5 5 5 5 6 5 5 6 5 5 5 5 5 5 5 5 5 5 5 5 5 5 5 5 5 5 5 5 6 5 5 5 5 5 5 5 5 5 5 5 5 5 5 5 6 5 5 6 5 5 5 5 6 6 5 5 5 5 5 5 5 5 5 5 5 5 5 5 5 6 5 5 5 6 5 5 5 5 5 5 5 5 6 6 5 5 5 5 5 5 5 5 5 6 5 5 5 5 5 6 5 6 5 5 5 5 5 6 6 5 5 5 6 5 6 5 5 5 6 5 6 5 5 6 5 5 5 6 5 5 5 5 5 6 6 5 5 6 5 6 6 5 5 6 5 6 5 5 5 5 6 5 6 5 5 6 6 6 5 6 5 6 6 5 5 5 5 5 5 5 5 5 6 5 5 5 5 5 5 5 5 5 5 5 5 5 5 5 5 5 5 5 5 5 5 5 5 6 5 6 5 5 5 5 5 6 5 6 5 5 6 5 5 5 5 6 5 6 5 5 5 5 5 5 5 5 5 5 5 5 5 6 5 5 6 5 5 5 5 5 5 5 5 5 5 5 5 5 5 5 5 5 6 5 5 5 5 5 5 5 5 5 5 6 5 5 5 6 6 5 5 5 5 5 5 5 5 5 5 5 5 5 5 5 5 5 5 5 5 5 5 5 6 5 5 6 5 5 6 5 6 5 5 5 6 5 6 6 5 5 5 5 5 5 5 5 5 5 6 5 5 5 5 5 5 5 5 5 5 5 5 5 5 5 5 5 5 5 5 5 5 5 5 5 5 5 5 5 5 5 5 6 5 5 5 5 6 5 5 5 5 5 5 5 6 5 5 5 5 5 5 5 5 5 6 5 6 6 5 5 6 5 6 5 5 5 5 5 5 5 5 6 5 5 5 5 5 6 5 5 5 5 5 5 6 5 5 5 5 5 5 5 5 6 5 6 5 5 5 5 5 6 5 6 5 5 5 5 5 5 6 5 5 5 5 5 5 5 5 5 5 6 6 5 5 5 5 6 5 5 5 5 5 5 5 5 5 5 5 5 6 5 5 6 5 5 5 5 5 5 5 5 5 5 6 6 5 5 5 5 5 5 5 5 5 5 6 5 6 5 5 5 5 5 5 5 5 5 5 5 5 5 5 5 5 5 5 5 5 5 5 5 5 5 5 5 5 5 5 5 5 5 5 5 5 5 5 5 6 5 5 5 6 5 6 5 6 5 5 6 5 6 5 6 5 5 6 5 5 5 5 5 5 5 5 6 5 5 6 5 5 5 5 6 5 5 5 5 5 5 5 5 5 5 6 5 6 5 6 5 6 5 6 5 5 5 6 5 6 5 5 5 5 5 5 5 5 5 5 5 5 6 5 5 6 6 5 5 5 6 5 5 6 5 5 6 5 5 5 6 5 5 5 5 5 6 5 5 6 6 5 5 5 6 6 6 5 5 6 5 5 6 5 5 5 5 5 5 6 5 5 6 5 5 6 5 5 5 5 5 5 5 5 6 5 5 5 5 5 6 6 6 5 5 5 5 5 5 5 5 5 5 5 6 5 5 5 5 6 5 5 5 5 5 5 5 6 5 5 5 6 5 6 5 6 5 6 5 5 5 5 5 5 5 5 5 5 6 5 5 5 5 5 5 5 5 6 5 5 6 5 5 5 5 6 5 5 5 5 5 5 6 5 6 5 5 5 5 5 5 6 6 5 5 5 5 6 5 6 5 5 5 6 5 5 5 5 5 5 5 6 6 5 5 6 5 6 6 6 5 5 5 5 5 5 5 6 5 5 5 5 5 5 5 5 5 5 5 5 5 6 5 5 5 5 5 5 5 5 5 5 6 5 5 6 5 5 5 5 5 6 5 5 5 5 5 5 5 5 6 5 6 5 5 6 5 5 6 5 5 5 5 6 5 5 5 5 5 6 5 5 5 5 5 5 5 5 5 6 5 5 6 6 5 5 5 5 6 5 6 5 5 6 6 5 6 5 6 5 5 5 5 5 6 5 5 5 6 5 5 5 6 5 5 5 5 5 5 5 5 5 5 6 5 5 5 5 5 5 5 5 5 5 5 5 5 5 5 5 5 5 6 5 5 6 5 5 5 5 6 5 5 5 5 5 5 5 5 5 5 5 5 5 5 5 5 5 5 5 5 5 5 5 5 5 5 5 5 5 5 5 5 5 5 5 5 5 5 5 5 5 5 5 5 5 5 5 5 5 5 5 5 5 5 5 5 5 5 6 5 5 5 5 5 5 5 5 5 5 5 5 5 5 5 5 5 5 5 6 5 5 5 5 6 5 5 5 5 5 5 5 5 5 5 5 5 5 5 5 5 5 5 6 5 5 5 5 6 5 5 5 5 5 6 6 5 5 5 5 5 5 5 5 5 5 5 5 5 5 5 5 5 5 6 5 5 5 6 5 6 5 5 5 5 5 5 5 5 5 6 5 5 5 5 6 6 5 5 5 5 5 5 5 5 5 5 5 5 5 5 5 5 5 5 5 6 5 5 5 5 5 5 5 5 5 5 5 5 5 6 5 5 5 5 5 5 5 5 5 5 5 5 5 5 5 5 5 5 5 5 5 5 6 5 5 5 5 5 5 5 6 5 5 5 6 5 5 5 5 5 5 5 5 5 5 5 5 5 5 5 5 5 5 5 5 5 5 5 5 6 5 6 5 5 5 5 6 5 6 5 5 5 5 5 5 5 6 5 5 5 5 6 5 5 5 5 5 5 5 5 5 5 5 6 5 5 5 5 5 5 6 5 6 5 5 5 5 5 6 5 5 6 5 5 6 5 5 5 5 5 5 5 5 5 5 5 5 5 5 5 5 5 5 5 5 5 5 5 5 5 5 5 6 5 5 5 6 5 6 5 5 6 6 5 5 5 6 5 5 5 5 6 5 6 5 5 6 5 5 5 5 5 6 5 5 5 5 5 6 5 5 5 5 5 5 5 5 5 5 5 5 5 5 5 5 5 5 5 5 5 5 5 5 5 5 5 5 5 5 5 5 5 5 5 5 5 5 5 5 5 5 5 6 6 5 5 5 5 5 5 5 5 5 5 5 5 5 5 5 5 5 5 5 5 5 5 5 5 5 5 5 5 6 5 5 5 5 6 5 5 5 5 6 5 5 5 5 5 5 5 6 5 6 5 5 5 5 5 6 5 5 5 5 5 5 5 5 5 5 6 5 5 5 5 5 5 5 5 5 5 5 5 5 5 5 5 5 5 5 5 5 5 5 5 5 6 5 5 5 5 6 5 6 5 5 6 5 6 5 5 5 5 5 5 6 5 5 5 6 5 5 5 5 5 5 5 5 5 5 5 5 5 5 5 5 5 6 5 6 5 5 5 5 5 6 5 6 5 5 5 5 5 5 5 5 6 5 5 5 5 5 5 5 5 5 5 5 5 5 5 5 5 5 5 5 5 5 5 5 6 5 6 5 5 5 5 5 5 5 5 5 5 5 5 6 5 5 5 5 5 5 5 5 5 5 5 5 5 5 5 5 5 5 5 5 5 5 5 5 5 5 5 6 5 5 5 6 5 6 6 5 5 5 5 5 6 5 5 5 5 5 5 5 5 5 5 5 5 5 5 5 5 5 5 5 5 5 5 5 5 6 5 5 6 5 5 5 5 5 5 5 5 6 6 5 5 5 5 5 5 5 5 5 5 6 5 5 6 6 5 6 5 5 5 5 5 6 5 6 6 6 5 5 5 5 5 5 6 5 5 5 5 5 5 5 5 5 6 5 6 5 5 6 5 5 5 5 5 5 5 5 5 5 5 5 5 5 5 5 5 5 5 5 5 5 5 5 5 5 6 6 5 5 5 5 5 5 5 5 5 5 5 5 5 5 5 5 5 5 5 5 5 5 5 5 5 5 5 5 5 5 5 5 5 5 5 5 5 5 5 5 5 5 5 5 5 5 5 5 5 5 5 5 5 5 5 5 6 5 5 5 5 5 5 5 5 5 6 6 5 5 5 6 5 5 5 5 5 5 5 5 5 5 5 5 5 5 5 5 5 5 5 5 5 5 5 5 5 5 5 5 5 5 6 5 5 5 5 5 5 5 6 5 5 5 5 5 5 5 6 5 5 6 5 5 5 5 5 5 5 5 5 6 5 5 6 6 5 5 5 6 5 5 5 5 5 5 5 5 5 5 5 6 5 5 5 5 6 5 6 5 5 6 5 5 6 6 5 5 5 5 5 5 5 5 5 5 6 6 5 5 5 5 5 5 6 5 5 5 5 5 5 6 5 6 5 5 5 5 5 6 6 5 5 5 5 5 5 5 5 5 5 5 5 5 5 5 5 5 5 5 6 6 5 5 6 5 5 5 5 5 5 5 5 5 5 5 6 5 5 5 5 5 5 5 5 5 5 5 5 5 5 5 5 5 5 5 5 5 5 5 5 5 5 5 5 6 5 5 5 5 6 6 5 5 5 5 5 5 5 6 5 6 5 5 5 5 5 5 5 5 5 5 5 5 5 5 5 5 5 5 5 5 6 6 5 6 5 5 5 5 5 6 5 5 5 5 5 5 5 5 5 5 5 5 5 5 5 5 5 6 5 5 5 5 5 5 5 5 5 5 5 6 5 5 5 5 5 5 5 5 5 5 6 5 5 5 5 5 5 5 5 5 6 5 5 5 5 6 5 5 5 6 5 5 5 5 6 5 5 5 5 5 5 5 5 5 6 5 5 5 5 6 5 5 5 5 5 5 5 5 6 5 6 6 5 6 6 5 5 5 6 5 5 5 6 5 6 5 5 5 5 5 6 5 5 5 6 5 5 5 5 5 5 6 6 5 5 5 5 5 5 5 5 5 5 5 6 5 6 6 5 5 5 5 5 6 6 5 5 6 5 5 5 5 6 5 5 5 5 5 6 5 5 5 5 6 6 5 5 6 5 6 6 5 5 5 5 5 5 5 5 5 5 5 5 5 5 5 5 5 5 5 5 5 6 5 5 6 5 6 5 5 5 6 5 5 5 5 5 5 6 6 5 5 5 5 5 5 6 5 5 6 5 5 5 5 5 5 6 5 5 5 6 5 5 5 5 5 5 6 5 5 5 5 5 5 5 5 5 5 5 5 5 6 5 6 5 5 5 5 5 5 5 5 5 6 5 5 5 6 5 5 5 5 5 5 5 5 5 5 6 5 5 5 5 5 5 5 5 5 5 5 5 5 5 5 5 5 5 5 5 5 5 5 5 5 6 5 5 5 6 5 5 6 5 5 5 5 5 6 5 5 5 6 5 5 5 5 5 5 5 6 5 5 5 5 5 5 5 5 5 5 5 5 5 5 5 5 5 6 5 6 5 5 5 5 5 5 5 5 5 6 5 6 5 6 5 6 6 5 5 5 5 6 5 5 5 5 6 5 5 5 5 5 6 5 6 5 5 6 5 5 5 5 5 5 5 5 5 5 5 5 5 5 5 5 5 6 5 5 5 5 5 5 6 5 5 5 5 5 6 5 5 5 5 5 5 5 6 5 5 6 5 5 5 5 5 5 6 5 5 5 6 5 5 5 5 5 5 5 5 5 5 5 5 5 5 5 5 5 6 5 5 5 5 5 6 6 5 5 5 5 5 6 5 6 5 6 5 6 6 5 5 5 6 6 5 5 5 5 5 5 5 5 5 5 5 5 5 5 5 5 5 5 5 5 5 5 5 5 5 5 5 5 5 5 5 5 5 5 5 5 5 5 6 5 5 5 5 5 5 5 6 5 6 5 5 5 5 5 5 6 5 5 5 6 5 5 5 6 6 5 6 5 5 5 5 5 5 6 5 5 6 5 5 5 5 5 5 5 5 5 5 5 5 6 6 6 5 5 5 6 5 5 5 5 5 5 5 5 5 5 5 5 5 5 5 5 5 5 5 5 5 5 6 5 5 5 5 6 5 5 5 5 5 5 5 6 5 5 5 5 5 6 5 5 5 5 5 6 5 5 5 5 5 5 5 5 5 6 5 5 5 5 6 5 5 5 5 5 5 5 5 5 5 6 5 5 6 5 5 5 5 5 5 5 5 5 5 5 5 5 5 5 5 5 5 5 5 6 5 5 5 5 6 5 5 5 5 5 5 5 5 6 5 5 5 5 5 6 5 5 6 5 5 5 5 5 5 5 5 5 5 5 5 6 5 5 5 5 5 5 5 5 5 5 5 5 5 5 5 5 5 5 5 5 5 5 5 5 5 5 5 5 6 5 5 5 5 5 5 5 5 5 5 5 5 5 5 6 5 5 5 5 5 5 5 5 5 5 5 5 5 5 5 5 5 5 5 6 5 5 5 5 5 5 5 6 5 5 5 5 5 5 5 5 5 5 5 5 5 5 5 5 5 5 5 5 5 5 5 5 6 5 5 5 5 5 6 5 5 5 5 5 5 5 5 5 5 6 5 5 6 5 6 5 5 5 5 5 5 5 6 5 6 5 6 5 5 5 5 5 5 5 5 5 5 5 5 5 5 5 5 5 5 5 5 5 5 5 5 5 5 5 5 5 5 5 5 5 5 5 5 6 5 5 5 5 5 5 5 5 5 5 5 5 5 5 5 5 5 5 5 5 5 5 5 5 5 5 5 5 5 5 5 6 5 5 5 5 5 5 6 6 5 5 5 5 5 5 5 5 5 5 5 5 5 6 5 5 5 5 5 5 5 5 5 5 6 6 5 6 5 5 5 6 5 6 6 5 6 5 5 5 5 5 5 5 6 6 5 5 5 5 6 5 5 5 5 6 5 6 5 6 6 5 6 5 5 5 5 5 6 5 6 6 6 6 5 5 5 5 5 6 5 5 6 6 5 5 5 6 5 5 6 5 5 5 5 6 5 5 6 5 5 6 5 5 5 5 5 5 5 5 5 5 5 5 5 5 6 5 6 5 5 5 5 5 6 5 5 6 5 5 5 5 5 6 5 5 5 5 5 5 5 5 5 5 6 5 5 5 5 5 5 5 5 5 5 5 6 5 5 5 5 5 5 6 5 5 5 5 5 5 5 5 5 5 5 5 5 5 6 5 5 5 6 5 5 5 5 5 5 5 6 5 6 5 5 5 5 5 5 5 5 5 5 5 5 5 5 5 5 5 5 5 5 5 5 5 5 5 5 5 5 5 5 5 5 5 5 5 5 6 5 6 5 5 6 5 6 5 5 5 5 5 5 6 5 5 6 6 5 5 5 5 5 5 6 5 5 5 5 5 5 5 6 5 5 5 5 5 5 5 5 5 5 5 5 5 5 5 5 5 5 5 6 5 5 5 6 5 6 5 6 5 5 5 5 6 5 5 5 5 5 5 6 5 5 5 5 5 5 6 5 5 6 5 5 5 5 5 5 6 5 5 5 5 5 5 5 5 5 6 5 6 5 5 5 5 5 6 6 5 5 5 6 6 5 5 5 5 5 5 6 5 5 6 6 5 5 6 5 5 6 5 5 5 5 6 5 5 5 5 5 5 6 5 5 5 5 5 5 5 5 5 5 6 5 5 5 6 6 5 5 5 5 5 5 5 5 5 6 5 5 5 5 5 5 5 5 5 5 5 6 6 5 5 5 5 6 5 5 5 5 6 5 5 5 5 6 5 5 5 6 5 5 5 5 6 5 5 5 5 5 6 5 5 5 5 6 5 5 5 5 5 5 5 5 5 5 5 5 5 5 5 5 5 5 5 5 5 5 5 5 5 5 5 5 5 5 5 5 6 5 5 5 5 6 5 5 5 5 5 5 6 5 5 5 6 5 6 5 5 5 5 5 5 5 5 5 5 5 5 5 5 5 5 5 5 5 5 5 5 5 6 5 6 5 5 5 6 5 5 5 5 5 5 5 5 5 5 5 5 5 6 5 5 6 5 5 6 6 5 6 5 5 5 5 5 5 5 5 5 5 5 5 5 5 5 5 5 6 5 5 5 5 5 6 5 5 5 5 5 5 5 6 5 5 5 5 5 5 5 6 5 5 5 5 5 5 5 5 5 5 5 5 5 5 5 6 5 5 5 6 5 5 5 5 5 5 5 5 5 5 5 6 5 5 5 5 5 5 6 5 5 6 5 6 5 5 5 6 5 5 5 5 5 5 5 5 5 5 5 6 5 5 5 5 5 6 5 5 5 6 5 5 5 6 5 5 5 5 5 6 5 6 5 5 5 5 5 5 5 5 6 5 6 5 5 6 5 6 5 6 5 5 5 5 5 5 5 5 5 5 6 5 6 5 5 5 5 6 5 5 5 6 6 5 5 5 6 5 6 6 5 5 6 6 5 6 6 5 5 6 6 5 5 6 5 5 6 5 6 5 5 6 5 5 6 5 6 5 5 5 6 5 6 5 5 6 6 5 5 5 6 6 5 6 5 5 5 5 5 5 5 5 6 5 5 6 6 5 6 5 6 6 5 5 5 6 5 5 6 5 5 5 5 5 5 6 6 5 5 5 5 5 5 5 6 6 5 5 5 5 6 5 5 5 6 5 5 6 5 5 5 5 5 6 5 5 6 5 5 5 6 6 5 5 6 5 5 5 6 5 5 5 6 6 5 5 6 5 5 5 5 6 6 5 5 6 6 5 6 6 5 5 5 5 5 5 6 5 5 5 5 5 5 5 5 5 5 6 6 5 5 5 5 5 5 5 6 5 5 5 5 5 5 5 5 5 6 5 5 6 5 5 6 5 5 5 5 5 5 5 5 5 5 5 5 5 5 5 5 5 5 6 6 5 5 5 5 6 5 5 6 5 5 5 5 5 5 5 5 5 6 5 5 6 5 5 5 5 5 5 5 5 5 5 5 6 5 6 5 5 5 5 5 5 5 5 5 5 6 5 5 5 5 5 5 5 5 5 5 5 5 5 5 5 5 5 5 5 5 5 5 5 5 5 5 5 5 5 5 5 5 5 5 5 5 5 5 5 6 5 5 5 5 5 5 5 5 5 6 5 5 6 5 5 5 5 5 5 5 5 5 5 5 5 5 5 5 5 6 5 6 5 5 6 5 5 5 6 6 5 6 6 5 6 5 5 6 5 5 6 5 5 5 5 5 5 5 5 5 5 5 5 5 5 5 5 5 5 5 5 5 6 5 5 5 5 5 5 5 5 5 5 5 5 5 5 5 5 5 5 5 6 5 5 5 5 5 6 5 5 5 5 5 5 5 5 5 5 5 5 5 5 5 5 5 5 5 5 5 5 5 5 6 5 5 5 5 5 5 6 5 5 5 5 5 5 5 5 5 5 5 5 5 5 5 6 5 5 5 6 6 5 5 5 6 5 5 5 5 5 5 5 5 6 5 5 5 5 6 5 5 5 5 5 5 5 5 5 5 5 5 5 6 5 5 5 5 5 5 5 5 5 5 5 5 5 5 5 5 5 5 5 5 5 5 5 5 5 5 5 6 5 5 5 5 5 5 5 5 5 5 5 5 5 5 5 6 6 5 5 5 6 5 5 5 5 5 5 5 5 5 5 5 5 5 5 5 5 5 5 5 5 5 5 5 5 5 5 5 5 5 5 6 5 5 5 5 5 5 5 5 5 5 5 5 5 5 5 5 5 5 5 5 5 5 5 5 5 6 5 5 5 5 5 5 5 6 5 5 5 6 5 5 6 5 5 5 5 5 5 5 5 6 6 5 5 5 5 5 6 5 5 5 5 5 5 5 5 5 5 5 5 5 5 5 5 5 5 5 6 5 6 5 6 5 5 5 6 5 6 5 5 5 5 5 5 5 5 5 5 5 5 6 5 5 5 5 6 5 5 6 5 6 5 5 6 5 5 5 6 5 5 5 5 5 5 5 5 5 6 5 5 5 5 6 5 5 5 5 6 5 5 5 5 5 5 6 5 6 5 6 5 5 5 6 5 5 5 5 5 5 6 6 5 5 5 5 5 6 5 5 5 5 5 5 5 5 5 5 5 5 5 5 5 5 5 5 5 6 5 5 5 5 5 5 5 5 5 6 5 6 5 6 5 5 5 5 5 5 5 5 5 5 5 5 6 5 5 6 5 5 5 5 5 5 5 5 5 6 5 6 5 5 5 5 5 5 6 5 5 5 5 5 5 5 5 5 5 5 5 5 5 5 5 5 5 5 5 5 5 5 5 5 5 5 5 5 5 5 5 5 5 5 5 5 5 5 5 5 6 5 5 6 5 6 5 5 5 6 6 5 5 6 5 5 5 5 5 5 5 5 5 5 5 5 6 5 5 5 5 5 5 5 5 5 5 5 5 6 5 5 5 5 5 5 5 5 5 5 5 5 5 5 5 6 5 5 5 5 5 6 5 5 5 5 5 5 5 5 5 6 5 5 5 5 6 5 5 5 5 5 5 5 5 5 5 5 6 5 6 5 6 5 5 5 6 5 5 5 5 5 5 5 5 5 5 5 5 5 5 5 5 5 5 5 5 6 5 5 5 5 5 5 5 5 5 5 5 5 5 5 5 5 5 5 6 5 5 5 5 5 6 5 5 5 5 5 5 5 5 6 5 5 6 5 5 5 5 5 5 5 6 5 5 5 5 5 5 5 5 5 6 5 5 5 5 5 5 5 5 5 5 5 5 5 5 5 5 5 5 5 5 5 5 5 5 6 5 6 5 5 6 5 5 5 5 5 5 5 5 6 5 5 5 5 5 5 6 5 5 5 5 5 5 5 5 5 5 5 5 6 5 5 5 5 5 5 5 5 5 5 5 5 5 5 6 5 5 5 6 5 5 5 5 6 5 5 5 5 5 5 5 5 5 5 5 5 5 5 5 5 5 5 5 5 5 5 5 5 5 5 6 5 5 6 5 5 5 5 5 5 5 5 5 6 5 5 6 5 5 6 5 5 5 5 5 5 5 5 5 5 5 5 5 5 5 5 5 5 5 5 5 5 5 5 5 5 5 5 5 5 5 5 5 5 5 5 5 5 5 5 5 5 5 5 5 5 5 5 5 5 5 5 5 5 5 5 5 5 5 5 5 5 5 6 5 5 5 5 5 5 6 5 5 5 5 5 5 5 5 5 5 5 6 6 5 5 6 5 6 5 5 6 5 5 6 5 5 5 5 5 5 5 5 6 5 5 5 5 5 5 5 5 5 6 5 5 5 5 6 5 5 5 5 5 5 5 5 5 5 5 5 5 5 5 6 5 5 5 5 6 5 6 5 5 5 6 5 5 6 5 5 5 5 5 5 5 5 5 5 5 6 5 5 6 5 5 5 6 5 5 6 6 5 5 6 5 5 5 5 5 5 5 5 6 5 5 5 5 6 5 6 5 6 5 5 5 5 6 5 5 5 6 5 5 5 5 5 5 5 5 5 5 5 5 5 5 5 5 5 5 6 5 5 5 5 5 5 5 5 5 5 5 5 5 5 5 5 5 5 5 5 5 5 5 5 5 5 5 5 5 5 5 5 5 5 5 5 5 5 5 5 6 5 5 5 5 5 6 5 5 5 5 5 5 5 5 5 5 5 5 5 6 5 5 6 5 5 5 6 5 6 5 5 5 5 6 5 5 5 5 5 5 5 5 5 6 5 5 6 6 5 6 5 5 5 5 5 5 5 5 5 5 5 5 5 5 5 5 5 5 5 5 5 5 5 6 5 5 5 6 5 5 5 5 5 5 5 6 5 5 5 5 5 5 5 5 5 5 5 5 5 5 5 5 5 5 5 5 5 5 5 6 5 5 5 5 5 6 5 6 6 5 5 5 6 5 5 6 5 5 5 5 5 5 5 5 5 5 5 6 5 5 5 6 5 6 5 5 5 5 5 6 5 6 5 6 5 5 5 5 5 5 5 5 6 6 6 5 5 6 5 5 5 5 5 5 5 5 5 5 5 5 5 5 5 5 5 5 5 5 5 5 5 5 5 5 5 5 5 5 5 5 5 5 5 5 5 6 5 5 5 5 5 5 5 6 5 5 6 5 5 5 5 5 5 5 5 5 5 5 5 5 5 5 5 5 5 5 5 5 5 5 6 5 5 5 5 5 5 5 5 5 5 6 5 5 5 5 6 5 5 5 5 6 5 6 6 5 5 5 5 6 5 5 6 5 5 6 6 5 5 5 5 5 5 5 6 5 5 5 5 5 5 5 5 5 5 5 5 5 6 5 5 5 5 5 5 5 6 6 5 6 5 6 5 5 5 6 5 5 5 5 5 6 5 5 6 5 5 5 5 5 5 5 6 5 5 5 5 5 5 5 5 6 5 5 5 6 5 5 5 5 5 6 6 5 5 6 5 5 5 5 5 5 5 5 5 5 5 5 5 5 6 5 5 6 5 6 5 5 5 5 6 5 5 5 5 5 6 5 5 6 6 5 5 5 5 6 5 5 5 5 5 5 5 5 6 5 6 5 5 5 5 5 5 5 5 6 5 5 5 5 6 5 5 5 5 5 5 5 5 5 5 5 5 5 5 5 5 5 5 5 5 5 5 5 5 5 5 5 5 5 5 5 5 5 6 5 5 5 5 5 5 5 6 5 5 5 5 5 5 5 5 5 5 5 5 6 5 5 5 5 6 5 5 5 5 5 5 5 5 5 5 5 5 5 6 5 5 6 5 5 5 5 6 5 5 5 5 5 5 5 5 5 5 5 6 5 6 5 5 6 5 5 5 5 6 5 5 5 5 5 5 5 5 5 5 5 5 5 5 5 5 5 5 5 5 5 5 5 5 5 5 5 5 6 5 5 5 5 6 5 5 5 5 5 5 5 5 5 6 5 5 5 6 5 5 5 5 5 5 6 5 6 5 6 5 5 5 5 5 5 5 5 5 5 5 5 5 5 5 5 5 5 5 5 5 5 5 5 5 5 5 5 5 5 5 5 5 5 5 6 5 6 5 5 5 5 5 5 5 5 6 5 5 5 5 5 5 5 5 5 5 5 5 6 5 5 5 5 5 5 5 5 5 5 5 5 5 6 5 5 6 5 5 5 5 6 5 5 5 5 6 5 5 5 5 5 6 6 5 6 5 5 6 5 5 5 5 6 5 6 5 5 5 5 5 5 5 5 6 5 5 5 5 6 5 5 5 5 5 5 5 5 5 5 5 5 5 5 5 5 5 5 5 5 5 5 6 5 5 5 5 5 5 5 5 5 5 5 5 5 5 5 5 5 5 5 5 5 6 5 5 5 5 5 5 5 6 5 6 5 5 5 5 5 5 5 5 5 5 5 5 5 5 5 5 5 5 5 5 5 5 5 5 5 5 6 5 5 5 5 5 6 5 6 5 5 5 5 6 6 6 5 6 5 5 5 6 5 5 5 5 6 5 6 5 5 5 5 6 5 5 5 6 6 6 5 6 5 6 5 5 6 5 5 5 5 5 5 5 5 5 5 6 5 6 5 6 5 5 5 5 6 5 5 5 5 6 5 5 5 5 5 5 5 5 5 5 6 5 6 5 5 6 5 5 6 5 5 5 5 5 6 5 5 5 5 5 5 5 5 5 5 5 5 6 5 5 5 6 5 5 5 5 5 6 5 5 5 5 5 5 5 5 5 5 5 5 5 5 5 5 5 5 5 5 5 6 5 5 5 5 6 5 5 5 6 5 6 5 5 6 5 6 5 5 5 5 5 5 6 5 5 5 5 6 5 6 5 5 5 5 5 5 5 6 5 5 5 5 5 5 5 6 5 5 5 5 5 5 5 5 5 5 5 5 5 5 5 5 5 6 5 5 5 6 5 5 5 5 5 5 5 5 5 5 5 5 5 5 6 5 5 5 5 5 5 5 5 5 5 5 5 5 5 5 5 5 5 5 5 5 5 5 5 5 5 5 6 5 6 5 5 5 6 5 5 5 6 5 5 6 6 5 5 5 5 5 5 5 5 6 5 5 6 5 5 5 5 6 5 6 5 5 5 6 5 5 5 5 5 5 5 5 5 5 6 5 5 6 5 5 6 5 5 5 5 5 5 5 6 5 5 6 6 5 5 5 6 5 5 5 5 5 5 6 5 5 5 5 6 5 5 5 6 5 5 5 5 6 5 5 6 5 5 5 5 5 5 5 5 5 5 5 6 5 5 5 5 6 5 6 5 6 5 6 5 5 5 5 5 5 5 5 5 5 5 6 6 5 5 5 5 5 5 6 5 5 6 5 5 5 5 5 5 6 5 5 5 6 5 6 5 5 5 6 5 5 5 5 5 5 6 5 5 5 5 5 5 6 5 6 5 5 5 6 5 5 5 5 6 5 5 5 5 5 5 5 6 5 6 5 6 5 5 5 6 6 5 5 6 5 5 5 5 5 6 5 6 6 6 6 5 5 5 5 5 6 6 5 5 6 5 5 5 6 5 5 5 5 5 5 5 5 5 6 5 5 5 6 5 5 5 5 5 5 5 6 5 6 5 5 5 5 6 5 6 5 5 5 5 6 5 5 5 5 5 5 5 5 5 6 5 5 5 5 5 5 5 5 5 5 5 5 5 5 5 5 5 5 5 5 5 6 5 5 5 5 6 5 5 5 5 5 6 5 6 5 5 5 5 5 5 5 5 5 5 5 6 5 6 5 6 6 5 6 5 6 5 5 5 6 5 5 5 6 5 5 5 5 6 5 6 5 5 5 5 5 5 5 5 6 5 5 5 5 5 5 5 5 6 5 5 5 5 5 5 5 5 5 6 5 5 6 5 5 5 6 5 5 5 5 5 5 5 5 5 5 5 5 6 5 5 5 5 6 5 5 5 5 5 5 6 5 5 5 5 6 5 6 5 5 5 5 5 5 5 6 5 5 5 6 6 5 5 5 5 6 5 6 5 5 6 5 5 5 5 5 5 5 5 5 5 5 5 5 5 5 5 5 5 5 5 5 5 5 5 5 5 5 5 5 5 5 5 5 5 5 6 5 5 5 6 5 5 5 5 5 5 5 5 5 5 5 5 5 6 5 6 5 5 5 5 5 5 5 5 5 5 5 5 5 6 5 5 6 5 5 5 5 5 6 5 5 5 5 5 5 5 5 5 5 5 5 5 5 5 5 5 5 5 6 6 5 5 6 5 5 6 5 5 5 5 5 5 5 6 5 5 5 5 6 5 5 5 5 5 5 5 5 5 5 5 5 5 5 6 5 5 6 5 5 5 5 5 5 5 6 6 5 5 5 5 5 5 5 5 5 5 5 5 5 5 5 5 6 5 5 5 5 6 5 5 6 5 5 6 5 5 5 5 5 5 5 5 5 5 5 5 6 5 5 5 5 6 5 5 5 5 5 5 5 5 5 6 6 6 5 5 5 6 5 5 6 6 5 6 5 5 5 6 5 5 5 5 5 5 5 5 5 5 5 5 5 5 5 5 5 5 5 5 5 5 5 5 5 5 5 5 5 5 5 5 5 5 5 5 5 5 5 5 5 5 5 5 5 5 5 5 6 5 6 5 5 5 5 5 5 5 5 5 6 5 5 5 5 5 5 6 5 5 5 5 5 6 5 5 5 5 5 5 5 5 5 5 5 5 5 5 5 6 5 5 5 5 5 5 5 6 5 5 5 5 5 6 6 5 5 5 5 6 5 5 5 5 5 5 5 5 5 5 5 5 5 5 5 5 5 5 5 5 5 6 5 5 5 5 5 5 6 5 5 5 6 5 5 5 5 5 5 5 5 5 5 5 5 5 5 5 5 5 5 6 5 6 5 5 5 5 5 6 6 5 5 5 6 5 5 5 5 5 5 6 5 5 5 5 5 6 5 6 5 5 6 5 5 5 5 6 5 5 5 5 6 5 5 5 5 6 5 5 5 5 5 5 5 5 5 5 5 5 5 6 5 5 5 5 5 5 5 5 5 5 5 5 5 5 5 5 6 5 5 5 5 6 5 5 5 5 6 5 5 5 5 5 5 5 5 5 5 6 5 5 5 5 6 5 5 5 5 5 5 5 5 5 5 5 5 5 5 5 6 5 5 5 6 5 5 5 5 5 5 5 5 5 5 5 5 5 5 6 5 5 5 5 5 5 5 5 5 5 5 6 5 5 6 5 5 5 5 5 5 6 6 5 5 5 5 6 5 6 5 5 5 6 5 5 6 5 5 5 5 5 5 5 5 5 5 5 5 5 5 5 5 6 5 5 5 5 5 5 5 5 6 6 5 5 5 6 6 5 6 5 6 5 5 5 5 6 5 5 5 5 5 5 5 5 5 5 5 5 5 6 5 6 5 5 5 5 5 5 5 5 6 6 5 5 6 6 6 5 5 5 5 5 5 6 5 5 6 5 5 6 6 6 6 5 5 5 5 5 5 5 5 5 5 5 5 5 6 5 5 6 5 6 5 5 5 5 5 5 5 6 6 5 5 6 5 5 6 5 5 5 5 6 6 6 6 5 5 5 5 5 5 5 5 5 5 5 5 5 5 6 5 5 6 5 5 5 5 6 5 5 5 6 5 5 6 5 5 6 5 5 6 6 5 6 5 5 5 5 5 5 6 5 5 5 5 6 5 5 5 5 5 6 5 5 6 5 6 6 5 5 5 6 5 5 5 5 5 6 5 5 5 6 5 5 5 6 5 5 5 5 5 5 5 6 5 5 5 5 5 6 5 5 5 5 5 5 5 6 5 6 6 5 5 6 5 5 5 5 5 5 6 5 5 5 5 5 5 6 5 5 5 5 5 5 6 5 6 5 6 5 5 6 5 5 5 5 6 6 6 6 5 5 5 5 5 5 5 5 6 5 5 5 6 5 6 5 5 5 5 5 5 5 5 5 5 5 5 5 5 5 5 6 5 6 5 5 5 5 5 5 5 5 6 5 5 5 5 5 6 5 5 6 5 5 5 5 5 5 6 6 5 5 6 5 5 5 5 5 5 5 5 5 5 5 6 6 5 5 5 5 6 5 5 5 5 5 5 5 5 6 5 5 5 5 6 5 5 5 5 5 5 6 5 6 5 6 5 5 5 5 5 5 5 5 5 5 5 5 5 5 5 5 5 5 6 5 5 5 5 5 5 5 5 5 5 5 5 5 5 5 5 5 6 6 5 5 5 5 5 5 5 5 5 5 5 5 5 5 5 5 5 5 5 5 5 5 5 5 5 5 5 5 5 5 5 5 5 5 5 5 5 5 5 5 5 5 5 5 5 6 5 6 5 5 5 5 5 5 5 6 5 5 5 6 5 6 6 6 5 6 6 5 5 6 6 6 5 5 5 5 5 6 5 6 6 5 5 5 5 5 5 5 6 5 5 6 5 5 6 6 5 5 5 5 5 5 6 5 5 6 6 5 5 6 5 5 5 6 5 5 5 5 6 5 5 5 6 5 5 6 5 5 5 5 5 5 5 5 5 5 5 5 5 5 5 5 5 5 5 6 6 5 5 5 6 5 5 5 5 6 5 5 5 5 5 6 6 5 5 5 5 5 5 5 5 5 6 5 5 5 5 5 5 5 5 5 5 5 5 5 5 5 5 5 5 5 5 5 5 5 5 5 5 5 6 5 6 6 5 5 5 5 5 5 5 5 5 5 5 5 5 5 5 5 5 5 5 5 5 5 5 5 5 5 5 6 5 5 6 5 5 6 5 5 6 5 6 5 5 5 5 5 5 5 6 5 5 5 5 5 5 5 5 5 5 5 5 6 5 6 5 6 5 5 5 5 5 6 5 5 5 5 6 5 5 6 5 5 5 5 5 5 5 5 6 5 5 5 5 5 5 6 5 5 5 5 6 5 5 5 6 5 5 5 5 5 5 5 5 5 5 5 5 5 5 5 5 5 5 6 5 6 5 5 5 6 5 5 5 5 5 5 5 5 5 5 5 5 5 5 5 5 5 5 5 6 5 5 5 6 5 5 5 6 5 5 5 5 5 5 5 5 5 5 5 5 5 5 5 6 5 5 5 5 6 5 5 6 5 5 5 5 5 5 6 5 6 5 6 6 6 5 5 5 6 6 5 5 5 5 5 5 5 6 5 5 5 6 5 6 5 5 5 5 5 5 5 5 5 6 5 5 5 5 5 5 5 5 6 5 5 5 5 6 5 5 5 5 5 5 5 5 5 5 5 5 5 5 5 5 5 5 5 5 5 6 6 5 5 5 5 5 5 5 5 6 5 5 5 5 5 5 5 5 5 5 6 5 5 5 5 5 5 6 5 5 5 5 5 6 5 6 5 5 6 6 5 5 5 5 5 5 5 5 5 5 5 5 5 5 5 5 5 5 5 5 5 5 5 5 5 5 5 5 5 5 5 5 5 5 5 5 5 5 5 5 5 5 5 5 5 5 5 5 6 6 5 5 6 5 5 5 5 5 6 6 5 5 6 6 5 5 5 5 5 5 5 5 5 5 6 5 5 5 5 5 5 5 5 5 5 5 5 5 5 5 6 5 5 5 5 5 5 5 5 5 5 5 5 5 6 5 6 6 6 5 5 5 5 5 5 5 5 6 6 5 5 5 5 6 5 5 5 5 5 5 5 5 6 5 5 5 5 5 5 5 5 5 5 5 5 5 5 5 5 5 6 5 5 5 5 5 5 6 5 5 6 5 5 5 5 5 5 5 5 5 5 5 5 5 5 5 5 5 5 6 5 5 5 6 5 5 6 5 6 6 5 5 6 5 5 5 6 5 5 6 5 6 6 5 5 5 5 6 5 5 5 5 5 5 6 5 6 5 5 5 6 5 5 5 5 6 5 6 6 5 5 5 5 5 6 5 6 5 6 5 6 6 5 5 5 5 5 5 5 6 5 6 5 5 6 5 5 6 5 5 5 5 5 5 5 5 5 5 5 5 5 5 5 5 5 5 5 5 5 5 5 5 5 5 5 5 5 5 5 6 5 5 5 5 5 5 5 5 5 5 5 5 5 5 5 5 5 5 5 5 5 5 5 6 5 5 5 5 5 6 6 5 5 5 5 5 5 5 5 5 5 5 5 5 5 5 5 5 5 5 5 5 6 5 5 5 5 5 5 5 5 5 5 5 5 5 6 5 6 5 5 5 6 5 5 5 5 5 5 5 5 6 5 6 5 5 5 5 5 6 5 5 5 5 5 5 5 5 5 5 5 6 5 5 5 5 5 5 5 5 5 5 5 6 5 5 5 5 5 5 5 5 6 5 5 5 5 5 5 5 5 5 5 5 5 5 5 5 5 5 5 5 5 5 5 5 5 5 5 6 5 5 6 5 5 5 5 5 5 5 5 5 5 5 5 5 5 5 5 5 5 5 5 5 5 5 5 5 5 5 5 6 5 6 5 6 5 5 5 5 5 6 5 5 5 5 6 5 5 5 6 5 5 5 5 5 5 5 5 5 5 5 5 5 5 5 5 5 5 6 6 6 5 5 5 5 5 5 5 5 5 5 5 5 5 6 5 5 5 5 5 5 5 5 5 5 5 5 6 5 5 6 5 5 5 5 5 5 5 5 5 5 5 5 5 5 5 5 5 5 5 5 5 6 6 5 5 5 5 5 5 5 5 5 5 5 5 5 5 6 5 5 6 5 5 5 5 6 5 5 5 5 5 5 6 5 5 5 5 5 5 5 5 5 5 5 5 5 5 5 5 5 5 6 5 5 5 5 5 6 5 5 5 5 5 5 5 5 5 5 5 5 5 5 5 5 5 5 5 5 5 5 5 5 5 5 5 5 6 5 6 5 5 5 5 6 6 5 5 5 5 5 5 5 5 5 5 5 5 5 5 5 5 5 5 5 5 5 5 5 5 5 5 5 5 5 5 5 5 5 5 5 6 5 5 5 5 6 5 5 5 5 5 5 5 5 5 5 5 6 5 5 5 5 5 5 5 5 5 5 5 5 5 5 5 5 5 6 6 5 6 5 5 5 5 5 5 5 5 5 5 6 5 5 5 5 5 5 5 5 5 5 5 5 5 5 5 5 5 6 5 5 5 5 6 5 5 5 5 5 5 5 5 5 5 5 5 5 5 5 5 5 5 5 5 5 5 5 5 5 5 5 5 5 5 5 5 5 5 5 5 5 5 5 5 5 5 5 5 5 5 5 5 5 5 5 5 5 5 5 5 5 5 5 5 5 5 5 5 5 5 5 5 5 5 5 5 5 5 5 5 5 5 5 5 5 6 5 5 5 5 5 5 5 6 5 5 6 5 5 5 5 5 5 5 5 5 5 5 5 6 5 6 5 6 5 5 5 5 5 5 5 5 6 5 5 5 5 5 5 5 5 5 6 5 5 5 5 5 5 5 5 5 5 5 5 5 5 5 5 5 5 5 5 5 6 5 5 5 5 5 5 5 5 5 5 5 5 6 5 5 5 5 5 6 5 5 6 5 5 5 5 6 6 5 5 6 5 5 5 5 5 5 5 6 6 5 5 5 5 5 5 5 5 5 5 5 5 6 5 5 5 5 6 5 5 5 5 5 5 5 5 6 5 5 5 5 6 5 5 5 5 6 5 5 5 5 5 5 5 6 5 5 5 5 5 6 5 5 5 6 5 5 5 5 5 6 5 5 5 5 5 5 5 5 5 5 5 5 5 5 6 5 5 6 5 5 5 5 5 5 5 5 5 5 5 5 5 5 5 5 5 5 5 5 5 6 5 5 6 5 5 6 5 5 5 5 5 5 5 5 5 5 5 5 5 5 5 5 5 5 5 5 5 5 5 5 5 5 5 5 5 5 6 5 5 5 5 6 5 5 6 5 6 5 5 5 5 6 5 6 5 5 6 5 6 5 6 6 5 5 6 5 6 5 6 5 5 6 5 5 5 5 5 5 6 5 6 5 5 6 6 5 5 6 5 6 5 5 6 5 5 6 5 5 6 6 6 5 6 5 5 5 5 5 5 5 5 6 5 5 5 5 5 5 5 6 5 5 5 5 5 5 5 5 5 5 5 5 5 5 6 5 5 5 5 5 5 5 5 5 5 5 5 5 5 5 5 5 5 5 6 5 5 5 5 5 5 5 5 5 5 5 5 5 5 5 5 5 5 5 5 5 5 5 5 5 5 5 5 5 5 5 6 5 5 5 6 5 6 6 5 6 5 5 5 6 5 5 5 5 6 6 6 5 5 5 5 5 5 5 5 5 5 5 5 5 5 5 5 5 6 5 5 5 5 5 5 5 5 5 6 5 5 5 6 5 5 5 5 5 5 5 5 5 5 5 5 6 5 5 6 5 5 5 5 5 5 5 5 5 5 5 5 5 5 5 5 5 5 5 5 5 5 6 5 5 5 5 5 5 5 5 5 5 5 5 5 5 5 5 5 5 6 5 5 5 5 5 5 5 6 5 5 5 5 6 5 5 5 5 5 5 5 5 5 5 5 5 5 5 5 5 5 5 5 5 5 5 5 5 5 5 5 5 5 5 5 5 5 5 5 6 6 5 5 5 5 6 5 6 5 5 5 5 5 6 5 5 5 5 5 5 5 5 6 6 5 5 5 5 6 5 5 5 5 5 5 5 5 5 5 5 5 5 5 5 5 5 5 5 5 5 6 5 5 5 5 5 5 6 5 5 6 5 5 5 5 5 5 5 5 5 6 5 5 5 5 5 5 5 5 6 5 5 5 5 5 5 5 5 5 5 5 5 5 5 5 5 5 6 5 5 6 5 5 5 5 5 5 5 5 5 5 5 5 5 5 5 5 5 5 5 5 5 5 5 5 5 5 5 5 5 6 5 6 5 5 5 5 5 5 5 5 5 5 5 5 5 5 5 5 5 5 5 5 5 5 6 5 5 5 6 5 5 5 5 5 5 5 5 5 5 5 5 6 5 5 5 6 6 5 5 6 5 5 5 5 5 5 5 5 5 6 5 5 5 5 5 5 5 5 5 5 5 5 5 6 5 6 5 5 5 5 5 5 5 5 5 5 5 5 5 5 5 5 5 5 5 5 5 5 5 5 5 5 5 5 5 6 5 5 5 5 5 5 6 5 5 5 5 5 5 5 5 5 5 5 5 5 5 5 5 6 5 6 5 5 5 5 5 5 5 6 5 5 5 6 5 5 5 5 6 5 5 5 5 5 5 6 5 5 5 5 6 5 6 5 5 5 5 5 5 5 5 6 6 5 5 5 6 6 5 5 5 5 5 5 5 6 6 5 6 6 5 5 5 5 6 5 6 5 5 5 5 5 5 6 5 5 5 5 6 5 5 5 5 6 5 5 5 5 5 6 5 5 6 5 5 5 5 6 5 5 5 5 5 5 5 5 5 6 6 5 5 5 5 5 5 5 5 5 5 5 5 5 6 5 6 5 5 5 5 5 5 5 5 5 5 5 5 5 5 5 5 5 5 5 5 5 6 5 5 5 5 5 5 5 5 5 5 5 5 5 5 5 5 5 5 5 5 5 5 5 5 5 5 6 5 5 5 5 5 5 5 5 6 5 6 5 5 5 5 5 5 6 5 5 5 5 5 5 5 5 5 5 5 5 5 5 5 5 5 5 5 5 5 5 5 5 5 5 6 5 5 5 5 5 5 5 5 6 5 5 6 5 5 6 5 5 5 5 5 6 5 5 5 5 5 5 5 5 5 6 5 5 5 5 5 5 5 5 5 5 5 5 5 5 5 6 5 5 5 5 5 5 5 5 6 5 5 5 5 5 5 5 5 5 5 5 5 5 5 5 5 5 5 6 5 6 5 6 5 5 6 6 5 5 5 5 5 5 5 5 5 5 5 5 5 5 6 5 5 5 5 5 5 6 5 5 5 6 5 5 5 5 5 5 5 5 5 5 5 5 6 5 5 5 5 6 6 6 5 5 5 5 5 5 5 6 5 5 6 5 6 5 6 5 5 5 5 5 6 5 5 5 5 5 5 5 5 5 5 5 5 5 5 5 5 5 5 5 5 6 5 5 5 6 5 6 6 6 5 5 5 5 5 6 5 5 5 5 5 5 5 5 5 5 5 5 5 5 5 5 5 5 5 5 5 5 5 5 5 5 6 5 5 6 5 5 5 5 5 5 5 5 6 5 6 5 5 5 5 5 5 5 5 6 5 5 5 5 6 5 5 6 5 5 6 5 5 5 6 5 5 5 5 5 5 5 5 5 5 5 5 5 5 5 5 5 5 5 5 6 5 5 5 5 5 5 6 5 5 5 5 5 6 5 5 5 5 5 6 5 6 6 5 5 5 5 5 5 5 5 5 5 5 5 6 5 5 5 5 6 5 6 6 5 5 5 6 5 5 5 5 5 5 5 5 5 5 5 5 5 5 5 5 5 5 5 5 5 5 6 5 6 5 5 6 5 5 6 5 5 6 5 5 5 6 6 5 5 5 5 5 5 5 6 5 5 5 5 5 5 5 5 6 5 5 5 5 5 5 5 6 5 5 5 6 5 6 6 5 5 5 6 5 5 5 5 5 5 5 5 5 5 5 5 5 5 5 5 5 5 5 5 5 5 6 5 5 6 5 5 5 6 5 5 5 5 5 5 5 6 6 5 5 6 5 5 5 5 5 5 5 5 5 5 5 5 5 5 5 5 5 5 5 5 5 5 5 5 5 5 5 5 5 5 5 5 5 5 5 6 5 5 5 5 5 5 5 6 5 5 6 5 5 6 5 5 5 5 5 5 5 5 5 5 5 5 5 5 5 5 5 5 5 6 5 5 5 5 6 5 5 5 5 5 5 5 5 5 5 6 5 5 5 5 6 5 5 5 5 6 6 5 6 5 5 5 5 5 5 5 5 5 5 5 5 5 5 6 5 5 5 5 5 5 5 5 5 6 5 5 5 5 5 5 5 5 5 5 5 5 5 5 5 5 5 5 5 5 5 5 5 5 5 5 5 5 5 5 5 5 5 5 5 5 5 5 5 5 5 6 5 5 5 5 6 5 5 6 5 5 5 5 5 5 6 6 5 5 5 5 6 5 5 5 5 5 5 5 5 5 5 5 5 5 5 5 5 5 5 5 5 5 5 5 5 5 5 5 5 5 5 5 5 5 5 5 5 5 5 5 5 5 5 5 5 5 5 5 5 5 5 5 5 5 5 5 5 5 5 5 5 5 6 5 5 5 5 5 6 5 6 5 5 5 5 5 5 5 5 5 
</DataArray>
<DataArray type="Float64" Name="stress" NumberOfComponents="9" format="ascii">
-0.41594961271827313 -1.4903725010735371 0 -1.4903725010735371 3.9901845574796031 0 0 0 0 0.0071877827167375549 1.2664759262894272 0 1.2664759262894272 2494.4723469521414 0 0 0 0 -1.4379316356509206 -11.924635274182947 0 -11.924635274182947 2500.1201243109535 0 0 0 0 -59.301033200625426 -197.13232949690428 0 -197.13232949690428 1475.7803986848403 0 0 0 0 -0.033366808332262042 -101.35431459133895 0 -101.35431459133895 1292.929357203946 0 0 0 0 30.494584945430717 -287.64069455882782 0 -287.64069455882782 1294.4781416448532 0 0 0 0 81.66274529332108 -236.46392153960187 0 -236.46392153960187 1097.0076262552611 0 0 0 0 -40.350436642597288 -651.3053877991988 0 -651.3053877991988 1757.5569544914833 0 0 0 0 0.30030972066364747 -67.733451157240779 0 -67.733451157240779 1020.5172222293622 0 0 0 0 -0.88612372229655267 -0.11677919788152735 0 -0.11677919788152735 3.6683257278211698 0 0 0 0 170.24055773966103 -557.81778315128395 0 -557.81778315128395 1257.1433718350236 0 0 0 0 -226.63807073117329 -118.47657957018237 0 -118.47657957018237 1260.3053794985972 0 0 0 0 -12.126894685596881 -395.80690603190305 0 -395.80690603190305 1470.936184914146 0 0 0 0 0.81888259714738787 -1.5645080270849263 0 -1.5645080270849263 2.2367773119396333 0 0 0 0 1.4387746555460965 -359.41052984166919 0 -359.41052984166919 1510.9084083829075 0 0 0 0 272.95403261824714 -489.7254562838134 0 -489.7254562838134 523.35890567555907 0 0 0 0 229.23066002794462 -494.7957581671144 0 -494.7957581671144 824.7111307111918 0 0 0 0 115.8628995075394 -412.16183573522721 0 -412.16183573522721 985.06222212857392 0 0 0 0 94.678391435997924 -507.43095803664619 0 -507.43095803664619 1026.2970732141966 0 0 0 0 156.26214595276849 -331.05136632085487 0 -331.05136632085487 120.98361027845385 0 0 0 0 -88.743562066685456 -300.17463643350129 0 -300.17463643350129 1185.4369215888146 0 0 0 0 -66.965208342626738 -300.99042664971057 0 -300.99042664971057 1115.9692263033867 0 0 0 0 183.34235456887112 -405.46073609911582 0 -405.46073609911582 1638.5821782712592 0 0 0 0 159.12013379309514 -514.67169289472804 0 -514.67169289472804 1166.0955732920629 0 0 0 0 -21.837923875597625 -433.74225777715583 0 -433.74225777715583 1500.3376850752102 0 0 0 0 7.8297471513725299 -8.3201724772661692 0 -8.3201724772661692 2501.099339531087 0 0 0 0 113.27508960503656 -210.49684398339923 0 -210.49684398339923 1997.1576316701685 0 0 0 0 85.345652679147975 -294.94050991512995 0 -294.94050991512995 1905.5081436590553 0 0 0 0 -111.4631472093987 -37.036957178170269 0 -37.036957178170269 1577.1035206671559 0 0 0 0 -1.1574784878618982 0.22643308719509037 0 0.22643308719509037 3.3961815079655366 0 0 0 0 9.5205443454701708 -358.03626618149337 0 -358.03626618149337 2107.5510477906428 0 0 0 0 -67.143030112598126 -68.415123008649971 0 -68.415123008649971 1107.3151392947257 0 0 0 0 -1.6686672874145705 -3.6832480661019105 0 -3.6832480661019105 4.3308966164602314 0 0 0 0 15.7943071588262 -129.06508956732432 0 -129.06508956732432 1860.2343602891633 0 0 0 0 50.831023470571154 -58.136710326434695 0 -58.136710326434695 1991.7030735028129 0 0 0 0 -132.14641512781014 -9.0990978754634853 0 -9.0990978754634853 2498.7108446889251 0 0 0 0 -2.7217491236822848 -4.4263293086610815 0 -4.4263293086610815 5.0992314205541529 0 0 0 0 84.827100838967453 -417.69494637102616 0 -417.69494637102616 2215.3687757507723 0 0 0 0 -22.096985601637432 -24.257763849316689 0 -24.257763849316689 2499.2533021714626 0 0 0 0 -32.738248348558443 -185.16911007659837 0 -185.16911007659837 2484.7921186546446 0 0 0 0 -1.4716380467162151 -1.8793621594661545 0 -1.8793621594661545 4.440062012285507 0 0 0 0 -80.89794963705188 -705.76513543169494 0 -705.76513543169494 3667.6970012090533 0 0 0 0 169.71976422730347 -291.10102548549912 0 -291.10102548549912 2843.9453607708565 0 0 0 0 561.52616307993492 -586.42857778307734 0 -586.42857778307734 1913.2211917042587 0 0 0 0 228.47919422720884 -271.72461684653535 0 -271.72461684653535 1756.0652775967847 0 0 0 0 185.34146657842703 -432.95086514219565 0 -432.95086514219565 2002.09608516343 0 0 0 0 -14.190767163202423 -1220.589072586492 0 -1220.589072586492 2980.1352098797724 0 0 0 0 107.73416555137126 -1100.7169030995283 0 -1100.7169030995283 1994.3130168789139 0 0 0 0 342.41301139557754 -1066.9266300337149 0 -1066.9266300337149 2792.2242895074014 0 0 0 0 5.5173966384631186 -2.6133940873215522 0 -2.6133940873215522 0.4426923140576946 0 0 0 0 312.40768292774516 -1479.5401837638994 0 -1479.5401837638994 3169.033845075217 0 0 0 0 40.278173686369882 -70.026258303150826 0 -70.026258303150826 -42.108834307196958 0 0 0 0 -103.17086191404996 -126.63404418377104 0 -126.63404418377104 520.17764022264782 0 0 0 0 675.68089378307252 -535.45951910443182 0 -535.45951910443182 296.50485688430854 0 0 0 0 93.903661131477548 226.91661830749035 0 226.91661830749035 52.819989221818105 0 0 0 0 54.592640195674903 -31.607485504355282 0 -31.607485504355282 47.466594114965119 0 0 0 0 -7.9026014652828245 15.288977182595971 0 15.288977182595971 7.3378186685795512 0 0 0 0 549.35420263064725 -575.90690155313496 0 -575.90690155313496 1667.1104467775895 0 0 0 0 -136.76119481227892 -673.53831363464997 0 -673.53831363464997 1903.3875579084342 0 0 0 0 513.70639958816628 -718.88991726563472 0 -718.88991726563472 1262.4158123512534 0 0 0 0 -207.17844081302752 -137.88625120422512 0 -137.88625120422512 1297.3747297628802 0 0 0 0 196.01887715513254 -411.14708951580769 0 -411.14708951580769 186.13120092463214 0 0 0 0 281.53466727096134 183.24604418663512 0 183.24604418663512 -237.1341569000615 0 0 0 0 565.18540879489547 -879.67497919707967 0 -879.67497919707967 1143.6873843082503 0 0 0 0 1011.2923458339923 -581.68930433435162 0 -581.68930433435162 489.38399461992958 0 0 0 0 -86.408091331073109 126.8020650642793 0 126.8020650642793 330.52756504833815 0 0 0 0 -0.26429992873327468 -1.2371828700294532 0 -1.2371828700294532 7.7420254886856128 0 0 0 0 553.2240171440252 -615.45069303284799 0 -615.45069303284799 316.09504107062821 0 0 0 0 370.17862310533417 143.54157202993338 0 143.54157202993338 -191.37156640650937 0 0 0 0 -0.44115165835879022 -1.3508837143742056 0 -1.3508837143742056 5.2348017809277394 0 0 0 0 -18.420170190701356 -61.082447332933953 0 -61.082447332933953 -46.105965124836075 0 0 0 0 -53.911990287591834 -59.792483891229494 0 -59.792483891229494 -16.179011519125197 0 0 0 0 -13.220557352982723 0.28538588651281316 0 0.28538588651281316 42.582445382460719 0 0 0 0 -4.2543053629832634 -1.7708305356073808 0 -1.7708305356073808 26.240531408175968 0 0 0 0 -5.1001785335838576 1.5824454215180594 0 1.5824454215180594 5.8298492311150767 0 0 0 0 -1.80183658299121 0.32324608968270985 0 0.32324608968270985 16.281448076981803 0 0 0 0 -152.54890968400446 -134.19072443273035 0 -134.19072443273035 -190.73496881569736 0 0 0 0 -0.60417015769807803 -4.4029752227794461 0 -4.4029752227794461 24.649712876267479 0 0 0 0 -7.9076958450609016 11.561508838487001 0 11.561508838487001 12.85698944218737 0 0 0 0 -22.085986701879847 14.325829818706552 0 14.325829818706552 44.764693604578497 0 0 0 0 -36.202738724689425 15.640474649218959 0 15.640474649218959 70.046072397264652 0 0 0 0 -20.234632478164258 -2.7060943734904868 0 -2.7060943734904868 49.408469545116532 0 0 0 0 -17.026410958878614 -11.52253776987709 0 -11.52253776987709 65.621255671809195 0 0 0 0 -18.962187849053407 0.78986268649168778 0 0.78986268649168778 54.35095225583791 0 0 0 0 0.0347999396758496 -15.731736159679713 0 -15.731736159679713 40.775564465413481 0 0 0 0 -0.97214217619830379 -19.076535453572433 0 -19.076535453572433 34.449515677202726 0 0 0 0 -20.120770884856938 -3.9265339103949373 0 -3.9265339103949373 50.947155839996412 0 0 0 0 -77.576326254827961 58.215555153896275 0 58.215555153896275 101.84806157258572 0 0 0 0 0.8260867562223293 -2.5584321915814385 0 -2.5584321915814385 10.614089406667489 0 0 0 0 -5.7576039844543629 -60.904028573699179 0 -60.904028573699179 45.518949477889691 0 0 0 0 -1.9057362380089877 -6.6128662443105624 0 -6.6128662443105624 33.097066215937758 0 0 0 0 -26.398905784942599 -2.4797302471306466 0 -2.4797302471306466 46.366332719444472 0 0 0 0 -20.662792831317347 -6.8042503444157774 0 -6.8042503444157774 47.431880377182097 0 0 0 0 -1.0119142270651429 1.0914978725865581 0 1.0914978725865581 8.3218241177152947 0 0 0 0 46.123681119428255 -56.384550724171277 0 -56.384550724171277 31.723066576538258 0 0 0 0 -13.607355846258002 27.293927938793786 0 27.293927938793786 103.13225264614334 0 0 0 0 -6.9261608406121979 -6.2860162395567158 0 -6.2860162395567158 104.21906329486228 0 0 0 0 -14.675955105644391 35.89799276521444 0 35.89799276521444 65.201496270383359 0 0 0 0 -7.0468885705353728 -3.5117246690822412 0 -3.5117246690822412 53.589936341566499 0 0 0 0 -13.229352301215684 -18.21856705227583 0 -18.21856705227583 72.50643707200652 0 0 0 0 -38.688320256515908 0.93916194602206815 0 0.93916194602206815 130.61147084207914 0 0 0 0 -12.371760109258048 -14.444260649121134 0 -14.444260649121134 64.885694370954297 0 0 0 0 -16.465064870800006 -10.879002676061646 0 -10.879002676061646 65.791648260434158 0 0 0 0 42.841337624658337 -32.815203296635445 0 -32.815203296635445 18.290018847692409 0 0 0 0 -6.3922002139843244 -20.501254152768524 0 -20.501254152768524 50.615602112055058 0 0 0 0 6.9569538245509648 -32.426781100868538 0 -32.426781100868538 56.638287312795001 0 0 0 0 9.9292981396515643 -29.486734974052524 0 -29.486734974052524 25.364010384044377 0 0 0 0 24.305074017316315 -52.109045053824957 0 -52.109045053824957 60.839676604315173 0 0 0 0 -2.1995860568669627 -36.283450936289228 0 -36.283450936289228 84.495642500347458 0 0 0 0 -2.1987710034269301 0.42562570250532872 0 0.42562570250532872 1.1709610002365309 0 0 0 0 11.02061184303318 32.967695017876395 0 32.967695017876395 17.499672362595447 0 0 0 0 -76.176164053161756 33.064006777945906 0 33.064006777945906 46.55899637103721 0 0 0 0 -59.668873404518536 48.190653297293466 0 48.190653297293466 39.773824905831134 0 0 0 0 -40.391394726167619 32.971535279881209 0 32.971535279881209 50.614532120351214 0 0 0 0 -6.6556280328317374 -8.0470316961568713 0 -8.0470316961568713 21.514894806667428 0 0 0 0 -49.004283775719216 16.390926761872834 0 16.390926761872834 70.573026522411965 0 0 0 0 -10.429350825887468 1.1818621061556769 0 1.1818621061556769 14.954172559861036 0 0 0 0 -1.8249369122870081 3.9645193761005082 0 3.9645193761005082 -0.020459827974349309 0 0 0 0 -5.0765362622184886 -4.2297672559121224 0 -4.2297672559121224 29.257221051325956 0 0 0 0 -44.794342055350967 30.016130411502672 0 30.016130411502672 28.250038031153963 0 0 0 0 -57.750240558312953 -36.170266621978953 0 -36.170266621978953 0.59710951434681192 0 0 0 0 -6.4996379785208527 0.3104059963058603 0 0.3104059963058603 7.8548353740336836 0 0 0 0 -23.9159785907311 0.69756490509428204 0 0.69756490509428204 10.21482599992305 0 0 0 0 -9.0317368002085914 0.93410522233352822 0 0.93410522233352822 13.864029358803236 0 0 0 0 -10.957214904367618 -3.4399320333370156 0 -3.4399320333370156 20.282743289186328 0 0 0 0 -4.1190962031463991 1.2007868329078484 0 1.2007868329078484 9.9007747219700093 0 0 0 0 -2.3918524992117036 -5.6348051679822788 0 -5.6348051679822788 11.853541518413266 0 0 0 0 -7.8246154055978439 3.2461187286714477 0 3.2461187286714477 9.9364248387505825 0 0 0 0 -13.454425547386791 7.765183955685643 0 7.765183955685643 25.987634037424868 0 0 0 0 -5.4330670954211095 -0.22043253877654934 0 -0.22043253877654934 11.709953172706008 0 0 0 0 15.006314085761176 -26.160216874663092 0 -26.160216874663092 26.854777512606233 0 0 0 0 20.024394739216859 -6.4787525676365476 0 -6.4787525676365476 -3.4569816153671127 0 0 0 0 14.759824864427628 -27.285637561624753 0 -27.285637561624753 31.500791811267845 0 0 0 0 15.228774729188899 -26.416131175979899 0 -26.416131175979899 27.505710749261198 0 0 0 0 3.9188491347110812 -27.073282174529595 0 -27.073282174529595 63.466416179056978 0 0 0 0 -4.272026726846434 -7.6830422387938597 0 -7.6830422387938597 23.784330726863118 0 0 0 0 -18.205300387453462 -68.804856988135725 0 -68.804856988135725 46.982434163843209 0 0 0 0 -24.392570411050656 -54.604812036443036 0 -54.604812036443036 16.213067431097443 0 0 0 0 -5.1937115472994719 2.33187616496798 0 2.33187616496798 43.738945252931444 0 0 0 0 -2.7565832610858738 0.96808536795768418 0 0.96808536795768418 4.3982728728059044 0 0 0 0 -7.8714883763474139 -0.30626778968125024 0 -0.30626778968125024 13.484773166293536 0 0 0 0 -38.281185162577458 10.474101185725885 0 10.474101185725885 20.795169756893301 0 0 0 0 -26.374657257825675 0.52154980914201587 0 0.52154980914201587 56.72694312072781 0 0 0 0 -11.402944263937798 10.547888474080537 0 10.547888474080537 17.130075261346065 0 0 0 0 -20.399991094847792 7.2885084043809911 0 7.2885084043809911 20.103884072392248 0 0 0 0 -33.283773591335375 21.197046849585604 0 21.197046849585604 5.5730854778084904 0 0 0 0 -70.881931137042557 -1.1181650361977518 0 -1.1181650361977518 35.652461299556307 0 0 0 0 0.15004699438137337 -0.8591295581850602 0 -0.8591295581850602 2.1655209809363072 0 0 0 0 -59.842530390153115 28.686629104515305 0 28.686629104515305 -35.997690627002157 0 0 0 0 -27.156802374604126 -6.3420830742743419 0 -6.3420830742743419 1.2950618205359206 0 0 0 0 -9.0089638380204633 -1.5484317077789456 0 -1.5484317077789456 12.044872347993078 0 0 0 0 -4.3663259850816303 -7.3793751071498264 0 -7.3793751071498264 27.463870844891062 0 0 0 0 -2.0074119061318925 -10.617895557705197 0 -10.617895557705197 27.676105258011376 0 0 0 0 -9.9440409880026266 1.1110041014348013 0 1.1110041014348013 18.677474662612411 0 0 0 0 -6.8459330663375617 -3.7140587915090961 0 -3.7140587915090961 17.663138046849497 0 0 0 0 -12.484563007862789 -9.2242973231186625 0 -9.2242973231186625 46.634294011397287 0 0 0 0 -4.1491355200050748 13.104540940286824 0 13.104540940286824 -26.464373280818108 0 0 0 0 -3.8734547046867007 -2.2435491186763983 0 -2.2435491186763983 12.250827498645435 0 0 0 0 -6.7021575380931608 -5.3476876728673233 0 -5.3476876728673233 28.092704501352273 0 0 0 0 -1.0488501053150685 -8.5143715786689427 0 -8.5143715786689427 24.280160058871843 0 0 0 0 -3.9118223871348512 -4.768744348081043 0 -4.768744348081043 15.523464806971944 0 0 0 0 -2.0371054273875213 -5.8925429763107928 0 -5.8925429763107928 19.985020131118773 0 0 0 0 -40.060160347948113 -21.884480147768045 0 -21.884480147768045 73.129028287323308 0 0 0 0 -14.604192836968423 2.0422569316998924 0 2.0422569316998924 16.788596833153065 0 0 0 0 -14.167648803209984 1.3317769107481983 0 1.3317769107481983 16.148873276767546 0 0 0 0 71.16392253450806 64.951985984748717 0 64.951985984748717 -18.659551357355667 0 0 0 0 -9.5329837620181479 -1.4768052299659757 0 -1.4768052299659757 20.678573847850203 0 0 0 0 5.7663637438308797 -17.872812259171042 0 -17.872812259171042 22.855450787163136 0 0 0 0 7.556382262238003 -15.069841187247221 0 -15.069841187247221 25.565253956156084 0 0 0 0 18.454041407518162 -26.668542843523028 0 -26.668542843523028 27.099234115201398 0 0 0 0 -17.023310615754554 -77.778814715293265 0 -77.778814715293265 109.06651941550081 0 0 0 0 69.56415673439551 -3.6749320124508813 0 -3.6749320124508813 27.659148326387367 0 0 0 0 -11.963876485713399 13.686064074034221 0 13.686064074034221 74.802410205476917 0 0 0 0 8.7522378563417078 -21.729124810670328 0 -21.729124810670328 94.871339002274908 0 0 0 0 10.385851507734515 -6.9105091214369168 0 -6.9105091214369168 14.489696887758328 0 0 0 0 -20.605537407455287 -118.82217430795936 0 -118.82217430795936 72.577759121573763 0 0 0 0 -37.649965195925688 -2.871798937987478 0 -2.871798937987478 57.122799982404104 0 0 0 0 -0.15984275074232415 -9.4785154334604851 0 -9.4785154334604851 31.992676674951014 0 0 0 0 -111.02571326710193 -41.680031295185472 0 -41.680031295185472 89.428880523773842 0 0 0 0 32.365080424903397 42.684283278227667 0 42.684283278227667 -7.1957853233288915 0 0 0 0 -0.45269654946576171 0.84451374328548923 0 0.84451374328548923 4.8457592961315186 0 0 0 0 -81.0527494328514 78.931947084944113 0 78.931947084944113 18.539475618104916 0 0 0 0 -30.020076083131983 -53.261260258528637 0 -53.261260258528637 55.063819207600318 0 0 0 0 107.29429735406131 -107.0219528761736 0 -107.0219528761736 5.6101501599623589 0 0 0 0 60.594104286714554 -74.486291956418427 0 -74.486291956418427 109.7558774370118 0 0 0 0 83.547386455030178 -4.9147859823860927 0 -4.9147859823860927 -81.808565322513459 0 0 0 0 89.501183049379705 -119.85946535987023 0 -119.85946535987023 158.37398274730367 0 0 0 0 130.73850592727942 -50.147754410652851 0 -50.147754410652851 2.3245063869762816 0 0 0 0 69.397037715457103 -12.4558196782491 0 -12.4558196782491 -34.991494519126718 0 0 0 0 49.848372919549263 -42.401855411779252 0 -42.401855411779252 89.4345129981848 0 0 0 0 55.295712676543374 -23.815128667441968 0 -23.815128667441968 45.626905971410451 0 0 0 0 47.696595047937862 -86.740534091473819 0 -86.740534091473819 134.36198767601718 0 0 0 0 0.023529492641897354 -110.45055833633887 0 -110.45055833633887 259.58322037308972 0 0 0 0 93.488154298432647 -124.9009307939923 0 -124.9009307939923 131.38451530314705 0 0 0 0 132.53979760926092 -94.177442426516791 0 -94.177442426516791 54.099180189678009 0 0 0 0 75.024236656044579 -125.1764638986715 0 -125.1764638986715 191.0214213187719 0 0 0 0 176.83790815636672 -212.3734480692583 0 -212.3734480692583 195.4938674407199 0 0 0 0 31.33680409766577 -198.5952140463196 0 -198.5952140463196 382.50088293017325 0 0 0 0 -0.060930242110894067 -125.57340156669306 0 -125.57340156669306 378.176821736497 0 0 0 0 3.5721488337305232 -116.89427498988334 0 -116.89427498988334 392.1893638300462 0 0 0 0 -0.85920748834558935 -210.52465855202172 0 -210.52465855202172 1038.9578393600314 0 0 0 0 1.0675179677897735 -1.1518046761115812 0 -1.1518046761115812 1.2651773170372849 0 0 0 0 386.63779679751065 -387.97568459611648 0 -387.97568459611648 275.54003312456189 0 0 0 0 268.61831753053502 -447.56144958045479 0 -447.56144958045479 545.58037411567057 0 0 0 0 359.0913638462755 -224.63695097027812 0 -224.63695097027812 -163.21035225219384 0 0 0 0 28.855938137161971 27.034646127955057 0 27.034646127955057 77.485889377305284 0 0 0 0 257.13718447303626 -138.78597991671268 0 -138.78597991671268 237.19419049368298 0 0 0 0 104.5487675182957 -38.606489525191137 0 -38.606489525191137 125.16087942582453 0 0 0 0 -78.4097320115375 -14.169396739755143 0 -14.169396739755143 143.00737222330645 0 0 0 0 200.54519520448883 -190.50328047843504 0 -190.50328047843504 190.14955933119927 0 0 0 0 179.48844314119634 -18.022098632311099 0 -18.022098632311099 29.039535965959658 0 0 0 0 33.290877773178302 -120.91034607684196 0 -120.91034607684196 42.540349326125579 0 0 0 0 221.06768290131672 -154.77372452715645 0 -154.77372452715645 59.141852572953212 0 0 0 0 122.85727517746858 -215.53865847156703 0 -215.53865847156703 320.99302269483087 0 0 0 0 158.34082777314148 -111.23107695225826 0 -111.23107695225826 155.62965269369306 0 0 0 0 -6.5188719555949319 12.895505991576101 0 12.895505991576101 -14.650950006101993 0 0 0 0 -27.129790894960024 7.7154610705456435 0 7.7154610705456435 21.807861697667249 0 0 0 0 -15.462681671967363 4.1963134586561637 0 4.1963134586561637 13.116809689414232 0 0 0 0 -4.9590180709245431 -2.0618723147694027 0 -2.0618723147694027 41.050848565337219 0 0 0 0 -6.820435655379697 -15.198677603242686 0 -15.198677603242686 28.479969483232708 0 0 0 0 -12.817014858514682 3.6673986991483716 0 3.6673986991483716 8.3013155214418219 0 0 0 0 -14.921918581205318 36.436299831519136 0 36.436299831519136 -13.968223556912562 0 0 0 0 104.44978403968867 -206.66262926648233 0 -206.66262926648233 308.51199442849247 0 0 0 0 83.756431354434085 -22.991393987313131 0 -22.991393987313131 -2.1182535379120964 0 0 0 0 -4.2015530819987958 -8.9020088509081461 0 -8.9020088509081461 10.741432028164127 0 0 0 0 -13.406748842303418 8.7757137287798344 0 8.7757137287798344 9.2858491245635193 0 0 0 0 -9.071777525455536 2.7909458028856022 0 2.7909458028856022 13.488365992665095 0 0 0 0 65.439574466651692 12.668261864839451 0 12.668261864839451 99.931728139970801 0 0 0 0 103.05693734532507 -479.0140785869371 0 -479.0140785869371 717.21782704044563 0 0 0 0 -201.8026130921892 -78.394757107685109 0 -78.394757107685109 1168.4357214362244 0 0 0 0 -550.3399971219003 -519.12072771518251 0 -519.12072771518251 2498.4287915201421 0 0 0 0 -154.79057909342092 -753.88105848677151 0 -753.88105848677151 1728.7878108321383 0 0 0 0 -370.24588951928729 142.52676424868332 0 142.52676424868332 1152.7775068798874 0 0 0 0 -352.43678325461258 -174.76100823547586 0 -174.76100823547586 2103.4998562995934 0 0 0 0 -137.81528868068077 34.011503991632708 0 34.011503991632708 1198.9541658082453 0 0 0 0 -5.0053078863770111 197.44553102218561 0 197.44553102218561 212.99262640151755 0 0 0 0 -110.05789729645849 178.21570007628361 0 178.21570007628361 910.09255903674057 0 0 0 0 302.67262839446664 1033.1923817475035 0 1033.1923817475035 2500.5244021229337 0 0 0 0 -403.41096936145129 408.83206328743836 0 408.83206328743836 2291.3578502057062 0 0 0 0 159.65597895080418 832.55493752489565 0 832.55493752489565 1120.8866415688681 0 0 0 0 201.30983741182865 230.81823286397048 0 230.81823286397048 -360.363042508332 0 0 0 0 298.00324522430265 560.07095962783933 0 560.07095962783933 617.54869103430246 0 0 0 0 3.7978967419512784 3.9617958576004355 0 3.9617958576004355 2.4448966658984403 0 0 0 0 -52.611690563875356 373.77927234089293 0 373.77927234089293 3265.0215199102131 0 0 0 0 -8.0097426737952446 -94.984814540055595 0 -94.984814540055595 325.34299722114883 0 0 0 0 93.263912826041491 -56.338123659948906 0 -56.338123659948906 212.90764958555519 0 0 0 0 -4.1093693957812318 -0.66442842143108294 0 -0.66442842143108294 0.19756560304661264 0 0 0 0 186.34713486849751 240.50201151690089 0 240.50201151690089 -182.74810697801877 0 0 0 0 -90.763014960180271 -114.10392248065909 0 -114.10392248065909 191.99994127038008 0 0 0 0 -10.283855804920677 -186.15970172589732 0 -186.15970172589732 283.59607171397511 0 0 0 0 -148.57209323337815 -172.10701586152936 0 -172.10701586152936 388.73452730597273 0 0 0 0 -276.95065543253799 -23.113321696770072 0 -23.113321696770072 307.0333684858997 0 0 0 0 3.5710778256017193 40.229044152707502 0 40.229044152707502 57.153546649471537 0 0 0 0 -7.6468606504170396 -4.402407516942958 0 -4.402407516942958 30.702487288261182 0 0 0 0 -74.02592359232591 -106.67237027317242 0 -106.67237027317242 294.97265760502523 0 0 0 0 -16.03201641391216 0.39817715877751425 0 0.39817715877751425 9.5974827668426954 0 0 0 0 -4.6327132386728005 0.45218066550789171 0 0.45218066550789171 3.5088204630253301 0 0 0 0 147.39044345028771 -97.601824425975792 0 -97.601824425975792 60.599826302659494 0 0 0 0 -124.07234426044784 1.5073376822656428 0 1.5073376822656428 128.10620762331428 0 0 0 0 -61.33734541602189 -51.930470220002462 0 -51.930470220002462 119.82877708174965 0 0 0 0 -21.007519175539073 -17.175177738887214 0 -17.175177738887214 77.019234402574511 0 0 0 0 -17.390239352107528 -23.635194652248174 0 -23.635194652248174 71.975156014083041 0 0 0 0 -2.6017741177101925 42.336293873901923 0 42.336293873901923 41.738193903234787 0 0 0 0 12.48350352516718 -15.113540160233242 0 -15.113540160233242 81.884254488206352 0 0 0 0 -53.924535412021896 20.888078568286801 0 20.888078568286801 33.016097621675726 0 0 0 0 -69.133000905023437 -40.920633058121894 0 -40.920633058121894 284.76177161826126 0 0 0 0 -13.08686642583239 -1.6895164717286519 0 -1.6895164717286519 -1.2218080670143081 0 0 0 0 -151.77844336759165 87.016070092275186 0 87.016070092275186 186.1355675787272 0 0 0 0 30.805273830522083 -87.168154103615962 0 -87.168154103615962 193.22875200495764 0 0 0 0 0.27821825798878308 2.3004803219155292 0 2.3004803219155292 143.42507886339445 0 0 0 0 -114.86912654439902 -5.3185650137056655 0 -5.3185650137056655 241.1834342469283 0 0 0 0 -333.6476141537496 -317.34617105678626 0 -317.34617105678626 2498.2656150751754 0 0 0 0 8.723073500372017 6.7040931039801706 0 6.7040931039801706 14.934744760733224 0 0 0 0 413.47995465335231 630.73282317291159 0 630.73282317291159 1055.4823129039723 0 0 0 0 6.7166115658338743 -2.3675789775072502 0 -2.3675789775072502 8.3201246115343395 0 0 0 0 -73.899792903890102 31.289283283549594 0 31.289283283549594 108.46183835910779 0 0 0 0 -52.209495600415721 134.86602795285944 0 134.86602795285944 -75.148586586312376 0 0 0 0 -88.032581111923946 82.705941532562065 0 82.705941532562065 81.697236464715388 0 0 0 0 761.82915090137021 -1251.6612331201395 0 -1251.6612331201395 2108.6646455020527 0 0 0 0 4.5680086429738367 -34.730130315816496 0 -34.730130315816496 86.422901633055517 0 0 0 0 -3.4285334050463243 8.4058690744072706 0 8.4058690744072706 61.903538086189755 0 0 0 0 17.696220885615688 -9.398709053976205 0 -9.398709053976205 5.2659724424202636 0 0 0 0 410.95726207186419 -1028.685961812098 0 -1028.685961812098 2498.7695665487136 0 0 0 0 2.4701936178239521 -56.256194972354933 0 -56.256194972354933 118.28724388879345 0 0 0 0 -57.050261470420992 20.187352919303521 0 20.187352919303521 148.46750506609715 0 0 0 0 -21.192626837085129 -6.7545175680225711 0 -6.7545175680225711 15.582872102670393 0 0 0 0 -69.491025637174971 -0.64646447733684909 0 -0.64646447733684909 167.89957576888992 0 0 0 0 -9.8726644268149091 16.949380866020427 0 16.949380866020427 70.723767244851132 0 0 0 0 -13.504965856587887 -9.1077494715700595 0 -9.1077494715700595 70.260348856631026 0 0 0 0 -14.732566643766404 -8.5098815070887213 0 -8.5098815070887213 70.054849517531693 0 0 0 0 -18.206045003691543 -0.44660085546638584 0 -0.44660085546638584 63.231479322101222 0 0 0 0 -13.493973022477849 6.3067710722175505 0 6.3067710722175505 46.823036899536277 0 0 0 0 -21.157611973116332 -10.631197084279847 0 -10.631197084279847 70.763016439748753 0 0 0 0 -10.32007485364986 10.422483891716269 0 10.422483891716269 25.19609513458218 0 0 0 0 -1.9420308919956142 66.27547305603548 0 66.27547305603548 47.387325234310993 0 0 0 0 0.3423485850967154 -13.250358997187504 0 -13.250358997187504 60.123292594864324 0 0 0 0 -8.5562124550161478 1.4048421790656533 0 1.4048421790656533 50.561524652953779 0 0 0 0 -6.2813423638663153 -9.8511452129241661 0 -9.8511452129241661 58.881851558538983 0 0 0 0 3.3968443968249176 -14.665629204122524 0 -14.665629204122524 63.206517562088266 0 0 0 0 -3.8058170592285023 -18.24852665672006 0 -18.24852665672006 67.228893655023057 0 0 0 0 -4.3347913912779159 -0.31702788472546217 0 -0.31702788472546217 3.9774367285056655 0 0 0 0 -2.0082345313435326 -16.951852834950387 0 -16.951852834950387 64.695800103290821 0 0 0 0 -6.7258533273388821 10.072914931668492 0 10.072914931668492 7.7420859881240176 0 0 0 0 -8.1885509040221223 0.85556755274592433 0 0.85556755274592433 28.265663953476178 0 0 0 0 -5.1975753344499935 -0.46042554964515148 0 -0.46042554964515148 24.449101746700762 0 0 0 0 -2.236441895720418 -18.290034517078311 0 -18.290034517078311 57.805773189900719 0 0 0 0 -2.4093106174151231 -11.061418930338341 0 -11.061418930338341 22.650346196020962 0 0 0 0 -8.3673143888647434 -3.1799213170006766 0 -3.1799213170006766 16.842966583442859 0 0 0 0 -7.5331083144244033 -5.07690804496238 0 -5.07690804496238 23.59030379964679 0 0 0 0 -7.1205435517476872 -6.1452552007976919 0 -6.1452552007976919 23.093510057609819 0 0 0 0 -6.4696490043361319 -0.96910944932047016 0 -0.96910944932047016 16.618923774680326 0 0 0 0 -12.212823575106086 -3.3862048443697859 0 -3.3862048443697859 22.659093908812793 0 0 0 0 -8.5832901782878182 -4.8846893058453844 0 -4.8846893058453844 16.608214407865887 0 0 0 0 -6.7986801618868178 -2.0582005306902147 0 -2.0582005306902147 12.829304553949513 0 0 0 0 -3.7635679554537518 -6.8545567996175123 0 -6.8545567996175123 21.599977066318388 0 0 0 0 -39.836908715551544 8.4025547442870447 0 8.4025547442870447 9.2632369205457508 0 0 0 0 -0.4920315969283422 0.45402135844878444 0 0.45402135844878444 0.81756777935162006 0 0 0 0 -17.709641852850837 18.302299732386018 0 18.302299732386018 -9.727685823207139 0 0 0 0 -12.308049642064628 0.74233795613513109 0 0.74233795613513109 13.28278063814777 0 0 0 0 -28.481925393294659 -32.776980784081388 0 -32.776980784081388 89.351266379700974 0 0 0 0 7.5807445647365057 -5.6622972900013337 0 -5.6622972900013337 69.719162042310927 0 0 0 0 1.9541640582124273 31.29163045023779 0 31.29163045023779 82.758112782496028 0 0 0 0 -14.979361736906867 -9.6526909998428891 0 -9.6526909998428891 1.471184486801576 0 0 0 0 0.0017747069294600237 -1.0079661426638538 0 -1.0079661426638538 1.2679804540832151 0 0 0 0 -9.9558494500379311 -10.312874175346224 0 -10.312874175346224 1.5287933896470349 0 0 0 0 -9.715061334452713 -2.5097051563306678 0 -2.5097051563306678 6.2557205006804821 0 0 0 0 -12.579662559603094 -2.6525840989233984 0 -2.6525840989233984 17.794369996350724 0 0 0 0 -11.43616239039693 -1.0295477766449039 0 -1.0295477766449039 17.210255708116165 0 0 0 0 -10.164565820511079 1.6024496239396342 0 1.6024496239396342 6.4851844013123952 0 0 0 0 -9.8971082041372451 -2.0418112542224449 0 -2.0418112542224449 8.8316059650765339 0 0 0 0 -11.286818534018874 2.7102523104578751 0 2.7102523104578751 10.492210291129055 0 0 0 0 -10.93719870062796 -0.79580954305674823 0 -0.79580954305674823 20.460294492848334 0 0 0 0 -8.4378293625220273 -5.0769132781179565 0 -5.0769132781179565 9.8620714714287203 0 0 0 0 -2.5077072799103917 -3.8513571240910096 0 -3.8513571240910096 19.898415665869834 0 0 0 0 -11.151796022720422 1.0737758932260135 0 1.0737758932260135 7.2822357981830095 0 0 0 0 -4.2417758899765943 -6.3657167667383519 0 -6.3657167667383519 6.2463185033087427 0 0 0 0 -3.5225481493725965 -11.932318086332089 0 -11.932318086332089 21.523041862726132 0 0 0 0 -9.420501689496632 -7.9237455396450969 0 -7.9237455396450969 21.741341485047087 0 0 0 0 -3.2553575185629597 -6.8577759276449797 0 -6.8577759276449797 21.921101912528684 0 0 0 0 -9.4255902065508508 -5.0429970996042357 0 -5.0429970996042357 1.4173972287389915 0 0 0 0 -12.122470412259645 -2.7873119896139542 0 -2.7873119896139542 1.3681398923799861 0 0 0 0 -17.962674575803248 -3.94676893480937 0 -3.94676893480937 1.348052334786189 0 0 0 0 -6.7038827924552606 -4.1717570048203925 0 -4.1717570048203925 0.95742466930096271 0 0 0 0 -13.732655148198319 -1.9031859257811448 0 -1.9031859257811448 -5.9872338564891834 0 0 0 0 -12.117397220634302 -6.6097656871352228 0 -6.6097656871352228 4.191404034732841 0 0 0 0 0.065148376871665192 -0.87674099100572533 0 -0.87674099100572533 -2.5102371543392934 0 0 0 0 2.8613663443538826 -4.9513655351474881 0 -4.9513655351474881 19.331405130855273 0 0 0 0 -0.40606324243162817 -0.51295280316844583 0 -0.51295280316844583 14.024600446107797 0 0 0 0 -0.57872314722044393 -8.6656035949272336 0 -8.6656035949272336 19.507260869424499 0 0 0 0 -0.60588235625618836 -7.7765436173940543 0 -7.7765436173940543 9.7422673801593191 0 0 0 0 -2.7157792891812278 -4.1395808041124837 0 -4.1395808041124837 3.5552782326776651 0 0 0 0 -10.143658276409042 -2.3345233892105171 0 -2.3345233892105171 7.2097481315140612 0 0 0 0 -1.2684713027520047 2.1352727452176623 0 2.1352727452176623 6.7849540171664557 0 0 0 0 -1.3236799886726658 -0.52380507695488632 0 -0.52380507695488632 2.7923642828682205 0 0 0 0 -1.4351888076744217 -2.0135075547404995 0 -2.0135075547404995 10.72535171774507 0 0 0 0 -4.5982105526782107 -5.4021098422526848 0 -5.4021098422526848 7.651047830011521 0 0 0 0 -10.584195126299164 -8.4179240355151705 0 -8.4179240355151705 9.0749153521610424 0 0 0 0 -2.6889019685149833 -5.2266699231404345 0 -5.2266699231404345 3.0206465466908412 0 0 0 0 -7.5456071561475255 -6.7216107581716642 0 -6.7216107581716642 7.9904088782204781 0 0 0 0 -6.6607725803251014 -7.8439404629152705 0 -7.8439404629152705 11.885174364084378 0 0 0 0 -7.7975236622987723 -6.6622800133591227 0 -6.6622800133591227 11.622663749032654 0 0 0 0 -7.1851120486253421 -6.2999622375336912 0 -6.2999622375336912 11.63714920647908 0 0 0 0 -5.3411411382894585 -6.0842000521552109 0 -6.0842000521552109 14.179541667326703 0 0 0 0 -4.2733336415840313 -3.8323512666247552 0 -3.8323512666247552 14.801154859946109 0 0 0 0 -3.2600126756842656 -7.7289205780107295 0 -7.7289205780107295 14.93652274455053 0 0 0 0 -2.7507047016933939 -11.714991605989781 0 -11.714991605989781 15.53761570171082 0 0 0 0 -4.4676459451302435 -8.1373809714095842 0 -8.1373809714095842 12.958800268126652 0 0 0 0 -4.1114449812123439 -11.378099093522906 0 -11.378099093522906 21.094499481991079 0 0 0 0 -10.021913213928201 -8.1091768608457642 0 -8.1091768608457642 22.08380814868724 0 0 0 0 -41.014787580155826 -15.314433974621352 0 -15.314433974621352 23.750631874499959 0 0 0 0 -14.863348980107792 0.18457596735314041 0 0.18457596735314041 6.2027397896587928 0 0 0 0 10.465496078547631 79.836419001137983 0 79.836419001137983 -13.712863266093336 0 0 0 0 -1.3264908712021066 0.10602293572557642 0 0.10602293572557642 0.62994414153372702 0 0 0 0 -10.4666241738895 -65.513782788333629 0 -65.513782788333629 104.79903517871571 0 0 0 0 17.446879209716144 -38.69909524326431 0 -38.69909524326431 78.382017532509053 0 0 0 0 -55.217352839785462 -52.389867626710839 0 -52.389867626710839 102.47929292317713 0 0 0 0 -58.377478121152947 -62.952632175267809 0 -62.952632175267809 48.25209899503534 0 0 0 0 6.8596775991910732 -18.279827901142198 0 -18.279827901142198 45.90033525396575 0 0 0 0 -12.131916838257725 -0.35615956604793553 0 -0.35615956604793553 6.4815710951890111 0 0 0 0 -6.7203918692684965 -9.0007102944218786 0 -9.0007102944218786 23.321320196482702 0 0 0 0 -28.422284179689839 4.4927347289935202 0 4.4927347289935202 11.230061254046149 0 0 0 0 -28.427441355930569 14.794305358576821 0 14.794305358576821 6.6906407472088176 0 0 0 0 -8.3610115313895221 -9.7499723903019913 0 -9.7499723903019913 26.499577024907921 0 0 0 0 -16.309389004456211 -0.81539531923110076 0 -0.81539531923110076 14.645866394069493 0 0 0 0 -31.534087715041096 -48.277860928728842 0 -48.277860928728842 88.991230719024315 0 0 0 0 -46.579169498145347 -28.240116779452364 0 -28.240116779452364 79.541723647569597 0 0 0 0 -68.498611113949664 -22.915226758868812 0 -22.915226758868812 108.96204310860776 0 0 0 0 -58.652834738459205 -5.5846750868095114 0 -5.5846750868095114 118.76512384053785 0 0 0 0 -4.7061641207694951 -8.1499122608035783 0 -8.1499122608035783 17.815770814368165 0 0 0 0 -16.73627427854899 -10.553293153894629 0 -10.553293153894629 20.341527308675722 0 0 0 0 -12.166830242521328 -2.7139729142815128 0 -2.7139729142815128 7.6831642999714092 0 0 0 0 -9.6468622703760047 -5.6608778021254693 0 -5.6608778021254693 14.009669687555288 0 0 0 0 -19.459427334915745 -7.481989338513813 0 -7.481989338513813 13.581580331847363 0 0 0 0 -17.060720078432496 -4.9944554528046865 0 -4.9944554528046865 14.745833335189673 0 0 0 0 -11.646627345940942 -6.795833263793611 0 -6.795833263793611 14.059125488602149 0 0 0 0 -11.703886266685004 -7.0874522724770941 0 -7.0874522724770941 12.751610299776075 0 0 0 0 -13.067768808745313 -5.994964727316983 0 -5.994964727316983 13.334154747484718 0 0 0 0 -14.120988214290264 -7.5741690317299799 0 -7.5741690317299799 12.692184168146923 0 0 0 0 -15.072259841537743 -5.6899861643469194 0 -5.6899861643469194 13.340770628885366 0 0 0 0 -12.530995209674074 -6.9500835809158161 0 -6.9500835809158161 11.065960244333837 0 0 0 0 -11.811204172576254 -8.0159606610395713 0 -8.0159606610395713 11.021984868057189 0 0 0 0 -14.586956607126922 -10.073220031143137 0 -10.073220031143137 7.8711800677372139 0 0 0 0 -10.128832223997961 -9.4866561051012468 0 -9.4866561051012468 5.0926213590137195 0 0 0 0 -18.404204514138655 -8.8366260929687996 0 -8.8366260929687996 11.210834617239016 0 0 0 0 1.763453667759814 -11.186086589263747 0 -11.186086589263747 11.177852347856813 0 0 0 0 -9.5067073440295644 -9.4692610118436278 0 -9.4692610118436278 4.9067133163844119 0 0 0 0 1.4917089284863323 -35.989829954676679 0 -35.989829954676679 -18.850736375679844 0 0 0 0 -5.0054829832077417 -4.9743750513850813 0 -4.9743750513850813 7.2262884524704631 0 0 0 0 -16.814268249932866 -9.6578189704050601 0 -9.6578189704050601 9.3627269928438182 0 0 0 0 17.373530530773223 -27.428835304987842 0 -27.428835304987842 -50.549560715429834 0 0 0 0 -10.423031796733994 4.9310188169838511 0 4.9310188169838511 68.741748018615908 0 0 0 0 -46.584079263364401 -50.163862272944243 0 -50.163862272944243 43.706438272343803 0 0 0 0 -27.047410694784048 -82.432164548845321 0 -82.432164548845321 -30.556430445685692 0 0 0 0 7.9344803815911291 -51.168297577161866 0 -51.168297577161866 -32.996555070560134 0 0 0 0 28.827767672501068 -74.204108740916126 0 -74.204108740916126 -99.529938171397589 0 0 0 0 -26.230583907054097 -114.0308512849806 0 -114.0308512849806 -106.31138177342655 0 0 0 0 -25.009653831493779 -101.04012766287633 0 -101.04012766287633 -68.085972451619455 0 0 0 0 -59.473171912242833 60.376107438147301 0 60.376107438147301 -93.791412793507334 0 0 0 0 -138.94214455372276 -78.532935360562988 0 -78.532935360562988 -65.587910100046429 0 0 0 0 -102.44299487700482 -27.094034226967779 0 -27.094034226967779 129.0758718776342 0 0 0 0 -113.24430975353607 -93.30924569407216 0 -93.30924569407216 90.489118083860376 0 0 0 0 -212.36565299703216 136.9569770940434 0 136.9569770940434 -89.363583712140098 0 0 0 0 -89.507583817572595 -18.8235765524405 0 -18.8235765524405 127.86369937752897 0 0 0 0 -8.1358201494003879 -22.176838716964994 0 -22.176838716964994 129.02960258344683 0 0 0 0 -48.307049284838286 -11.529919115473604 0 -11.529919115473604 126.59392728764942 0 0 0 0 -1.843866036392825 1.4640336795485425 0 1.4640336795485425 -0.28610587496705531 0 0 0 0 41.430881069287352 -84.071652308139164 0 -84.071652308139164 -144.3339075804397 0 0 0 0 75.960815314576394 -42.738230795919662 0 -42.738230795919662 -116.36726459779675 0 0 0 0 29.169528512605211 -70.977342503480941 0 -70.977342503480941 -81.52226181892911 0 0 0 0 27.022522069568367 -41.361853163369233 0 -41.361853163369233 -74.099498557376137 0 0 0 0 46.092400817281487 -9.9647955992768402 0 -9.9647955992768402 -22.420235508077894 0 0 0 0 9.2808228418107319 -30.706189174597966 0 -30.706189174597966 -8.6187863880732039 0 0 0 0 -1.1214529061890062 -46.305248668315471 0 -46.305248668315471 -3.3814570174727123 0 0 0 0 -260.09897587598698 1.1972669787410268 0 1.1972669787410268 41.240908624706208 0 0 0 0 -76.680537731690492 -53.262045023093378 0 -53.262045023093378 46.943955385933805 0 0 0 0 -28.24279717524314 63.952848071276094 0 63.952848071276094 -92.934093654617755 0 0 0 0 -1.8976423839106111 -1.4826343404678894 0 -1.4826343404678894 0.22227113219967976 0 0 0 0 -311.13918762215326 17.906334999330284 0 17.906334999330284 -43.714701425680687 0 0 0 0 42.999391917721368 -25.470164490994648 0 -25.470164490994648 -6.3421204650767322 0 0 0 0 -12.663965570014625 4.1092717238643672 0 4.1092717238643672 15.931441805172653 0 0 0 0 1.1058298905360679 1.5175705318423098 0 1.5175705318423098 -0.73616527992250624 0 0 0 0 -4.3508796226973203 1.6822676254942905 0 1.6822676254942905 1.1488531756458973 0 0 0 0 133.74282097728064 57.982861312149907 0 57.982861312149907 -121.6219004823979 0 0 0 0 -8.7140134692881475 15.840958576920457 0 15.840958576920457 196.87369065526582 0 0 0 0 12.12261449248399 10.166611593677771 0 10.166611593677771 95.947258064144989 0 0 0 0 -1.3769738673543088 -25.424117131927233 0 -25.424117131927233 95.642545231814438 0 0 0 0 14.055310293873845 7.5284695728587394 0 7.5284695728587394 68.400977862780564 0 0 0 0 9.1721994727613492 25.709539246163331 0 25.709539246163331 91.708054026123136 0 0 0 0 -33.561587730011524 10.93200473615434 0 10.93200473615434 140.16962778606648 0 0 0 0 -51.093278820742853 -14.584601027838289 0 -14.584601027838289 104.13048890217033 0 0 0 0 -3.8758190962817025 8.25361208484901 0 8.25361208484901 69.126766105197021 0 0 0 0 16.798387820290372 -32.631036316215614 0 -32.631036316215614 114.67786453547524 0 0 0 0 -0.81794414445175789 -2.2250613306096056 0 -2.2250613306096056 -0.44637605971365701 0 0 0 0 -33.477087659700601 2.3942207934946964 0 2.3942207934946964 69.125189297999896 0 0 0 0 1.8830222067645082 5.4947459540235286 0 5.4947459540235286 15.627963597946291 0 0 0 0 -12.155117794784019 -13.263980150180942 0 -13.263980150180942 56.337958183015871 0 0 0 0 -3.4622676568151292 11.861225859629485 0 11.861225859629485 -11.170414815176628 0 0 0 0 16.855797380056174 -2.3951518375215528 0 -2.3951518375215528 99.759688704361906 0 0 0 0 -47.634996181739552 -43.833957764272782 0 -43.833957764272782 73.510234005643724 0 0 0 0 -8.0328364167357904 -36.943399638098526 0 -36.943399638098526 295.54658586988808 0 0 0 0 62.595134220381624 -87.210897592183755 0 -87.210897592183755 104.44303689341905 0 0 0 0 -23.596306917752372 -94.133202824628825 0 -94.133202824628825 161.9075003504131 0 0 0 0 -32.977491969992116 -57.667000624931461 0 -57.667000624931461 158.17703352188983 0 0 0 0 -4.3874883325415794 -21.839857961738744 0 -21.839857961738744 154.08316842036584 0 0 0 0 14.936333135371569 -34.424549221928828 0 -34.424549221928828 93.825421793597343 0 0 0 0 6.8783829054504544 -2.3586360519367346 0 -2.3586360519367346 0.82894447056894194 0 0 0 0 -65.937485549694429 -34.881080330895202 0 -34.881080330895202 -6.6097529182552535 0 0 0 0 -54.867816824866168 -53.378410193825403 0 -53.378410193825403 -18.405946070432037 0 0 0 0 -1.3650226154527711 -5.2970357910234398 0 -5.2970357910234398 0.48922124899111452 0 0 0 0 -9.3664496876872363 -7.8524430759935058 0 -7.8524430759935058 12.935434379323851 0 0 0 0 6.4722209374558588 -16.89417929519368 0 -16.89417929519368 14.66255858875229 0 0 0 0 6.0099451370426635 -7.5135928000124608 0 -7.5135928000124608 4.8746899972555084 0 0 0 0 10.233045274522738 -13.997889732647309 0 -13.997889732647309 -22.873569444785971 0 0 0 0 0.12333066065777842 -0.88895661931687187 0 -0.88895661931687187 6.1805911578859423 0 0 0 0 17.999744259800991 -38.000028512568861 0 -38.000028512568861 88.283320985348837 0 0 0 0 65.029740968992883 -17.571988816616795 0 -17.571988816616795 -14.802590790757677 0 0 0 0 -4.4471791788014343 -24.039972580663289 0 -24.039972580663289 10.267181797440571 0 0 0 0 0.10531157052844176 -0.094746210540204601 0 -0.094746210540204601 1.4235025807566046 0 0 0 0 18.125643044093522 -16.554638005429297 0 -16.554638005429297 -2.6309990644949721 0 0 0 0 6.4406244749696739 -9.6597002666885743 0 -9.6597002666885743 7.372075129416757 0 0 0 0 -0.087160875271172111 -3.3808505518346994 0 -3.3808505518346994 3.7871426323097239 0 0 0 0 -22.698605601016425 -7.1948606976548035 0 -7.1948606976548035 26.93550177958241 0 0 0 0 1.6779295309424924 -9.2068510189274093 0 -9.2068510189274093 26.109544989099959 0 0 0 0 5.6139932677106117 -10.980860662435589 0 -10.980860662435589 21.71576054617617 0 0 0 0 13.468092643770433 -0.60870766701191314 0 -0.60870766701191314 -8.7115727777581924 0 0 0 0 20.639876119605105 11.588041265902575 0 11.588041265902575 -4.8274678516609129 0 0 0 0 60.566822484867771 69.023038071718474 0 69.023038071718474 42.744516372869839 0 0 0 0 56.655872562788318 78.793925773501542 0 78.793925773501542 97.091025693371193 0 0 0 0 4.3431842320542273 27.231846328097163 0 27.231846328097163 111.66324109076231 0 0 0 0 11.293186059882828 59.18911071306502 0 59.18911071306502 209.50869114788657 0 0 0 0 68.656309960344515 -62.328787613158056 0 -62.328787613158056 193.55679850918932 0 0 0 0 -0.74337720145425656 -0.00029392421151186454 0 -0.00029392421151186454 2.2356099720756504 0 0 0 0 -54.315032212451115 97.158593690299313 0 97.158593690299313 230.39279598587746 0 0 0 0 121.02889850939073 -191.26032796152958 0 -191.26032796152958 212.30744461286668 0 0 0 0 113.09579566750108 9.8960657202551374 0 9.8960657202551374 231.32676262923633 0 0 0 0 116.5758985168568 -109.45574496663539 0 -109.45574496663539 197.0317744948843 0 0 0 0 201.78157845248461 7.1158020697730535 0 7.1158020697730535 34.07477714317065 0 0 0 0 42.990385589440848 -61.663396209667553 0 -61.663396209667553 68.759806671747356 0 0 0 0 57.529708375252085 -71.138741511807893 0 -71.138741511807893 8.8705115932607441 0 0 0 0 -5.5065779521864897 -69.923934297563392 0 -69.923934297563392 97.982671000714618 0 0 0 0 8.2736996113017085 -31.832112670683273 0 -31.832112670683273 81.235848807860748 0 0 0 0 7.8647081167855504 -45.484407698382711 0 -45.484407698382711 198.93289329430263 0 0 0 0 113.68149658182665 -70.042345616260718 0 -70.042345616260718 67.92380684708769 0 0 0 0 -20.043446722206681 -32.581854089989065 0 -32.581854089989065 18.566965348130907 0 0 0 0 -47.718480175657533 -57.381815307977377 0 -57.381815307977377 53.095097228246232 0 0 0 0 -33.649423934766673 -16.631765769725462 0 -16.631765769725462 62.838518482062682 0 0 0 0 -66.720380900631426 -33.806745038000372 0 -33.806745038000372 44.471539641355776 0 0 0 0 -54.373094236786528 -45.192975886076965 0 -45.192975886076965 53.734664259689453 0 0 0 0 -58.996527955822785 -39.153060850481779 0 -39.153060850481779 66.160217802775151 0 0 0 0 -49.849612388842615 -35.252984679881592 0 -35.252984679881592 57.205944244808052 0 0 0 0 -1.0495167242279422 -11.437001438843481 0 -11.437001438843481 32.741233017979539 0 0 0 0 -53.628982763304521 -28.731268030453066 0 -28.731268030453066 71.121435964207194 0 0 0 0 1.0731836834293063 36.00046009874859 0 36.00046009874859 91.522924299773877 0 0 0 0 -33.683813988203838 -29.397577972187719 0 -29.397577972187719 119.80684971546725 0 0 0 0 -3.9780764170955081 20.135058846619359 0 20.135058846619359 66.944055620580912 0 0 0 0 32.279227219432869 41.305376989770593 0 41.305376989770593 51.616518267896026 0 0 0 0 29.196300492363662 44.08968538884892 0 44.08968538884892 58.131629058494582 0 0 0 0 -5.5662264362617861 -1.3269225631956942 0 -1.3269225631956942 57.004311161885198 0 0 0 0 -15.064892413055532 -26.00741200999073 0 -26.00741200999073 18.256855501182145 0 0 0 0 -12.169008502491124 -17.856582331682148 0 -17.856582331682148 39.370730559370713 0 0 0 0 6.3995801528981247 -8.1621651655732421 0 -8.1621651655732421 18.993447101507627 0 0 0 0 23.059109613377586 96.693178544886905 0 96.693178544886905 120.33721869385045 0 0 0 0 29.421994532103781 30.048045134539507 0 30.048045134539507 34.662675444837078 0 0 0 0 -11.968185958497997 -28.77260555644898 0 -28.77260555644898 -11.819295367259656 0 0 0 0 0.61233042219773637 -0.17149292904208835 0 -0.17149292904208835 -0.036243266729343304 0 0 0 0 26.99247049684061 -6.0445991986796344 0 -6.0445991986796344 62.099882119939139 0 0 0 0 -11.546413944035521 13.760349625255913 0 13.760349625255913 54.321404898095352 0 0 0 0 -109.05965896376802 -33.506902194429131 0 -33.506902194429131 32.847315891933022 0 0 0 0 -117.18590142076573 0.61645952383014446 0 0.61645952383014446 -2.3979225894072442 0 0 0 0 -0.63537015168833477 -1.2757079544208665 0 -1.2757079544208665 2.4612786868111698 0 0 0 0 -53.841552415706246 -74.700622696662322 0 -74.700622696662322 -26.609906681231223 0 0 0 0 -16.694127838553754 -35.522559816092553 0 -35.522559816092553 -23.007250359783939 0 0 0 0 -52.884858604029432 59.97947968346125 0 59.97947968346125 36.831829645925609 0 0 0 0 -125.58296557865106 -22.804013976874558 0 -22.804013976874558 51.941368326486554 0 0 0 0 -20.460696981081128 9.3103908869343286 0 9.3103908869343286 60.04434083228989 0 0 0 0 -53.349148884004535 -22.184585393697489 0 -22.184585393697489 65.302727376998519 0 0 0 0 -30.961597825560602 14.571175257500727 0 14.571175257500727 79.80604659482924 0 0 0 0 3.1067293642610103 -7.7741315374924493 0 -7.7741315374924493 13.103281242344337 0 0 0 0 -13.4505374382843 -29.310706253369062 0 -29.310706253369062 4.146706825325964 0 0 0 0 -24.524032348883338 -32.34757871887814 0 -32.34757871887814 13.792240724651492 0 0 0 0 -27.746808832747774 21.954409648264118 0 21.954409648264118 55.766841153206769 0 0 0 0 -27.946018450944393 -39.107338043977506 0 -39.107338043977506 13.88061183818354 0 0 0 0 -23.019200608689061 -28.821405548766052 0 -28.821405548766052 20.036641815924668 0 0 0 0 -6.8013873869094823 -28.968682241116767 0 -28.968682241116767 -36.706918669186052 0 0 0 0 -15.880762748456618 -36.984913614662219 0 -36.984913614662219 -19.708342868034379 0 0 0 0 4.3061335756101471 1.0707260539929848 0 1.0707260539929848 15.383249340295151 0 0 0 0 25.998075199771847 -7.249644381183316 0 -7.249644381183316 13.510548015008681 0 0 0 0 -0.51217570622067399 -5.1886886337080398 0 -5.1886886337080398 15.320301955100035 0 0 0 0 -2.5983516644046176 -5.226658693052741 0 -5.226658693052741 20.012165984124294 0 0 0 0 -1.6207600224573788 -4.4034296579901682 0 -4.4034296579901682 13.563397618156387 0 0 0 0 -1.5912831948353841 -3.1828880246145275 0 -3.1828880246145275 11.711800888450341 0 0 0 0 -5.9601947191986255 -2.2593686391046504 0 -2.2593686391046504 6.2172024933679495 0 0 0 0 -5.0179495470652 3.1109683419640533 0 3.1109683419640533 19.118404655062477 0 0 0 0 -5.8616095588620993 0.20631185417266806 0 0.20631185417266806 17.431653074846025 0 0 0 0 -6.8492329344571772 -7.1285780838297796 0 -7.1285780838297796 22.441897989607241 0 0 0 0 1.5506880873019995 -12.11488491763545 0 -12.11488491763545 20.097492539244854 0 0 0 0 -3.7496557112799564 -11.611733806785196 0 -11.611733806785196 10.432143783691572 0 0 0 0 -34.911971516383346 -45.759177631873172 0 -45.759177631873172 33.216932512543281 0 0 0 0 -57.588754803724441 -30.985242313763592 0 -30.985242313763592 78.130283901355142 0 0 0 0 -10.309568855700491 0.36333680333336815 0 0.36333680333336815 47.16861473723111 0 0 0 0 33.1506458809381 10.601153803836496 0 10.601153803836496 16.323145696485881 0 0 0 0 17.689752213656902 15.861461126551148 0 15.861461126551148 31.108647239569109 0 0 0 0 -15.182644413582238 0.028142866278358269 0 0.028142866278358269 51.259306720108725 0 0 0 0 -4.9408490396835987 4.0851155696163914 0 4.0851155696163914 28.513727542827837 0 0 0 0 -0.38705463943111695 0.14019223371623468 0 0.14019223371623468 1.5381665796113424 0 0 0 0 -88.103367422942028 -32.585457709057664 0 -32.585457709057664 8.308469768073337 0 0 0 0 9.5985024088295177 48.918647804463035 0 48.918647804463035 71.716179769253358 0 0 0 0 -78.091921144012304 -63.787228988814604 0 -63.787228988814604 32.131941663907355 0 0 0 0 -31.499175345025833 27.600842174517311 0 27.600842174517311 103.81928586108552 0 0 0 0 -44.676950527449662 -72.322448663795512 0 -72.322448663795512 -22.683881380169623 0 0 0 0 1.611034747051292 -9.4109006063428069 0 -9.4109006063428069 16.065857188208128 0 0 0 0 -59.543886549596209 -3.7937711317063076 0 -3.7937711317063076 109.10975041030179 0 0 0 0 -3.4964894820604968 -14.831314291259332 0 -14.831314291259332 13.404118876671419 0 0 0 0 -3.9943886076471244 -17.137080055566912 0 -17.137080055566912 14.785334951160621 0 0 0 0 -3.2837704771200151 -16.017434806777601 0 -16.017434806777601 18.428007591763162 0 0 0 0 -2.5474204753027152 -8.706573575418588 0 -8.706573575418588 7.3884059152260306 0 0 0 0 -3.2778953187189472 -14.143066569282382 0 -14.143066569282382 14.798142268329684 0 0 0 0 2.4350437946694257 -6.2118256340605171 0 -6.2118256340605171 12.242298852741385 0 0 0 0 -2.5349042687710153 -9.0733412335570165 0 -9.0733412335570165 16.328757916882751 0 0 0 0 -2.6364696572973116 -9.4693488369648549 0 -9.4693488369648549 5.8145471813040785 0 0 0 0 -3.4528414432493264 -12.89729176698529 0 -12.89729176698529 6.1502554016333306 0 0 0 0 -3.5847388453121312 -8.5631954989112273 0 -8.5631954989112273 6.249761319377285 0 0 0 0 -6.0782378112307924 -4.2142564848427355 0 -4.2142564848427355 3.1872590254643001 0 0 0 0 -6.4054580211050052 -9.0503979426830483 0 -9.0503979426830483 5.7716026995103675 0 0 0 0 -0.47493163167564489 -7.1215734759425686 0 -7.1215734759425686 4.4550462934275856 0 0 0 0 4.2793209592625772 21.482615879043578 0 21.482615879043578 54.330061790387845 0 0 0 0 2.2411717199860561 -3.8526399148604042 0 -3.8526399148604042 6.3285110122792503 0 0 0 0 6.6501683892673782 1.9781586665967552 0 1.9781586665967552 27.905067482672166 0 0 0 0 2.4594411937129621 -8.8509975378939032 0 -8.8509975378939032 16.114537208854799 0 0 0 0 -14.90496929491087 -25.249431376663779 0 -25.249431376663779 31.454263389321568 0 0 0 0 -22.425567935930303 -5.0916241460445235 0 -5.0916241460445235 71.579196810838766 0 0 0 0 9.9607495662166912 -8.1819708251168777 0 -8.1819708251168777 12.461945759598166 0 0 0 0 -115.99551732530563 153.04372127692477 0 153.04372127692477 189.51781351771206 0 0 0 0 1.6567616711254232 -44.505134269566042 0 -44.505134269566042 -7.1372075116451015 0 0 0 0 10.237217013130198 -13.994218366104839 0 -13.994218366104839 13.8320860078517 0 0 0 0 9.8233509829997274 -18.943508746626321 0 -18.943508746626321 20.831464730916196 0 0 0 0 0.0063062228972761147 -0.96624597370719556 0 -0.96624597370719556 2.8998277441222626 0 0 0 0 163.60302440718078 -1.336227154097287 0 -1.336227154097287 -5.426816466730088 0 0 0 0 39.754860915447352 14.560291230554867 0 14.560291230554867 6.4325113959639566 0 0 0 0 43.160737925096328 -48.782923204002145 0 -48.782923204002145 14.379521361552179 0 0 0 0 -62.769114405926302 -72.284645641069801 0 -72.284645641069801 125.25993202111567 0 0 0 0 -4.2811765566693794 -40.988898546849668 0 -40.988898546849668 36.135530423183809 0 0 0 0 2.1874335343236453 -97.678731764171971 0 -97.678731764171971 66.775857249172986 0 0 0 0 -0.1400566388612674 -7.141326819804533 0 -7.141326819804533 6.8877586258948895 0 0 0 0 543.43933150757221 129.16734366636956 0 129.16734366636956 -50.234379723318852 0 0 0 0 227.53000989133943 -166.80649335408089 0 -166.80649335408089 -45.114787608996266 0 0 0 0 130.29488150302495 -313.94123112533271 0 -313.94123112533271 -267.75502254672028 0 0 0 0 -7.3348610253551669 -170.73162286352181 0 -170.73162286352181 256.6443566523667 0 0 0 0 -201.85415570552868 -554.17764179439109 0 -554.17764179439109 153.48709750989292 0 0 0 0 -37.947755596847855 -25.588088001015421 0 -25.588088001015421 142.48041944244324 0 0 0 0 -27.582236909805943 -54.423368124524131 0 -54.423368124524131 5.3708929494566746 0 0 0 0 -313.82445418468842 315.50266695927439 0 315.50266695927439 -7.7928176475543296 0 0 0 0 -69.018814607856257 -15.536907240748405 0 -15.536907240748405 220.81895009008804 0 0 0 0 -18.906884117977825 -12.773005302343336 0 -12.773005302343336 20.109319211209367 0 0 0 0 1.821345896881212 1.6384380549819468 0 1.6384380549819468 2.5986776970826639 0 0 0 0 -4.0442629338903799 -3.7329228778289405 0 -3.7329228778289405 9.7899908131799975 0 0 0 0 -76.584097567571575 29.61193023570695 0 29.61193023570695 9.1025982855207985 0 0 0 0 0.085276336693823396 -63.35653457035005 0 -63.35653457035005 -70.123185085441946 0 0 0 0 2.7492910204964573 -24.590080620135268 0 -24.590080620135268 -2.8311847609711549 0 0 0 0 -20.568341928959853 -18.037452572003531 0 -18.037452572003531 3.4609209408081369 0 0 0 0 -1.4593581323017872 -6.7786469451480684 0 -6.7786469451480684 13.678010159922792 0 0 0 0 -41.38537657688903 -40.757965871860506 0 -40.757965871860506 -41.973914351328858 0 0 0 0 -47.707574285601368 -109.34667810582687 0 -109.34667810582687 -52.869980198389385 0 0 0 0 18.950778238993735 -83.056119357821444 0 -83.056119357821444 -25.166159339114529 0 0 0 0 -47.842712819877192 -44.090335543445136 0 -44.090335543445136 -47.87851053266786 0 0 0 0 64.558306820174039 -26.846323209156253 0 -26.846323209156253 -71.46369954655529 0 0 0 0 6.1582900408193382 -61.638145086682925 0 -61.638145086682925 7.4851764261384233 0 0 0 0 72.166007483263456 16.887493323338276 0 16.887493323338276 33.349476953060275 0 0 0 0 107.94709620321737 -82.026932140652207 0 -82.026932140652207 -21.325708098396717 0 0 0 0 51.836607586636092 -50.242548020043614 0 -50.242548020043614 -74.436057760831318 0 0 0 0 19.596835411427492 -39.044621560720884 0 -39.044621560720884 -74.260616667947033 0 0 0 0 14.41944534913705 51.887100226146458 0 51.887100226146458 -85.204288179367722 0 0 0 0 4.6981250584376539 -13.79936235936475 0 -13.79936235936475 -105.42771353983335 0 0 0 0 -4.4294352475243457 -2.635944198654542 0 -2.635944198654542 0.87454139934116881 0 0 0 0 71.028086699468076 -11.629238052773871 0 -11.629238052773871 3.2156379304869915 0 0 0 0 18.034003980494845 54.611785500077531 0 54.611785500077531 240.0816747001445 0 0 0 0 1.870865504013981 -0.88237705453045834 0 -0.88237705453045834 0.00047983118376748735 0 0 0 0 11.987563821978256 -103.88197540914189 0 -103.88197540914189 178.24136634531169 0 0 0 0 30.646112355649166 10.137303430463362 0 10.137303430463362 96.60297555552097 0 0 0 0 54.243611534982847 -106.15698424328343 0 -106.15698424328343 104.89194989267708 0 0 0 0 37.621807420715413 -73.78373237460255 0 -73.78373237460255 64.897519245991134 0 0 0 0 10.755518204443433 -25.829173559621267 0 -25.829173559621267 172.94180877715917 0 0 0 0 17.098992015910881 -41.371090184082277 0 -41.371090184082277 70.269392444046389 0 0 0 0 17.209984980106583 -36.90754289284996 0 -36.90754289284996 53.015066587649926 0 0 0 0 -10.962274513397006 -78.657142447873412 0 -78.657142447873412 80.347711062906455 0 0 0 0 35.858503199843653 -59.506202247252077 0 -59.506202247252077 81.727939812481054 0 0 0 0 2.7005649929669744 -99.88363614134505 0 -99.88363614134505 126.50203038365362 0 0 0 0 -1.2177227395894334 0.23244372482996312 0 0.23244372482996312 0.35936433579772142 0 0 0 0 -2.0815503077439246 -1.1071842203097475 0 -1.1071842203097475 -0.8094566062970614 0 0 0 0 31.207659334188065 22.528130794056779 0 22.528130794056779 -221.59204630280874 0 0 0 0 -47.279141975939638 54.503577426237825 0 54.503577426237825 -57.452892868001072 0 0 0 0 54.400193318930306 62.465400771797874 0 62.465400771797874 -71.599727792803606 0 0 0 0 16.9374283813072 86.18595259981339 0 86.18595259981339 -297.98530382655008 0 0 0 0 -55.685693615120726 -40.680455520549003 0 -40.680455520549003 -46.026107084377145 0 0 0 0 10.723052702936812 -14.412954186045681 0 -14.412954186045681 -15.480018604510406 0 0 0 0 -0.43793133861862543 -44.174005901630153 0 -44.174005901630153 8.8630888236912142 0 0 0 0 8.9096203989045062 -20.129195950000394 0 -20.129195950000394 27.235336409314186 0 0 0 0 19.877639738519775 -35.306547993510321 0 -35.306547993510321 12.989646828689729 0 0 0 0 65.247145493314335 75.17964662846498 0 75.17964662846498 13.710679453972261 0 0 0 0 0.40781276079775225 -0.11917079479400172 0 -0.11917079479400172 -0.48322373491276949 0 0 0 0 41.48001771325228 -13.752686911640012 0 -13.752686911640012 2.5380909289233387 0 0 0 0 -2.4773862472730808 1.30540745799874 0 1.30540745799874 2.3285222088625801 0 0 0 0 -27.034284852554364 0.46723681484945701 0 0.46723681484945701 21.320711946624215 0 0 0 0 -26.781985173052973 -9.6068282348242064 0 -9.6068282348242064 11.493488438005443 0 0 0 0 -1.6103662311652513 -8.4519466899782856 0 -8.4519466899782856 31.655532704884536 0 0 0 0 15.602275201937971 -11.302982346329372 0 -11.302982346329372 12.874325305208913 0 0 0 0 -11.282478749048082 9.9562923053163104 0 9.9562923053163104 5.6563935766462237 0 0 0 0 14.583952017301279 -16.836862204239878 0 -16.836862204239878 40.939254649427312 0 0 0 0 13.479294284657968 -21.55337531358964 0 -21.55337531358964 50.313925400136213 0 0 0 0 11.499398014958476 -24.94530223169204 0 -24.94530223169204 44.563809893283178 0 0 0 0 0.020028674705608762 -11.990745757233526 0 -11.990745757233526 34.192669255891815 0 0 0 0 -0.0009756997629276308 -29.040399454264843 0 -29.040399454264843 55.23418371765365 0 0 0 0 20.176003066677048 -30.289631791667489 0 -30.289631791667489 46.775640807449236 0 0 0 0 26.908091372258568 -38.162300156473066 0 -38.162300156473066 37.456273583662551 0 0 0 0 19.158679526696751 -29.394898517093679 0 -29.394898517093679 45.66232958144974 0 0 0 0 18.798308044060704 -25.087637954415186 0 -25.087637954415186 29.261072477733251 0 0 0 0 24.324221065898634 -28.557433041536001 0 -28.557433041536001 92.155027378394152 0 0 0 0 23.280438004232067 -48.136118878865091 0 -48.136118878865091 57.502583503068308 0 0 0 0 8.0406464931493815 -40.273943636522745 0 -40.273943636522745 70.923435616859933 0 0 0 0 24.05867401829498 -55.211705346446251 0 -55.211705346446251 79.528625211361941 0 0 0 0 0.093179366722699927 -42.004428971519587 0 -42.004428971519587 92.430051331597497 0 0 0 0 18.157983282592767 -11.342018141367589 0 -11.342018141367589 75.912959095614497 0 0 0 0 -44.800103564230469 59.192953594807477 0 59.192953594807477 43.363075462140841 0 0 0 0 16.142752879918774 -14.119831413707288 0 -14.119831413707288 129.98535681278736 0 0 0 0 21.36180627433491 -24.751429098891094 0 -24.751429098891094 57.403286611297517 0 0 0 0 177.7534884899905 14.300222574111103 0 14.300222574111103 67.011473702150397 0 0 0 0 81.250741782605331 -87.17067577954731 0 -87.17067577954731 120.70431831261158 0 0 0 0 0.73735004880795074 -36.590706414221131 0 -36.590706414221131 52.185868213244248 0 0 0 0 -1.4028797580654668 28.17071397077234 0 28.17071397077234 23.119267458532704 0 0 0 0 36.55946379165664 65.079632667882834 0 65.079632667882834 51.496089427673724 0 0 0 0 36.433952571638713 51.554769563575974 0 51.554769563575974 15.242108544305665 0 0 0 0 -19.491727193888892 53.631273677732679 0 53.631273677732679 38.135370561591117 0 0 0 0 76.20444583734853 25.850515219382942 0 25.850515219382942 70.68821968670818 0 0 0 0 82.481060101259402 54.31262728953152 0 54.31262728953152 142.32464141584933 0 0 0 0 37.980632199801846 -0.45519864128436893 0 -0.45519864128436893 75.63965595998161 0 0 0 0 2.5092786758110606 17.862718906777445 0 17.862718906777445 83.276711556856753 0 0 0 0 12.975713687026371 23.707749092282029 0 23.707749092282029 91.187362835524254 0 0 0 0 14.489283688155609 23.584747993019846 0 23.584747993019846 18.959305497090099 0 0 0 0 -24.972963868362058 -4.4694875857676379 0 -4.4694875857676379 66.560900582175236 0 0 0 0 -35.33618867502787 -62.40315520252625 0 -62.40315520252625 114.2934045155198 0 0 0 0 163.97974583953464 -163.93198540513185 0 -163.93198540513185 102.96971264014428 0 0 0 0 -0.22358905642829477 -0.11058082258960411 0 -0.11058082258960411 1.9095373929091295 0 0 0 0 -1.7924238372146988 -12.01155204497627 0 -12.01155204497627 177.62360283074668 0 0 0 0 -10.629307578974931 -28.794766168462957 0 -28.794766168462957 35.766631108133879 0 0 0 0 -189.21009812062368 -51.701658045461954 0 -51.701658045461954 129.97025198514166 0 0 0 0 -1.0224056997345694 -7.4935771794691419 0 -7.4935771794691419 28.538853316543452 0 0 0 0 -35.291801577750242 -60.416066132703236 0 -60.416066132703236 40.68005819641985 0 0 0 0 -4.6265600350115692 -2.4076061844855303 0 -2.4076061844855303 12.660772569089204 0 0 0 0 14.522198704727089 -11.985123607541027 0 -11.985123607541027 14.134214157260431 0 0 0 0 -0.56430478569038112 -0.78593198709581813 0 -0.78593198709581813 0.82235113382867553 0 0 0 0 17.127173697610033 21.17300897039604 0 21.17300897039604 13.008204637633753 0 0 0 0 47.938319244919057 -36.327683268100373 0 -36.327683268100373 18.358347954956116 0 0 0 0 2.2383016162379752 -2.6084798820563009 0 -2.6084798820563009 5.4020671635099689 0 0 0 0 -4.2447310563183009 -1.581401002722032 0 -1.581401002722032 9.2394038912316319 0 0 0 0 -3.6084001303768485 -2.7800530494675399 0 -2.7800530494675399 12.585471261018938 0 0 0 0 0.74505289025810839 -4.813883018006436 0 -4.813883018006436 19.74164465109061 0 0 0 0 -4.4468950761095503 -2.072817494389259 0 -2.072817494389259 11.70430818613886 0 0 0 0 1.2739445553038422 -6.4998421909804165 0 -6.4998421909804165 21.110998219151952 0 0 0 0 -178.74568987890595 65.536187808120303 0 65.536187808120303 55.541263976454502 0 0 0 0 1.2218374839909507 -7.7191608815000716 0 -7.7191608815000716 22.599694661833411 0 0 0 0 -55.911223140553147 14.279396336321952 0 14.279396336321952 33.646848559263162 0 0 0 0 -116.04758077182544 64.524642702192068 0 64.524642702192068 20.527467600302771 0 0 0 0 -111.62336359424343 88.713367416223264 0 88.713367416223264 -16.475666328682564 0 0 0 0 -50.375525440845081 -25.693034949930734 0 -25.693034949930734 -30.721181248722132 0 0 0 0 -77.590736307290612 54.673772311960988 0 54.673772311960988 -57.330574399267789 0 0 0 0 -77.755790070237254 20.559305986564141 0 20.559305986564141 21.480692510297558 0 0 0 0 -29.564419514382735 15.172288136433053 0 15.172288136433053 -17.397173912322614 0 0 0 0 -17.946958124928642 -15.000956797248193 0 -15.000956797248193 10.4954750900215 0 0 0 0 0.3710458228524332 -5.8906957046566379 0 -5.8906957046566379 10.470816332493911 0 0 0 0 -21.650549239611792 -10.350587681306934 0 -10.350587681306934 18.673958980987663 0 0 0 0 -2.6676940794859547 -8.7465639493711933 0 -8.7465639493711933 14.92228859880197 0 0 0 0 -0.19007068783165337 -5.245320860137781 0 -5.245320860137781 11.946892913842959 0 0 0 0 -3.8766451742703794 -5.1814046803046949 0 -5.1814046803046949 16.932010514268768 0 0 0 0 -5.244576472130575 -8.062222115957411 0 -8.062222115957411 18.137592292925547 0 0 0 0 -4.4524184954807424 -8.241043954876659 0 -8.241043954876659 15.416435444611125 0 0 0 0 -4.080411545154675 -3.8672927080642694 0 -3.8672927080642694 8.4607474112999626 0 0 0 0 -4.5309756826305971 -5.5630098369387895 0 -5.5630098369387895 12.645520521590043 0 0 0 0 4.699022837186476 7.773696680975263 0 7.773696680975263 2.9692163591098506 0 0 0 0 -39.491510221746466 14.743509556457866 0 14.743509556457866 21.131183352012158 0 0 0 0 -8.9736321615591805 1.7273237427762069 0 1.7273237427762069 21.75586567085702 0 0 0 0 -1.2293037358085712 -7.819054854568094 0 -7.819054854568094 20.393333265138608 0 0 0 0 -2.8559534714840993 1.3003165624904796 0 1.3003165624904796 19.327709709864394 0 0 0 0 -2.9614721164275863 -4.76219666716554 0 -4.76219666716554 33.419707697757985 0 0 0 0 4.8676199263973103 -16.440860723669175 0 -16.440860723669175 36.189370704698376 0 0 0 0 5.8409239567836266 -3.1985047784401104 0 -3.1985047784401104 20.2578991911505 0 0 0 0 -10.906775009882949 -6.6439486287526961 0 -6.6439486287526961 21.277700153543265 0 0 0 0 -9.0861649814214616 -8.6021387431464973 0 -8.6021387431464973 18.643681234112591 0 0 0 0 0.29804078140321077 -6.3211959355421143 0 -6.3211959355421143 18.426168896955744 0 0 0 0 -3.1104712061132886 -14.127580866505014 0 -14.127580866505014 35.476731952541741 0 0 0 0 -4.1427944441369746 -2.4473019927242134 0 -2.4473019927242134 15.149740509435162 0 0 0 0 -8.6449551408004481 -10.572868605311669 0 -10.572868605311669 13.000601209176239 0 0 0 0 -1.0826009107292407 -14.0316422191692 0 -14.0316422191692 16.329505781844347 0 0 0 0 -11.598494161065901 -3.7782244184199953 0 -3.7782244184199953 16.264616998887504 0 0 0 0 -4.8268605262760857 -4.2079203984318028 0 -4.2079203984318028 15.869468784425834 0 0 0 0 -6.4680068751213184 -6.1424547280566912 0 -6.1424547280566912 17.622816932445858 0 0 0 0 -7.9321941170167776 -1.6217993264622663 0 -1.6217993264622663 20.794738345817478 0 0 0 0 22.529017452778135 -12.340517980759614 0 -12.340517980759614 16.421017587243114 0 0 0 0 17.399107957896376 -21.370237768180232 0 -21.370237768180232 24.804749017523136 0 0 0 0 -1.1909452842271975 -9.4485233087989968 0 -9.4485233087989968 21.180228780314792 0 0 0 0 -5.2657807075837511 0.42080786513209034 0 0.42080786513209034 7.0568193020218928 0 0 0 0 12.101568964939361 -15.534388878411846 0 -15.534388878411846 23.226335514278617 0 0 0 0 -0.75219020419767446 -5.6875980288175327 0 -5.6875980288175327 11.457960721841346 0 0 0 0 3.5954880194003636 -8.3941708720522001 0 -8.3941708720522001 23.906732746744638 0 0 0 0 10.665769293375888 -4.421526446720236 0 -4.421526446720236 23.74127531387785 0 0 0 0 2.4129805228476471 -21.389468411623966 0 -21.389468411623966 44.852936716779368 0 0 0 0 22.931996700004674 -18.430460378600401 0 -18.430460378600401 20.798659954598406 0 0 0 0 13.212009037084499 -14.726362546949531 0 -14.726362546949531 19.53934123289946 0 0 0 0 9.7819600971633918 -14.947742177377222 0 -14.947742177377222 19.831639205367537 0 0 0 0 -1.5451567959171371 -7.0728821343363961 0 -7.0728821343363961 24.086147652065847 0 0 0 0 10.74505924263849 -13.50495003936885 0 -13.50495003936885 21.140485290961806 0 0 0 0 1.2693858210004692 -10.784983194120286 0 -10.784983194120286 25.208444682953996 0 0 0 0 2.1166439474573053 -3.2153458355878684 0 -3.2153458355878684 13.060119836227386 0 0 0 0 7.8876602467216799 -13.191698393307888 0 -13.191698393307888 13.374243784372084 0 0 0 0 52.259948071437975 5.3725749268196523 0 5.3725749268196523 -27.51625643177249 0 0 0 0 4.3700913689676675 -3.0169507214205993 0 -3.0169507214205993 -3.2044623505823324 0 0 0 0 -15.074398780835963 -18.817826203478035 0 -18.817826203478035 31.519471158811939 0 0 0 0 27.678780532012752 -24.44809404242551 0 -24.44809404242551 17.070507920259843 0 0 0 0 0.67613012083535828 -0.28335316577928182 0 -0.28335316577928182 -0.7923214662491489 0 0 0 0 1.0989268302441917 -7.0642913749234069 0 -7.0642913749234069 10.671982528471574 0 0 0 0 0.50000911874121812 -15.528247101534362 0 -15.528247101534362 14.169828387362941 0 0 0 0 -0.79669439464942116 -6.973990471160505 0 -6.973990471160505 9.2021604871479212 0 0 0 0 -20.354844242720901 -35.372962999830634 0 -35.372962999830634 17.452066896497854 0 0 0 0 2.0313484083048809 -7.8178126465769466 0 -7.8178126465769466 13.658741834357073 0 0 0 0 -131.25937795937068 13.287998529609467 0 13.287998529609467 32.723977722795098 0 0 0 0 -15.301674995745088 -5.5934120758793142 0 -5.5934120758793142 24.674000029655872 0 0 0 0 -2.492476185078595 -3.7040067258897267 0 -3.7040067258897267 13.620976309388283 0 0 0 0 0.002039449590483855 -7.3025845693118754 0 -7.3025845693118754 20.631561324480572 0 0 0 0 -15.038762791097383 -6.4237632279082391 0 -6.4237632279082391 18.406008782621939 0 0 0 0 -2.6584228513968466 -1.6568417011760666 0 -1.6568417011760666 13.232014256085961 0 0 0 0 2.4459335036335688 1.5691326888481854 0 1.5691326888481854 4.0114522684234544 0 0 0 0 4.8497179475452867 -15.316747074142768 0 -15.316747074142768 13.966892791210057 0 0 0 0 -9.4149605985885501 2.8423307282791939 0 2.8423307282791939 7.9276017770898761 0 0 0 0 0.19351374287015566 -4.2509261229080266 0 -4.2509261229080266 10.774302189806889 0 0 0 0 -9.2082813139404607 5.2990144528448582 0 5.2990144528448582 16.394522180737113 0 0 0 0 12.730149154946645 26.800787948799552 0 26.800787948799552 7.955181036319118 0 0 0 0 -44.529033475920258 45.412617938429321 0 45.412617938429321 32.665900516885813 0 0 0 0 -30.749841381842998 29.064550455193967 0 29.064550455193967 15.209009776346647 0 0 0 0 -9.4323915194597987 -2.3291293490067346 0 -2.3291293490067346 28.858602861844702 0 0 0 0 -1.7034178916868159 -3.3219895126398966 0 -3.3219895126398966 18.151020720837607 0 0 0 0 1.955108616127518 -5.6556325673968786 0 -5.6556325673968786 15.479526789160445 0 0 0 0 2.593090691674206 -1.4815194256334507 0 -1.4815194256334507 15.064298364697606 0 0 0 0 -0.81985639241144792 -2.7243385300153378 0 -2.7243385300153378 17.272043589687229 0 0 0 0 1.243625348833171 -9.3886794000545564 0 -9.3886794000545564 19.37237003205243 0 0 0 0 -14.16189011370966 2.4975302829043358 0 2.4975302829043358 12.934794241475174 0 0 0 0 -22.436017016385449 0.79558783257380128 0 0.79558783257380128 11.422049673739821 0 0 0 0 11.659870493371272 -15.702293575122894 0 -15.702293575122894 3.3494572323397733 0 0 0 0 -11.381675481494261 8.6301621075109693 0 8.6301621075109693 14.281165506689831 0 0 0 0 -3.8552125043849479 -0.64119624407860698 0 -0.64119624407860698 12.884243976416855 0 0 0 0 -3.2587557419911528 -1.6460808884152582 0 -1.6460808884152582 20.345986958612912 0 0 0 0 12.101539194676832 16.121526066435081 0 16.121526066435081 -34.567839329363778 0 0 0 0 10.968554238261731 -5.6269904891692022 0 -5.6269904891692022 5.4694075167353731 0 0 0 0 1.4306975032669955 -1.0000543761122049 0 -1.0000543761122049 1.0304784438995682 0 0 0 0 1.0075687210310207 -4.7863808099209564 0 -4.7863808099209564 4.2265178070956608 0 0 0 0 -8.8115481009981522 -170.65151167074509 0 -170.65151167074509 245.75678767509817 0 0 0 0 0.94630191770654726 -1.0337434816279938 0 -1.0337434816279938 1.2340895992269338 0 0 0 0 289.64163692832881 -189.16321149931537 0 -189.16321149931537 -113.01698489549744 0 0 0 0 44.711815501947967 -91.65030034648953 0 -91.65030034648953 99.260310126439435 0 0 0 0 2.0351874494899675 -78.725982678020955 0 -78.725982678020955 172.67300236533629 0 0 0 0 20.052574444501261 39.440792436667834 0 39.440792436667834 -76.048080231499625 0 0 0 0 -7.8907121579813975 -32.572425275080604 0 -32.572425275080604 155.71857964383526 0 0 0 0 -78.466362132245195 131.0758407353278 0 131.0758407353278 92.385076103259053 0 0 0 0 0.89106063010084235 -1.7685119727754666 0 -1.7685119727754666 0.50611650791120155 0 0 0 0 7.390462089916582 -30.61674812754427 0 -30.61674812754427 16.866789004692691 0 0 0 0 1.9357661075591963 7.4237489335409919 0 7.4237489335409919 3.0494529078423511 0 0 0 0 3.7025476337793837 -8.1720869932190467 0 -8.1720869932190467 17.750802037369766 0 0 0 0 0.53033134914858238 -5.0225808573886752 0 -5.0225808573886752 17.342957682660199 0 0 0 0 -36.688231593019779 -14.193250534874835 0 -14.193250534874835 42.752081440732582 0 0 0 0 2.8881549548075096 -5.0747707293141833 0 -5.0747707293141833 15.106631970992026 0 0 0 0 -17.202455075634134 -8.876151515825768 0 -8.876151515825768 29.272197786282049 0 0 0 0 0.79467814025611005 0.83272992252022959 0 0.83272992252022959 15.880034599125793 0 0 0 0 19.963108004922105 26.463375715080474 0 26.463375715080474 49.015895148222626 0 0 0 0 -15.47711222253929 -18.139662974277599 0 -18.139662974277599 68.491858954337658 0 0 0 0 15.090728476166987 -17.961810707580298 0 -17.961810707580298 31.412224569434329 0 0 0 0 20.602598828183545 -45.700222189363558 0 -45.700222189363558 139.28194562367571 0 0 0 0 17.665679847807951 -47.761365845832188 0 -47.761365845832188 42.515843776214751 0 0 0 0 12.65841862659272 30.074653802024841 0 30.074653802024841 124.0272485943733 0 0 0 0 1.580704629586652 -0.6958742103550577 0 -0.6958742103550577 0.089006554801983384 0 0 0 0 -0.79459665385275002 19.064749558019685 0 19.064749558019685 17.838626891258173 0 0 0 0 -36.683531159705126 35.91930932667492 0 35.91930932667492 15.714930225207354 0 0 0 0 0.52231783253864705 24.594637453410542 0 24.594637453410542 2.4859264785154664 0 0 0 0 3.3729981628630412 -5.2105232526409964 0 -5.2105232526409964 17.326729522283131 0 0 0 0 -12.278460717814596 11.92478463313455 0 11.92478463313455 22.624076301526657 0 0 0 0 0.7173952617202084 -3.9173471405860791 0 -3.9173471405860791 20.044177794150386 0 0 0 0 0.92907961261717098 -2.1584008565284449 0 -2.1584008565284449 5.9289511786363676 0 0 0 0 1.1142149343946159 -6.3244493747764903 0 -6.3244493747764903 11.748696291097247 0 0 0 0 25.732186071480555 -12.665061257004709 0 -12.665061257004709 4.0642727982558426 0 0 0 0 -0.43031450814487471 -9.926398824165517 0 -9.926398824165517 12.808938452377333 0 0 0 0 11.514830723957857 -19.987897849296132 0 -19.987897849296132 8.3418538154655835 0 0 0 0 -7.1639903240061358 -12.935010409622919 0 -12.935010409622919 16.073151498603693 0 0 0 0 -8.9136501718862746 -27.998523513575492 0 -27.998523513575492 -28.377209119324107 0 0 0 0 9.4390834911973798 -6.0797133459236647 0 -6.0797133459236647 12.571424673609727 0 0 0 0 -20.279165200573971 23.42302914501488 0 23.42302914501488 54.973192760353413 0 0 0 0 2.7448803226607197 -14.209110033229081 0 -14.209110033229081 13.548069811583446 0 0 0 0 9.9065185933215787 -28.362109776981015 0 -28.362109776981015 10.261284038511803 0 0 0 0 14.705829197508734 11.079036520020509 0 11.079036520020509 -6.6224246297206264 0 0 0 0 -2.8222627857926454 13.947642842693313 0 13.947642842693313 10.233297073647009 0 0 0 0 5.0609409466110815 -9.1916930823457506 0 -9.1916930823457506 16.059236318079144 0 0 0 0 -17.356470081183033 -40.344619249663083 0 -40.344619249663083 3.7893147146387491 0 0 0 0 28.296093505587123 7.8771855928353034 0 7.8771855928353034 -7.4121950214484968 0 0 0 0 31.762695323719527 -36.006654184944637 0 -36.006654184944637 45.956303634706273 0 0 0 0 50.451704024465926 -56.899431869591353 0 -56.899431869591353 0.095756274640734773 0 0 0 0 1.0080724723073917 -0.21629536896753621 0 -0.21629536896753621 -0.3154224976665887 0 0 0 0 5.7852302131364013 6.9491399706967059 0 6.9491399706967059 60.212008439099009 0 0 0 0 5.9384265288708065 5.2073978373393857 0 5.2073978373393857 13.594050412066281 0 0 0 0 -5.7580329674692621 4.5980223153310362 0 4.5980223153310362 26.243832589235922 0 0 0 0 5.8106354074229785 -15.322474241031159 0 -15.322474241031159 26.095330821340156 0 0 0 0 -7.9202505895796094 -1.2308067473568371 0 -1.2308067473568371 11.63617050924222 0 0 0 0 -12.690324809333561 1.9050081750538084 0 1.9050081750538084 13.624975614016876 0 0 0 0 -3.9809973197375612 11.566955087500901 0 11.566955087500901 13.076565745068365 0 0 0 0 -2.6243048244016451 -0.84513459594131746 0 -0.84513459594131746 9.7294104216371409 0 0 0 0 -10.788550247088075 -1.6850244511406345 0 -1.6850244511406345 18.770156930913799 0 0 0 0 -10.674176327907617 1.5560771543750889 0 1.5560771543750889 9.783700417043292 0 0 0 0 -5.016155784322109 5.2786922461527865 0 5.2786922461527865 14.343025823276548 0 0 0 0 -0.26396677827538895 -0.93026588327910531 0 -0.93026588327910531 3.5509428869470412 0 0 0 0 -7.1365801323358937 9.4962947339226957 0 9.4962947339226957 9.3626311533262196 0 0 0 0 -2.8873811680691555 -0.20600857786379123 0 -0.20600857786379123 10.015538435525741 0 0 0 0 -18.929080523314497 7.9967388365403167 0 7.9967388365403167 28.707697878726322 0 0 0 0 -3.7212702707104994 -1.1597200861156907 0 -1.1597200861156907 12.245771699026648 0 0 0 0 -6.4148860209500782 9.1514582593699743 0 9.1514582593699743 10.278253271448193 0 0 0 0 -1.6037541112484419 0.15899396555968792 0 0.15899396555968792 2.4604983434358871 0 0 0 0 -7.1916962239684601 10.155511791528625 0 10.155511791528625 17.460373759298818 0 0 0 0 -22.059161499295072 -19.543084302189527 0 -19.543084302189527 8.1658446439846557 0 0 0 0 -4.2166303734648416 3.3907688413964934 0 3.3907688413964934 16.111034583445871 0 0 0 0 7.9552263439801862 13.093544321411173 0 13.093544321411173 22.472428002934976 0 0 0 0 -7.9495633545987516 8.7472233093212708 0 8.7472233093212708 15.387985618406674 0 0 0 0 -15.417653646089931 1.7409311229930609 0 1.7409311229930609 14.876070428857929 0 0 0 0 -15.959410613696875 2.5398358096390439 0 2.5398358096390439 14.458962208605953 0 0 0 0 -12.345693282352732 -26.839393906970145 0 -26.839393906970145 16.658568343933439 0 0 0 0 11.721643361424491 -55.488548453738986 0 -55.488548453738986 -19.716292732395232 0 0 0 0 7.1120717223617689 12.115651676438574 0 12.115651676438574 56.627828671200405 0 0 0 0 0.13540800951610749 -0.061287679029163655 0 -0.061287679029163655 -0.25214093536004611 0 0 0 0 -34.483964486687483 1.5063222299140762 0 1.5063222299140762 30.496603153282194 0 0 0 0 -0.084019721465892871 15.666896208647813 0 15.666896208647813 -20.755696225847601 0 0 0 0 16.582656523784323 46.36893799079553 0 46.36893799079553 33.009128198074905 0 0 0 0 -0.88220641597502336 -19.182550160257961 0 -19.182550160257961 77.435109073659987 0 0 0 0 -0.0016704737013440336 -7.6721583105791069 0 -7.6721583105791069 39.694299741713621 0 0 0 0 31.738078184945753 -11.742239435901865 0 -11.742239435901865 5.1004468221435673 0 0 0 0 -7.7947209634903132 -27.024599617405329 0 -27.024599617405329 -2.1551163383119274 0 0 0 0 -1.2948000706836282 0.60560585313214688 0 0.60560585313214688 -7.6870036333093594 0 0 0 0 0.32483032506838577 -0.25841999035185381 0 -0.25841999035185381 0.10589221420718786 0 0 0 0 19.018860144159163 8.3385457640906679 0 8.3385457640906679 15.040639391962031 0 0 0 0 -13.489822624147081 -3.3968239813402761 0 -3.3968239813402761 6.5102746003067296 0 0 0 0 -1.259169103620754 0.047789672372601899 0 0.047789672372601899 2.7220097584799134 0 0 0 0 -29.544585462628344 -19.385266336645145 0 -19.385266336645145 17.777594448663876 0 0 0 0 15.783208217916975 -16.744078483185149 0 -16.744078483185149 9.3801178723151679 0 0 0 0 0.014000039595744855 7.3004989317232685 0 7.3004989317232685 42.440201977122342 0 0 0 0 -17.381247199988429 5.0614142877238919 0 5.0614142877238919 48.499953904094582 0 0 0 0 0.12513620039406226 -0.20582120822220418 0 -0.20582120822220418 0.22127650704828739 0 0 0 0 26.349887736584531 26.00494671506749 0 26.00494671506749 18.726519216641464 0 0 0 0 -5.3503703264306601 -4.9411472731735557 0 -4.9411472731735557 22.493639556967537 0 0 0 0 -1.9122917076006658 -2.3516680056309269 0 -2.3516680056309269 2.0512079843319952 0 0 0 0 -22.543415347562856 12.67459351002617 0 12.67459351002617 21.10498159009876 0 0 0 0 -4.8228829900596573 13.457418801950553 0 13.457418801950553 2.8906361959795959 0 0 0 0 -12.291096835753592 -3.8034549929652712 0 -3.8034549929652712 21.351777532749111 0 0 0 0 -1.9025045156513762 -0.65700914232103713 0 -0.65700914232103713 9.6956048239306938 0 0 0 0 -0.0043678247358513523 0.88144990319415228 0 0.88144990319415228 -2.2752522133523598 0 0 0 0 -0.74639114456327993 0.8569448595083955 0 0.8569448595083955 1.4585328888528011 0 0 0 0 -2.1799589203001601 1.9815000127528037 0 1.9815000127528037 3.6603701975618606 0 0 0 0 -18.783577713190425 -10.005450849384943 0 -10.005450849384943 12.364460454811251 0 0 0 0 -12.392740594162206 2.4846022399433423 0 2.4846022399433423 11.50575272840797 0 0 0 0 19.672122012579166 -6.4870315845255391 0 -6.4870315845255391 -10.335070435656235 0 0 0 0 -5.2933637902517603 2.3434902943699853 0 2.3434902943699853 3.0465052957879379 0 0 0 0 -6.8170638089275144 16.062546567136451 0 16.062546567136451 11.333012758856057 0 0 0 0 -2.5244770518272959 -0.26120222148664141 0 -0.26120222148664141 9.1140198813263282 0 0 0 0 -1.2207007907856866 -0.16118043515757563 0 -0.16118043515757563 3.3338171591823027 0 0 0 0 -10.660991114964645 0.80056196630175691 0 0.80056196630175691 53.736957521927252 0 0 0 0 -9.1261235889464842 -10.106395778209844 0 -10.106395778209844 12.361260977708525 0 0 0 0 9.3199051581118511 16.183714785132906 0 16.183714785132906 14.367071477019635 0 0 0 0 96.38057126757667 -67.284010358242085 0 -67.284010358242085 86.522898823372088 0 0 0 0 0.38627047670027448 0.15552519879278748 0 0.15552519879278748 -0.38261479895132311 0 0 0 0 7.5216578238741931 6.7829135452516311 0 6.7829135452516311 70.602402745440486 0 0 0 0 0.56977172610022286 -0.4285088775094863 0 -0.4285088775094863 0.14958216278537861 0 0 0 0 46.254852938342083 -31.426952374022221 0 -31.426952374022221 -1.9121682522381889 0 0 0 0 27.5624121333326 -3.9708828830389393 0 -3.9708828830389393 -3.4299581017621676 0 0 0 0 28.360783924585007 43.367884412662534 0 43.367884412662534 -63.234909386013896 0 0 0 0 5.3176514322484714 -4.9538524328860518 0 -4.9538524328860518 -2.6644334726440349 0 0 0 0 7.7466177949348776 -28.113114137677258 0 -28.113114137677258 27.896411067267763 0 0 0 0 13.460271013014918 49.737503159907646 0 49.737503159907646 -70.306857293300709 0 0 0 0 -30.949090316798703 30.838388400698022 0 30.838388400698022 152.25868684306624 0 0 0 0 32.797736017799281 -39.68695645220032 0 -39.68695645220032 24.01144623257278 0 0 0 0 -0.083593414386681442 -1.0996864888620621 0 -1.0996864888620621 6.072550921158836 0 0 0 0 -0.43111405210220255 -15.623240546741727 0 -15.623240546741727 14.362145123330265 0 0 0 0 6.9907732944066083 -9.9792904921923764 0 -9.9792904921923764 12.270103626768105 0 0 0 0 0.50553829494393943 -3.4835425647520211 0 -3.4835425647520211 8.4101505981832929 0 0 0 0 5.6168598340063038 -4.1309972982168262 0 -4.1309972982168262 -3.3274427819490739 0 0 0 0 -0.0020430812488896537 -1.0490228229282366 0 -1.0490228229282366 4.6736758554179687 0 0 0 0 0.58623913005504846 -1.9712243699741521 0 -1.9712243699741521 2.9906481191865169 0 0 0 0 -0.28760050019147709 -0.84793201065947699 0 -0.84793201065947699 3.5893168459282094 0 0 0 0 42.199894477452993 11.908679734740872 0 11.908679734740872 -57.308486234367592 0 0 0 0 1.5615141143025661 -2.0394166393518418 0 -2.0394166393518418 1.5602073533297585 0 0 0 0 0.30551734546323622 -0.54025606598999332 0 -0.54025606598999332 0.82605875539448448 0 0 0 0 0.36712163995436448 -0.2378235672784399 0 -0.2378235672784399 0.32062815119871857 0 0 0 0 0.0044858959762482491 -1.0357050402890309 0 -1.0357050402890309 1.3995624026138103 0 0 0 0 -37.611989306599177 11.630850209839991 0 11.630850209839991 272.78256669180701 0 0 0 0 -18.360855565319071 34.485709888402198 0 34.485709888402198 281.11805949619338 0 0 0 0 -0.14762695671995923 -17.298247222097416 0 -17.298247222097416 364.84130191370059 0 0 0 0 -16.34124871379737 -53.915439797230647 0 -53.915439797230647 461.62492443307565 0 0 0 0 69.228797045468127 13.050988883573154 0 13.050988883573154 374.32229891660245 0 0 0 0 75.58011353841907 -19.511291514555523 0 -19.511291514555523 349.9755989977275 0 0 0 0 0.93301086312965986 -0.72160789051046592 0 -0.72160789051046592 0.59505188290629007 0 0 0 0 -21.807378065631539 -68.135773325715491 0 -68.135773325715491 128.58968785636534 0 0 0 0 47.262044828978055 70.614578558863286 0 70.614578558863286 205.00151844379434 0 0 0 0 -14.66975915358325 -22.240033787777975 0 -22.240033787777975 361.18852896615863 0 0 0 0 -58.608158206040358 -7.8154454637697199 0 -7.8154454637697199 351.9580845804303 0 0 0 0 -37.838087108992141 -37.188740377896465 0 -37.188740377896465 171.48676798768065 0 0 0 0 -61.08027238088517 40.936428816084003 0 40.936428816084003 362.78847058622341 0 0 0 0 -60.665968730136449 60.991892468859362 0 60.991892468859362 489.66813511061628 0 0 0 0 -116.6315495418458 -5.7132002136931987 0 -5.7132002136931987 436.63831929978915 0 0 0 0 -99.53678646361692 -50.406339534296421 0 -50.406339534296421 424.41794396501064 0 0 0 0 -80.698923943650527 27.028317932556092 0 27.028317932556092 369.32766685211391 0 0 0 0 -15.236368624294784 43.395487400142883 0 43.395487400142883 41.496100862706953 0 0 0 0 -23.572847560792525 -82.229801155746827 0 -82.229801155746827 260.18618283368414 0 0 0 0 -7.2261004502226456 -141.36581216041486 0 -141.36581216041486 472.47974953834637 0 0 0 0 0.065044298326441874 1.8681258736489639 0 1.8681258736489639 5.0672822963038868 0 0 0 0 -217.83555094476336 72.793987746226776 0 72.793987746226776 236.94986463667738 0 0 0 0 -12.336054626432485 31.705617089879524 0 31.705617089879524 41.698283180826252 0 0 0 0 -0.41476233564782206 16.61019916364603 0 16.61019916364603 -36.18513451704348 0 0 0 0 -87.440156018733262 -27.481033360141737 0 -27.481033360141737 -17.247511699599272 0 0 0 0 -27.532786118920797 -13.645091836893698 0 -13.645091836893698 -42.051080901394016 0 0 0 0 76.089127200046278 -66.104471078106144 0 -66.104471078106144 -20.589218181256001 0 0 0 0 0.046480063700039154 -28.505468260207241 0 -28.505468260207241 261.84893011479289 0 0 0 0 -16.852200260604953 -63.238073811124195 0 -63.238073811124195 297.77128943770367 0 0 0 0 -95.673965560913757 118.57074801505587 0 118.57074801505587 86.012676287507929 0 0 0 0 83.004422856135506 -129.83889252891822 0 -129.83889252891822 291.4582150914066 0 0 0 0 -0.03166779323741524 0.32014329132692154 0 0.32014329132692154 2.1248060133512467 0 0 0 0 119.50684588936579 429.39412365826786 0 429.39412365826786 490.06089996082301 0 0 0 0 79.854702702237319 4.3840901842922904 0 4.3840901842922904 99.364697550754499 0 0 0 0 0.43677255201358778 -0.36148914287514256 0 -0.36148914287514256 8.386307601789099 0 0 0 0 599.6189524130898 -693.92429372237632 0 -693.92429372237632 792.87043315284245 0 0 0 0 155.12114696789445 -131.86946676779189 0 -131.86946676779189 1094.3192055710388 0 0 0 0 30.260398846354974 210.09140080600628 0 210.09140080600628 411.10067547675862 0 0 0 0 -136.62973383487184 -177.1392238000044 0 -177.1392238000044 317.12150389061208 0 0 0 0 -8.6671634653368415 313.41704216333892 0 313.41704216333892 -71.439410835264425 0 0 0 0 0.5131472579793811 1.2850377018121719 0 1.2850377018121719 2.4472068281721135 0 0 0 0 160.31886926502443 209.0397290915389 0 209.0397290915389 248.14502129796165 0 0 0 0 13.890501596427271 193.35443429286534 0 193.35443429286534 399.29850860803708 0 0 0 0 8.9808382321396039 3.7505224108717812 0 3.7505224108717812 244.60246904616361 0 0 0 0 98.464001784418258 125.28432848996817 0 125.28432848996817 192.76814419450238 0 0 0 0 121.84232144703992 -33.937981273818878 0 -33.937981273818878 67.397916271947906 0 0 0 0 44.828410085598989 1.5681135476042982 0 1.5681135476042982 27.903387475009367 0 0 0 0 -62.578870361923691 -68.274498356906406 0 -68.274498356906406 52.389053100538149 0 0 0 0 -171.3690918339953 9.1069129881361732 0 9.1069129881361732 157.65879725990817 0 0 0 0 0.045909820201900597 -0.86642957212603733 0 -0.86642957212603733 20.700017242619907 0 0 0 0 -91.615518198378254 -44.677049262536968 0 -44.677049262536968 35.626635684253415 0 0 0 0 -0.60861005594942685 -2.3994760740344487 0 -2.3994760740344487 27.092331503506728 0 0 0 0 -22.361927908053417 -52.828521686536988 0 -52.828521686536988 -24.686077329679392 0 0 0 0 7.0034487694354084 -83.432966106323875 0 -83.432966106323875 1.9869180184214201 0 0 0 0 0.37275549356570625 -8.2213980927910058 0 -8.2213980927910058 9.9027918798961423 0 0 0 0 -1.0804034077231641 -4.0056659814293027 0 -4.0056659814293027 15.630485977519129 0 0 0 0 4.0562759088957137 -5.8860795383516233 0 -5.8860795383516233 14.021544437746343 0 0 0 0 0.30228152888239718 -3.3915741557791739 0 -3.3915741557791739 13.452222154942604 0 0 0 0 -7.428135786174245 -8.824237317632651 0 -8.824237317632651 17.748619054851588 0 0 0 0 10.00422099843945 10.736425215261988 0 10.736425215261988 10.599175598050351 0 0 0 0 16.961301090692473 16.055721883276419 0 16.055721883276419 44.636560770664801 0 0 0 0 3.6860138640104196 -6.5321358650544425 0 -6.5321358650544425 19.954899949698301 0 0 0 0 3.3308024104543681 -8.9671557234835007 0 -8.9671557234835007 4.2415898909261358 0 0 0 0 48.092338453206651 -61.069368821645185 0 -61.069368821645185 -75.083606127285748 0 0 0 0 -11.264650354810328 12.009249365371943 0 12.009249365371943 8.1196930031801458 0 0 0 0 38.084472809769068 -61.032126284473634 0 -61.032126284473634 35.955716380864033 0 0 0 0 -66.75550666908066 -31.9262672433033 0 -31.9262672433033 138.12494175914617 0 0 0 0 21.353817627223179 -18.162336046145356 0 -18.162336046145356 17.219743992916847 0 0 0 0 0.18489654721321269 1.8988586202854947 0 1.8988586202854947 3.0791664960403864 0 0 0 0 -1.9216600210202159 2.6943875763899996 0 2.6943875763899996 19.471109437392442 0 0 0 0 49.806778570348797 0.42406215576193063 0 0.42406215576193063 19.069869558778009 0 0 0 0 5.8483840781100298 -24.788060064369347 0 -24.788060064369347 23.976356370199937 0 0 0 0 14.187128246637712 -16.794170602246595 0 -16.794170602246595 25.769575615049689 0 0 0 0 14.463146123647221 -17.678261714798282 0 -17.678261714798282 9.92415963379608 0 0 0 0 8.973158246510593 -35.249944905161101 0 -35.249944905161101 17.09310757482308 0 0 0 0 28.440166884769496 -28.632224317785585 0 -28.632224317785585 15.251431207841961 0 0 0 0 -9.3224052823126158 0.76979206971225267 0 0.76979206971225267 28.18436492033652 0 0 0 0 0.22566546656370434 -7.6969992569223677 0 -7.6969992569223677 18.721348710474558 0 0 0 0 1.2796394907564526 -2.2492249233349879 0 -2.2492249233349879 14.271823211746124 0 0 0 0 7.8191217725698152 -7.131247953089769 0 -7.131247953089769 15.401609393840772 0 0 0 0 11.414089437307666 -6.2401246140070725 0 -6.2401246140070725 8.2832801150070736 0 0 0 0 -0.87627967185079569 1.8921995843060841 0 1.8921995843060841 2.7454429008907653 0 0 0 0 -0.36671907859980823 0.48929789813821856 0 0.48929789813821856 5.0645417847317589 0 0 0 0 2.0085309352466538 -9.6293451940146042 0 -9.6293451940146042 21.658327683500829 0 0 0 0 3.2922500734942162 -3.757413068013193 0 -3.757413068013193 19.549209416931262 0 0 0 0 -3.0149293444333125 0.49564629348242306 0 0.49564629348242306 15.327173792487883 0 0 0 0 -30.999556123793639 -15.044177531032801 0 -15.044177531032801 30.681424325834087 0 0 0 0 3.4402402366509683 -7.68833032279327 0 -7.68833032279327 15.596648170536582 0 0 0 0 5.1971754244459589 -5.3400183602570905 0 -5.3400183602570905 6.8092858634772711 0 0 0 0 1.2002541486227929 -6.4160328061229626 0 -6.4160328061229626 13.31839967917216 0 0 0 0 8.0221882130012361 -14.937403310775153 0 -14.937403310775153 24.480890714126872 0 0 0 0 -1.8646520133424929 -4.4232427846145583 0 -4.4232427846145583 6.534086287021637 0 0 0 0 1.7195229413503199 -3.2299147227025315 0 -3.2299147227025315 11.059225852327188 0 0 0 0 2.6305015667427547 -11.856868332466448 0 -11.856868332466448 23.34297998008384 0 0 0 0 1.2155992313329449 -3.608354867600724 0 -3.608354867600724 8.887651573313633 0 0 0 0 4.3552656953386482 -3.1846433076225713 0 -3.1846433076225713 5.4005119230559444 0 0 0 0 13.893458855884319 -11.271838228250999 0 -11.271838228250999 3.2802489823297947 0 0 0 0 9.4994609201898026 -4.4143208591997478 0 -4.4143208591997478 -1.3394552873519245 0 0 0 0 20.438949296870305 -3.897027525024896 0 -3.897027525024896 6.2822843423564336 0 0 0 0 15.101864059240597 -0.23355591620202176 0 -0.23355591620202176 17.676447700941935 0 0 0 0 31.394679352231606 -7.2131096517114202 0 -7.2131096517114202 4.1641478582823765 0 0 0 0 14.522401915409318 3.9519271405079053 0 3.9519271405079053 17.147080725769229 0 0 0 0 33.662212713340978 -4.2787424057896715 0 -4.2787424057896715 7.8991168865759391 0 0 0 0 11.333431990207661 -8.09420116312819 0 -8.09420116312819 2.934545651183214 0 0 0 0 32.573423838884992 -20.309248727025988 0 -20.309248727025988 6.9478178906356334 0 0 0 0 -69.627038218030066 -60.917614752750524 0 -60.917614752750524 26.161890099328957 0 0 0 0 25.371026395685817 -34.980826062011147 0 -34.980826062011147 -12.57464888166578 0 0 0 0 25.144281490979264 -23.69353491513548 0 -23.69353491513548 19.320756534465261 0 0 0 0 -68.26913405971618 -68.458947782696669 0 -68.458947782696669 64.973768790747272 0 0 0 0 -11.474654376716899 -41.551586335601314 0 -41.551586335601314 -2.8167244256546837 0 0 0 0 21.10842628332955 -70.633726681257485 0 -70.633726681257485 -16.474230652653205 0 0 0 0 22.243715899255925 -20.461958435080689 0 -20.461958435080689 18.397149287194651 0 0 0 0 45.658911002174477 -22.394292754923299 0 -22.394292754923299 -13.466768700964167 0 0 0 0 32.153448384547119 -13.48343260893671 0 -13.48343260893671 4.8509358083974803 0 0 0 0 70.021935780534022 -33.330512557859038 0 -33.330512557859038 15.106931373171392 0 0 0 0 52.762383077176878 -20.490460035146498 0 -20.490460035146498 9.7596256356482627 0 0 0 0 36.326028648910324 -1.8663889246272447 0 -1.8663889246272447 86.628787715308135 0 0 0 0 78.743378493257751 -103.4602059440258 0 -103.4602059440258 173.81941984351943 0 0 0 0 59.261903361491477 -35.887303793417232 0 -35.887303793417232 58.782738125177275 0 0 0 0 68.215971858377088 -35.727793759640917 0 -35.727793759640917 54.204815013050393 0 0 0 0 37.969489657828944 2.9192333622049773 0 2.9192333622049773 19.757288589247764 0 0 0 0 2.6683954836871688 -20.144156243259204 0 -20.144156243259204 89.202296309478697 0 0 0 0 -0.6131084247525358 0.27310073455089423 0 0.27310073455089423 4.6915247793324255 0 0 0 0 4.3672632686466386 3.1267153743174276 0 3.1267153743174276 26.022478311373561 0 0 0 0 35.825371732303438 10.968431113474253 0 10.968431113474253 13.080955488345353 0 0 0 0 42.501251825876352 -9.1429488403300638 0 -9.1429488403300638 9.1668451297446154 0 0 0 0 51.729534901312718 3.316560176403982 0 3.316560176403982 23.562671288615093 0 0 0 0 48.128463121653112 -8.6337997511536742 0 -8.6337997511536742 -12.569495613621257 0 0 0 0 32.887248710468612 -23.788315372780744 0 -23.788315372780744 -7.8658655898689176 0 0 0 0 34.93007056177521 -6.7090261428675149 0 -6.7090261428675149 74.729111477809965 0 0 0 0 63.858687486984309 12.387446874319721 0 12.387446874319721 -9.1305926243003341 0 0 0 0 54.198513276418453 -21.119678002407454 0 -21.119678002407454 -31.085181624204779 0 0 0 0 21.884156448193608 -51.097831542711901 0 -51.097831542711901 27.568619229052274 0 0 0 0 166.50190563798697 1.6875751287443563 0 1.6875751287443563 45.787018895913207 0 0 0 0 27.531889737607344 -99.252848068925232 0 -99.252848068925232 49.364378425823816 0 0 0 0 10.67739227277707 -12.088636574611883 0 -12.088636574611883 -31.678189363279671 0 0 0 0 -21.308285903882279 -149.69537293328904 0 -149.69537293328904 -47.857254123304301 0 0 0 0 15.930878576354644 -62.00322059285827 0 -62.00322059285827 36.890611088205333 0 0 0 0 -7.0008303979100219 -6.7523624995301361 0 -6.7523624995301361 204.00584335325402 0 0 0 0 -20.14571986748345 42.868613656526122 0 42.868613656526122 291.33923168294132 0 0 0 0 0.57802049926613108 -98.238832518618437 0 -98.238832518618437 -97.150596827672416 0 0 0 0 18.006389393811236 -16.758013927688154 0 -16.758013927688154 14.950250318105049 0 0 0 0 -13.420384097513534 -15.672013974076435 0 -15.672013974076435 -10.465636448752775 0 0 0 0 10.744488934117726 -73.001381806967402 0 -73.001381806967402 -67.208552908185084 0 0 0 0 12.250270141477728 -11.401252444710948 0 -11.401252444710948 10.656219862713883 0 0 0 0 -11.324321154570043 -26.229673315476248 0 -26.229673315476248 376.14614520420582 0 0 0 0 10.775164384853158 -23.923013875373186 0 -23.923013875373186 55.25115878743236 0 0 0 0 60.106712082435024 -111.91892190030376 0 -111.91892190030376 1335.4781535125876 0 0 0 0 26.868415830818094 41.721414299063326 0 41.721414299063326 632.87380854635558 0 0 0 0 4.8739501848498143 -3.9316759755360948 0 -3.9316759755360948 4.1090967303238415 0 0 0 0 20.664481776639377 -28.842122981874127 0 -28.842122981874127 371.51425652598846 0 0 0 0 -33.16341153365579 8.9374757849491289 0 8.9374757849491289 551.48349881850299 0 0 0 0 -45.093466014022852 -83.882561122805782 0 -83.882561122805782 394.98206495746126 0 0 0 0 -43.260520965002094 -30.609291365122715 0 -30.609291365122715 455.65710106465121 0 0 0 0 -46.255412289740775 -136.24824609569168 0 -136.24824609569168 464.48556336334877 0 0 0 0 -33.386071560051278 -156.50168005018713 0 -156.50168005018713 612.05550323029092 0 0 0 0 -58.411512578349743 -150.47240786413204 0 -150.47240786413204 621.69220313517872 0 0 0 0 -34.875123713483845 -159.90816150503451 0 -159.90816150503451 598.75869063793016 0 0 0 0 -28.499801176393248 -147.38049511020472 0 -147.38049511020472 623.10642513287894 0 0 0 0 -28.134277347621719 -176.0689723738069 0 -176.0689723738069 644.9458655926137 0 0 0 0 123.23410108148983 -163.14495720686682 0 -163.14495720686682 543.57184723999671 0 0 0 0 193.4276297432184 -162.7342571800873 0 -162.7342571800873 543.16587765698932 0 0 0 0 34.888227697420689 -268.80912464214998 0 -268.80912464214998 847.08560036440031 0 0 0 0 68.986945950265422 -132.45489371571276 0 -132.45489371571276 193.40671906062926 0 0 0 0 118.59519260426123 -19.388750090674876 0 -19.388750090674876 58.484468392431154 0 0 0 0 118.39214214786898 -154.6637251585841 0 -154.6637251585841 218.66884697723435 0 0 0 0 31.043817085866976 -69.744100887910463 0 -69.744100887910463 237.49125876290054 0 0 0 0 20.868701206642527 -123.31593946178327 0 -123.31593946178327 254.65126970954589 0 0 0 0 23.793945405233671 -140.52379387706242 0 -140.52379387706242 373.01402094743389 0 0 0 0 -61.211742799578815 -186.63926874851495 0 -186.63926874851495 670.23765703653044 0 0 0 0 -119.43570758962142 -113.94049504404393 0 -113.94049504404393 646.50825143118072 0 0 0 0 16.539143821932612 -196.74039730431832 0 -196.74039730431832 365.72694771099987 0 0 0 0 -36.168586334323209 -167.09468821202972 0 -167.09468821202972 759.53603191110687 0 0 0 0 89.250687392973759 -378.44031165606066 0 -378.44031165606066 731.16115208454721 0 0 0 0 320.79919698583672 -205.09222990436683 0 -205.09222990436683 121.00455537386915 0 0 0 0 297.46592500722545 -61.78005715827021 0 -61.78005715827021 1337.4687332083595 0 0 0 0 105.45766301662297 -352.31550960889763 0 -352.31550960889763 996.29384365091391 0 0 0 0 -11.62299048595014 -0.10980845764970582 0 -0.10980845764970582 1063.7983183066026 0 0 0 0 431.89175074009199 -426.71232734109071 0 -426.71232734109071 1080.4844589841523 0 0 0 0 -204.23660662389568 22.287816204694536 0 22.287816204694536 1112.760459712692 0 0 0 0 72.794056517479021 96.501230409772688 0 96.501230409772688 391.16717997158412 0 0 0 0 -55.904797199735185 -125.85132015247655 0 -125.85132015247655 817.32016050312086 0 0 0 0 -22.526787703809532 35.283844352030428 0 35.283844352030428 398.29146763822064 0 0 0 0 -69.480130277738226 141.27090997341293 0 141.27090997341293 780.93288288559688 0 0 0 0 -100.92922340922121 -14.23444839536478 0 -14.23444839536478 719.9985227821453 0 0 0 0 -102.37899980963675 -171.59807272138642 0 -171.59807272138642 840.46989732114162 0 0 0 0 -121.91421129568562 -79.655247893649175 0 -79.655247893649175 677.22190279201459 0 0 0 0 -89.266425898071702 -81.447359372730716 0 -81.447359372730716 449.29824464264675 0 0 0 0 -133.43802752157717 -39.656658740408602 0 -39.656658740408602 706.39340849411747 0 0 0 0 -37.345510252357599 47.528864663770946 0 47.528864663770946 359.59288025982823 0 0 0 0 67.489888703396673 -5.3765656677242077 0 -5.3765656677242077 7.6332312144004391 0 0 0 0 8.9267100036868214 -2.2339395721464825 0 -2.2339395721464825 6.038957303717325 0 0 0 0 -5.0432974746152013 -71.523640486306249 0 -71.523640486306249 223.7341978232871 0 0 0 0 -32.465082834776695 -45.02674807470612 0 -45.02674807470612 132.87560060338728 0 0 0 0 -129.83123346827051 -3.9820274741068715 0 -3.9820274741068715 74.250383518989111 0 0 0 0 25.658156022345338 -4.7515422420256073 0 -4.7515422420256073 53.625569577641727 0 0 0 0 -44.990660223471878 59.185545811111297 0 59.185545811111297 403.99786913966818 0 0 0 0 -49.434366079495248 49.557186291011021 0 49.557186291011021 400.84684076363919 0 0 0 0 -12.832212569279363 5.6932813209286905 0 5.6932813209286905 161.86613176816172 0 0 0 0 37.683422269464927 -22.677999678531705 0 -22.677999678531705 396.38832943242596 0 0 0 0 59.823770994495817 -35.735217107472636 0 -35.735217107472636 333.46777628627751 0 0 0 0 39.655742035124945 -82.424046551112951 0 -82.424046551112951 469.08368206745945 0 0 0 0 68.889591107579122 -184.8063841047715 0 -184.8063841047715 574.10334000681905 0 0 0 0 -72.536302161347066 -51.656049319481099 0 -51.656049319481099 485.20522341677497 0 0 0 0 -38.476653577906291 -66.292462094294024 0 -66.292462094294024 665.48495941481815 0 0 0 0 -30.787309919764539 -150.15450648055412 0 -150.15450648055412 621.25265050988673 0 0 0 0 7.1344734358017377 -147.62140493916013 0 -147.62140493916013 589.45086504679057 0 0 0 0 48.729064641673631 -262.37964828845361 0 -262.37964828845361 298.57785660572699 0 0 0 0 -0.13596085394823146 -0.29751574725299523 0 -0.29751574725299523 3.3421746430505266 0 0 0 0 -23.700111710521469 -117.09435474378915 0 -117.09435474378915 51.568056414462262 0 0 0 0 -180.6369237045912 156.05876319308226 0 156.05876319308226 371.30563661723136 0 0 0 0 29.918226522293025 23.119206630966801 0 23.119206630966801 236.95650834584376 0 0 0 0 43.338350848485788 7.4326450185144495 0 7.4326450185144495 12.851792145465879 0 0 0 0 84.304449228950944 -30.132273178140167 0 -30.132273178140167 88.466772249130372 0 0 0 0 25.173507604667066 -38.149679550602741 0 -38.149679550602741 333.3590852790494 0 0 0 0 67.964621715105977 -8.5665511348488508 0 -8.5665511348488508 224.48406619474554 0 0 0 0 60.531398019806147 -81.83597723350249 0 -81.83597723350249 83.252007077942835 0 0 0 0 11.050798641666006 -102.66528060116252 0 -102.66528060116252 91.314215435276765 0 0 0 0 55.68115246321662 -102.12985686346656 0 -102.12985686346656 91.27249561456847 0 0 0 0 54.259587897229892 -88.594567157835627 0 -88.594567157835627 78.700781737890793 0 0 0 0 65.84350478086435 -91.533652046709904 0 -91.533652046709904 72.399445447217659 0 0 0 0 57.526041002562124 -79.936622171284398 0 -79.936622171284398 107.398668022739 0 0 0 0 83.755312329397839 -66.143381544217846 0 -66.143381544217846 75.95965500017337 0 0 0 0 48.734251350171235 -53.042452267121917 0 -53.042452267121917 40.821081367372244 0 0 0 0 35.587798013471911 -140.35847447338165 0 -140.35847447338165 103.83726398498402 0 0 0 0 45.101557937721736 -127.38009358709678 0 -127.38009358709678 41.368654283966919 0 0 0 0 66.199801202093568 -85.579460452881904 0 -85.579460452881904 -23.498914825253451 0 0 0 0 -184.86134040575735 -30.379331193020334 0 -30.379331193020334 63.473789687879616 0 0 0 0 -0.29652465494562569 -0.74630198804703962 0 -0.74630198804703962 6.12273872412419 0 0 0 0 -137.60484832126019 -40.816125240457382 0 -40.816125240457382 13.021784520940855 0 0 0 0 -4.7910455397377518 -10.655140438149829 0 -10.655140438149829 -52.529833691620297 0 0 0 0 -104.36164343572182 -90.192522882669437 0 -90.192522882669437 380.72769893179066 0 0 0 0 -159.35500174771724 47.034907911581797 0 47.034907911581797 150.10608371795388 0 0 0 0 -0.068748647044678646 -0.43796740571272785 0 -0.43796740571272785 2.7803598534238176 0 0 0 0 24.905454625514722 -116.30121018505452 0 -116.30121018505452 355.04577756236176 0 0 0 0 69.541830947221342 -9.9965354083096827 0 -9.9965354083096827 269.45455543480057 0 0 0 0 -14.003840861749268 22.128711952878803 0 22.128711952878803 350.32842139716649 0 0 0 0 -21.113240750890782 -3.0198777686709946 0 -3.0198777686709946 261.97273260725342 0 0 0 0 -1.124180077433266 -155.87615317152813 0 -155.87615317152813 363.96309865186504 0 0 0 0 120.65543189634185 -194.98014308055269 0 -194.98014308055269 129.0935543342348 0 0 0 0 -3.9219334840182682 -128.64129434027427 0 -128.64129434027427 161.25131541323208 0 0 0 0 7.140273212973625 -114.86103896284476 0 -114.86103896284476 134.24923883552401 0 0 0 0 11.481158956052241 -110.67357147195798 0 -110.67357147195798 117.1163997692347 0 0 0 0 -23.722327948094062 -80.756037436134648 0 -80.756037436134648 151.49063746657339 0 0 0 0 -36.391136339374896 -74.639140665524337 0 -74.639140665524337 155.01094609132269 0 0 0 0 -34.563273677134021 -97.427724104949448 0 -97.427724104949448 274.58422622414946 0 0 0 0 -43.444799439501367 15.263668255756784 0 15.263668255756784 251.64639563059791 0 0 0 0 -28.156810355574635 -23.682935178498155 0 -23.682935178498155 298.70625962411759 0 0 0 0 -48.609095452291513 28.950989320714143 0 28.950989320714143 306.11678799589572 0 0 0 0 -43.193012238707936 -4.8862530058706852 0 -4.8862530058706852 214.58173649950186 0 0 0 0 -108.81853016535933 24.561506941798143 0 24.561506941798143 215.35349748010049 0 0 0 0 -48.645675845360984 93.217560408102145 0 93.217560408102145 -12.178090876157512 0 0 0 0 -0.49922999645213473 0.18369995232821168 0 0.18369995232821168 1.5239978211654943 0 0 0 0 -3.5742738944463781 -105.69179497227015 0 -105.69179497227015 397.06838278732175 0 0 0 0 -39.175302934314459 -2.2022655368491542 0 -2.2022655368491542 352.75386619071651 0 0 0 0 -29.690468617973238 -22.453808948863298 0 -22.453808948863298 340.69224481671699 0 0 0 0 18.524199891927765 -50.439797145450939 0 -50.439797145450939 324.0323699242872 0 0 0 0 -0.019510353032220706 0.053451429914971982 0 0.053451429914971982 0.28081758747057961 0 0 0 0 -10.313686772092069 -51.435189152251951 0 -51.435189152251951 94.694481778715272 0 0 0 0 -10.298068469946884 -31.438466949970461 0 -31.438466949970461 27.284368127426205 0 0 0 0 41.698400792210577 -75.608590258641925 0 -75.608590258641925 96.255933682536124 0 0 0 0 -72.678109591377961 -105.68815106115653 0 -105.68815106115653 -136.94384083982004 0 0 0 0 -162.09096606862659 17.79053020329593 0 17.79053020329593 31.890067109430674 0 0 0 0 -0.45774096065452596 -1.7996261242347344 0 -1.7996261242347344 3.6468156176268849 0 0 0 0 0.84406729486386123 -4.126256432710683 0 -4.126256432710683 10.400023040159255 0 0 0 0 -1.0141962818295269 -3.4696392048208509 0 -3.4696392048208509 8.7649008678708924 0 0 0 0 -46.884448138116113 -96.378876870137901 0 -96.378876870137901 -67.163082746046712 0 0 0 0 -80.378932249173204 -100.99361331976979 0 -100.99361331976979 -57.614373756412533 0 0 0 0 -124.4448383272636 -94.372027238776354 0 -94.372027238776354 -38.192086756855133 0 0 0 0 -20.80324004964541 -14.422043055350514 0 -14.422043055350514 2.9726834414468613 0 0 0 0 32.253333926779305 -26.104381844361342 0 -26.104381844361342 -18.970402442660998 0 0 0 0 -71.127066927620035 12.950280357232259 0 12.950280357232259 35.134034249833348 0 0 0 0 42.862146116043277 11.637877734152426 0 11.637877734152426 -38.197624795808224 0 0 0 0 21.161315348858807 -81.526643268385669 0 -81.526643268385669 78.057900657215214 0 0 0 0 -4.3569438699955754 8.7803416297610966 0 8.7803416297610966 -24.92947187700338 0 0 0 0 -36.273682377203841 -115.77275799964264 0 -115.77275799964264 -100.79680921610634 0 0 0 0 -43.636809672189656 39.424902738370292 0 39.424902738370292 -69.505683815928933 0 0 0 0 0.26598929347301237 -30.164620903520699 0 -30.164620903520699 50.443753724423004 0 0 0 0 41.883344941636096 -164.77749555934861 0 -164.77749555934861 106.93590868351384 0 0 0 0 -95.214946964033061 -27.548291751259967 0 -27.548291751259967 189.12179473249125 0 0 0 0 -77.362166147847802 -145.69942613922467 0 -145.69942613922467 436.4169747312917 0 0 0 0 -90.9880437328884 -27.261009701403964 0 -27.261009701403964 444.96062541167294 0 0 0 0 112.69216646641553 424.75735182636708 0 424.75735182636708 751.23683075325243 0 0 0 0 0.00057531910597052871 -0.8106647543285419 0 -0.8106647543285419 5.1935290837689365 0 0 0 0 113.15221316703492 -361.97084763256134 0 -361.97084763256134 342.1100188276796 0 0 0 0 -62.517565585137618 -35.60643776224606 0 -35.60643776224606 79.100523118569981 0 0 0 0 -63.629090191841897 -45.688581341390091 0 -45.688581341390091 66.935393212726922 0 0 0 0 -0.091910302146851475 -3.8823181348507276 0 -3.8823181348507276 12.068977569595347 0 0 0 0 69.547795192226999 32.423065548282466 0 32.423065548282466 72.073713380312256 0 0 0 0 1.3832617983181121 -3.2948019634645789 0 -3.2948019634645789 2.1422564965420037 0 0 0 0 -45.051221355938765 -13.259081685777346 0 -13.259081685777346 248.52717344752455 0 0 0 0 -23.894387677795748 116.38622713532095 0 116.38622713532095 237.86529968414516 0 0 0 0 -63.951650307549016 197.37987053715187 0 197.37987053715187 647.68639821944817 0 0 0 0 -64.280103249043975 161.22939132145348 0 161.22939132145348 683.32569962978596 0 0 0 0 64.164393862674729 255.79685815312405 0 255.79685815312405 583.9399440113848 0 0 0 0 -17.760377143860325 90.886862678595207 0 90.886862678595207 880.41969199859886 0 0 0 0 -57.236203996166751 406.2377943342799 0 406.2377943342799 1305.8787208000322 0 0 0 0 -138.58779948930828 -508.47550322224561 0 -508.47550322224561 1084.73483418455 0 0 0 0 -61.270584649238401 126.02661880811138 0 126.02661880811138 -82.490453606922529 0 0 0 0 2.8888227232617165 2.0282772590901743 0 2.0282772590901743 3.1737018393102545 0 0 0 0 53.864960821501086 -44.887673340181209 0 -44.887673340181209 182.79473026121559 0 0 0 0 -124.76592286479433 80.131644032575423 0 80.131644032575423 9.6943022184132133 0 0 0 0 21.090259956623413 -238.28110604532412 0 -238.28110604532412 353.80299412810564 0 0 0 0 -104.41109916522419 5.8100534277982661 0 5.8100534277982661 839.0664140113804 0 0 0 0 0.91600502093076419 1.2060251805052138 0 1.2060251805052138 0.72598570264037221 0 0 0 0 -0.13410680388585144 -1.4798682575335249 0 -1.4798682575335249 10.081946271107228 0 0 0 0 -1.1647694175787819 -4.530941719571274 0 -4.530941719571274 10.914200583676575 0 0 0 0 -108.60648608776171 13.798179950106714 0 13.798179950106714 80.708522523877036 0 0 0 0 -39.04867835091386 55.727057340605825 0 55.727057340605825 -56.401090531660884 0 0 0 0 -14.901951440267965 -33.948410553626672 0 -33.948410553626672 64.416049598716199 0 0 0 0 133.86017410094803 -202.46908528598578 0 -202.46908528598578 97.058102317285375 0 0 0 0 27.633610373635179 22.804334959488187 0 22.804334959488187 -0.37578358234895859 0 0 0 0 114.84840713008515 -188.30006086293361 0 -188.30006086293361 434.8481650663598 0 0 0 0 107.0340637284735 -159.90767865362795 0 -159.90767865362795 192.16532421836746 0 0 0 0 103.33851049040766 -140.68842347705322 0 -140.68842347705322 238.13508513732086 0 0 0 0 10.589104582705204 21.081315136492776 0 21.081315136492776 161.17393200703555 0 0 0 0 170.32002099458441 31.4778834101744 0 31.4778834101744 32.204951474879635 0 0 0 0 209.73401687080741 83.721305903527536 0 83.721305903527536 296.77004368716734 0 0 0 0 181.62626117300744 30.916655993998575 0 30.916655993998575 258.74619790486395 0 0 0 0 173.63631407283401 9.6619072379580757 0 9.6619072379580757 145.38860871017096 0 0 0 0 177.68616458880382 313.18716554634011 0 313.18716554634011 568.62094363868528 0 0 0 0 335.63966167879551 347.67010657297942 0 347.67010657297942 163.5389190390797 0 0 0 0 244.06276102572315 152.77620250848122 0 152.77620250848122 -229.28288572791644 0 0 0 0 -16.988445599036879 -50.308779376649909 0 -50.308779376649909 8.3258563763083657 0 0 0 0 96.167067173130619 116.14177263742022 0 116.14177263742022 1121.7012537377959 0 0 0 0 2.1411731904715259 1.7312221289135721 0 1.7312221289135721 1.1959299404934569 0 0 0 0 225.91111384122681 323.39841449116011 0 323.39841449116011 1044.1370949947741 0 0 0 0 -66.242839090408822 -328.0971029495322 0 -328.0971029495322 288.82205742664519 0 0 0 0 215.50417487053147 -45.725865395397705 0 -45.725865395397705 538.23663489623414 0 0 0 0 306.78470400685762 -22.592064015894721 0 -22.592064015894721 249.91592585886247 0 0 0 0 190.59629211000379 230.93212129301173 0 230.93212129301173 344.05366423180021 0 0 0 0 179.61527056982581 24.920002395003394 0 24.920002395003394 182.03292857548877 0 0 0 0 195.71240508057039 86.02970901950539 0 86.02970901950539 269.8241407908863 0 0 0 0 -25.17905530752688 31.786272003490012 0 31.786272003490012 201.55872874503439 0 0 0 0 148.78148724970777 110.23137284324366 0 110.23137284324366 147.2582855132714 0 0 0 0 222.50752139630114 403.51095993902709 0 403.51095993902709 536.07113902190031 0 0 0 0 152.26673029984556 118.81647952677304 0 118.81647952677304 418.39159466356068 0 0 0 0 158.76111941923216 242.28179600616568 0 242.28179600616568 388.61334597677342 0 0 0 0 0.27900323796702031 67.06437026902131 0 67.06437026902131 67.234699986380292 0 0 0 0 -0.043741060340384941 -0.12208167252611446 0 -0.12208167252611446 4.4640793050462264 0 0 0 0 -54.387845429679061 -289.09560658737973 0 -289.09560658737973 364.58829744275499 0 0 0 0 -0.47554148161180426 94.550439040252968 0 94.550439040252968 803.34356722262237 0 0 0 0 141.20524962345519 -77.266609578509815 0 -77.266609578509815 682.6003405819647 0 0 0 0 208.59326823642476 -69.287282173153926 0 -69.287282173153926 632.24462158264942 0 0 0 0 192.49542664811369 36.539511198360742 0 36.539511198360742 772.40835364779196 0 0 0 0 122.19557879509628 63.760514668399992 0 63.760514668399992 352.00372649322526 0 0 0 0 104.01915937810755 -31.865142759663286 0 -31.865142759663286 772.63562621429082 0 0 0 0 93.824547927242065 28.355544132427895 0 28.355544132427895 614.31596530855313 0 0 0 0 136.55554338875879 -138.24118356437248 0 -138.24118356437248 548.3696127201838 0 0 0 0 82.315544805549152 -151.57920693891629 0 -151.57920693891629 604.82925444710418 0 0 0 0 88.416272454747471 -172.54806095451841 0 -172.54806095451841 535.8417807657388 0 0 0 0 92.301501543127074 -228.76044992474999 0 -228.76044992474999 503.43021106471133 0 0 0 0 68.102680744389602 -225.7096285485095 0 -225.7096285485095 583.19785579456584 0 0 0 0 86.695465595398247 -179.3794248959075 0 -179.3794248959075 697.94872757478151 0 0 0 0 2.3229508428726149 -323.50598263559004 0 -323.50598263559004 602.39641292503075 0 0 0 0 78.136057713050093 -117.55813852252504 0 -117.55813852252504 867.37764469677495 0 0 0 0 1.1328344696108177 -24.289641200946789 0 -24.289641200946789 755.27524991782775 0 0 0 0 74.374392846298434 -146.68261446482938 0 -146.68261446482938 646.31447314914112 0 0 0 0 77.45099336632714 -266.16944394542224 0 -266.16944394542224 667.54157263618072 0 0 0 0 76.392794928268941 -266.79620489530498 0 -266.79620489530498 683.32433979268535 0 0 0 0 138.89698717017311 -421.63507035346265 0 -421.63507035346265 711.16235113402217 0 0 0 0 46.391323616782955 -315.48134874609241 0 -315.48134874609241 905.37993025381911 0 0 0 0 -0.046412724151234291 -0.24096211662575229 0 -0.24096211662575229 2.8268234926113394 0 0 0 0 -0.021040881584761809 3.7710836344263479 0 3.7710836344263479 -2.6488157787243836 0 0 0 0 161.87232288948616 -416.08799003529748 0 -416.08799003529748 496.55810705643671 0 0 0 0 -53.055055791269666 74.038038038888772 0 74.038038038888772 42.959954829348135 0 0 0 0 -35.09324735323105 10.610926191885483 0 10.610926191885483 -2.2009607785003027 0 0 0 0 -143.65611048014156 36.780599443369283 0 36.780599443369283 31.257170653072535 0 0 0 0 -12.898372329209781 17.367498364732455 0 17.367498364732455 12.835750327361893 0 0 0 0 0.037419695706505884 3.7721676755863882 0 3.7721676755863882 -2.6503666161152069 0 0 0 0 -0.24667630199002211 0.57214295170703622 0 0.57214295170703622 4.6290118755264587 0 0 0 0 -88.657050994022711 -246.42032243840004 0 -246.42032243840004 590.77389591139945 0 0 0 0 20.286861649461741 -306.60954523798137 0 -306.60954523798137 618.2376378022891 0 0 0 0 28.806832580225432 -265.39468043185843 0 -265.39468043185843 698.77384795761463 0 0 0 0 -0.093945454622304081 0.41781825794107874 0 0.41781825794107874 2.6782319465412741 0 0 0 0 144.31677904987851 -413.46178059717204 0 -413.46178059717204 608.66298687787639 0 0 0 0 -52.284446252326745 9.8154719884150836 0 9.8154719884150836 -1.9661787112127058 0 0 0 0 95.597750264414827 -283.72129941670937 0 -283.72129941670937 265.58089071091672 0 0 0 0 -104.11705279832529 -48.252415386315988 0 -48.252415386315988 547.99333241528802 0 0 0 0 -66.095847414870946 -363.81957678283106 0 -363.81957678283106 605.46374827284308 0 0 0 0 7.7103575291871493 -322.03276864420695 0 -322.03276864420695 623.22481763363248 0 0 0 0 5.6141332794485095 -367.50374458888177 0 -367.50374458888177 912.13705114935874 0 0 0 0 176.63360932083083 -454.78137882793089 0 -454.78137882793089 662.57518056557456 0 0 0 0 185.53947261781082 -240.51916146148869 0 -240.51916146148869 683.48790427869244 0 0 0 0 12.861906558408805 -222.65896073974363 0 -222.65896073974363 760.37481493881933 0 0 0 0 677.42939148878077 -398.37871370260109 0 -398.37871370260109 924.6592077455025 0 0 0 0 179.49528571334986 -267.65610062034102 0 -267.65610062034102 1048.2206896389907 0 0 0 0 847.85940708185717 -211.74625231331811 0 -211.74625231331811 868.7682703868777 0 0 0 0 822.09456135000664 -193.59509715106833 0 -193.59509715106833 877.79179272262627 0 0 0 0 1163.5971727529713 -665.0882546186258 0 -665.0882546186258 399.83841521241993 0 0 0 0 557.40011123810041 -144.91468702187558 0 -144.91468702187558 1436.1697537046566 0 0 0 0 636.24611436924783 -871.71840642533789 0 -871.71840642533789 1337.3805179762421 0 0 0 0 471.52145972221024 -368.69230333312589 0 -368.69230333312589 891.47992493424681 0 0 0 0 512.33081211048011 -557.18309641776432 0 -557.18309641776432 625.73337013802666 0 0 0 0 182.1360851701254 -504.28528668679064 0 -504.28528668679064 1106.5678896730169 0 0 0 0 316.22350828085416 -411.75644126425686 0 -411.75644126425686 291.0286393690767 0 0 0 0 344.9865883094044 -548.19560471895238 0 -548.19560471895238 626.61151053811955 0 0 0 0 294.60077428480508 -49.737436643808906 0 -49.737436643808906 -36.727086270379004 0 0 0 0 279.89546862193839 -375.94592365587891 0 -375.94592365587891 326.75705285785079 0 0 0 0 -0.0034099484042239836 -1.5031423737230343 0 -1.5031423737230343 7.7105730662191263 0 0 0 0 -204.2816676409816 298.84654501982004 0 298.84654501982004 500.33946929009835 0 0 0 0 -1.523549667131106 1.6831941812708067 0 1.6831941812708067 1.0836503735256713 0 0 0 0 841.92023119922726 -459.91263547079143 0 -459.91263547079143 30.522329314087983 0 0 0 0 52.848971124584068 -41.326266819180091 0 -41.326266819180091 -145.66094930493273 0 0 0 0 -237.47010152824669 -197.81355868210267 0 -197.81355868210267 58.99441279849998 0 0 0 0 -8.37206124027648 -2.8010957037477056 0 -2.8010957037477056 10.237943340733182 0 0 0 0 -0.012578573815998195 -2.831335270019621 0 -2.831335270019621 8.020725702946379 0 0 0 0 -21.502621130654163 -90.962026601526304 0 -90.962026601526304 164.09964339343423 0 0 0 0 -0.68023552989662073 -1.4274114228463617 0 -1.4274114228463617 10.115016141755717 0 0 0 0 123.43913408170158 -182.29432782595904 0 -182.29432782595904 156.4635924983595 0 0 0 0 136.41270090708815 -339.57855203967119 0 -339.57855203967119 438.14362793337932 0 0 0 0 36.136631034587026 -388.42644196734182 0 -388.42644196734182 631.97581627892941 0 0 0 0 112.68800434455522 -374.03622445711153 0 -374.03622445711153 417.11384650522086 0 0 0 0 164.52631814564984 -491.90388820860244 0 -491.90388820860244 678.41294548028418 0 0 0 0 78.712250343376581 182.61434133989769 0 182.61434133989769 -175.1122882783061 0 0 0 0 7.2706549985500715 167.19721952933469 0 167.19721952933469 -30.140724778512322 0 0 0 0 -0.17275384448206221 4.1677060158521222 0 4.1677060158521222 -0.38898867475650079 0 0 0 0 -3.3195626348015139 35.375525498239767 0 35.375525498239767 -57.494962700531687 0 0 0 0 18.144084154333086 130.968327925415 0 130.968327925415 90.055652785569691 0 0 0 0 31.917035801073325 6.1169898172720423 0 6.1169898172720423 625.61274443816956 0 0 0 0 95.922137952624553 110.55959026138066 0 110.55959026138066 -171.50644003427624 0 0 0 0 0.681867981276989 3.2769007450621999 0 3.2769007450621999 1.5353834201808318 0 0 0 0 138.37354833069594 202.41553805249714 0 202.41553805249714 -20.903249254158254 0 0 0 0 -41.94384571826032 133.04392729071151 0 133.04392729071151 276.72858008881485 0 0 0 0 48.44810749487965 -24.813108397169344 0 -24.813108397169344 191.33037013064404 0 0 0 0 -124.99577617115301 52.210454111269428 0 52.210454111269428 168.00065045636347 0 0 0 0 -89.334401343692434 106.30494314139196 0 106.30494314139196 135.86653059233868 0 0 0 0 -107.84737510159039 54.43322278168489 0 54.43322278168489 85.261296540563308 0 0 0 0 -45.053300914404019 78.85585307468682 0 78.85585307468682 41.83195724730831 0 0 0 0 -106.69512500975407 60.559800200567224 0 60.559800200567224 110.18518286830022 0 0 0 0 -108.67701997512177 54.885918720070549 0 54.885918720070549 113.41674914545911 0 0 0 0 -124.11679638182432 40.861284670305395 0 40.861284670305395 102.31853106608469 0 0 0 0 -19.168063644659014 -38.283645685344709 0 -38.283645685344709 252.02526286063494 0 0 0 0 3.869520727380749 1.2888937453109754 0 1.2888937453109754 25.838710939121476 0 0 0 0 -95.528646779924202 56.052309584381874 0 56.052309584381874 94.683312106393714 0 0 0 0 -39.95280148355414 -72.632832480860088 0 -72.632832480860088 202.92431565705556 0 0 0 0 -69.079144757358108 22.721925626703523 0 22.721925626703523 -0.56347755836577562 0 0 0 0 127.26979393313083 -113.23961461917725 0 -113.23961461917725 360.95827125595679 0 0 0 0 14.404657789308885 45.184770460730306 0 45.184770460730306 365.3803372267721 0 0 0 0 -59.067664528148839 -48.982751027360791 0 -48.982751027360791 30.670358898015365 0 0 0 0 1.5123735711339856 4.9146491535184627 0 4.9146491535184627 8.5691003433642159 0 0 0 0 -95.19751933223165 114.41873288387683 0 114.41873288387683 233.43651595686606 0 0 0 0 -11.224778874452301 18.135519602062104 0 18.135519602062104 157.03499564577049 0 0 0 0 -22.22709189326963 90.415849569794204 0 90.415849569794204 121.04860170578468 0 0 0 0 81.385755691901068 -7.4613085480796144 0 -7.4613085480796144 187.05694797889555 0 0 0 0 -14.057296381743981 25.022279321667156 0 25.022279321667156 325.31716665718886 0 0 0 0 -26.469472839059563 119.20776208818097 0 119.20776208818097 233.4606652601833 0 0 0 0 -52.055080306777199 -19.927205274399967 0 -19.927205274399967 27.982388037256896 0 0 0 0 -28.588452065816099 16.539430910291088 0 16.539430910291088 130.19452697783402 0 0 0 0 -7.6067308939291252 -15.669494571241557 0 -15.669494571241557 149.19861941706677 0 0 0 0 -7.3205164943801719 -13.410526283721993 0 -13.410526283721993 122.28699678611611 0 0 0 0 -13.338588189926748 -15.868081094211876 0 -15.868081094211876 71.292546801417814 0 0 0 0 -13.026486563234357 -17.434083221072797 0 -17.434083221072797 32.864196348469704 0 0 0 0 -52.916789654797867 -28.950662506612389 0 -28.950662506612389 119.9877510344254 0 0 0 0 1.1745358419631948 4.7812826587098165 0 4.7812826587098165 14.796299207284221 0 0 0 0 -76.307078169747001 5.847307292643336 0 5.847307292643336 137.90651697094654 0 0 0 0 2.6502330278049158 45.343006363860695 0 45.343006363860695 140.53162026693644 0 0 0 0 67.482383073678193 9.4171097548050966 0 9.4171097548050966 104.16051697492048 0 0 0 0 59.919493745168438 -0.58073022535882046 0 -0.58073022535882046 135.26338257094903 0 0 0 0 66.112848640205812 -0.053009152023150818 0 -0.053009152023150818 109.18979687807223 0 0 0 0 -130.68558313408948 -121.04216639552124 0 -121.04216639552124 581.82004895336104 0 0 0 0 -114.02757837671641 -79.202192604068841 0 -79.202192604068841 175.12368114927676 0 0 0 0 199.93329838456702 96.138257799650091 0 96.138257799650091 174.15319895250286 0 0 0 0 7.6009697597660306 123.16340007284816 0 123.16340007284816 506.98670439118177 0 0 0 0 -0.5101434082889682 -12.888267960314806 0 -12.888267960314806 196.24776688823113 0 0 0 0 154.40742793228583 -23.656491888537857 0 -23.656491888537857 98.199072270332181 0 0 0 0 42.56935522585718 -45.726258181887715 0 -45.726258181887715 133.40231104895975 0 0 0 0 93.508344156714884 4.1375666186140734 0 4.1375666186140734 98.935150470913868 0 0 0 0 61.427639577198079 -20.913255668090642 0 -20.913255668090642 82.523751084213472 0 0 0 0 20.661972111918658 -4.7730459725435139 0 -4.7730459725435139 77.888804614305627 0 0 0 0 -46.278642254365877 4.9886994746339042 0 4.9886994746339042 69.523383084686657 0 0 0 0 -21.138688590647234 -41.239141677721364 0 -41.239141677721364 123.5494753247458 0 0 0 0 -63.666302631765575 -50.287589804618619 0 -50.287589804618619 81.657509503359506 0 0 0 0 -92.408832566999081 5.2789757457369433 0 5.2789757457369433 41.135500678072276 0 0 0 0 -36.122702733528058 2.3262431202979315 0 2.3262431202979315 41.256772821617233 0 0 0 0 -77.17539100631393 -31.768303319016923 0 -31.768303319016923 30.880843655400895 0 0 0 0 -69.253108887718554 1.7131917790666193 0 1.7131917790666193 23.850547243970141 0 0 0 0 -91.141060058364928 33.368253318322331 0 33.368253318322331 31.420200072476291 0 0 0 0 -47.881786334354729 35.824702069771774 0 35.824702069771774 49.404143890455089 0 0 0 0 -73.204115312008071 64.112297357994066 0 64.112297357994066 59.840055945039239 0 0 0 0 -21.334521553681498 60.846865578318784 0 60.846865578318784 68.835635101640946 0 0 0 0 -2.0763348112141102 -2.9975181280074139 0 -2.9975181280074139 25.45489016751435 0 0 0 0 -2.5906476287580915 -1.345537836515879 0 -1.345537836515879 19.921739298601228 0 0 0 0 -39.970474228384774 17.214418044082777 0 17.214418044082777 21.984010325929376 0 0 0 0 13.735189594033727 -6.9856868041606504 0 -6.9856868041606504 25.65266160270312 0 0 0 0 -1.1810456908206106 -2.8931806344153301 0 -2.8931806344153301 13.547655735810167 0 0 0 0 -1.0024780146984789 1.7857732939187372 0 1.7857732939187372 3.042931442203475 0 0 0 0 -16.886074078100137 -13.467661474829583 0 -13.467661474829583 15.633207416072764 0 0 0 0 -0.85477317187037372 2.3680451972491809 0 2.3680451972491809 12.097919846978979 0 0 0 0 -10.296818604998407 11.882756492662338 0 11.882756492662338 19.31514683266505 0 0 0 0 -1.4524104215524858 4.2521801614966535 0 4.2521801614966535 18.114238245601882 0 0 0 0 -2.4225100886958089 -1.0509260466506429 0 -1.0509260466506429 4.2663106152812382 0 0 0 0 1.506117090603766 -1.0371991016638038 0 -1.0371991016638038 4.719753912711254 0 0 0 0 7.1224759561409883 14.897145874621401 0 14.897145874621401 -5.6812488201812812 0 0 0 0 -9.3501333010785856 6.5277947546501309 0 6.5277947546501309 30.237286446839789 0 0 0 0 11.75839851920864 -1.7563791587035666 0 -1.7563791587035666 13.901285929334335 0 0 0 0 0.64496326862854403 0.81206518246664494 0 0.81206518246664494 0.80771260114891419 0 0 0 0 41.433400202180565 -93.043879904828827 0 -93.043879904828827 732.75163642302959 0 0 0 0 0.96294662613036053 -8.390616012643477 0 -8.390616012643477 25.026770746962029 0 0 0 0 140.26836608670419 -201.87129316633764 0 -201.87129316633764 689.76187971316904 0 0 0 0 -2.8279517656010285 -3.5406458589291105 0 -3.5406458589291105 16.853256083794804 0 0 0 0 2.0912987224727146 0.29835106882933182 0 0.29835106882933182 2.2532410612763849 0 0 0 0 -0.36200667687990062 -2.6477162970268182 0 -2.6477162970268182 13.174500372967486 0 0 0 0 -0.2087508207548936 2.6693827034960229 0 2.6693827034960229 12.302079437492964 0 0 0 0 -97.820189147758356 -257.24427033813663 0 -257.24427033813663 1228.8571883730056 0 0 0 0 216.46043149451725 -216.86619672021334 0 -216.86619672021334 -657.80321649731377 0 0 0 0 3.3204675568702342 -0.98271579732441694 0 -0.98271579732441694 0.42344004984664885 0 0 0 0 -54.170378241726212 -50.502822313989782 0 -50.502822313989782 1038.279297982659 0 0 0 0 -44.926827869388035 76.463462795563828 0 76.463462795563828 35.014572348962247 0 0 0 0 -36.353704367872524 67.725619768848446 0 67.725619768848446 -32.919869636718431 0 0 0 0 -39.853890841714019 32.265884696556896 0 32.265884696556896 29.022388962847344 0 0 0 0 -22.686660155914069 -2.3398403297742334 0 -2.3398403297742334 22.421059930665024 0 0 0 0 3.5214426716133538 5.4207217443228259 0 5.4207217443228259 4.2240845592025931 0 0 0 0 121.46773275361556 22.222487106795597 0 22.222487106795597 547.95599289267193 0 0 0 0 10.591350324244559 -55.895174601879262 0 -55.895174601879262 457.63646260860878 0 0 0 0 -22.080735879266285 6.6564349977779784 0 6.6564349977779784 561.44697542259382 0 0 0 0 285.85946769789734 -546.5552853045192 0 -546.5552853045192 849.46647985182608 0 0 0 0 18.616859934274544 -317.87794765135914 0 -317.87794765135914 842.59949474312452 0 0 0 0 0.77852099498051075 -0.66237276830895997 0 -0.66237276830895997 0.21242729342679212 0 0 0 0 -75.523307165338338 -414.31947785780721 0 -414.31947785780721 56.816084446239984 0 0 0 0 -40.575202011172223 -217.66904743358464 0 -217.66904743358464 603.10659139318705 0 0 0 0 40.659708208791926 -103.73940541500087 0 -103.73940541500087 289.58467160540386 0 0 0 0 43.945713061129936 -73.136170806852533 0 -73.136170806852533 466.04715360382579 0 0 0 0 57.850166697033274 -51.491202959638031 0 -51.491202959638031 314.89059926661685 0 0 0 0 97.406141566983479 8.509602863703094 0 8.509602863703094 335.74000626175621 0 0 0 0 100.30266188811493 -16.143645545644176 0 -16.143645545644176 187.8330137530611 0 0 0 0 90.398476359074266 -1.3173062404275697 0 -1.3173062404275697 165.68476631718841 0 0 0 0 82.817150732880691 -154.96358989534201 0 -154.96358989534201 247.68779745211577 0 0 0 0 87.831690109364445 -140.16420153703007 0 -140.16420153703007 -83.143687729319936 0 0 0 0 64.053225442914481 -20.700002351817602 0 -20.700002351817602 171.54149841536127 0 0 0 0 77.830786491473191 4.7895176947658911 0 4.7895176947658911 7.4737275834122556 0 0 0 0 75.796823031019812 34.958586421945256 0 34.958586421945256 231.9149697339999 0 0 0 0 33.797368095833917 7.3902766394421633 0 7.3902766394421633 208.77281433881944 0 0 0 0 85.983259403757984 44.778751769816154 0 44.778751769816154 133.84462814181097 0 0 0 0 71.048479779754416 2.7698115434141073 0 2.7698115434141073 309.05851799589072 0 0 0 0 98.607287233737225 17.363121260194021 0 17.363121260194021 242.07217549454435 0 0 0 0 107.07044301058659 -10.83349349438663 0 -10.83349349438663 201.94128371709303 0 0 0 0 92.537892861306318 195.80661787445842 0 195.80661787445842 -435.50710423519558 0 0 0 0 -125.55689311353581 157.24065087507825 0 157.24065087507825 68.475907446627389 0 0 0 0 56.883543473180907 30.170977499485161 0 30.170977499485161 -52.317060758221089 0 0 0 0 -4.2928148397732002 -108.88910162137472 0 -108.88910162137472 -56.25570653214163 0 0 0 0 23.94734309870546 4.5909965109240147 0 4.5909965109240147 17.920692561845499 0 0 0 0 9.0804764515160059 45.738268647492077 0 45.738268647492077 171.29218640461113 0 0 0 0 37.4077748114305 53.422514854998553 0 53.422514854998553 335.21154177392236 0 0 0 0 110.99074887478855 -100.41721002076338 0 -100.41721002076338 326.38531970775512 0 0 0 0 -88.067690833362576 62.175493757651566 0 62.175493757651566 216.89316764417526 0 0 0 0 76.984304702931695 55.53724669416988 0 55.53724669416988 227.77768122661473 0 0 0 0 -54.913814828983732 -102.05496609722513 0 -102.05496609722513 394.6191011003466 0 0 0 0 7.8537880611611399 -119.73885403605391 0 -119.73885403605391 372.71693927593151 0 0 0 0 -5.9534056994152706 -121.2689732295903 0 -121.2689732295903 476.85982714837155 0 0 0 0 158.64330662605062 -223.99126638501184 0 -223.99126638501184 537.94759088863066 0 0 0 0 207.69054318344092 -331.86001136926802 0 -331.86001136926802 766.00390411154513 0 0 0 0 25.304950585461484 7.8535754665645072 0 7.8535754665645072 409.21927514464915 0 0 0 0 250.11692513184482 -10.10886690819143 0 -10.10886690819143 402.16807832608538 0 0 0 0 -3.309939664821286 -74.677301557398096 0 -74.677301557398096 687.29819086152565 0 0 0 0 224.93658027050333 -383.91483377150143 0 -383.91483377150143 323.73249423146262 0 0 0 0 263.16051971729939 -117.89044229136198 0 -117.89044229136198 14.187464473536238 0 0 0 0 169.07818570436939 -211.67348993203632 0 -211.67348993203632 319.74495496909367 0 0 0 0 -32.478041317825046 -120.56974499382841 0 -120.56974499382841 571.54323904487683 0 0 0 0 -23.764133852677332 -74.795287833376278 0 -74.795287833376278 808.95923612455226 0 0 0 0 -16.083649042560864 -99.86764404511996 0 -99.86764404511996 888.93501882429427 0 0 0 0 175.80873677006457 211.07898569278768 0 211.07898569278768 256.76646281933063 0 0 0 0 3.5104538991422558 -0.72185850324540013 0 -0.72185850324540013 2.5604130947017865 0 0 0 0 0.46027228046056656 0.70386933835208865 0 0.70386933835208865 -0.34982888067924023 0 0 0 0 77.419295422366758 -96.033086193672716 0 -96.033086193672716 198.87931666222357 0 0 0 0 52.301109589301632 -94.6826819603898 0 -94.6826819603898 242.24039623386489 0 0 0 0 30.731875503201081 -72.586401535985715 0 -72.586401535985715 380.52148848688012 0 0 0 0 58.438619063254009 48.051602988265586 0 48.051602988265586 290.44038980769619 0 0 0 0 27.72405413159504 -157.07064951924986 0 -157.07064951924986 323.91409967268373 0 0 0 0 -8.0601459815047178 -135.05150178029533 0 -135.05150178029533 313.08505112820058 0 0 0 0 19.045135292025407 -182.50460683373512 0 -182.50460683373512 251.96359417305575 0 0 0 0 66.526375805804491 -202.25654552577271 0 -202.25654552577271 195.7514832769557 0 0 0 0 104.22221212039631 -182.6872049265603 0 -182.6872049265603 149.33306837788859 0 0 0 0 76.992210283690611 -126.59275504777997 0 -126.59275504777997 49.919612450765271 0 0 0 0 60.220945247194564 -56.872691945231509 0 -56.872691945231509 7.4600131955958204 0 0 0 0 62.872227154311986 -76.403865890091765 0 -76.403865890091765 142.80210374574744 0 0 0 0 37.988925549294436 -147.90743195391133 0 -147.90743195391133 94.524355685396586 0 0 0 0 91.912405194068015 -95.256468584055256 0 -95.256468584055256 105.4765156659787 0 0 0 0 93.31444856330836 -24.849219320114571 0 -24.849219320114571 187.66732291236258 0 0 0 0 110.10380707178422 -45.321309601553821 0 -45.321309601553821 103.9015177539477 0 0 0 0 46.679314561109095 9.5454403623207327 0 9.5454403623207327 176.33540940231978 0 0 0 0 42.185551088398043 -37.149587081889308 0 -37.149587081889308 102.17043406411904 0 0 0 0 -65.088907991003111 37.947429713940437 0 37.947429713940437 197.03624574070636 0 0 0 0 175.15015430753738 121.01485261290918 0 121.01485261290918 262.37989788184314 0 0 0 0 83.749952872382892 -29.622605245200248 0 -29.622605245200248 215.11903941291712 0 0 0 0 168.22250207265188 28.089150432524548 0 28.089150432524548 193.74819135733878 0 0 0 0 -139.11294596134803 -41.386287458869589 0 -41.386287458869589 27.343553612110554 0 0 0 0 -100.51621560454078 45.554105246770632 0 45.554105246770632 79.081543566542678 0 0 0 0 -69.774726065181824 17.786507317279757 0 17.786507317279757 110.8300992143013 0 0 0 0 -142.05404406654907 29.076359011367458 0 29.076359011367458 135.64394069599803 0 0 0 0 -62.195095240467936 -44.044467951020124 0 -44.044467951020124 59.316427724417736 0 0 0 0 -60.372486115679976 -13.180391749905539 0 -13.180391749905539 123.30140095027127 0 0 0 0 1.5604882173035604 -7.8780725240430138 0 -7.8780725240430138 28.247934526248315 0 0 0 0 -255.88984249631494 -61.276519235698743 0 -61.276519235698743 104.80811792290297 0 0 0 0 -152.42298778397966 27.271499523066268 0 27.271499523066268 24.849448073218809 0 0 0 0 520.99820273082423 261.41535679303342 0 261.41535679303342 -30.67662714758626 0 0 0 0 -199.09343045474452 -145.90518538511787 0 -145.90518538511787 27.65733478907012 0 0 0 0 0.78336252344216684 -2.7313665213807443 0 -2.7313665213807443 15.728178325495804 0 0 0 0 -55.789428953465631 13.785537126859708 0 13.785537126859708 2.8069243201389327 0 0 0 0 564.81164008488918 417.66852921998088 0 417.66852921998088 -64.568290596245788 0 0 0 0 -186.98897225470955 -29.222015391917012 0 -29.222015391917012 35.220326322618348 0 0 0 0 -220.96391923224519 -14.911372785678395 0 -14.911372785678395 92.558508095651632 0 0 0 0 -0.33851768024449147 1.0853765938559752 0 1.0853765938559752 11.261148619415039 0 0 0 0 -120.17991532699716 65.714450537729135 0 65.714450537729135 352.68673695442703 0 0 0 0 -221.19610424394841 -7.6638971352494991 0 -7.6638971352494991 78.615355560577882 0 0 0 0 -128.79309254518557 55.978412769331044 0 55.978412769331044 97.591281946615709 0 0 0 0 -54.957128978749552 38.972724406959969 0 38.972724406959969 168.27727473551204 0 0 0 0 -89.389557838031578 11.906980108135031 0 11.906980108135031 21.550397177441482 0 0 0 0 -54.344929924774988 43.554668833465257 0 43.554668833465257 14.199791574923438 0 0 0 0 -116.60335651295145 8.9311527574973297 0 8.9311527574973297 78.603606466233032 0 0 0 0 -2.945145671640792 9.9253886883224212 0 9.9253886883224212 12.608667631546325 0 0 0 0 -96.702148145709998 121.76115404747543 0 121.76115404747543 80.413588703377172 0 0 0 0 -2.8744511290066237 7.2219087210715536 0 7.2219087210715536 89.924739546402378 0 0 0 0 -68.53313589123718 38.348940558906179 0 38.348940558906179 52.633569337840527 0 0 0 0 -18.350696209952275 7.6504821241323953 0 7.6504821241323953 61.891906530101551 0 0 0 0 -56.572075834422094 -37.93450817595658 0 -37.93450817595658 224.27235367357207 0 0 0 0 -63.402695765987119 -101.14337456759677 0 -101.14337456759677 56.183190812528096 0 0 0 0 66.823499127622824 20.273780622567756 0 20.273780622567756 223.05335914123134 0 0 0 0 1.3567994230749223 -2.1021406330824774 0 -2.1021406330824774 0.66861648416963249 0 0 0 0 220.51261600342627 251.06470425926454 0 251.06470425926454 116.78689862608735 0 0 0 0 168.57106445917998 156.59939935401781 0 156.59939935401781 -0.11386240947467741 0 0 0 0 -10.14139038727717 81.983525875140913 0 81.983525875140913 433.79515840350359 0 0 0 0 38.695877296759136 -28.146798591216793 0 -28.146798591216793 23.998254081177947 0 0 0 0 -143.06319470157132 -56.903561188235471 0 -56.903561188235471 197.94179548740794 0 0 0 0 42.081335407433016 2.6594102926501364 0 2.6594102926501364 59.965725806730916 0 0 0 0 41.791228275779758 -2.5017861669693957 0 -2.5017861669693957 84.328361921652686 0 0 0 0 116.146618799512 -138.35624280254706 0 -138.35624280254706 178.48445682552119 0 0 0 0 -6.0857744167005876 -4.4401211813965347 0 -4.4401211813965347 65.502497136600141 0 0 0 0 64.844128667967198 16.615998319182836 0 16.615998319182836 30.49289022780431 0 0 0 0 -0.6468640309379623 -0.14312082527337111 0 -0.14312082527337111 0.17175981867330847 0 0 0 0 27.825082762938564 18.38230027188547 0 18.38230027188547 41.816332538284769 0 0 0 0 61.850943432370059 15.266039214748162 0 15.266039214748162 46.294793810709962 0 0 0 0 58.634844176616753 24.36170720255177 0 24.36170720255177 42.601997190438851 0 0 0 0 57.212020954988475 32.464045636384981 0 32.464045636384981 39.270539866956824 0 0 0 0 67.715686685898618 29.912292100307241 0 29.912292100307241 29.854880648010294 0 0 0 0 73.652348920631994 38.805829261880717 0 38.805829261880717 30.872716049212613 0 0 0 0 54.252814695917095 42.69015360292542 0 42.69015360292542 74.016097679486847 0 0 0 0 64.039910998322739 36.653532542448374 0 36.653532542448374 47.892690534543362 0 0 0 0 61.538735300188819 29.227506523253396 0 29.227506523253396 50.627979325974593 0 0 0 0 52.819214876407386 72.203900465108745 0 72.203900465108745 131.84545329536195 0 0 0 0 33.792527042931397 37.693598120837123 0 37.693598120837123 78.849613506579772 0 0 0 0 80.794934810043742 66.326789133119746 0 66.326789133119746 64.315379521875002 0 0 0 0 66.127958480499728 47.175169736670796 0 47.175169736670796 69.553443478245754 0 0 0 0 76.540384377781265 55.373180081063765 0 55.373180081063765 58.690812846660265 0 0 0 0 78.196006677611877 56.43662079978094 0 56.43662079978094 56.9262122145592 0 0 0 0 -13.713662992193804 25.672965476303943 0 25.672965476303943 95.051894039526815 0 0 0 0 -45.312189361031869 11.845872531146597 0 11.845872531146597 95.977539992469246 0 0 0 0 39.009386179050125 11.675283890574065 0 11.675283890574065 67.732773912648554 0 0 0 0 43.073799475163469 27.81943519856577 0 27.81943519856577 60.810531713679666 0 0 0 0 8.966306238521156 46.43636279313796 0 46.43636279313796 133.10081440140493 0 0 0 0 -8.5068738616382689 18.711211557441857 0 18.711211557441857 94.412972853737301 0 0 0 0 -90.886920099667805 -2.4872700812629773 0 -2.4872700812629773 146.35616124278749 0 0 0 0 -39.255367955361294 28.778337314452983 0 28.778337314452983 45.594202102452982 0 0 0 0 -83.117484727859846 -25.11243305800599 0 -25.11243305800599 107.94179895114212 0 0 0 0 -87.223610551016804 -17.859976358169661 0 -17.859976358169661 160.72009489331685 0 0 0 0 -1.5446219777279966 9.7105465790593257 0 9.7105465790593257 99.340708256573294 0 0 0 0 -163.91467534137064 11.577288924061577 0 11.577288924061577 -148.64623968742671 0 0 0 0 482.49876974748804 148.54393212430296 0 148.54393212430296 -361.31105974185994 0 0 0 0 -170.67843645850735 98.085191863345244 0 98.085191863345244 1021.6070917636316 0 0 0 0 -203.97315024928321 328.07611803593136 0 328.07611803593136 646.13861586792336 0 0 0 0 0.13912957945156357 0.65579066083188398 0 0.65579066083188398 4.1827319695899376 0 0 0 0 -212.37239843520501 -31.053532085638835 0 -31.053532085638835 22.07498412473069 0 0 0 0 -3.4932831023549968 13.25042692026096 0 13.25042692026096 93.6955110797944 0 0 0 0 -210.80035633502655 73.724897565396532 0 73.724897565396532 141.43603781901038 0 0 0 0 -0.91043936929236224 3.3517013211894664 0 3.3517013211894664 7.1164831332571339 0 0 0 0 -0.49363223871221962 1.6582735416290149 0 1.6582735416290149 4.544122631212133 0 0 0 0 2.6272259334035653 6.4903849702322987 0 6.4903849702322987 18.53730591047497 0 0 0 0 -1.2014728965389345 -2.0262358107293181 0 -2.0262358107293181 0.13516397477734188 0 0 0 0 24.153516703566311 -70.929995020629576 0 -70.929995020629576 279.58739541257091 0 0 0 0 10.450739844261307 -36.502631061151988 0 -36.502631061151988 247.53125250680023 0 0 0 0 -5.7344830723586711 -59.345477881310217 0 -59.345477881310217 271.34595032332072 0 0 0 0 5.5945667915962076 -65.443856630092341 0 -65.443856630092341 250.79487654590775 0 0 0 0 15.375086779334197 -53.921512423999957 0 -53.921512423999957 205.61049870385614 0 0 0 0 -0.18807686929977763 7.5496863826033405 0 7.5496863826033405 0.40913798335532192 0 0 0 0 -1.4422068989715182 -1.5797927948685526 0 -1.5797927948685526 -0.35768086501120422 0 0 0 0 -8.8909416689348291 -2.9361208418486058 0 -2.9361208418486058 19.572503488470829 0 0 0 0 -5.0012226059300247 -53.213854710535088 0 -53.213854710535088 229.35671374695085 0 0 0 0 -9.6572422035610543 -11.813627689170971 0 -11.813627689170971 25.050586277531693 0 0 0 0 -1.3637614192047547 -0.89349841731508661 0 -0.89349841731508661 -0.10776851552488154 0 0 0 0 26.589377418498543 -46.134828779495365 0 -46.134828779495365 167.94316574409459 0 0 0 0 25.158063859681533 -42.022934998050914 0 -42.022934998050914 114.75390468864134 0 0 0 0 -30.751718523136333 -9.6356469273086987 0 -9.6356469273086987 138.04179570628185 0 0 0 0 0.65723653372219815 -16.500312422969728 0 -16.500312422969728 33.139714145756443 0 0 0 0 41.505067508577667 8.8369236006765277 0 8.8369236006765277 15.842437554485514 0 0 0 0 42.801666921189735 5.2854275937534112 0 5.2854275937534112 25.167432985414052 0 0 0 0 84.964508285553165 32.972825631382875 0 32.972825631382875 18.143408531414025 0 0 0 0 62.833082179515031 36.009549125534704 0 36.009549125534704 43.402399737708038 0 0 0 0 9.0900790173782298 -30.564547901245533 0 -30.564547901245533 -59.072053727024468 0 0 0 0 27.005935281073107 9.3643150314455852 0 9.3643150314455852 -2.2535192750801798 0 0 0 0 64.457136685500075 18.223604670754412 0 18.223604670754412 -10.714885153312935 0 0 0 0 -7.3625452700671303 -7.1482502134895185 0 -7.1482502134895185 20.568903907122149 0 0 0 0 -5.5301143844517355 1.2222151962823773 0 1.2222151962823773 1.6221368062542751 0 0 0 0 74.071000566457087 -40.585175145777612 0 -40.585175145777612 38.46806132682832 0 0 0 0 -32.066749723299836 -10.10131800823001 0 -10.10131800823001 30.749167773094086 0 0 0 0 -75.214923715388977 -9.0292382404877571 0 -9.0292382404877571 11.296680497580383 0 0 0 0 -57.172528765610878 42.156626875628717 0 42.156626875628717 -7.5745411297657483 0 0 0 0 0.21050495619379106 0.47643039841823054 0 0.47643039841823054 1.5341797161677277 0 0 0 0 7.2037054020838696 1.8821214292547666 0 1.8821214292547666 1.1107955523766577 0 0 0 0 0.74239961303716129 0.97127883555894812 0 0.97127883555894812 2.3703715785094062 0 0 0 0 -18.454858718987452 9.3334040833815379 0 9.3334040833815379 -9.5221799821738387 0 0 0 0 -2.3063399926911643 -7.9842550363919145 0 -7.9842550363919145 13.930492906103609 0 0 0 0 2.0339072571641736 -4.3222687663328543 0 -4.3222687663328543 7.2516940835921559 0 0 0 0 -18.110798446354238 2.083722174524155 0 2.083722174524155 11.653501072825748 0 0 0 0 -14.120132342007423 13.329207367708477 0 13.329207367708477 5.6927785374282394 0 0 0 0 -0.22897610653286904 1.4153086189117232 0 1.4153086189117232 3.7558983356493627 0 0 0 0 7.0543025423248764 -2.6121280356892385 0 -2.6121280356892385 12.804914296226343 0 0 0 0 0.95562866357580667 0.20890017974944897 0 0.20890017974944897 1.064127924206332 0 0 0 0 80.391991990329188 -84.470819087335258 0 -84.470819087335258 72.292096233642951 0 0 0 0 69.37209241925666 -39.864154542614415 0 -39.864154542614415 60.656520582198937 0 0 0 0 69.592619203533104 -87.751406979790772 0 -87.751406979790772 145.42759074026253 0 0 0 0 56.435374790102287 -68.726062222362089 0 -68.726062222362089 82.344156321123592 0 0 0 0 86.088975515950551 -76.533541534303367 0 -76.533541534303367 78.555612497249967 0 0 0 0 67.508621716155176 -68.825554540686426 0 -68.825554540686426 140.75027292918821 0 0 0 0 61.942439794953088 -76.668443087660307 0 -76.668443087660307 72.29194125426875 0 0 0 0 3.0500324858803651 -14.239312332560075 0 -14.239312332560075 2.2190928589479881 0 0 0 0 0.49111044749945165 0.23493291836224728 0 0.23493291836224728 0.25527271539453977 0 0 0 0 76.832222740441011 -78.745102009628681 0 -78.745102009628681 72.454519586550305 0 0 0 0 61.658361014909133 1.2239623073401162 0 1.2239623073401162 316.29977196649997 0 0 0 0 53.586241139609228 -38.087206281015824 0 -38.087206281015824 314.66726191413181 0 0 0 0 70.897236924311301 -43.098541217377715 0 -43.098541217377715 203.24532619171077 0 0 0 0 76.734119200392342 -66.578437205433147 0 -66.578437205433147 139.3003490553474 0 0 0 0 56.664336950554116 -35.323955472267698 0 -35.323955472267698 227.88033807356987 0 0 0 0 52.103733654466396 -85.816895110692712 0 -85.816895110692712 199.1705749292596 0 0 0 0 53.65948971155558 -54.576631336240098 0 -54.576631336240098 230.8441138213675 0 0 0 0 62.024959674316051 -67.549207116622711 0 -67.549207116622711 200.92605423906934 0 0 0 0 67.711261228841067 10.016369592041883 0 10.016369592041883 311.95353031318882 0 0 0 0 54.848474309111225 14.840325801873405 0 14.840325801873405 406.31035490498471 0 0 0 0 46.544526629960274 -36.353454376021546 0 -36.353454376021546 341.54656280076597 0 0 0 0 53.730288605952865 -1.4320044186279119 0 -1.4320044186279119 329.63119008521608 0 0 0 0 78.62374324294251 32.459613282342616 0 32.459613282342616 393.6447928705893 0 0 0 0 153.01461219518023 -5.3890307980909711 0 -5.3890307980909711 393.04025463985454 0 0 0 0 126.26875507342584 37.087699998577591 0 37.087699998577591 487.30483633566473 0 0 0 0 79.925983682425795 -39.636957105976762 0 -39.636957105976762 368.89581401380201 0 0 0 0 49.402265684488839 -47.923416240399092 0 -47.923416240399092 396.0698768159782 0 0 0 0 77.233612084879496 -70.396958131954307 0 -70.396958131954307 308.52674889082846 0 0 0 0 89.670927544328151 -187.75497825341881 0 -187.75497825341881 237.82650195046153 0 0 0 0 12.127482666165633 -15.533422885149776 0 -15.533422885149776 8.4159929561865283 0 0 0 0 94.135321012651389 -152.97163779950733 0 -152.97163779950733 411.76797813450685 0 0 0 0 65.024481823291126 -72.785189045469451 0 -72.785189045469451 494.99806824355619 0 0 0 0 -0.34861970289419908 0.1059033906984439 0 0.1059033906984439 1.206028879909212 0 0 0 0 21.248452266198001 98.493436975360964 0 98.493436975360964 406.34816489185323 0 0 0 0 0.38627280385583873 0.55780044265844708 0 0.55780044265844708 0.68714784654594041 0 0 0 0 89.873551866714479 112.7486482069944 0 112.7486482069944 -20.477282014326192 0 0 0 0 56.126943022394698 24.992360460542841 0 24.992360460542841 -72.318200767360395 0 0 0 0 99.894005898130672 70.468602079730772 0 70.468602079730772 -27.474924902722705 0 0 0 0 111.94101676227547 64.618792952678632 0 64.618792952678632 17.713402347690135 0 0 0 0 87.670824350875591 74.29392335952798 0 74.29392335952798 64.923040788824437 0 0 0 0 126.21398895081256 179.15588531226967 0 179.15588531226967 88.880362819472793 0 0 0 0 42.636718200995347 172.51662454242978 0 172.51662454242978 378.53028895515308 0 0 0 0 153.26964873902034 30.140770807010995 0 30.140770807010995 429.74470798832772 0 0 0 0 153.7655217435132 30.699043807381713 0 30.699043807381713 355.08327945735073 0 0 0 0 174.63339660983638 41.036379487002705 0 41.036379487002705 401.59411900371197 0 0 0 0 200.37270832694048 55.150871132704196 0 55.150871132704196 404.99611958132482 0 0 0 0 100.26271707363094 34.381692942934023 0 34.381692942934023 530.19316909160989 0 0 0 0 0.48604080843850284 0.97501503100437503 0 0.97501503100437503 0.7639089031487174 0 0 0 0 25.960042639691437 163.26367224143178 0 163.26367224143178 36.934918178172666 0 0 0 0 83.02715938683059 -193.2904352545811 0 -193.2904352545811 505.53864098372696 0 0 0 0 -69.563503397484055 -53.917526590954367 0 -53.917526590954367 103.46452459749707 0 0 0 0 -98.604912953243911 -144.45675022437354 0 -144.45675022437354 80.692114589819539 0 0 0 0 13.226427976619561 -51.051155313100026 0 -51.051155313100026 45.272936951500014 0 0 0 0 37.410627599727377 13.168601207064057 0 13.168601207064057 190.49759918739437 0 0 0 0 120.96693890968618 -25.935698949429934 0 -25.935698949429934 165.25874605949502 0 0 0 0 123.77751150620497 -63.082035384737537 0 -63.082035384737537 115.58952148746175 0 0 0 0 118.64346427302371 -105.1151491549972 0 -105.1151491549972 312.87616733319737 0 0 0 0 138.76813906328971 -0.28831318055017618 0 -0.28831318055017618 201.55802424641297 0 0 0 0 75.255402119791142 41.259612298388674 0 41.259612298388674 417.80636089519612 0 0 0 0 73.062572970673386 63.444296720900638 0 63.444296720900638 339.20839007591712 0 0 0 0 28.17863532515571 138.98191053564915 0 138.98191053564915 257.23115204619535 0 0 0 0 126.04309201206411 -14.931238444287374 0 -14.931238444287374 358.06573222493171 0 0 0 0 86.900400648248251 15.993916536397592 0 15.993916536397592 337.62751636697067 0 0 0 0 103.8536953719954 44.066285473112657 0 44.066285473112657 269.04503621905315 0 0 0 0 145.18345244025113 -90.833239460811456 0 -90.833239460811456 413.1556837410717 0 0 0 0 149.05214781038467 -40.818587502626542 0 -40.818587502626542 337.76209455648495 0 0 0 0 144.09236216827776 -33.715087615586526 0 -33.715087615586526 349.67311853760475 0 0 0 0 138.71899807963018 -87.881738234154909 0 -87.881738234154909 413.70655863894353 0 0 0 0 88.658915177547897 -13.883030429627979 0 -13.883030429627979 376.18412969347264 0 0 0 0 103.58846593647922 -30.079876313749992 0 -30.079876313749992 315.12515423538571 0 0 0 0 -69.717610238762973 7.4192098739476933 0 7.4192098739476933 250.40251323451594 0 0 0 0 -38.402951920074429 47.633779110969044 0 47.633779110969044 263.37614747002954 0 0 0 0 -128.45240692932612 29.241254062908411 0 29.241254062908411 278.6935846699198 0 0 0 0 -71.508274757472464 -5.0486289149121149 0 -5.0486289149121149 232.20594806240115 0 0 0 0 -18.232483947456785 56.362744447487785 0 56.362744447487785 135.1920941209828 0 0 0 0 -3.2168914883949435 22.102132079899928 0 22.102132079899928 139.92798019952502 0 0 0 0 -114.86324169606291 72.429130482134497 0 72.429130482134497 320.24914190898562 0 0 0 0 -7.8896883451402573 -33.438825857796473 0 -33.438825857796473 172.55940559281589 0 0 0 0 -15.949598323746613 73.566154158266727 0 73.566154158266727 -102.44068204262294 0 0 0 0 -14.836069024786486 32.32025814792209 0 32.32025814792209 23.087077472947243 0 0 0 0 -100.39449347499385 49.072459998833438 0 49.072459998833438 98.783974031372054 0 0 0 0 -0.020271196653551371 5.5405052398420116 0 5.5405052398420116 52.69260885876227 0 0 0 0 -20.052838963091091 -47.693230856598923 0 -47.693230856598923 195.43167496867267 0 0 0 0 88.446520838842844 -38.068300418759463 0 -38.068300418759463 142.12080768635496 0 0 0 0 -102.66437118321801 41.96715796724402 0 41.96715796724402 113.9446931599814 0 0 0 0 -71.597330145616525 26.428098297768884 0 26.428098297768884 168.85322654698393 0 0 0 0 -98.731433758670391 -6.8133874055129127 0 -6.8133874055129127 199.89058336091693 0 0 0 0 -61.28715315678437 71.281362171415822 0 71.281362171415822 104.80941990569409 0 0 0 0 -0.13996716861651315 -6.558795467603602 0 -6.558795467603602 39.052444777236431 0 0 0 0 -150.66836177290566 10.682130840843456 0 10.682130840843456 232.97820138931274 0 0 0 0 26.397603089142649 60.359138183877803 0 60.359138183877803 139.15093886921386 0 0 0 0 -46.406532913156752 27.994682994471077 0 27.994682994471077 219.06290731479385 0 0 0 0 -25.080645603737906 55.903498385423745 0 55.903498385423745 247.65776102532982 0 0 0 0 -47.901705926538398 17.005162872839719 0 17.005162872839719 156.75872917037486 0 0 0 0 102.93935421479011 114.46859803918233 0 114.46859803918233 127.08668409305392 0 0 0 0 49.570495810043212 79.373959167765861 0 79.373959167765861 175.30227976624883 0 0 0 0 24.653210883953477 49.754009260603198 0 49.754009260603198 147.18087994604139 0 0 0 0 49.863392145033686 103.51771339028346 0 103.51771339028346 199.49824343786895 0 0 0 0 -24.00624093568058 38.89366243351833 0 38.89366243351833 292.85776739591529 0 0 0 0 84.500481262353787 -4.9945949956600089 0 -4.9945949956600089 359.67201407443281 0 0 0 0 -7.2393759108326776 -56.719494684453821 0 -56.719494684453821 274.4519767966849 0 0 0 0 0.50308461241911573 19.324113061513344 0 19.324113061513344 405.40856763943157 0 0 0 0 65.737136731545434 42.193722989351954 0 42.193722989351954 395.5804578861862 0 0 0 0 2.7397671546132187 14.526040279582958 0 14.526040279582958 270.01734513365227 0 0 0 0 54.060810413313902 -48.70378437223917 0 -48.70378437223917 385.52744883482228 0 0 0 0 -42.29206643566431 12.469586689676362 0 12.469586689676362 329.76701690381742 0 0 0 0 -59.028610289935841 -24.528206292343384 0 -24.528206292343384 255.04141899541537 0 0 0 0 -72.286944159270206 6.5078580806184618 0 6.5078580806184618 251.97669742428116 0 0 0 0 -11.573897539590689 -90.305719427149597 0 -90.305719427149597 299.45221478964959 0 0 0 0 -30.508691635246805 -41.565215775583056 0 -41.565215775583056 187.02496238733875 0 0 0 0 58.907081676700727 -102.74095021565154 0 -102.74095021565154 149.10221765601091 0 0 0 0 -2.0072863589084591 -29.162291329739674 0 -29.162291329739674 403.02504556167696 0 0 0 0 81.772482318307027 -176.37197467566148 0 -176.37197467566148 283.99739441165002 0 0 0 0 0.094187479865407653 -3.4564347903199746 0 -3.4564347903199746 11.684102420273518 0 0 0 0 -85.86688251700366 -21.001837651319875 0 -21.001837651319875 49.087471459046355 0 0 0 0 6.9653686745846244 -36.731111508703179 0 -36.731111508703179 128.74450471839191 0 0 0 0 2.1230328501858207 -27.268900061402078 0 -27.268900061402078 11.9092575438927 0 0 0 0 9.9770085944753646 -40.394943100845921 0 -40.394943100845921 124.93202166835545 0 0 0 0 20.591283964716695 -76.674206448060431 0 -76.674206448060431 188.51310435265509 0 0 0 0 -13.300818508796056 -6.0760262537432936 0 -6.0760262537432936 193.29027399439656 0 0 0 0 -6.85642637369574 -28.381481161287411 0 -28.381481161287411 199.97032596901408 0 0 0 0 -30.632417794682624 -34.417952591524227 0 -34.417952591524227 217.74141555881579 0 0 0 0 -23.116266425815866 -23.462014653341612 0 -23.462014653341612 171.13856520508125 0 0 0 0 -40.60994114501591 -20.665110516427376 0 -20.665110516427376 202.87262958371139 0 0 0 0 -10.777022544398278 -9.2437372066706303 0 -9.2437372066706303 53.911669659901236 0 0 0 0 -5.3110187833165474 -18.012968269758986 0 -18.012968269758986 28.672289580071286 0 0 0 0 1.9138381938746942 -23.486394458748265 0 -23.486394458748265 34.936672486400795 0 0 0 0 -34.621564061736535 -6.6415934901087894 0 -6.6415934901087894 216.29841538144683 0 0 0 0 0.89737687165506941 16.367725428484846 0 16.367725428484846 157.84239271755723 0 0 0 0 10.647782554537571 -20.9149530601062 0 -20.9149530601062 57.252833052434653 0 0 0 0 6.3487152709876682 2.0255947779187409 0 2.0255947779187409 78.661939243664165 0 0 0 0 -6.6419959514428228 -9.9199133241472737 0 -9.9199133241472737 122.69723018741206 0 0 0 0 -4.5061701866439137 -35.425912691618578 0 -35.425912691618578 159.49064161616297 0 0 0 0 6.1953176909453305 -21.966027946054965 0 -21.966027946054965 124.46134910714318 0 0 0 0 -1.3268413096920995 -0.021383843837156746 0 -0.021383843837156746 141.15974590603946 0 0 0 0 22.635972252765896 -8.4827827862118284 0 -8.4827827862118284 113.9658902484407 0 0 0 0 24.222049146191239 -9.0582074741778342 0 -9.0582074741778342 61.004945065858919 0 0 0 0 3.9436759282665079 -24.038197287079171 0 -24.038197287079171 37.319016489764465 0 0 0 0 2.2942646341712134 -4.0347755490220152 0 -4.0347755490220152 86.407535803200517 0 0 0 0 6.0899875229242753 -10.916096029788605 0 -10.916096029788605 61.195228133394266 0 0 0 0 -2.3453166744091174 -1.3243998250719073 0 -1.3243998250719073 38.17165937648906 0 0 0 0 -2.5511022351213413 11.95885239571956 0 11.95885239571956 20.269597610588875 0 0 0 0 2.7419343709175337 -15.358612234042084 0 -15.358612234042084 57.946754417127522 0 0 0 0 5.3564065538212091 -13.837002595428643 0 -13.837002595428643 13.443979495817132 0 0 0 0 -21.234217804300897 -29.420493809811887 0 -29.420493809811887 38.218817308359576 0 0 0 0 248.7837457166097 -443.59274068360173 0 -443.59274068360173 260.66893377521228 0 0 0 0 215.24105460816145 -292.86481749788072 0 -292.86481749788072 485.6133503205383 0 0 0 0 1027.934836513663 -1478.118290035869 0 -1478.118290035869 857.66068579629791 0 0 0 0 -506.22197587489791 -341.29797678264913 0 -341.29797678264913 1026.8492683433724 0 0 0 0 -20.038744456994042 28.073869980271951 0 28.073869980271951 52.60630904397938 0 0 0 0 -11.157915944419074 9.6880868461958016 0 9.6880868461958016 29.693084706363152 0 0 0 0 -6.0218628461702703 19.101458487957714 0 19.101458487957714 36.492189437281127 0 0 0 0 -0.66123118113541146 9.3542166567766714 0 9.3542166567766714 65.449377262725477 0 0 0 0 -4.6163432579538934 2.0951076754359121 0 2.0951076754359121 12.985407528743039 0 0 0 0 -171.72689598723719 -362.98259146898636 0 -362.98259146898636 -684.33591071480623 0 0 0 0 855.19395579782577 923.03193491462298 0 923.03193491462298 711.18747683377296 0 0 0 0 470.30910229303208 747.43430701828038 0 747.43430701828038 138.39052706086659 0 0 0 0 64.342862963773314 -550.15327907674509 0 -550.15327907674509 631.69210734948319 0 0 0 0 359.81281981592269 -1213.3350086317041 0 -1213.3350086317041 1445.6390903352185 0 0 0 0 -274.22767844326609 -218.82241182184589 0 -218.82241182184589 2494.3362064017711 0 0 0 0 1.93668500466192 -9.1790250676208238 0 -9.1790250676208238 25.256174012345241 0 0 0 0 -800.39596505249347 149.70501619646893 0 149.70501619646893 1166.6925660353591 0 0 0 0 -360.7104067574096 -750.92227932058086 0 -750.92227932058086 2095.4160929967038 0 0 0 0 -343.94180101531583 289.3652046605348 0 289.3652046605348 178.7504953319949 0 0 0 0 864.392413445182 -936.55858070367503 0 -936.55858070367503 454.95148056797188 0 0 0 0 106.55683643240945 48.805874825029605 0 48.805874825029605 -289.97140035144548 0 0 0 0 415.57449144599377 -777.74898444259088 0 -777.74898444259088 1136.9446273686899 0 0 0 0 369.51099475224828 -459.56662252896058 0 -459.56662252896058 552.26034634345888 0 0 0 0 -104.18472206209782 188.38126239474786 0 188.38126239474786 780.09594035096234 0 0 0 0 879.57152088875046 -1140.6942081671805 0 -1140.6942081671805 915.37026890045308 0 0 0 0 -4.7236806288996895 0.74327224077327259 0 0.74327224077327259 12.383011851691094 0 0 0 0 -112.64578553626103 -18.425856911681308 0 -18.425856911681308 -39.101162286504405 0 0 0 0 -28.377768245682894 36.237601660510421 0 36.237601660510421 53.451826259672657 0 0 0 0 -19.050920895671879 85.048189950990491 0 85.048189950990491 -85.166102843955741 0 0 0 0 -3.536174776181042 -438.06872993930483 0 -438.06872993930483 1002.5497636264408 0 0 0 0 -3.5988949349029573 15.54062544654056 0 15.54062544654056 8.6167689336377578 0 0 0 0 454.75634836856534 -766.88432747097613 0 -766.88432747097613 880.42939501650108 0 0 0 0 273.43465977343521 -942.36969443559701 0 -942.36969443559701 733.59114371518081 0 0 0 0 189.22233414317907 -172.2177501148617 0 -172.2177501148617 589.26454025000567 0 0 0 0 138.18193822094258 -41.656196349965967 0 -41.656196349965967 488.7267273575344 0 0 0 0 262.10452935207513 -82.223292317450614 0 -82.223292317450614 499.25774841642124 0 0 0 0 105.43045930962307 -99.957875254658575 0 -99.957875254658575 498.01658046084049 0 0 0 0 68.60482684587123 -67.922405910292582 0 -67.922405910292582 602.22750227873621 0 0 0 0 97.043289317182825 -11.589930039797764 0 -11.589930039797764 695.32767895705183 0 0 0 0 23.652763529225012 -29.666301213823317 0 -29.666301213823317 702.6062325009043 0 0 0 0 24.150365845085616 -21.482875369048998 0 -21.482875369048998 759.20229957547235 0 0 0 0 -58.029574412851616 -112.49795365743921 0 -112.49795365743921 736.60743371066928 0 0 0 0 -36.362024310129982 -183.18562584950269 0 -183.18562584950269 827.36488958384143 0 0 0 0 -27.271757721605354 -87.560794907418313 0 -87.560794907418313 739.03678557529565 0 0 0 0 62.137733255602143 -160.14758674073528 0 -160.14758674073528 516.65734003295802 0 0 0 0 61.654014218791588 -154.79262054355331 0 -154.79262054355331 572.81358095508767 0 0 0 0 121.14184129289151 -126.15222872868617 0 -126.15222872868617 291.53055218185182 0 0 0 0 105.91836083841827 -155.26517707590756 0 -155.26517707590756 250.11216332102777 0 0 0 0 109.88763014140932 -254.14343001465022 0 -254.14343001465022 459.50746993055509 0 0 0 0 123.75196963403323 -218.42631088213238 0 -218.42631088213238 191.05946594824491 0 0 0 0 136.84333525914008 -456.80273620266235 0 -456.80273620266235 683.40248108253581 0 0 0 0 6.640530891081653 -212.09508642828587 0 -212.09508642828587 709.96751924460114 0 0 0 0 28.105002079110818 -178.69237008267737 0 -178.69237008267737 721.54084262461402 0 0 0 0 111.70198197032096 -253.91166165221512 0 -253.91166165221512 744.63403048524924 0 0 0 0 34.989594326276347 -336.13062057129719 0 -336.13062057129719 964.89771661613122 0 0 0 0 284.09530802386143 -439.43917138848337 0 -439.43917138848337 -67.235881429398432 0 0 0 0 -123.83122066773194 -86.402435580268502 0 -86.402435580268502 -13.041831280337647 0 0 0 0 0.24582420329908139 -1.9741444698508417 0 -1.9741444698508417 5.6547159027933986 0 0 0 0 -0.42764341520348736 -1.7817228216717638 0 -1.7817228216717638 4.8597925827958051 0 0 0 0 -7.022302934936306 44.122902719878766 0 44.122902719878766 22.488861151272431 0 0 0 0 1.6633449526098047 -105.25926959441131 0 -105.25926959441131 -96.642230399622349 0 0 0 0 -20.017077443339531 -252.85120619733789 0 -252.85120619733789 862.48334316007094 0 0 0 0 -238.46444769810978 -154.42165956960525 0 -154.42165956960525 907.22814380753243 0 0 0 0 0.049068437727328273 -231.81458795872095 0 -231.81458795872095 883.70855444148765 0 0 0 0 -76.764538706741405 -473.59971681355091 0 -473.59971681355091 1041.8229541095498 0 0 0 0 -311.8952493030929 -98.668714483199437 0 -98.668714483199437 894.4128121169706 0 0 0 0 -317.22384991798845 18.098789876356022 0 18.098789876356022 882.75338285284715 0 0 0 0 -178.19752152393585 -174.21349383235065 0 -174.21349383235065 360.50322475698385 0 0 0 0 -109.30038196174019 -187.51942037924528 0 -187.51942037924528 -106.32349129339309 0 0 0 0 -167.93385913411385 27.339969587572341 0 27.339969587572341 335.06738294805109 0 0 0 0 15.093804762460422 -199.57854510662582 0 -199.57854510662582 386.79355860672513 0 0 0 0 -176.37838280456253 -127.3527733203955 0 -127.3527733203955 824.94385009535472 0 0 0 0 -116.56971321525157 36.787777004687996 0 36.787777004687996 816.96659915353666 0 0 0 0 360.2062371920195 -289.16494187316766 0 -289.16494187316766 160.99560385068617 0 0 0 0 312.40441450936623 6.0081367115926696 0 6.0081367115926696 -84.949024549303431 0 0 0 0 359.66043259869912 214.12388779910179 0 214.12388779910179 850.3803967524218 0 0 0 0 17.056998203278908 -233.26842382803443 0 -233.26842382803443 905.35800243588938 0 0 0 0 443.96854097944652 -214.02446521779711 0 -214.02446521779711 595.73717675525586 0 0 0 0 110.30951880599241 -73.184127714657734 0 -73.184127714657734 -34.183681730224635 0 0 0 0 109.73851404638253 11.801250428383355 0 11.801250428383355 -31.140387875217129 0 0 0 0 112.12118755101073 -49.011827036738396 0 -49.011827036738396 7.4693437995993008 0 0 0 0 151.64037170262873 -110.44547502590831 0 -110.44547502590831 -33.421723557839869 0 0 0 0 -2.990046101437656 -137.59269170080006 0 -137.59269170080006 -31.069393121498706 0 0 0 0 -132.37855191786139 -129.58428034246754 0 -129.58428034246754 18.749436556892761 0 0 0 0 -121.95460584254943 -191.39054317962291 0 -191.39054317962291 -5.0008536132208974 0 0 0 0 8.7340462192573796 -235.45048792044145 0 -235.45048792044145 57.92307233815518 0 0 0 0 -47.063429870653181 -64.00146107719047 0 -64.00146107719047 183.69085891364375 0 0 0 0 -287.18239082058608 -249.06042719264042 0 -249.06042719264042 -9.9073792366034468 0 0 0 0 -165.81480368643565 -196.94683432783677 0 -196.94683432783677 -25.273108030574804 0 0 0 0 -176.35392468791451 -141.95511016092496 0 -141.95511016092496 -1.619642277204548 0 0 0 0 -213.00753441453435 -182.58152940294531 0 -182.58152940294531 2.4474577892106026 0 0 0 0 -314.60225314758111 -98.184376317365604 0 -98.184376317365604 50.8464640657985 0 0 0 0 -208.20347657154389 -89.673851094903512 0 -89.673851094903512 48.059267179916787 0 0 0 0 -198.76210929968329 -120.29541095208697 0 -120.29541095208697 15.479626892072702 0 0 0 0 -102.94588900338294 -83.412502532535655 0 -83.412502532535655 -18.207174049020978 0 0 0 0 -94.286141861613942 -108.86413255868683 0 -108.86413255868683 -2.3326636570600385 0 0 0 0 -101.40274618090461 -142.65080485167164 0 -142.65080485167164 -18.504189565908746 0 0 0 0 -24.311838224864459 -117.10346350425607 0 -117.10346350425607 -25.377569023607066 0 0 0 0 -131.32836340047015 -113.29866441901686 0 -113.29866441901686 5.8636627311134362 0 0 0 0 82.317520311720727 -57.406150920884102 0 -57.406150920884102 -31.792717867618194 0 0 0 0 -4.194679144683505 -89.526237027688694 0 -89.526237027688694 -26.16019149798376 0 0 0 0 -3.2794903296717166 -90.978352350619389 0 -90.978352350619389 -27.934469281186466 0 0 0 0 25.714830991404597 -69.741643977602507 0 -69.741643977602507 -14.537082409686263 0 0 0 0 24.610879193944584 -43.173222142097075 0 -43.173222142097075 43.310200169515156 0 0 0 0 344.03384405627094 -168.01684807641868 0 -168.01684807641868 99.62317063303999 0 0 0 0 219.67070995784422 -104.7276111903011 0 -104.7276111903011 296.46663058567356 0 0 0 0 480.00347702485851 -344.92540036981154 0 -344.92540036981154 264.0044546986046 0 0 0 0 404.70218604331785 -454.79832442934094 0 -454.79832442934094 333.69797931503126 0 0 0 0 698.87993066129047 -486.31424397223054 0 -486.31424397223054 313.68149050351349 0 0 0 0 530.12136068811026 -244.79261389759267 0 -244.79261389759267 626.67306629017548 0 0 0 0 461.59882549829126 -449.02781334656902 0 -449.02781334656902 322.20379733630398 0 0 0 0 358.92517430777775 -138.61376110931633 0 -138.61376110931633 -109.05587903259584 0 0 0 0 487.32360313869003 -454.50178784728996 0 -454.50178784728996 259.76662486280293 0 0 0 0 276.6034419161665 -562.52167999898666 0 -562.52167999898666 440.14726229686494 0 0 0 0 -646.47234456855153 -242.52585374997943 0 -242.52585374997943 95.266351466118067 0 0 0 0 2.103423881246262 -17.197205084290193 0 -17.197205084290193 66.268596649361854 0 0 0 0 -874.77006976335451 -299.55960473433697 0 -299.55960473433697 296.00018056627596 0 0 0 0 -29.746795079301592 -348.89451574424493 0 -348.89451574424493 -301.79893484389686 0 0 0 0 -47.926995038616951 -136.35206197851585 0 -136.35206197851585 176.78491774623035 0 0 0 0 221.56923849438635 -96.693834688103379 0 -96.693834688103379 -91.08434247643163 0 0 0 0 -65.753855892909542 -453.44662104251302 0 -453.44662104251302 681.16105516794778 0 0 0 0 -2.6338966827114234 270.87385486085248 0 270.87385486085248 272.07720646812231 0 0 0 0 -1028.0225023324886 -422.73606640886692 0 -422.73606640886692 1155.1279770775363 0 0 0 0 -450.99565277026886 -207.25985173210574 0 -207.25985173210574 80.448732226643187 0 0 0 0 -828.42879560776419 277.58844892756133 0 277.58844892756133 162.8029636903002 0 0 0 0 2.3544077304776136 -18.473374457497062 0 -18.473374457497062 88.316228731855148 0 0 0 0 -0.52143558399148349 0.59360011566243642 0 0.59360011566243642 2.7304406507493724 0 0 0 0 406.46035189284976 160.79538866909206 0 160.79538866909206 -793.60958466350712 0 0 0 0 30.786748040870719 -100.16323155600173 0 -100.16323155600173 2.2678609896101989 0 0 0 0 -865.85024304521448 342.01512916800857 0 342.01512916800857 323.52989327575415 0 0 0 0 -1.0221312113238894 1.6824022188758647 0 1.6824022188758647 10.04805788137611 0 0 0 0 -69.075706812263888 693.45727544194779 0 693.45727544194779 219.80867606886204 0 0 0 0 -200.52009497635913 -179.37965131090732 0 -179.37965131090732 616.32380849081858 0 0 0 0 -37.035367088786302 -297.71779009975762 0 -297.71779009975762 292.0777591849801 0 0 0 0 110.90260710431758 -52.246459969949711 0 -52.246459969949711 274.95172872297553 0 0 0 0 -6.1953025566504039 46.325388215813291 0 46.325388215813291 643.38852698969367 0 0 0 0 108.96218883806068 -218.6027301941358 0 -218.6027301941358 352.21369154194508 0 0 0 0 265.21282756944402 -354.50710413868001 0 -354.50710413868001 458.48700165548144 0 0 0 0 -30.896399014649433 -222.23566297683465 0 -222.23566297683465 459.49198453393461 0 0 0 0 329.77746665247105 -416.88326913376113 0 -416.88326913376113 475.31177877941445 0 0 0 0 79.882246664200011 -478.1263338355202 0 -478.1263338355202 612.36014219178105 0 0 0 0 301.91632745684183 -423.61363938240356 0 -423.61363938240356 760.47839826536529 0 0 0 0 850.84909811199759 -571.53401300670521 0 -571.53401300670521 818.10165994797626 0 0 0 0 1325.1640682496873 -1177.0783252717356 0 -1177.0783252717356 1233.9774109505743 0 0 0 0 1164.6669414255011 -842.49352496930078 0 -842.49352496930078 697.42088739067731 0 0 0 0 1127.7376648381323 -613.30771362317682 0 -613.30771362317682 419.98547243916255 0 0 0 0 1596.6810872486967 -438.17935658743045 0 -438.17935658743045 347.60903761904046 0 0 0 0 1100.4258761385149 -410.69924327996523 0 -410.69924327996523 360.78837973058398 0 0 0 0 802.81278446922079 -575.75080861800961 0 -575.75080861800961 523.16570861480068 0 0 0 0 694.97743844122306 -675.68891114324651 0 -675.68891114324651 582.43637653991573 0 0 0 0 691.20318909123671 -453.86405205429037 0 -453.86405205429037 362.69704514744262 0 0 0 0 1003.320241714071 -462.89462054336764 0 -462.89462054336764 285.77901771692996 0 0 0 0 459.92550387955453 -607.13812475649866 0 -607.13812475649866 579.74807082599364 0 0 0 0 227.20139181415516 -419.21740617039632 0 -419.21740617039632 433.67445573161967 0 0 0 0 421.70836885531753 -485.6314806253813 0 -485.6314806253813 441.00810616259332 0 0 0 0 63.099964400533281 -548.77928414145299 0 -548.77928414145299 1378.7860435196053 0 0 0 0 318.96046242742887 -887.11144154239082 0 -887.11144154239082 1094.9541618727608 0 0 0 0 314.81792606297677 -898.84675243523998 0 -898.84675243523998 1468.286339228207 0 0 0 0 218.61890733447217 -776.42777815582576 0 -776.42777815582576 1363.681427708194 0 0 0 0 114.98333118645951 -731.00915171881525 0 -731.00915171881525 1708.8824813193569 0 0 0 0 -4444.1240228221386 2001.9531270195921 0 2001.9531270195921 -4700.3733227760076 0 0 0 0 -2.2271663212055639 6.0979724195529563 0 6.0979724195529563 34.773545749084668 0 0 0 0 1328.6792126106011 -1467.5914446322067 0 -1467.5914446322067 1200.3322668449946 0 0 0 0 217.8819904037129 -1560.3273110092869 0 -1560.3273110092869 2929.2068464207277 0 0 0 0 2774.2594178629315 -1416.5303223064311 0 -1416.5303223064311 638.81279848913255 0 0 0 0 2307.5141633513194 -666.26451717646705 0 -666.26451717646705 340.43368078514322 0 0 0 0 1006.9815589963473 -474.60683503413566 0 -474.60683503413566 323.10920464816081 0 0 0 0 -137.4068137693198 1292.6204961449557 0 1292.6204961449557 -1795.9767481127601 0 0 0 0 -33.08885912147889 582.6981900434721 0 582.6981900434721 2020.0727221853231 0 0 0 0 -6.4464221374856585 6.4728852150685476 0 6.4728852150685476 110.62651151203914 0 0 0 0 -4050.4281857573469 -424.58993037052051 0 -424.58993037052051 8421.4139920617999 0 0 0 0 -352.91643817906879 -178.62619046109648 0 -178.62619046109648 3469.400954451813 0 0 0 0 97.962408795316151 -302.80981360250462 0 -302.80981360250462 424.16072886504844 0 0 0 0 -122.30047749232517 278.12783232044058 0 278.12783232044058 404.012359876142 0 0 0 0 5.1480600285558467 -254.22713194008247 0 -254.22713194008247 653.46949322191631 0 0 0 0 -248.4749232367376 -53.817533364422161 0 -53.817533364422161 1512.6524187608265 0 0 0 0 51.95031648544682 -73.443891269456799 0 -73.443891269456799 -23.202352517415989 0 0 0 0 -1.5563095220574936 -2.2658902926027871 0 -2.2658902926027871 -1.4411569883575481 0 0 0 0 55.895981616694371 116.38966423074726 0 116.38966423074726 -103.19581847041081 0 0 0 0 -124.83380044106889 -3.4509136612123257 0 -3.4509136612123257 176.98131957077567 0 0 0 0 -8.7565272445550022 -12.264204742150064 0 -12.264204742150064 -13.358308355794845 0 0 0 0 122.85150791856495 -32.641446279817501 0 -32.641446279817501 -83.071512457974677 0 0 0 0 919.43815905670181 96.382235202279389 0 96.382235202279389 -1635.7417614497299 0 0 0 0 464.2577880522249 131.15417423807139 0 131.15417423807139 165.92903001441664 0 0 0 0 75.728647361970616 -799.82648708654415 0 -799.82648708654415 -1595.542630845106 0 0 0 0 47.665252991795569 -383.33215774368273 0 -383.33215774368273 121.29921017159973 0 0 0 0 245.12834955761446 -165.31486858520202 0 -165.31486858520202 5.653033672158017 0 0 0 0 -372.01783571484521 297.04795215634704 0 297.04795215634704 290.10967833280483 0 0 0 0 480.0726916753174 -951.31592516643195 0 -951.31592516643195 1084.7079736295636 0 0 0 0 43.33513940013836 -15.350095573125145 0 -15.350095573125145 -64.304199176626753 0 0 0 0 7.0105589440600902 -2.1923560572445666 0 -2.1923560572445666 -6.0486347956758379 0 0 0 0 20.773045430309594 -11.782162564871498 0 -11.782162564871498 -35.569190048015571 0 0 0 0 2.4617509641602737 -30.542320024492483 0 -30.542320024492483 32.833565032274237 0 0 0 0 -4.1282066593835118 -6.0385837849099557 0 -6.0385837849099557 2.3710977723569906 0 0 0 0 -0.42968943954456318 -23.811697218470655 0 -23.811697218470655 -25.419982110091453 0 0 0 0 563.669940871363 -458.02812784419439 0 -458.02812784419439 293.21599349157623 0 0 0 0 487.36255131576218 -504.34999716320817 0 -504.34999716320817 356.50164705609859 0 0 0 0 460.72544378690145 -426.0066277038386 0 -426.0066277038386 284.45730038681359 0 0 0 0 -7.5884798484173501 6.1394756799398298 0 6.1394756799398298 149.5584670693766 0 0 0 0 -1338.2059973558808 -9.0921684081349667 0 -9.0921684081349667 502.19181570661931 0 0 0 0 551.84143803984807 -359.54422776780848 0 -359.54422776780848 288.84343751013876 0 0 0 0 529.40758032299163 -376.73722130079477 0 -376.73722130079477 275.72673033139472 0 0 0 0 351.11349165179854 -182.23877079217891 0 -182.23877079217891 143.52218728443404 0 0 0 0 307.17060007787563 -440.87501704546639 0 -440.87501704546639 422.25851896197128 0 0 0 0 266.93698894595218 -338.35819010769046 0 -338.35819010769046 296.53479880335362 0 0 0 0 326.48426807116994 -680.20467928686412 0 -680.20467928686412 734.19823331097723 0 0 0 0 140.86477949157052 168.767443212133 0 168.767443212133 71.414989433513256 0 0 0 0 30.4263761747643 -347.78082848036865 0 -347.78082848036865 475.50139181263512 0 0 0 0 -14.664450900816519 8.9337875459405041 0 8.9337875459405041 196.98176987005718 0 0 0 0 10.328576816308669 -54.589408902447758 0 -54.589408902447758 180.05491479836928 0 0 0 0 -30.157852893919486 31.88895567881999 0 31.88895567881999 59.593588196376615 0 0 0 0 3.3150274015151808 -33.837046445341002 0 -33.837046445341002 120.12827799334991 0 0 0 0 -0.84713661014848185 -11.445181297500312 0 -11.445181297500312 231.06879675178061 0 0 0 0 80.005491044997598 -24.005362891222831 0 -24.005362891222831 130.62732595099078 0 0 0 0 82.986782922283965 -142.43780036132739 0 -142.43780036132739 180.57496673224796 0 0 0 0 -3.3258830670449129 1.08799328751252 0 1.08799328751252 0.14640597732073957 0 0 0 0 -114.59833703544246 -161.95176115556023 0 -161.95176115556023 457.0171174750285 0 0 0 0 -17.63683389264094 8.5405887324521768 0 8.5405887324521768 165.53041898292062 0 0 0 0 6.374315951976314 -70.648550566428639 0 -70.648550566428639 113.74743697807207 0 0 0 0 -320.56397139102592 -112.71611397817333 0 -112.71611397817333 274.42840041178897 0 0 0 0 -14.514471944087363 -41.107632582653252 0 -41.107632582653252 -5.5588731697283311 0 0 0 0 -3.6108595855821477 -87.676508974423086 0 -87.676508974423086 90.347328059886422 0 0 0 0 -50.017599545805751 -65.332827984627329 0 -65.332827984627329 93.922413401839549 0 0 0 0 -5.1796685288774142 -39.822597210910715 0 -39.822597210910715 -29.46914369708557 0 0 0 0 -0.79565407381943642 -24.009272996245649 0 -24.009272996245649 50.849586296517067 0 0 0 0 -15.634997871242376 -28.29306106624631 0 -28.29306106624631 42.448757619894877 0 0 0 0 -3.5022133391785246 -30.352708712781578 0 -30.352708712781578 32.916062747164233 0 0 0 0 -6.046039157748055 -20.35141866550714 0 -20.35141866550714 48.838418277754954 0 0 0 0 -1.0479046972432116 -17.729441370810719 0 -17.729441370810719 48.261747586090223 0 0 0 0 -33.363883266278208 6.860797054356226 0 6.860797054356226 77.393613259642734 0 0 0 0 -40.370085913078583 -1.7294856202352094 0 -1.7294856202352094 72.419398916910723 0 0 0 0 -84.349487595341088 3.5847900509070314 0 3.5847900509070314 101.91944333184802 0 0 0 0 -25.666841914227916 23.361014052177779 0 23.361014052177779 61.884499488918664 0 0 0 0 -4.4054333283602318 -82.372635549236747 0 -82.372635549236747 126.27750436076644 0 0 0 0 -6.0394246059181569 -19.9679556428664 0 -19.9679556428664 57.478871837251518 0 0 0 0 -3.3158494927444915 -14.167422727645189 0 -14.167422727645189 57.354844454660807 0 0 0 0 -2.164766045958439 -1.290883600800965 0 -1.290883600800965 8.8111227543854014 0 0 0 0 -5.6277191265398869 -17.897922969808405 0 -17.897922969808405 62.762578730767018 0 0 0 0 38.48952406575836 -37.012568994947628 0 -37.012568994947628 95.363772165743285 0 0 0 0 52.354866802979814 -53.15192616630975 0 -53.15192616630975 117.26700130227891 0 0 0 0 -15.576239964168053 -62.875543480800843 0 -62.875543480800843 128.40038627952526 0 0 0 0 37.106184181713616 -38.132256518401846 0 -38.132256518401846 150.57415594347731 0 0 0 0 119.75079912005276 -86.971373781675538 0 -86.971373781675538 127.17892856466278 0 0 0 0 -2.9315386860492372 7.8357035025490021 0 7.8357035025490021 0.87611932366564105 0 0 0 0 52.798559660179308 -24.901284038875474 0 -24.901284038875474 87.052502042410197 0 0 0 0 57.976238743956401 -11.772547998057235 0 -11.772547998057235 93.993883622802969 0 0 0 0 -12.401608829291035 -27.552486273490103 0 -27.552486273490103 108.66290496137481 0 0 0 0 41.628812761417066 -46.62921299700065 0 -46.62921299700065 91.834333176255768 0 0 0 0 46.914382729230752 -19.407985285671202 0 -19.407985285671202 93.399245976385828 0 0 0 0 -13.461209975302593 26.044780398657664 0 26.044780398657664 98.716080504324964 0 0 0 0 -25.034263850213549 20.949976169481975 0 20.949976169481975 30.954236173274293 0 0 0 0 -4.5966044792386818 -14.539437781592369 0 -14.539437781592369 101.17739240519404 0 0 0 0 -21.120480656109677 22.961329664373949 0 22.961329664373949 30.399152468548778 0 0 0 0 15.94757575271251 11.171049672171648 0 11.171049672171648 41.660785851447145 0 0 0 0 -8.8462013982280041 37.213828604326409 0 37.213828604326409 48.143326104323933 0 0 0 0 -42.381269543829148 -3.4884625122504076 0 -3.4884625122504076 119.78509508518255 0 0 0 0 -20.852077541697579 16.975765706367383 0 16.975765706367383 135.36307602640863 0 0 0 0 -35.306352386872277 22.202210295283294 0 22.202210295283294 29.524415497995506 0 0 0 0 -1.3078546860671398 0.55095264162586943 0 0.55095264162586943 4.680303349395146 0 0 0 0 2.120996599854085 8.2881184539444028 0 8.2881184539444028 -5.9664835827666849 0 0 0 0 -15.495869125843456 -11.074570926020897 0 -11.074570926020897 85.167720337529317 0 0 0 0 -22.349389846072881 -17.237425583931326 0 -17.237425583931326 88.915958627840155 0 0 0 0 2.9980282384349266 -22.348421415505072 0 -22.348421415505072 87.180801131120461 0 0 0 0 -0.078354280000894505 11.226984345168603 0 11.226984345168603 75.436805194542103 0 0 0 0 4.2071355671387209 2.8212148921829794 0 2.8212148921829794 90.780387478250304 0 0 0 0 4.5980877940728533 -12.021455192098074 0 -12.021455192098074 94.921226112524892 0 0 0 0 4.5425619298553102 -33.008507866039508 0 -33.008507866039508 161.54544535950845 0 0 0 0 21.708029581784331 -3.9375198517159333 0 -3.9375198517159333 98.439478344625968 0 0 0 0 7.5215963350219681 -19.376494836087659 0 -19.376494836087659 133.10571575959329 0 0 0 0 -23.431563390720839 24.063196491155395 0 24.063196491155395 108.50952182741594 0 0 0 0 30.337146557672895 -2.5388689615701878 0 -2.5388689615701878 85.564113024855033 0 0 0 0 -28.881972839348464 11.008878411325441 0 11.008878411325441 83.103531344720977 0 0 0 0 11.466969446239091 -3.578532959036238 0 -3.578532959036238 54.584310492949953 0 0 0 0 24.959284316457342 26.083610679436333 0 26.083610679436333 107.78141939065199 0 0 0 0 -63.180957502292586 -44.673831006037517 0 -44.673831006037517 127.69472361627811 0 0 0 0 -0.66531706600699181 -28.356899591332535 0 -28.356899591332535 68.200421004180498 0 0 0 0 9.774994423820317 -21.425335999795607 0 -21.425335999795607 72.350697782331736 0 0 0 0 -4.635583764016701 -0.96437274347681523 0 -0.96437274347681523 68.121219251615003 0 0 0 0 -5.5951127311454911 6.2699546220105731 0 6.2699546220105731 50.192319823134312 0 0 0 0 -6.6604126118543547 6.2039863394111165 0 6.2039863394111165 45.735248330983765 0 0 0 0 -0.26342128043977198 2.1621187862720248 0 2.1621187862720248 6.4122537382215583 0 0 0 0 -35.426224190619905 -0.093221288308996009 0 -0.093221288308996009 32.051088557897629 0 0 0 0 -9.5288425178391662 7.4439855997992481 0 7.4439855997992481 98.491832811235327 0 0 0 0 1.5223515463344626 1.5410099110876168 0 1.5410099110876168 -2.4941810273491951 0 0 0 0 -61.546388452839892 -31.846682372012765 0 -31.846682372012765 -1.31000681632122 0 0 0 0 -74.533434543500334 -121.01000532482612 0 -121.01000532482612 -19.806302050609361 0 0 0 0 -11.730432209448736 -30.01775815115343 0 -30.01775815115343 59.550124663226597 0 0 0 0 -94.464761619519777 -76.664623542974368 0 -76.664623542974368 111.73527162073333 0 0 0 0 -61.547818583656408 -82.433174442872769 0 -82.433174442872769 86.510214583573543 0 0 0 0 -15.614644494644381 -61.232772921193828 0 -61.232772921193828 88.896353355794417 0 0 0 0 6.0924145382905408 -88.293671359384462 0 -88.293671359384462 84.30382959486451 0 0 0 0 -68.646243963235975 -54.761746554880119 0 -54.761746554880119 109.83677095475014 0 0 0 0 -5.0564456238853381 -45.69646686125742 0 -45.69646686125742 172.12483240960319 0 0 0 0 -0.36177949185548641 19.60050013348291 0 19.60050013348291 140.97453235345426 0 0 0 0 -41.646666533320968 48.996226049724555 0 48.996226049724555 244.78492734210886 0 0 0 0 -2.1330540091102783 1.5084528402506527 0 1.5084528402506527 0.92306867444464924 0 0 0 0 -3.9725676757643669 -41.96862209838946 0 -41.96862209838946 43.886029733416194 0 0 0 0 -40.804848788558957 -31.799782036402259 0 -31.799782036402259 54.990755384975174 0 0 0 0 -31.386840547995234 -42.429474821220303 0 -42.429474821220303 47.712122076122689 0 0 0 0 1.3483487431276444 -12.38837255961721 0 -12.38837255961721 57.942863946322632 0 0 0 0 14.906248433750989 -22.612843238548066 0 -22.612843238548066 41.98632734052353 0 0 0 0 -8.605142461050491 -30.496586056480567 0 -30.496586056480567 40.352303743224631 0 0 0 0 0.92844340598730923 -25.266601065467704 0 -25.266601065467704 36.532329497451741 0 0 0 0 -9.5033225331062567 -19.795444333242926 0 -19.795444333242926 31.749604867039352 0 0 0 0 -1.3444832437253353 -26.303701488989645 0 -26.303701488989645 36.595342947837622 0 0 0 0 -9.3470407773575062 -30.130288995029151 0 -30.130288995029151 42.62403138255813 0 0 0 0 -14.932069573182162 -28.336200408812374 0 -28.336200408812374 42.853808043862614 0 0 0 0 -30.831188573068175 -19.483556584955636 0 -19.483556584955636 45.301243197210624 0 0 0 0 -37.425147781306805 -30.00203485139582 0 -30.00203485139582 55.033096877077298 0 0 0 0 -12.566209530416018 -31.138268705989958 0 -31.138268705989958 38.969761080347325 0 0 0 0 -26.586478000933312 -18.297359342429672 0 -18.297359342429672 53.852783156055921 0 0 0 0 0.31485019470346742 -25.420934448639287 0 -25.420934448639287 48.818405621770012 0 0 0 0 20.451144135346112 -25.441875989614402 0 -25.441875989614402 44.923941360651611 0 0 0 0 8.9876629166292332 -22.046175461521287 0 -22.046175461521287 48.795561815056317 0 0 0 0 7.7781254625242582 -25.642652526422296 0 -25.642652526422296 40.050147137405133 0 0 0 0 23.400070012477954 -36.685432921630877 0 -36.685432921630877 0.00011743109871531487 0 0 0 0 -76.955967128111297 -59.548123555058282 0 -59.548123555058282 34.804689242172117 0 0 0 0 -17.246090099456978 -39.383420927267139 0 -39.383420927267139 41.579157977670093 0 0 0 0 27.269001471020601 -67.820889739752147 0 -67.820889739752147 -47.001717289114822 0 0 0 0 65.576100268128357 -5.2975240810455944 0 -5.2975240810455944 10.005715976705915 0 0 0 0 12.510215659602181 -21.759808153837639 0 -21.759808153837639 31.026346719168373 0 0 0 0 -11.671463632848827 -1.5860123778209072 0 -1.5860123778209072 33.389376032898326 0 0 0 0 -67.700367906099927 -11.901944332918447 0 -11.901944332918447 47.139858316472328 0 0 0 0 -38.849196606531223 -21.541122579066155 0 -21.541122579066155 44.774543549892314 0 0 0 0 -3.9900940845055999 0.77561926984076734 0 0.77561926984076734 0.8191962313477914 0 0 0 0 -45.117128909017993 -1.376111463388952 0 -1.376111463388952 34.470224894927924 0 0 0 0 59.438558230845956 -165.08143796297463 0 -165.08143796297463 -31.331117688108975 0 0 0 0 1.4062948782984677 73.838331993450083 0 73.838331993450083 -90.061974690376246 0 0 0 0 -23.372818568637285 -21.643712552474426 0 -21.643712552474426 -9.4814848067999264 0 0 0 0 1.2611802598023871 -2.2959861907431272 0 -2.2959861907431272 0.43679863625862581 0 0 0 0 -4.3704205981565458 -9.0293135002012637 0 -9.0293135002012637 -4.1612994121691678 0 0 0 0 0.24800393307896229 -113.31313911517464 0 -113.31313911517464 848.67126216774886 0 0 0 0 -4.4290146450093744 -239.46055382953364 0 -239.46055382953364 905.92047127742262 0 0 0 0 129.53812711821229 -382.52134285070679 0 -382.52134285070679 942.02164452038778 0 0 0 0 80.999668977394322 -287.2569969579281 0 -287.2569969579281 1199.7821340710452 0 0 0 0 316.93651195910024 -515.87966655116816 0 -515.87966655116816 1011.5710120626682 0 0 0 0 74.4439906612497 -461.02975784191494 0 -461.02975784191494 1001.7760665740461 0 0 0 0 -111.49796685267711 -46.818279655197557 0 -46.818279655197557 327.4385894770603 0 0 0 0 -1.1049796869102124 -1.757385452205142 0 -1.757385452205142 3.5487957404431967 0 0 0 0 -123.49936977103016 119.16770101256395 0 119.16770101256395 93.696048905082534 0 0 0 0 10.137374575826481 -11.205606973201231 0 -11.205606973201231 3.944102809879487 0 0 0 0 -60.372679528582012 -45.855464111706169 0 -45.855464111706169 0.50018758237820293 0 0 0 0 -199.19711074482348 -174.67974643699108 0 -174.67974643699108 926.12724669130512 0 0 0 0 -35.709333953138412 -328.36161208002341 0 -328.36161208002341 691.77995818214595 0 0 0 0 57.134777801201835 -68.367876907545906 0 -68.367876907545906 593.68869797368097 0 0 0 0 187.28397594352919 -93.337801054397914 0 -93.337801054397914 332.94235932369156 0 0 0 0 -46.195547710827213 -186.30677992321534 0 -186.30677992321534 1112.4008923291585 0 0 0 0 -0.13973280013669864 -210.3825274885603 0 -210.3825274885603 930.95600688396723 0 0 0 0 -28.372746697805724 -237.40088241835247 0 -237.40088241835247 991.96125900886727 0 0 0 0 168.43078717683602 -345.00304271129335 0 -345.00304271129335 815.03536349336264 0 0 0 0 371.79769534850311 55.046587428338171 0 55.046587428338171 749.23014492924631 0 0 0 0 217.05102038218206 -246.11498174136148 0 -246.11498174136148 393.29088221445454 0 0 0 0 191.76804449298288 -312.99267579971911 0 -312.99267579971911 799.91841049956201 0 0 0 0 232.68084151366656 -161.22113829141108 0 -161.22113829141108 287.85969037182986 0 0 0 0 223.14564149602745 -115.96619277019488 0 -115.96619277019488 27.516051601029176 0 0 0 0 164.06768659274803 -219.14003699929435 0 -219.14003699929435 250.09626652553561 0 0 0 0 253.58208147362984 -110.22773925373622 0 -110.22773925373622 304.68593104053434 0 0 0 0 200.11209682270237 -169.94189302934865 0 -169.94189302934865 249.83776852418487 0 0 0 0 62.872549862359392 68.935289262553397 0 68.935289262553397 -8.7596597445608495 0 0 0 0 -10.593225508339856 -17.139646511896899 0 -17.139646511896899 -13.695168700676732 0 0 0 0 -2.5570868287786652 25.679363852103961 0 25.679363852103961 -59.10032121491713 0 0 0 0 0.84027181153449249 2.7282224952591356 0 2.7282224952591356 14.349720245183939 0 0 0 0 -0.056593460922357508 1.1410864637242568 0 1.1410864637242568 6.5690184136613041 0 0 0 0 45.240406292232365 53.056945348849695 0 53.056945348849695 75.913549516623391 0 0 0 0 -0.15271735388611596 2.3015553942416531 0 2.3015553942416531 2.3259922534120534 0 0 0 0 420.97497548167485 -312.62759892848953 0 -312.62759892848953 106.21080009011848 0 0 0 0 82.945693277197279 -32.587448494920864 0 -32.587448494920864 0.61174685685330132 0 0 0 0 -137.78423054329869 102.11897565637628 0 102.11897565637628 799.82953637906758 0 0 0 0 287.00300340771537 109.4417148376715 0 109.4417148376715 99.396230854441455 0 0 0 0 435.02328063675941 -555.25541078329206 0 -555.25541078329206 740.7667700432612 0 0 0 0 0.72880005747582821 1.892962603260429 0 1.892962603260429 7.1538917079661815 0 0 0 0 163.69425205129664 -411.94064840237388 0 -411.94064840237388 1131.6959128414474 0 0 0 0 550.7263557226288 -189.76732216828896 0 -189.76732216828896 987.38064080956428 0 0 0 0 249.08111368233585 -341.83617067541854 0 -341.83617067541854 887.29920411141939 0 0 0 0 172.77909390893865 -364.84068512160343 0 -364.84068512160343 912.92276486267292 0 0 0 0 203.53807435105409 -300.69734068860271 0 -300.69734068860271 889.25368868764599 0 0 0 0 208.82649905870858 -584.90117871750135 0 -584.90117871750135 833.00981255156148 0 0 0 0 499.47370799827149 -531.98928979853008 0 -531.98928979853008 749.8904941348319 0 0 0 0 244.89803606471912 -685.04618897434216 0 -685.04618897434216 804.52037126366668 0 0 0 0 240.11955434506785 -649.64804346771325 0 -649.64804346771325 851.17775020460613 0 0 0 0 386.45721260607388 -803.67431250263326 0 -803.67431250263326 617.22836772608957 0 0 0 0 -86.847249078060486 -274.47303691793059 0 -274.47303691793059 565.26170504754293 0 0 0 0 192.44094072658299 258.84970228327074 0 258.84970228327074 -197.39794712409366 0 0 0 0 1079.3216405687544 -724.91782382792098 0 -724.91782382792098 212.96878691418533 0 0 0 0 870.3810889312299 -398.16679053564985 0 -398.16679053564985 -214.69611763600551 0 0 0 0 332.86101893326486 -529.4207891641945 0 -529.4207891641945 443.33678780394257 0 0 0 0 851.49701782327611 -1006.8820827730215 0 -1006.8820827730215 705.80520424986025 0 0 0 0 2782.0924288674451 -1883.6223315673371 0 -1883.6223315673371 1032.5656979770283 0 0 0 0 -1.7447827633293755 4.5584087208654935 0 4.5584087208654935 40.319873005661975 0 0 0 0 -3519.4035027029277 2910.5666527583935 0 2910.5666527583935 -4973.9748440143667 0 0 0 0 1118.3143719271975 -1169.6733704797916 0 -1169.6733704797916 1523.8992637208175 0 0 0 0 1211.116228015645 -777.78245407856366 0 -777.78245407856366 1109.4968013606049 0 0 0 0 195.0824774582361 -215.81733360744329 0 -215.81733360744329 3543.6024033300146 0 0 0 0 631.54577536128363 513.22090283339867 0 513.22090283339867 729.70978440934778 0 0 0 0 1699.3331449236994 -2120.7010866211549 0 -2120.7010866211549 2574.8659055275166 0 0 0 0 155.99975147563964 -5087.9051517536136 0 -5087.9051517536136 9977.9258596251457 0 0 0 0 201.07544207721003 53.162091322081324 0 53.162091322081324 506.89765464652646 0 0 0 0 -178.61833965534061 1102.760340200969 0 1102.760340200969 1594.5935264889486 0 0 0 0 387.15089692630863 322.00956019172645 0 322.00956019172645 -724.93167531516883 0 0 0 0 56.241906737326644 640.50025168200682 0 640.50025168200682 1053.1242420769677 0 0 0 0 -6.9800385831028944 3.933031680078841 0 3.933031680078841 78.370634068806339 0 0 0 0 -458.3886169961188 245.06030983228993 0 245.06030983228993 439.7847933657722 0 0 0 0 -2001.0054260308625 416.53705691655523 0 416.53705691655523 2641.4113499012419 0 0 0 0 -224.36195913944357 -272.99304499045502 0 -272.99304499045502 140.52304171945252 0 0 0 0 -42.460328209279396 -196.06535541945459 0 -196.06535541945459 678.09469862655897 0 0 0 0 267.33622122247107 -77.328341380490201 0 -77.328341380490201 271.80240832588061 0 0 0 0 242.74748439478935 -212.69175573128086 0 -212.69175573128086 997.77230976165265 0 0 0 0 531.82029554552355 -259.7546541910524 0 -259.7546541910524 820.19844583679333 0 0 0 0 677.75801333181516 -728.47419056295075 0 -728.47419056295075 949.57657573217148 0 0 0 0 566.33085481791204 -891.61279431605908 0 -891.61279431605908 1457.6728917599794 0 0 0 0 1072.5321004471771 150.91763345575282 0 150.91763345575282 256.92119596956854 0 0 0 0 -0.19020445916035555 -1.4672297863324761 0 -1.4672297863324761 -1.9505476494515577 0 0 0 0 455.21056042778582 -215.00985065377381 0 -215.00985065377381 57.400153180351481 0 0 0 0 70.852018533598311 321.77930148067571 0 321.77930148067571 559.24434188204395 0 0 0 0 107.64611790446543 -78.129578861991831 0 -78.129578861991831 -55.662801154354383 0 0 0 0 161.28460391918793 170.43319489946043 0 170.43319489946043 -210.59110488774968 0 0 0 0 289.19393340431452 79.148129441836318 0 79.148129441836318 70.860863523650551 0 0 0 0 295.82014482498198 67.144242498391577 0 67.144242498391577 -225.09324901113177 0 0 0 0 -13.033012623296599 142.00020225361004 0 142.00020225361004 31.664282540688873 0 0 0 0 77.436662780353572 51.390100647706277 0 51.390100647706277 -36.619102571510666 0 0 0 0 -271.39379081638913 312.1758642542419 0 312.1758642542419 -223.96158693457619 0 0 0 0 11.729079632504479 25.799965883820413 0 25.799965883820413 43.146026131709988 0 0 0 0 -128.72369826317117 2.5286721601669342 0 2.5286721601669342 -129.4108677388831 0 0 0 0 8.4970229022364947 229.85302049150778 0 229.85302049150778 -324.63493024583568 0 0 0 0 -185.99434299305653 359.51422517601185 0 359.51422517601185 -213.82875469996907 0 0 0 0 -254.28217866527302 196.46137397187431 0 196.46137397187431 44.074032264117704 0 0 0 0 -7.7348898987653349 -0.29505228495181868 0 -0.29505228495181868 74.566574733890633 0 0 0 0 103.71086919225644 228.96770973917472 0 228.96770973917472 -69.825503160673179 0 0 0 0 295.87260280696864 -443.04403136234487 0 -443.04403136234487 -608.47496809238601 0 0 0 0 688.30220594572256 -223.78445386597014 0 -223.78445386597014 -98.92998621026527 0 0 0 0 0.84116945363679463 -1.9190351735844793 0 -1.9190351735844793 -7.2110134356589981 0 0 0 0 255.93722817414528 -39.907569351042184 0 -39.907569351042184 74.576165594925897 0 0 0 0 -274.97134855942841 28.994613098765967 0 28.994613098765967 124.53213841222168 0 0 0 0 -37.685275256457317 -15.539982557463418 0 -15.539982557463418 69.914706510448923 0 0 0 0 111.40407256183607 -188.7884202188402 0 -188.7884202188402 98.350619675544351 0 0 0 0 0.75544732382004298 -1.4522814636853987 0 -1.4522814636853987 -7.5416373498007587 0 0 0 0 463.48485368355341 -122.13571811387101 0 -122.13571811387101 -24.385760042261609 0 0 0 0 373.78412034741086 58.295558549782072 0 58.295558549782072 -103.72404795790317 0 0 0 0 129.28715500483486 58.972251876312839 0 58.972251876312839 44.483779033323117 0 0 0 0 199.06125595858975 -20.817862629359297 0 -20.817862629359297 67.862939246128462 0 0 0 0 278.17011420257768 -21.140701988242654 0 -21.140701988242654 8.6831137923472852 0 0 0 0 215.33020906352249 56.264476354308272 0 56.264476354308272 -12.621821214230295 0 0 0 0 125.67185459530447 31.510245106388993 0 31.510245106388993 14.650225195209714 0 0 0 0 29.40938098001061 38.662178708533702 0 38.662178708533702 45.794373401904522 0 0 0 0 106.47178057015844 -17.222487013204955 0 -17.222487013204955 28.70329155688205 0 0 0 0 2.3922996150939575 0.70571419877488495 0 0.70571419877488495 -3.5735196984893562 0 0 0 0 28.781239363567693 -47.219204431817161 0 -47.219204431817161 53.827454585947635 0 0 0 0 294.50443914296807 -144.71181859480771 0 -144.71181859480771 21.832053369682399 0 0 0 0 -61.905694685911385 -8.6885838285086265 0 -8.6885838285086265 184.22488769917618 0 0 0 0 -559.19550687544142 217.02692529825595 0 217.02692529825595 -66.302101903434959 0 0 0 0 4.784267427755899 8.2464847287878698 0 8.2464847287878698 1.5171185999624868 0 0 0 0 -74.139670424412543 179.06833068998549 0 179.06833068998549 -6.1540694590385101 0 0 0 0 -93.286670451321697 102.51753450358956 0 102.51753450358956 -61.608391485551692 0 0 0 0 1.1141808342717923 225.76353184727895 0 225.76353184727895 -102.26544620195455 0 0 0 0 58.225727989483858 36.25281478451609 0 36.25281478451609 -94.687318913298441 0 0 0 0 143.86984166480943 126.58891098640288 0 126.58891098640288 -70.056765667826767 0 0 0 0 93.326969535541139 130.0983877648714 0 130.0983877648714 50.222316361416517 0 0 0 0 8.3744225583759544 100.60182107854916 0 100.60182107854916 83.2079395798728 0 0 0 0 -63.753223503663321 132.10640386848036 0 132.10640386848036 72.46171480952944 0 0 0 0 -7.4455552557710085 -3.3080451577386469 0 -3.3080451577386469 6.847915910252226 0 0 0 0 -54.457244986852857 -75.464414713105725 0 -75.464414713105725 69.302811876854321 0 0 0 0 0.59684640354200535 20.743178008613242 0 20.743178008613242 51.50033184547506 0 0 0 0 -9.2306286636645076 0.083571707769909409 0 0.083571707769909409 11.762331342284476 0 0 0 0 -0.57817334447963731 14.656331605813648 0 14.656331605813648 31.337044732143113 0 0 0 0 -0.17193407810806705 10.15931055490681 0 10.15931055490681 28.556558940078133 0 0 0 0 8.6368637126833825 18.434412572273111 0 18.434412572273111 31.4306308438236 0 0 0 0 -27.639140998668154 108.87849794520662 0 108.87849794520662 51.582792880136367 0 0 0 0 67.943398803211551 -20.27537283900665 0 -20.27537283900665 -75.063149775834972 0 0 0 0 1.8095856726824877 118.43349848951743 0 118.43349848951743 43.904909335973571 0 0 0 0 11.775797904937512 8.1626392758229045 0 8.1626392758229045 13.075797014004479 0 0 0 0 209.02013692906439 94.661723746412463 0 94.661723746412463 -10.054037026626247 0 0 0 0 526.64727824034708 309.72821884398581 0 309.72821884398581 -366.51105011811887 0 0 0 0 157.49198777888887 28.509958263000044 0 28.509958263000044 -28.400929835181159 0 0 0 0 3.8567250218802549 -1.4281590655897993 0 -1.4281590655897993 1.5657968740836843 0 0 0 0 14.920371184498435 -14.785676334968002 0 -14.785676334968002 259.1108846171428 0 0 0 0 3.4962148426280919 -1.5457143289553237 0 -1.5457143289553237 0.83471211404080847 0 0 0 0 134.67954799379368 -157.88468868152995 0 -157.88468868152995 135.23483411974485 0 0 0 0 189.08478017524067 -32.030382540440883 0 -32.030382540440883 3.9237118230175838 0 0 0 0 72.751338497630513 61.61265798109423 0 61.61265798109423 3.5959976592603198 0 0 0 0 43.697249231998285 -79.87629314176047 0 -79.87629314176047 178.94375444055913 0 0 0 0 118.34330598405359 -16.997607237900411 0 -16.997607237900411 -95.648598099083301 0 0 0 0 -2.2971968811555712 5.7587368859498653 0 5.7587368859498653 5.9970655907535564 0 0 0 0 -25.868539731787394 -18.681951359455603 0 -18.681951359455603 4.4212348267810739 0 0 0 0 -101.65297151337654 127.99847172626687 0 127.99847172626687 127.37860831545731 0 0 0 0 87.283800895638706 -32.86209381146864 0 -32.86209381146864 20.879969368796765 0 0 0 0 26.514445659071693 26.159009355381414 0 26.159009355381414 22.977174751830351 0 0 0 0 178.03161831747821 17.820960406312679 0 17.820960406312679 -101.87110133711121 0 0 0 0 122.04796750274909 33.053817440644707 0 33.053817440644707 38.212924430311887 0 0 0 0 435.394366417946 33.277617433463092 0 33.277617433463092 23.203701711385293 0 0 0 0 152.87266939930123 -232.53062626807241 0 -232.53062626807241 621.03353576823065 0 0 0 0 122.60746374470546 -112.56861744370326 0 -112.56861744370326 258.34288394097348 0 0 0 0 173.23339984807535 -64.296708141405361 0 -64.296708141405361 -55.406726928070384 0 0 0 0 1.7477919260846799 -3.6805728844675532 0 -3.6805728844675532 24.324700351077052 0 0 0 0 -0.2296756898893193 -6.8850801355286784 0 -6.8850801355286784 27.952335778635664 0 0 0 0 52.142379530752805 6.6421651995287903 0 6.6421651995287903 61.617109748218354 0 0 0 0 3.9926740479668297 3.8907269640022832 0 3.8907269640022832 27.424337290110088 0 0 0 0 -133.64902878674638 -112.56341253541939 0 -112.56341253541939 157.30101483473481 0 0 0 0 -135.91724371415603 -114.50849653829277 0 -114.50849653829277 260.19834670738055 0 0 0 0 -25.487513673157082 74.512907269688412 0 74.512907269688412 11.268057524766874 0 0 0 0 -55.649103009967803 6.2211437600233808 0 6.2211437600233808 44.965740139757131 0 0 0 0 -11.249051334254546 0.58411519925567745 0 0.58411519925567745 21.436362787675193 0 0 0 0 113.43886305443448 112.08911980895209 0 112.08911980895209 120.53768499395392 0 0 0 0 1.9650798233051319 -21.14284103088039 0 -21.14284103088039 -25.380957031302387 0 0 0 0 19.98472860752554 2.7736022688459343 0 2.7736022688459343 25.962864146988068 0 0 0 0 -252.46626617181755 178.47086471597868 0 178.47086471597868 -124.32715631794053 0 0 0 0 2.206534366240632 -3.774707286855576 0 -3.774707286855576 5.8435644292488211 0 0 0 0 18.592236123164184 -68.761923609366931 0 -68.761923609366931 59.161107662788709 0 0 0 0 8.1752665448603494 -0.0050640340518555149 0 -0.0050640340518555149 37.605805605237514 0 0 0 0 -0.66419992574128361 3.7181076254200409 0 3.7181076254200409 6.0159702301153253 0 0 0 0 49.776169220105658 -6.1119403619777586 0 -6.1119403619777586 15.780264456145233 0 0 0 0 42.939170081514021 -8.0055198550799105 0 -8.0055198550799105 17.660480899128743 0 0 0 0 18.239250209428974 -21.416458066614723 0 -21.416458066614723 32.253259445142703 0 0 0 0 40.745253737437451 -8.9818897756085789 0 -8.9818897756085789 17.382014742543788 0 0 0 0 10.520625109117645 -35.635325872687645 0 -35.635325872687645 48.630705299059628 0 0 0 0 16.115515846478424 -3.7186675754263803 0 -3.7186675754263803 2.9907310160174383 0 0 0 0 14.555813027247966 0.54605775110447041 0 0.54605775110447041 -2.1130447403321764 0 0 0 0 2.9036313551828243 -11.046836398277264 0 -11.046836398277264 33.905343048583291 0 0 0 0 -347.92930754600002 -79.557970072924945 0 -79.557970072924945 385.76390176023051 0 0 0 0 5.0550772509419035 5.9814903722174062 0 5.9814903722174062 19.711301505329473 0 0 0 0 661.33041185538968 28.231706618323187 0 28.231706618323187 -65.329913720923514 0 0 0 0 203.73825134053095 -130.98423420053223 0 -130.98423420053223 -2.6269282837984065 0 0 0 0 -47.008503528604706 0.11262206343872094 0 0.11262206343872094 35.935840499817914 0 0 0 0 23.469093489416537 -11.727359108155042 0 -11.727359108155042 19.100598528048067 0 0 0 0 1.0306069515525964 5.7092061891786035 0 5.7092061891786035 21.077956629105536 0 0 0 0 -31.254857147581788 31.123459951167206 0 31.123459951167206 43.10314461584494 0 0 0 0 183.87025993357656 -100.09915060352705 0 -100.09915060352705 42.806483710342235 0 0 0 0 197.40572087067994 -68.414112185416798 0 -68.414112185416798 116.97762783769576 0 0 0 0 277.64671647311206 -159.37561910117438 0 -159.37561910117438 80.951859910544954 0 0 0 0 -23.336527345950344 3.0036895365528835 0 3.0036895365528835 86.838632153387152 0 0 0 0 1.2110532396554996 5.1710788546727358 0 5.1710788546727358 18.59708850926274 0 0 0 0 71.886825267503809 57.56586688167954 0 57.56586688167954 -53.363971881197585 0 0 0 0 -61.324443795989737 66.868907317465528 0 66.868907317465528 31.087824656948214 0 0 0 0 -20.304659178790644 -35.793006736399548 0 -35.793006736399548 193.16728978732408 0 0 0 0 -49.668083986977308 -120.51586638379354 0 -120.51586638379354 195.16543892477057 0 0 0 0 -6.3327832817501157 -8.1236289709432512 0 -8.1236289709432512 57.011047233875118 0 0 0 0 -6.8010830323070444 3.5704435764139486 0 3.5704435764139486 13.64737765759218 0 0 0 0 -58.984417639598178 74.336397597415726 0 74.336397597415726 42.109007288725252 0 0 0 0 82.51568586146459 61.682227977161347 0 61.682227977161347 -37.991664996549844 0 0 0 0 0.64058688594618829 -6.4628894929767107 0 -6.4628894929767107 19.264511874568971 0 0 0 0 -49.943443445997218 43.000020848127406 0 43.000020848127406 32.673514969817916 0 0 0 0 1.2420154935856402 -4.8219830345563892 0 -4.8219830345563892 33.808290679617585 0 0 0 0 0.043153817451559107 0.11748049039192665 0 0.11748049039192665 1.5126346322610615 0 0 0 0 14.546497544599333 -55.538390428939692 0 -55.538390428939692 42.200145441132918 0 0 0 0 44.821376482434061 -12.477542075502242 0 -12.477542075502242 10.432221265471526 0 0 0 0 121.95447225198359 0.39695943827837255 0 0.39695943827837255 -20.01177440671745 0 0 0 0 -29.182927284842663 24.964471912582667 0 24.964471912582667 -28.853646486371872 0 0 0 0 -22.824216314475962 -4.1337476126827823 0 -4.1337476126827823 -55.565805192520202 0 0 0 0 -29.985292412038916 11.812495269632564 0 11.812495269632564 -20.334537406801246 0 0 0 0 -76.787119411166714 -12.931948568551888 0 -12.931948568551888 -17.707106509641108 0 0 0 0 -38.034689589120717 -7.9963238508171344 0 -7.9963238508171344 59.631800810246204 0 0 0 0 -95.673504669811336 -35.104380751708959 0 -35.104380751708959 212.98230223476276 0 0 0 0 -67.265277013993 -45.211979374340444 0 -45.211979374340444 53.270953714757525 0 0 0 0 -60.011397198410123 -62.331201525397773 0 -62.331201525397773 91.842243434519332 0 0 0 0 0.62039274043013393 -82.294669577667719 0 -82.294669577667719 17.397994314153038 0 0 0 0 -18.667972521214324 -69.606191328319255 0 -69.606191328319255 93.085537552848109 0 0 0 0 -27.295265436939189 -98.337348478140484 0 -98.337348478140484 53.029228083549242 0 0 0 0 -26.135223479587694 -104.00933738841013 0 -104.00933738841013 -19.113811601229827 0 0 0 0 -59.320658646933225 -145.66632094550914 0 -145.66632094550914 182.24487207568745 0 0 0 0 -49.321473195254839 -107.33195784147028 0 -107.33195784147028 50.124690458986151 0 0 0 0 14.661106095890318 -151.12829249328206 0 -151.12829249328206 31.201054634977481 0 0 0 0 -106.0307985264144 -78.981239004300733 0 -78.981239004300733 39.788199487778911 0 0 0 0 -153.86479471113762 -131.54965138563784 0 -131.54965138563784 -1.3200165926245973 0 0 0 0 -340.35199736030523 86.49710181140108 0 86.49710181140108 59.174070737331931 0 0 0 0 -3.0618122098010563 -12.212770007706155 0 -12.212770007706155 17.71784656451851 0 0 0 0 -104.03319481502103 -150.96410481591374 0 -150.96410481591374 83.505911147916777 0 0 0 0 -248.59427752968759 -43.684322620116291 0 -43.684322620116291 271.04708892476629 0 0 0 0 -0.82656375429655959 -6.9441170550017235 0 -6.9441170550017235 74.793343454063574 0 0 0 0 -50.731108058672788 62.175949260943526 0 62.175949260943526 39.519263832393335 0 0 0 0 0.54179110229913441 -2.2366170313027673 0 -2.2366170313027673 2.4998379728594387 0 0 0 0 26.787060828859012 -139.10332006704266 0 -139.10332006704266 15.89257366795573 0 0 0 0 -81.836664162604393 35.825984723451256 0 35.825984723451256 99.856418502706219 0 0 0 0 -10.415932354176448 -96.7844022542522 0 -96.7844022542522 -24.858708931253204 0 0 0 0 0.66488840540407446 -8.0238107642050664 0 -8.0238107642050664 68.814803560591784 0 0 0 0 -239.54900801958729 -40.623677432834484 0 -40.623677432834484 129.25483715225892 0 0 0 0 -77.51059704017257 -115.67084714711109 0 -115.67084714711109 74.139233493970096 0 0 0 0 165.63591463461216 -77.080595411975082 0 -77.080595411975082 26.280493519705487 0 0 0 0 -24.025027898884218 -48.191740777707309 0 -48.191740777707309 56.306303157842194 0 0 0 0 89.320490393698037 -129.10712600528495 0 -129.10712600528495 81.719353376193794 0 0 0 0 84.810914695239717 -128.9533090952209 0 -128.9533090952209 129.00803093158629 0 0 0 0 -10.297747928086931 -1.0573048673115046 0 -1.0573048673115046 12.115860864472012 0 0 0 0 1.0953468050329889 7.1876820345740349 0 7.1876820345740349 -0.16745014439584338 0 0 0 0 -494.92916966974803 169.55723028233024 0 169.55723028233024 34.981297288417409 0 0 0 0 143.52443333609654 -158.79851527920982 0 -158.79851527920982 61.712257588875218 0 0 0 0 -43.093547833794673 24.388138832713594 0 24.388138832713594 -23.71987310579425 0 0 0 0 -60.895056503499291 -3.8933274926730519 0 -3.8933274926730519 3.3262768080821843 0 0 0 0 5.7809832388933273 -4.5805966519965295 0 -4.5805966519965295 58.643323260163015 0 0 0 0 -34.841281627503207 -109.37436054358727 0 -109.37436054358727 84.970881104320142 0 0 0 0 -8.8944365266556886 -10.101262524977649 0 -10.101262524977649 24.92337800659223 0 0 0 0 -51.662436215991875 63.344809487181919 0 63.344809487181919 44.222945307745249 0 0 0 0 -20.066085448522244 76.758906901755836 0 76.758906901755836 49.797848789841737 0 0 0 0 -0.028749924067380306 -16.855547642179914 0 -16.855547642179914 94.867684072170874 0 0 0 0 -230.61802763046319 14.845813942956056 0 14.845813942956056 139.57550963489484 0 0 0 0 -109.70515310809628 263.68057354536359 0 263.68057354536359 -253.01639745206739 0 0 0 0 -479.65181263794329 -169.36806370260365 0 -169.36806370260365 101.98144955365206 0 0 0 0 -672.87591215449731 266.3927792690165 0 266.3927792690165 66.76278457207809 0 0 0 0 -1.80381731257512 39.114723226432034 0 39.114723226432034 25.531207865213219 0 0 0 0 -379.24740070844496 -40.420658116618142 0 -40.420658116618142 -24.46011409656785 0 0 0 0 1.219429069064252 3.9691480822864982 0 3.9691480822864982 3.8750817522148822 0 0 0 0 -288.49164666146191 96.482237728399014 0 96.482237728399014 143.70706100681491 0 0 0 0 81.130622635292553 -139.9247350311216 0 -139.9247350311216 -54.722625186986988 0 0 0 0 -635.09422341645313 268.68072769311584 0 268.68072769311584 271.54142182915348 0 0 0 0 3.9902966219257037 10.297305153373435 0 10.297305153373435 22.422782075423285 0 0 0 0 35.084948618224644 -173.7829865942158 0 -173.7829865942158 192.71836903278381 0 0 0 0 -263.46675617100846 141.5386748494202 0 141.5386748494202 84.15523573583323 0 0 0 0 59.195793921352106 139.53398005366034 0 139.53398005366034 -144.13625499434056 0 0 0 0 -499.14247217375578 -36.748499457508842 0 -36.748499457508842 350.8009815492951 0 0 0 0 111.63151741353448 -55.605014121789736 0 -55.605014121789736 -29.218609596715396 0 0 0 0 -503.69309367067217 394.7804604099656 0 394.7804604099656 76.976109346845078 0 0 0 0 11.356807942962508 19.464521627760767 0 19.464521627760767 31.79073862106307 0 0 0 0 -311.01972034509913 240.64211968828931 0 240.64211968828931 -43.059500833298443 0 0 0 0 -151.92924942014929 102.0661309563784 0 102.0661309563784 -172.08910689871664 0 0 0 0 -62.948468815897058 224.60320088456501 0 224.60320088456501 -34.875228330362006 0 0 0 0 -162.21199789841728 28.249619137895024 0 28.249619137895024 -47.918500642728759 0 0 0 0 -250.93643362478429 88.072924441823488 0 88.072924441823488 -115.1993508909618 0 0 0 0 -205.30166178972399 155.26048760782942 0 155.26048760782942 -16.301560861897997 0 0 0 0 -143.78468030328349 78.462908535107999 0 78.462908535107999 68.622800032544546 0 0 0 0 -146.21473787077866 26.085486411722741 0 26.085486411722741 -40.34922302312043 0 0 0 0 47.998154598986389 123.29734309295236 0 123.29734309295236 -39.691731197963236 0 0 0 0 -260.13853288092054 -2.5640385068218166 0 -2.5640385068218166 20.543630120213493 0 0 0 0 31.171617777280517 138.57984199999919 0 138.57984199999919 71.635367158543886 0 0 0 0 31.712781435829026 106.65999672291795 0 106.65999672291795 -85.118258117618097 0 0 0 0 44.392525785998444 -103.5111500484154 0 -103.5111500484154 234.63584866029123 0 0 0 0 -2.876169714540866 3.2786008930170105 0 3.2786008930170105 8.1163693652395068 0 0 0 0 -424.75962212321133 273.41038339680017 0 273.41038339680017 -59.762052332551775 0 0 0 0 -2.7341600980469081 2.8039044265195514 0 2.8039044265195514 -0.79370993963381409 0 0 0 0 211.35682118332363 -115.92993308519954 0 -115.92993308519954 191.12597125053435 0 0 0 0 204.39320255432767 -146.59142727664948 0 -146.59142727664948 135.45296181954473 0 0 0 0 325.64360856386941 -405.23466843807546 0 -405.23466843807546 380.84148260867005 0 0 0 0 254.88715002733488 -194.80486435480634 0 -194.80486435480634 168.83866916164698 0 0 0 0 27.352428369490099 -36.244530661103909 0 -36.244530661103909 278.39204883105413 0 0 0 0 139.75355732773721 -204.20762741682847 0 -204.20762741682847 322.53425980039901 0 0 0 0 60.869199906461176 -235.47809165396393 0 -235.47809165396393 582.06332250398737 0 0 0 0 -206.01170809471142 436.48431721021916 0 436.48431721021916 -143.66218232363735 0 0 0 0 -152.58891259796746 274.7578843698775 0 274.7578843698775 -57.703598201467685 0 0 0 0 0.23098280381624825 1.1152979749712095 0 1.1152979749712095 2.9739235467372183 0 0 0 0 -189.73085501527487 -124.54797070759969 0 -124.54797070759969 228.01439988172206 0 0 0 0 64.930114759604578 58.907081160878079 0 58.907081160878079 -16.570245837036055 0 0 0 0 -28.235599606658525 -0.84543173530073545 0 -0.84543173530073545 62.150629622349697 0 0 0 0 -9.6482779932454008 3.384529071807755 0 3.384529071807755 5.6924352252094188 0 0 0 0 88.057900227699577 -99.817360336424827 0 -99.817360336424827 -164.62154307872879 0 0 0 0 -89.870722195260157 -0.32020711221593956 0 -0.32020711221593956 39.281525434133073 0 0 0 0 -36.532284770586045 65.241885266744248 0 65.241885266744248 189.97235608305709 0 0 0 0 97.958614468069982 -13.311388788126351 0 -13.311388788126351 40.179107200915041 0 0 0 0 -10.614537178488462 74.321085794396822 0 74.321085794396822 379.12853055128653 0 0 0 0 39.997014028849094 -62.974432455390343 0 -62.974432455390343 198.58743132634686 0 0 0 0 -32.231674028021871 25.4106006682523 0 25.4106006682523 124.89821037029651 0 0 0 0 -113.17689277834779 44.479152781728772 0 44.479152781728772 143.98146889400232 0 0 0 0 -125.55584791271866 81.616008680031882 0 81.616008680031882 109.50155535600061 0 0 0 0 -48.642073922610393 -13.94844707595621 0 -13.94844707595621 25.657351218542317 0 0 0 0 -2.8130381351981568 1.0410172008979544 0 1.0410172008979544 -1.3185410532973805 0 0 0 0 6.354859834161573 78.251597403455889 0 78.251597403455889 -40.820278648108797 0 0 0 0 -83.009138118914052 -59.5033943573344 0 -59.5033943573344 -140.14838091044476 0 0 0 0 -76.517130975654254 69.20540504400924 0 69.20540504400924 24.812028383661527 0 0 0 0 -220.06426903161184 125.63586934059276 0 125.63586934059276 4.2684406535881863 0 0 0 0 -94.200851399034036 98.351546547688486 0 98.351546547688486 46.572582150016387 0 0 0 0 -81.639189787001214 60.899953149983048 0 60.899953149983048 78.997507197269442 0 0 0 0 -88.463248022025596 68.670992307660526 0 68.670992307660526 84.748436803980439 0 0 0 0 -122.34199711849533 25.307954123012678 0 25.307954123012678 116.78338962688213 0 0 0 0 -89.227916164638373 -44.791255829288275 0 -44.791255829288275 141.29947100381469 0 0 0 0 -70.409873431328265 -10.590822580822532 0 -10.590822580822532 182.85988279513549 0 0 0 0 -86.558403662295291 40.745017207509591 0 40.745017207509591 103.04292160402838 0 0 0 0 -61.739818815312617 6.0220518207916029 0 6.0220518207916029 219.39397482886125 0 0 0 0 57.705669803898786 -85.975309672343428 0 -85.975309672343428 210.58672069791646 0 0 0 0 58.909281709000197 -85.715511516711558 0 -85.715511516711558 207.61816256899237 0 0 0 0 -20.264940901375212 -0.4896824951574672 0 -0.4896824951574672 154.53822354460499 0 0 0 0 50.149242924009968 -97.885680169594707 0 -97.885680169594707 179.75752586279577 0 0 0 0 59.735420153812356 -77.348061678294471 0 -77.348061678294471 221.76212288284296 0 0 0 0 286.49916586316704 -180.42052811954181 0 -180.42052811954181 154.67446025054232 0 0 0 0 80.817622242828747 -92.588367884032778 0 -92.588367884032778 134.23014895993128 0 0 0 0 81.75429851971262 -87.017915620690474 0 -87.017915620690474 87.50353301876612 0 0 0 0 -27.428417379825532 -103.01705891486199 0 -103.01705891486199 153.61559802675038 0 0 0 0 -51.726744820195904 -38.621557615972506 0 -38.621557615972506 19.108893603686738 0 0 0 0 -34.147770216462959 -10.659904836178612 0 -10.659904836178612 115.52750822823873 0 0 0 0 -163.58429495347536 37.641426627461442 0 37.641426627461442 89.655175010109815 0 0 0 0 -184.16348119817212 26.77634155823489 0 26.77634155823489 12.309980354082654 0 0 0 0 0.43981617194099543 -3.1686304654402457 0 -3.1686304654402457 7.3459547964621095 0 0 0 0 -197.01730414877011 -51.390585434935929 0 -51.390585434935929 107.56387304766395 0 0 0 0 -228.77754948236543 15.999453680677107 0 15.999453680677107 121.17363881402161 0 0 0 0 102.37143093727104 -39.689631447612555 0 -39.689631447612555 -60.687892119141907 0 0 0 0 0.076832340044307834 -5.5371368328936983 0 -5.5371368328936983 62.077865855149824 0 0 0 0 -243.15909389299725 -26.612624612586842 0 -26.612624612586842 124.05694025175762 0 0 0 0 -115.80803576781341 10.111027085960814 0 10.111027085960814 35.754548472163151 0 0 0 0 -0.18042994358074416 -3.5422144978954209 0 -3.5422144978954209 56.141090166741918 0 0 0 0 -93.237144881942186 40.754188661765511 0 40.754188661765511 66.88819688701733 0 0 0 0 -96.281177935412416 50.750342532957802 0 50.750342532957802 47.132959867154568 0 0 0 0 -73.728434403886467 60.615692409669919 0 60.615692409669919 37.350137179717422 0 0 0 0 36.308722330029468 5.0131234339933144 0 5.0131234339933144 -13.837531426503119 0 0 0 0 -88.655088314788372 68.60804515775817 0 68.60804515775817 52.834990671715786 0 0 0 0 0.39794603490178915 -3.3878731484528153 0 -3.3878731484528153 8.3121639911768739 0 0 0 0 55.131777253696441 23.148652834583118 0 23.148652834583118 -40.921354055542906 0 0 0 0 124.25014103262401 -130.532266271548 0 -130.532266271548 -149.92628392617189 0 0 0 0 -314.13209031274619 18.761071007626015 0 18.761071007626015 300.63169364975329 0 0 0 0 0.61578108228813999 -2.5605802512069076 0 -2.5605802512069076 3.4302405795079096 0 0 0 0 76.109936782180739 -151.40777161728693 0 -151.40777161728693 -120.70364937876002 0 0 0 0 78.144938613680097 -193.68083674770605 0 -193.68083674770605 -3.2255396757827839 0 0 0 0 -106.35994741333809 71.658214610247342 0 71.658214610247342 181.03451513690379 0 0 0 0 -69.735278825175556 -74.28902753757211 0 -74.28902753757211 -6.8400707692089782 0 0 0 0 -15.797508205934719 -160.5568467735593 0 -160.5568467735593 86.787054019951029 0 0 0 0 -56.76552220765916 -46.824585297410522 0 -46.824585297410522 -31.153416433655366 0 0 0 0 77.457679096266475 -88.163459776644231 0 -88.163459776644231 -139.07344832575473 0 0 0 0 3.3159335427618366 0.07924764807373208 0 0.07924764807373208 -0.51589295983745131 0 0 0 0 -43.274092554137496 -0.98138626178115373 0 -0.98138626178115373 375.90212523538867 0 0 0 0 25.480558562111582 -70.423282640822435 0 -70.423282640822435 63.919683079860988 0 0 0 0 17.126506958681603 -153.73228733533688 0 -153.73228733533688 195.89399891480571 0 0 0 0 -0.51617668068502098 -18.071640786365606 0 -18.071640786365606 29.654218583542388 0 0 0 0 22.264037472269592 -72.887259783368791 0 -72.887259783368791 -35.437839632635587 0 0 0 0 -46.790930362681138 62.26113251670904 0 62.26113251670904 -65.86740829331211 0 0 0 0 -21.761373018257473 34.036008638531712 0 34.036008638531712 -34.539941893737705 0 0 0 0 5.4485811923591427 -29.479555873984282 0 -29.479555873984282 5.3143070597288897 0 0 0 0 -0.34063486288141576 -1.0833241029940837 0 -1.0833241029940837 -11.636054322894779 0 0 0 0 -42.470995918208246 9.329201858738088 0 9.329201858738088 56.777909052769246 0 0 0 0 -2.4839675897828783 -12.48363154069375 0 -12.48363154069375 57.426475871037837 0 0 0 0 0.21273950656450324 -20.318334906962264 0 -20.318334906962264 61.26528857604535 0 0 0 0 1.8778498944730018 -7.2281095810649276 0 -7.2281095810649276 56.477586552573484 0 0 0 0 -3.8576915848984754 -19.418617533981433 0 -19.418617533981433 54.065573873995163 0 0 0 0 -0.69539938853631611 -15.971085197854336 0 -15.971085197854336 33.247109401803755 0 0 0 0 -14.910861808135223 -14.143412034427001 0 -14.143412034427001 78.459669292533363 0 0 0 0 -10.395826099778219 -26.899575748436746 0 -26.899575748436746 29.400610635377234 0 0 0 0 0.37869754499723562 2.8773416125404125 0 2.8773416125404125 10.00759495759872 0 0 0 0 4.620648177287876 4.6513462359835103 0 4.6513462359835103 68.209891096985302 0 0 0 0 1.4271568277452253 1.1789195924886116 0 1.1789195924886116 0.26740545108362568 0 0 0 0 116.60309624510774 -39.113756702641695 0 -39.113756702641695 -91.781617385429854 0 0 0 0 -4.0845093567854747 10.539731662482154 0 10.539731662482154 117.24429309405969 0 0 0 0 -120.38959175604941 -123.74749930543476 0 -123.74749930543476 27.318975941012468 0 0 0 0 -3.9155814423706943 -76.380722278287067 0 -76.380722278287067 8.6750111809597001 0 0 0 0 -16.4105538032818 -80.496790192104527 0 -80.496790192104527 309.34214939846424 0 0 0 0 187.5189661900813 166.57741617915235 0 166.57741617915235 7.7295726954653219 0 0 0 0 35.839547696589307 -221.49808439551634 0 -221.49808439551634 79.919653231656412 0 0 0 0 -14.075488135765681 -1.624136401920623 0 -1.624136401920623 76.323951745172963 0 0 0 0 1.6590189090538843 9.3076499802846229 0 9.3076499802846229 55.737884452755679 0 0 0 0 -1.2246866908651519 8.0423471381902161 0 8.0423471381902161 7.6352527688595231 0 0 0 0 100.1046180666923 25.159826121324386 0 25.159826121324386 -118.05372295997222 0 0 0 0 -3.2747222267531999 -5.7174929890913546 0 -5.7174929890913546 5.9614753886559662 0 0 0 0 -3.5291377176379228 7.6174778756976593 0 7.6174778756976593 60.44752083741696 0 0 0 0 0.19763994019285724 -2.3309310688234586 0 -2.3309310688234586 31.712865020294615 0 0 0 0 0.0034362104543106398 4.8108012546945247 0 4.8108012546945247 53.81485509648337 0 0 0 0 -0.41897761616690055 -4.8005761347854374 0 -4.8005761347854374 15.885400865353965 0 0 0 0 -0.7560262136098177 -3.8918843844836908 0 -3.8918843844836908 51.005015413015983 0 0 0 0 36.589053048243841 -156.20559683871397 0 -156.20559683871397 -123.11699763941579 0 0 0 0 -102.0691988887902 -8.9574583199464541 0 -8.9574583199464541 57.676056386175333 0 0 0 0 -86.068804283639565 28.880085736494038 0 28.880085736494038 146.33506921115622 0 0 0 0 -101.08617552651776 -62.37032058623663 0 -62.37032058623663 286.04087325790169 0 0 0 0 0.71635258520182798 1.6230836690280341 0 1.6230836690280341 11.277478862303376 0 0 0 0 -2.0025637642061156 -19.099426772487277 0 -19.099426772487277 109.03726356729021 0 0 0 0 4.2945287275923647 -0.11120003439646098 0 -0.11120003439646098 61.007265360669408 0 0 0 0 45.541830565472083 -39.279412403779133 0 -39.279412403779133 36.257135946776543 0 0 0 0 -19.128454146001332 -21.590009182618815 0 -21.590009182618815 45.47022810919043 0 0 0 0 -0.37641869079481616 0.8949646706320209 0 0.8949646706320209 12.752666051191817 0 0 0 0 -4.5495861712193459 5.2157935049860953 0 5.2157935049860953 68.171306684260344 0 0 0 0 10.160821066992867 -20.864104680847959 0 -20.864104680847959 9.5478013704328077 0 0 0 0 -13.142598796059247 -35.953644397315657 0 -35.953644397315657 51.547827362599492 0 0 0 0 -16.918252618609131 -14.195265776699671 0 -14.195265776699671 32.852267667247361 0 0 0 0 -21.209394113916005 3.2587351169695467 0 3.2587351169695467 106.9903356260038 0 0 0 0 1.302006481980384 0.51975528109377933 0 0.51975528109377933 10.890137163689317 0 0 0 0 -14.646127897570068 -13.612086717092097 0 -13.612086717092097 14.438767792427825 0 0 0 0 0.2325823292731668 -4.8132387862594337 0 -4.8132387862594337 40.852591022908683 0 0 0 0 -6.7596033445836383 5.720845261357681 0 5.720845261357681 60.210235784146789 0 0 0 0 -10.3271968582917 -16.716705578431174 0 -16.716705578431174 32.704750400174817 0 0 0 0 0.65901749888021022 -5.7509151193562627 0 -5.7509151193562627 40.763047040228955 0 0 0 0 -15.528618706738598 -22.317580654818812 0 -22.317580654818812 28.53205888271259 0 0 0 0 -19.475953192949873 2.2756451042332628 0 2.2756451042332628 85.673983694152412 0 0 0 0 -23.33766139156387 -21.896572742552962 0 -21.896572742552962 37.107542562598837 0 0 0 0 -24.834571255406331 -30.301869786943826 0 -30.301869786943826 22.342280069318804 0 0 0 0 -19.424229050904387 -21.127408484533589 0 -21.127408484533589 37.191245283604076 0 0 0 0 -56.794633500179287 -30.916655668790554 0 -30.916655668790554 50.14108606259515 0 0 0 0 -36.436772746606721 -34.549552485951608 0 -34.549552485951608 7.8439567681016342 0 0 0 0 -35.517170311125938 -27.20056259156263 0 -27.20056259156263 41.560209575057797 0 0 0 0 -32.848498579316129 -24.074707116384161 0 -24.074707116384161 41.882388704367941 0 0 0 0 -45.11624211103171 -26.975230109163022 0 -26.975230109163022 48.673126123625025 0 0 0 0 -52.97467890032496 -14.920956857113197 0 -14.920956857113197 79.852472073014724 0 0 0 0 -46.952432786283509 -17.331338296838567 0 -17.331338296838567 22.343950036902243 0 0 0 0 -46.657985572253665 -33.715034886366993 0 -33.715034886366993 48.243472257559915 0 0 0 0 -45.022458993253736 -35.595274839706235 0 -35.595274839706235 -35.27259241725551 0 0 0 0 -99.127122043791019 -27.19490146571934 0 -27.19490146571934 20.487157013900287 0 0 0 0 -43.820168204877547 -28.185723392716682 0 -28.185723392716682 7.1246059736627103 0 0 0 0 -26.848586844240003 -36.657939672866632 0 -36.657939672866632 -23.760589567378702 0 0 0 0 0.59490602640526768 -0.34334933456921135 0 -0.34334933456921135 -0.20351032698620486 0 0 0 0 1.7048605476044116 95.854223396135012 0 95.854223396135012 177.28926436128677 0 0 0 0 -15.197238258450909 -52.15486142305781 0 -52.15486142305781 151.7939568731199 0 0 0 0 -52.251251323667418 -111.77259732589482 0 -111.77259732589482 69.292327345494414 0 0 0 0 12.236504971573282 60.165289778694387 0 60.165289778694387 -116.50892971401117 0 0 0 0 -39.307090738355441 66.789724031468722 0 66.789724031468722 9.4364650572379105 0 0 0 0 -116.23675548715634 215.74291758137474 0 215.74291758137474 249.44214462041055 0 0 0 0 0.25039972413853073 0.3111898984155701 0 0.3111898984155701 -0.20206998618121474 0 0 0 0 -120.77069915254435 -105.67210037020959 0 -105.67210037020959 -80.31991586148979 0 0 0 0 -167.42345774379777 -12.291335933836308 0 -12.291335933836308 24.194507496300503 0 0 0 0 -55.322262156041688 32.337165608416399 0 32.337165608416399 23.830639681586035 0 0 0 0 7.3777512142978594 16.416276904688857 0 16.416276904688857 27.735639664242626 0 0 0 0 -14.959851149823862 3.5705011108402687 0 3.5705011108402687 37.427243344565795 0 0 0 0 0.26920460935652057 -2.0312220372614895 0 -2.0312220372614895 20.813949318654721 0 0 0 0 -29.011537681996742 4.4092883078392333 0 4.4092883078392333 0.15139264376557549 0 0 0 0 -32.731457919016748 -15.745878940556395 0 -15.745878940556395 26.017538492429594 0 0 0 0 -68.399388575345711 10.838256674735021 0 10.838256674735021 -0.037164794120144506 0 0 0 0 -63.595443404922207 0.3937433629644147 0 0.3937433629644147 22.323671942674991 0 0 0 0 -52.362799281954153 6.1238274320894561 0 6.1238274320894561 12.068375879960513 0 0 0 0 -66.644445516938958 5.7109157304612381 0 5.7109157304612381 19.278003246534354 0 0 0 0 117.03116752703863 88.563961562523446 0 88.563961562523446 67.27076571071666 0 0 0 0 0.11667795691256044 -1.047337994245428 0 -1.047337994245428 12.919781573353916 0 0 0 0 331.01412476993517 243.87136745780731 0 243.87136745780731 160.09909322006388 0 0 0 0 -29.434220721833299 -93.586652397448233 0 -93.586652397448233 121.77044814752117 0 0 0 0 0.30690937472068835 -0.56319256689583419 0 -0.56319256689583419 4.403211654227988 0 0 0 0 -69.154559477524458 -18.527364906371986 0 -18.527364906371986 154.82602747572855 0 0 0 0 -9.7512024467392848 -54.33062812139724 0 -54.33062812139724 26.718056813155272 0 0 0 0 -84.909722729837995 -74.204851191071612 0 -74.204851191071612 246.24201252314742 0 0 0 0 -92.711244468291056 111.35650864445779 0 111.35650864445779 287.90754662329709 0 0 0 0 385.81742939506739 -32.911196709751493 0 -32.911196709751493 -149.76469426784388 0 0 0 0 -158.20874574882691 92.814899780803898 0 92.814899780803898 350.41178255117393 0 0 0 0 7.3792343146620869 3.1290000154496482 0 3.1290000154496482 0.29998733103758113 0 0 0 0 156.99563630551205 383.87927745550405 0 383.87927745550405 1979.0412883444833 0 0 0 0 -18.570862467129476 409.0908602359782 0 409.0908602359782 2501.2239250959938 0 0 0 0 43.509444437521232 588.59460806058087 0 588.59460806058087 2200.9673629306544 0 0 0 0 2.727034669293289 10.050271315605968 0 10.050271315605968 -3.7883875649000274 0 0 0 0 -29.754050602815255 74.833477780794055 0 74.833477780794055 71.781374087157019 0 0 0 0 -0.50608636489853254 719.85499425500234 0 719.85499425500234 1856.5186159659625 0 0 0 0 -160.16080410642769 1032.56655154279 0 1032.56655154279 2495.8061622344608 0 0 0 0 2.2230669606019937 13.217315896726973 0 13.217315896726973 79.852320248435717 0 0 0 0 1.0065534898861017 54.796462105334285 0 54.796462105334285 77.373153112941509 0 0 0 0 -34.160872497574587 5.0042404240284668 0 5.0042404240284668 76.887094976478693 0 0 0 0 -16.157594097196579 21.982575251438902 0 21.982575251438902 78.057618800570367 0 0 0 0 -50.99919658338888 61.97257691761115 0 61.97257691761115 109.11200546613691 0 0 0 0 -79.765358715741058 89.942416289803077 0 89.942416289803077 94.808782236172192 0 0 0 0 -57.245419211474982 9.106936889280405 0 9.106936889280405 138.44027777269275 0 0 0 0 -67.810214198431467 -21.373057990995449 0 -21.373057990995449 85.773783931301296 0 0 0 0 -40.411513073445462 -2.7810516889112478 0 -2.7810516889112478 69.882481291882868 0 0 0 0 -44.49791866356486 -15.781893146766379 0 -15.781893146766379 74.473757953819586 0 0 0 0 -19.817138799271333 -7.0160999980435008 0 -7.0160999980435008 51.293976368695894 0 0 0 0 -29.893762157255651 -19.004474870896956 0 -19.004474870896956 50.46440853202148 0 0 0 0 -30.512607481935902 -11.597516787109271 0 -11.597516787109271 46.209100871461487 0 0 0 0 -21.322612675190044 -17.070209881161645 0 -17.070209881161645 38.357268204603315 0 0 0 0 1.0944933257429681 -6.1582727031275919 0 -6.1582727031275919 36.868770422162889 0 0 0 0 -13.77167497624805 10.751745953246427 0 10.751745953246427 51.734723755251252 0 0 0 0 -26.031220534171894 -13.993621699495634 0 -13.993621699495634 47.20991437475459 0 0 0 0 -8.4045100860876119 27.955565387814204 0 27.955565387814204 75.036247433679819 0 0 0 0 -18.717426616424063 22.841624976052117 0 22.841624976052117 101.46160033397609 0 0 0 0 -18.53898097437775 0.98952626041545955 0 0.98952626041545955 72.866429893896566 0 0 0 0 -8.8093049585259529 16.189320957570761 0 16.189320957570761 -0.23192253934514895 0 0 0 0 4.2552492220050588 5.930571976596859 0 5.930571976596859 1.2365573407067743 0 0 0 0 46.977619087879376 -295.69038519664173 0 -295.69038519664173 2498.4508572279515 0 0 0 0 896.26232179480382 466.76789771395033 0 466.76789771395033 212.10411642340841 0 0 0 0 -140.60427101107672 938.70591590391268 0 938.70591590391268 2496.7483337165468 0 0 0 0 44.643364641712672 -247.16015684996125 0 -247.16015684996125 1609.1455429612906 0 0 0 0 -7.2208537847963612 8.6687731980055105 0 8.6687731980055105 24.471938987244357 0 0 0 0 -1.281239344220181 5.2768029169547361 0 5.2768029169547361 12.424189639114623 0 0 0 0 -9.6601716853861888 12.269835012422845 0 12.269835012422845 58.690286676115647 0 0 0 0 -7.7719315636338706 15.331094048761759 0 15.331094048761759 23.872488248420343 0 0 0 0 -29.434570301083568 8.0256123173294327 0 8.0256123173294327 65.712938305247008 0 0 0 0 -3.0321345227798 0.760353855803098 0 0.760353855803098 35.064679862430474 0 0 0 0 221.06002644272138 137.6788615170899 0 137.6788615170899 -0.13547510765238258 0 0 0 0 -18.803848371404271 11.186196790461885 0 11.186196790461885 29.411093254390991 0 0 0 0 -3.4426297815116063 0.21647291541470715 0 0.21647291541470715 32.9767925787786 0 0 0 0 -321.1057848977814 -150.82655397036433 0 -150.82655397036433 258.1762420870873 0 0 0 0 491.07800731155589 -177.60668837970661 0 -177.60668837970661 -252.42479243946036 0 0 0 0 99.425840436815534 -517.00723057153846 0 -517.00723057153846 2828.6137897611916 0 0 0 0 4.978491620227592 -2.4050140002189409 0 -2.4050140002189409 4.9070779363094843 0 0 0 0 4.670863902041722 -1.0773313785564902 0 -1.0773313785564902 1.4009910007904409 0 0 0 0 982.45043114028863 -1340.9823124627292 0 -1340.9823124627292 2499.0442329461684 0 0 0 0 -131.03597921630131 -876.78524101383664 0 -876.78524101383664 2355.9879330779859 0 0 0 0 896.48361106115283 -1058.410384204486 0 -1058.410384204486 767.17628522672021 0 0 0 0 -78.45555214124613 -6.8544875053667056 0 -6.8544875053667056 552.15545995070488 0 0 0 0 -14.975863826947261 8.9273917007110413 0 8.9273917007110413 19.201459581319796 0 0 0 0 -8.1137669622557951 -5.8617578622761357 0 -5.8617578622761357 25.330361106505734 0 0 0 0 -15.713753080007791 -8.8360929944101372 0 -8.8360929944101372 30.628423637994274 0 0 0 0 -0.052512897794258606 -3.7639993196407318 0 -3.7639993196407318 28.542248401339748 0 0 0 0 -9.8121854402279496 -6.329087516913205 0 -6.329087516913205 27.872613209867268 0 0 0 0 -16.017714910345603 7.3455027268528283 0 7.3455027268528283 21.651139445843 0 0 0 0 -0.62067120932533726 -3.1030906156192941 0 -3.1030906156192941 18.840610655672208 0 0 0 0 527.38913173253604 441.47820686525984 0 441.47820686525984 425.54105665268753 0 0 0 0 181.69036808411965 156.03997169322611 0 156.03997169322611 249.97874672367561 0 0 0 0 369.42155922398558 497.52621298771078 0 497.52621298771078 455.0572027104281 0 0 0 0 -76.922510302135379 -143.5366942899409 0 -143.5366942899409 45.210060073173736 0 0 0 0 -2.6300486310456108 216.40216255798623 0 216.40216255798623 390.63963154921703 0 0 0 0 94.217390369899704 -106.12386313157037 0 -106.12386313157037 89.072333872694799 0 0 0 0 144.5821208415191 137.28240560017184 0 137.28240560017184 312.64107179772873 0 0 0 0 60.918859691571015 -49.939023656993413 0 -49.939023656993413 14.930821704650953 0 0 0 0 27.691196489533468 -228.20804448729177 0 -228.20804448729177 -34.681578872807222 0 0 0 0 185.18226764605424 -22.498039748591054 0 -22.498039748591054 -75.474645657332758 0 0 0 0 132.48932274532217 127.46489043918882 0 127.46489043918882 284.18792649112902 0 0 0 0 -472.77989243461798 -80.629467764720289 0 -80.629467764720289 351.68685308385591 0 0 0 0 299.70162154431318 -247.60821303844079 0 -247.60821303844079 97.954804295009353 0 0 0 0 660.41432334794081 297.48492661166961 0 297.48492661166961 809.13740476430485 0 0 0 0 490.6036314756131 526.66927392885532 0 526.66927392885532 556.43839812995793 0 0 0 0 327.33645730475746 65.951673886958361 0 65.951673886958361 262.80142162891116 0 0 0 0 347.62859265125599 470.65512112252031 0 470.65512112252031 791.04309250907272 0 0 0 0 710.11421240010304 875.36973643887859 0 875.36973643887859 954.99993692022872 0 0 0 0 288.90133470921177 617.96042259356477 0 617.96042259356477 1118.5980084831735 0 0 0 0 170.43983855026386 320.24350872294644 0 320.24350872294644 598.53287246340687 0 0 0 0 334.59428276883102 672.95414700742026 0 672.95414700742026 934.03429578908526 0 0 0 0 437.02766001639588 749.26927628351405 0 749.26927628351405 947.09591354372469 0 0 0 0 440.46429004942411 434.37876588864356 0 434.37876588864356 511.18391403500573 0 0 0 0 362.61638122170234 402.29853772837168 0 402.29853772837168 402.85638331085011 0 0 0 0 9.6448800951384328 -37.534998783594347 0 -37.534998783594347 323.10794625933522 0 0 0 0 157.24190201568629 68.894935743450958 0 68.894935743450958 110.64758596401043 0 0 0 0 71.228660762007848 -24.05792367074082 0 -24.05792367074082 12.634752601225955 0 0 0 0 0.90004053994699351 -2.2260440551075042 0 -2.2260440551075042 3.1986082956318604 0 0 0 0 285.63666904953823 417.32891386649135 0 417.32891386649135 728.93816188407618 0 0 0 0 -30.709848038743075 258.87852409565858 0 258.87852409565858 848.35723138653702 0 0 0 0 183.49420510660298 236.59089426202809 0 236.59089426202809 320.7205702930496 0 0 0 0 142.74687516637147 129.7309050239046 0 129.7309050239046 44.597899175643761 0 0 0 0 2.969256120410364 -17.601340710202749 0 -17.601340710202749 201.54644675459804 0 0 0 0 112.62910290614582 -67.869988916271723 0 -67.869988916271723 -35.849735832460283 0 0 0 0 21.700958543766319 35.75536919401975 0 35.75536919401975 -58.22799415695772 0 0 0 0 5.3992790021464332 1.4490831508120019 0 1.4490831508120019 -1.9178445781574176 0 0 0 0 658.89580532862965 513.90450281712219 0 513.90450281712219 -372.67803759200979 0 0 0 0 17.743214091376782 7.5023860845112758 0 7.5023860845112758 6.2097796786236152 0 0 0 0 23.19643515444767 14.880016115024773 0 14.880016115024773 -14.076276492218312 0 0 0 0 27.404191251514135 -39.920577402871913 0 -39.920577402871913 18.293761770564743 0 0 0 0 57.415141365544059 -26.883423097830018 0 -26.883423097830018 5.9752230600424809 0 0 0 0 68.577586361681824 -78.12710812626392 0 -78.12710812626392 48.847213313271823 0 0 0 0 32.469639890356689 -27.976068594742856 0 -27.976068594742856 25.487999420276537 0 0 0 0 -37.270234189577423 -5.3292336873478234 0 -5.3292336873478234 67.144932804660129 0 0 0 0 -2.6331683263476577 -1.6734891847177042 0 -1.6734891847177042 23.906197783332942 0 0 0 0 23.169789284496801 95.510983317974024 0 95.510983317974024 -187.06325881477824 0 0 0 0 109.628663857638 -113.99631690957131 0 -113.99631690957131 -218.3885177244847 0 0 0 0 74.604759383760211 -127.81309482321331 0 -127.81309482321331 -48.30725125267054 0 0 0 0 0.67573976568152805 -2.8195497012243376 0 -2.8195497012243376 0.94448967723918642 0 0 0 0 17.181623015414516 -51.713527951087599 0 -51.713527951087599 -58.126900575809486 0 0 0 0 21.33283350760712 7.044509140237551 0 7.044509140237551 82.475543147891585 0 0 0 0 -178.56007677715661 -163.26705097128524 0 -163.26705097128524 17.677114001480732 0 0 0 0 7.9748658537363823 -15.028613882580617 0 -15.028613882580617 10.318087892108117 0 0 0 0 1.2676518182958203 1.5240918988794618 0 1.5240918988794618 75.548268274184124 0 0 0 0 -20.823838992862875 -76.333508226189224 0 -76.333508226189224 -73.996290712698283 0 0 0 0 10.345415490423573 -10.908814059124079 0 -10.908814059124079 27.244888518308358 0 0 0 0 18.547225707597136 -7.5172351165286955 0 -7.5172351165286955 21.174823259905565 0 0 0 0 5.5649901275658067 -6.7273153543689403 0 -6.7273153543689403 38.550986882437996 0 0 0 0 18.30485108474204 -43.937477220908931 0 -43.937477220908931 -16.091906377914711 0 0 0 0 55.129292193534638 -46.165991733066221 0 -46.165991733066221 -58.188427083162424 0 0 0 0 35.254101295691726 -20.779711609473452 0 -20.779711609473452 9.4065680586500093 0 0 0 0 80.744631451545501 -21.407069919050628 0 -21.407069919050628 -35.097566287024165 0 0 0 0 27.412022798026157 20.760680275412255 0 20.760680275412255 18.591490528790402 0 0 0 0 70.170143858775532 95.665012439268821 0 95.665012439268821 -82.61320414889633 0 0 0 0 -29.060747805494429 31.903993115671256 0 31.903993115671256 61.545220147761938 0 0 0 0 6.0122069227947277 4.0358701063532045 0 4.0358701063532045 5.3032195405636564 0 0 0 0 39.462714439919637 -9.8875903646203369 0 -9.8875903646203369 18.663879353660377 0 0 0 0 19.820896639228977 18.052635904785348 0 18.052635904785348 57.837105792554212 0 0 0 0 -17.596840384272127 -22.940017318753689 0 -22.940017318753689 63.848523955733981 0 0 0 0 21.031293758939228 11.242325930861625 0 11.242325930861625 49.328188191811932 0 0 0 0 19.35796869657861 21.976615367513659 0 21.976615367513659 75.043666941888659 0 0 0 0 20.720389612866256 24.948939064895967 0 24.948939064895967 79.058754102941748 0 0 0 0 25.969302021695512 21.806149779073166 0 21.806149779073166 76.485063717749483 0 0 0 0 17.468512951886623 -1.3701704904888174 0 -1.3701704904888174 74.205764534963237 0 0 0 0 43.791842985938388 43.128135932603982 0 43.128135932603982 101.46838237679185 0 0 0 0 6.5061670520422012 -3.6306020542688202 0 -3.6306020542688202 146.33780811621182 0 0 0 0 83.05612077931255 71.437094575834635 0 71.437094575834635 21.222614052014251 0 0 0 0 69.491399108594123 -19.911493419640465 0 -19.911493419640465 74.158219896635273 0 0 0 0 38.368941166221852 15.242646868613406 0 15.242646868613406 28.868520410345987 0 0 0 0 11.524276527142398 0.013710461444748745 0 0.013710461444748745 -9.8202055452449386 0 0 0 0 -1.5186490092550788 -3.4758686140665151 0 -3.4758686140665151 27.468303935360737 0 0 0 0 143.22745351188587 90.918366267336751 0 90.918366267336751 -34.732067333559826 0 0 0 0 173.79935479373034 -27.929096268378089 0 -27.929096268378089 15.566280971801461 0 0 0 0 -143.75687981037811 -64.367894990131617 0 -64.367894990131617 220.42653844972665 0 0 0 0 2.6513957157512351 0.11944008738361589 0 0.11944008738361589 -0.17601185653037632 0 0 0 0 99.460113139051828 -43.01304798314959 0 -43.01304798314959 62.973958561662585 0 0 0 0 -31.119314313031282 34.245461530630564 0 34.245461530630564 207.69896630306175 0 0 0 0 65.155437605491443 48.526649537554476 0 48.526649537554476 24.327560602107042 0 0 0 0 78.193427053972755 -10.743277796002076 0 -10.743277796002076 57.783049123056117 0 0 0 0 82.414748891720592 18.408494362604756 0 18.408494362604756 -2.8732211039023241 0 0 0 0 -16.220067714449215 69.791733668225788 0 69.791733668225788 32.137063148369634 0 0 0 0 62.366919842788775 37.098481364530926 0 37.098481364530926 30.536655738496847 0 0 0 0 74.743841209201946 46.499266091479512 0 46.499266091479512 34.054013060398574 0 0 0 0 34.15955756476751 44.678746401616081 0 44.678746401616081 52.173398471381233 0 0 0 0 57.340759516876005 42.012911829148834 0 42.012911829148834 51.758492483586451 0 0 0 0 46.588988011996889 26.510591336437301 0 26.510591336437301 57.306498140980693 0 0 0 0 61.067551911472492 71.959071411306468 0 71.959071411306468 78.99526636002156 0 0 0 0 17.437092788989958 47.532327127071767 0 47.532327127071767 83.603035412870668 0 0 0 0 7.3436471501493088 15.523777080678883 0 15.523777080678883 67.726118797640765 0 0 0 0 37.263121340760335 17.866011528119088 0 17.866011528119088 67.390982777840691 0 0 0 0 22.320095076909183 26.412310195137252 0 26.412310195137252 76.376403211595857 0 0 0 0 23.740900411185521 27.409938503351441 0 27.409938503351441 68.26801497822089 0 0 0 0 14.13445641209637 26.100895411243982 0 26.100895411243982 68.788738568118788 0 0 0 0 18.683551826396524 30.782854712895642 0 30.782854712895642 63.992309532020954 0 0 0 0 6.250969619953139 32.058196904206852 0 32.058196904206852 77.841302528564484 0 0 0 0 34.817957723585096 41.011712880005689 0 41.011712880005689 70.133390791892452 0 0 0 0 12.136904049403256 24.902211275561058 0 24.902211275561058 63.76550645208772 0 0 0 0 -4.6064675472634331 5.0731189656633493 0 5.0731189656633493 66.300925540170098 0 0 0 0 5.941612419044759 15.404903128095611 0 15.404903128095611 58.456483010373631 0 0 0 0 15.388264721341784 25.438917102593223 0 25.438917102593223 67.540186556367189 0 0 0 0 37.281799131107277 3.7028060534932479 0 3.7028060534932479 51.98576673802836 0 0 0 0 -15.222724814654384 6.1141717989548852 0 6.1141717989548852 65.693999132852696 0 0 0 0 -3.9748536806720347 8.2148724269079434 0 8.2148724269079434 49.315281240670046 0 0 0 0 -8.7202533471527204 11.783683360230498 0 11.783683360230498 61.648663717904128 0 0 0 0 -6.3374290792799002 5.2284035376032989 0 5.2284035376032989 60.188882722904054 0 0 0 0 -3.0122653782855195 17.488362225096353 0 17.488362225096353 73.030860487095197 0 0 0 0 -26.877510297783829 -5.5212984241443337 0 -5.5212984241443337 80.975512101889763 0 0 0 0 -7.6227295269500246 8.3188509110077575 0 8.3188509110077575 65.661853123259789 0 0 0 0 -8.1544673288661258 24.160102909064534 0 24.160102909064534 93.174287571640889 0 0 0 0 374.68728190882393 1143.9905334481959 0 1143.9905334481959 2602.5606549230251 0 0 0 0 -0.61393713067317002 -5.1632928003359879 0 -5.1632928003359879 10.94137600784199 0 0 0 0 -3.8664073099539564 -3.6115337020673905 0 -3.6115337020673905 48.765325848167777 0 0 0 0 799.70070574667261 1021.4180429495555 0 1021.4180429495555 2647.5908349015713 0 0 0 0 967.5855394713908 1509.3910131225966 0 1509.3910131225966 2513.6683909231542 0 0 0 0 1279.7051175424349 1803.5508042174115 0 1803.5508042174115 4658.7629275065483 0 0 0 0 670.10518058527941 1392.7193588107802 0 1392.7193588107802 4471.2495156579935 0 0 0 0 0.73862366820880432 -0.56710386720758166 0 -0.56710386720758166 0.25842180002457837 0 0 0 0 -421.99294668640505 1065.0528352646506 0 1065.0528352646506 4727.8683918723546 0 0 0 0 52.702612527964902 64.008458812953904 0 64.008458812953904 76.680110454833084 0 0 0 0 50.721500928290112 73.170350869421668 0 73.170350869421668 103.25747721272637 0 0 0 0 16.078823134641425 33.889776322905163 0 33.889776322905163 76.843759584799045 0 0 0 0 -17.050451936543141 29.018163014425227 0 29.018163014425227 127.24702512045315 0 0 0 0 5.9688984400117366 -2.9212195611265415 0 -2.9212195611265415 2.5505514765133608 0 0 0 0 -25.482092623092285 -73.108348008864596 0 -73.108348008864596 21.027378821125239 0 0 0 0 -48.217184537480676 453.32654814385023 0 453.32654814385023 2156.6243745850334 0 0 0 0 494.18062606379749 481.66802969838318 0 481.66802969838318 1831.6224197895517 0 0 0 0 255.11782068303 674.75632742390053 0 674.75632742390053 1799.0913720736698 0 0 0 0 946.13781102896985 469.78298727982246 0 469.78298727982246 1843.5585158605245 0 0 0 0 97.529129085035393 468.03478894769114 0 468.03478894769114 2153.0607220240854 0 0 0 0 360.34548946070413 165.06419738262412 0 165.06419738262412 2497.3519606178925 0 0 0 0 958.14364285821921 757.89682369075263 0 757.89682369075263 1574.291465230539 0 0 0 0 487.93632976972879 1018.2151951914461 0 1018.2151951914461 2095.5644194458255 0 0 0 0 6.2308755514408345 -6.8584696763207464 0 -6.8584696763207464 13.808195556134164 0 0 0 0 485.12256782436594 1322.935618951233 0 1322.935618951233 1790.1820344289572 0 0 0 0 352.79390545490082 944.72068953389044 0 944.72068953389044 2542.3566372766395 0 0 0 0 853.60762776149863 1490.7622160048163 0 1490.7622160048163 2499.2216438257947 0 0 0 0 819.02096574409984 750.84353911697053 0 750.84353911697053 1322.9502488984926 0 0 0 0 3.5653244534676096 -1.5343197838774891 0 -1.5343197838774891 8.1349923183992559 0 0 0 0 640.94024283558724 1135.089173110618 0 1135.089173110618 1932.3445776312701 0 0 0 0 350.9700812860716 1161.8699833164396 0 1161.8699833164396 2499.6822271157985 0 0 0 0 242.13544987831355 901.82530654777884 0 901.82530654777884 2178.7446140740203 0 0 0 0 193.09605743334197 785.35392100511672 0 785.35392100511672 1908.0237053608626 0 0 0 0 441.40980700553075 1051.2665550319516 0 1051.2665550319516 1750.8115671084036 0 0 0 0 564.62447615488486 1023.5607228859956 0 1023.5607228859956 1917.6083188216492 0 0 0 0 499.85230868912913 1146.5321474416273 0 1146.5321474416273 1902.9437218279597 0 0 0 0 1319.2155632258093 1088.5043153454872 0 1088.5043153454872 1483.8904313246203 0 0 0 0 1063.8219825842848 2442.7764060753925 0 2442.7764060753925 3610.0849528124209 0 0 0 0 1287.8090032528903 1740.0070999159448 0 1740.0070999159448 1948.5800719209456 0 0 0 0 7.7095019751652387 2.429609917804326 0 2.429609917804326 8.2903334954809722 0 0 0 0 239.27526203509387 1992.9080629893842 0 1992.9080629893842 5188.9364730266007 0 0 0 0 873.22754350778177 1364.0891654370785 0 1364.0891654370785 2779.8154114830872 0 0 0 0 2.4638338872475503 -3.8480728335696366 0 -3.8480728335696366 10.217631751100377 0 0 0 0 431.54437527233108 547.05169933695561 0 547.05169933695561 1395.8984817348123 0 0 0 0 819.99161268651176 649.19830106279232 0 649.19830106279232 1252.0178526545683 0 0 0 0 332.74090743697752 587.14102337091731 0 587.14102337091731 2748.4381739481369 0 0 0 0 576.35361809946153 1285.1767859139727 0 1285.1767859139727 1619.3687147964965 0 0 0 0 993.65706433366631 869.26487873468818 0 869.26487873468818 223.14777980547728 0 0 0 0 141.23693825602143 700.70361057234186 0 700.70361057234186 1635.567686817089 0 0 0 0 572.11033521145225 1109.169905577603 0 1109.169905577603 1568.6493165486845 0 0 0 0 141.82585234740958 680.73019328961766 0 680.73019328961766 2169.2065545433129 0 0 0 0 430.06682570988693 587.39316681547893 0 587.39316681547893 1917.9481385720567 0 0 0 0 71.388279134926535 533.65999613098302 0 533.65999613098302 1998.834527270476 0 0 0 0 70.017274730767525 445.73775270450687 0 445.73775270450687 1918.0059246831352 0 0 0 0 138.18706621977569 815.40745424950853 0 815.40745424950853 2500.1629640055221 0 0 0 0 -164.69679367843958 286.97946705093682 0 286.97946705093682 2496.3748828933076 0 0 0 0 -224.56999146490307 -49.679183741840404 0 -49.679183741840404 1748.8387974026084 0 0 0 0 -103.53229239986578 -234.44594899764576 0 -234.44594899764576 825.64839909604279 0 0 0 0 -184.61464136175857 434.39953464892847 0 434.39953464892847 1710.3647536064022 0 0 0 0 -4.1550619332758458 558.31932129180882 0 558.31932129180882 1645.9860584029802 0 0 0 0 63.023552415306824 427.66663357533935 0 427.66663357533935 1890.7449853836033 0 0 0 0 355.36609119785294 873.83271833539857 0 873.83271833539857 1783.2093287270363 0 0 0 0 -255.52495943362129 764.8733166332554 0 764.8733166332554 2499.5700671638024 0 0 0 0 -2.2270824571367522 -1.3894828523958349 0 -1.3894828523958349 7.4170191389294331 0 0 0 0 544.06154659869821 1274.856658747718 0 1274.856658747718 2499.089715003578 0 0 0 0 32.530567752196816 561.13072730015119 0 561.13072730015119 1209.1059460756535 0 0 0 0 29.697203187284629 571.16913639558538 0 571.16913639558538 1751.1588421281303 0 0 0 0 -18.870754857686393 555.88439424054559 0 555.88439424054559 1714.9717478780919 0 0 0 0 -4.2618735895763935 -3.66664451769336 0 -3.66664451769336 11.155012778984425 0 0 0 0 109.33129733642363 457.4538227984167 0 457.4538227984167 1672.1261626901737 0 0 0 0 -33.366661546870262 498.26671997208837 0 498.26671997208837 1745.9175731603596 0 0 0 0 41.748803946258491 654.77269955212546 0 654.77269955212546 1850.8377986329747 0 0 0 0 0.10470184138702621 525.29716600565496 0 525.29716600565496 1702.891924193254 0 0 0 0 -6.6781487004275419 551.3064382441911 0 551.3064382441911 1647.8210126933541 0 0 0 0 146.92644465425735 528.64178586395337 0 528.64178586395337 1650.9472933166328 0 0 0 0 125.47225727922483 582.95197789007625 0 582.95197789007625 1516.8482864243854 0 0 0 0 278.20936377537873 849.36892811262499 0 849.36892811262499 1437.7830901016623 0 0 0 0 0.048082563125142141 0.22833833434524209 0 0.22833833434524209 2.9177982042430344 0 0 0 0 257.9953082231421 516.01441812218445 0 516.01441812218445 1160.0570165361332 0 0 0 0 326.14369653237691 553.52245207823125 0 553.52245207823125 1035.9759700383315 0 0 0 0 409.98793147200479 383.66147695981044 0 383.66147695981044 1168.9908847751494 0 0 0 0 329.6438548713262 557.66913199056307 0 557.66913199056307 1034.187423717497 0 0 0 0 37.386508192218571 410.07274141158359 0 410.07274141158359 1526.6514897901902 0 0 0 0 0.64523979344894822 -0.21105315866098096 0 -0.21105315866098096 3.5752240587248227 0 0 0 0 17.071538859178304 375.54836478906918 0 375.54836478906918 1755.0682976139813 0 0 0 0 189.79549199654411 249.18460291580323 0 249.18460291580323 1273.9348669856563 0 0 0 0 0.40431147504510268 -0.38335088043605481 0 -0.38335088043605481 2.7127732172489498 0 0 0 0 82.659311229437819 366.53856214179228 0 366.53856214179228 1424.508090041134 0 0 0 0 64.767698044661984 236.40335178004261 0 236.40335178004261 1142.4073486383795 0 0 0 0 185.78130574136003 214.77260482585052 0 214.77260482585052 823.87157534937796 0 0 0 0 56.645364548666521 127.25941881209383 0 127.25941881209383 1205.1885469190001 0 0 0 0 -70.312328490044422 383.67838693848353 0 383.67838693848353 1061.520001333969 0 0 0 0 80.491277317423624 363.91659306107829 0 363.91659306107829 343.84794933741796 0 0 0 0 35.744857838553003 130.16008204650279 0 130.16008204650279 744.04364306936895 0 0 0 0 76.124167845572288 493.39108212245083 0 493.39108212245083 779.06464843048298 0 0 0 0 97.091938455049672 134.11392457109559 0 134.11392457109559 176.10193401804099 0 0 0 0 281.90235131930137 30.784327201628912 0 30.784327201628912 161.94283874588109 0 0 0 0 918.99640328477767 731.8869304809723 0 731.8869304809723 730.34000331971947 0 0 0 0 284.78893968353896 -389.32806749672272 0 -389.32806749672272 -65.038676885035784 0 0 0 0 8.1177795474955179 2.5936860687286991 0 2.5936860687286991 1.2233979844988117 0 0 0 0 867.9619935485423 -511.76269195220084 0 -511.76269195220084 -56.682191739440896 0 0 0 0 28.881071998818605 297.85505885416762 0 297.85505885416762 1273.6737622749297 0 0 0 0 16.247441898299826 -69.89915150224806 0 -69.89915150224806 359.93889589900573 0 0 0 0 660.07327122509332 82.705300718896069 0 82.705300718896069 1174.9363141403746 0 0 0 0 45.364026400876583 216.40812793657187 0 216.40812793657187 1409.1365237225691 0 0 0 0 885.77107880583685 609.30213191049734 0 609.30213191049734 923.9856707570907 0 0 0 0 250.98135082491231 331.53895747970273 0 331.53895747970273 1204.6683031946468 0 0 0 0 274.89294479870301 369.68573565817792 0 369.68573565817792 1017.980490442631 0 0 0 0 760.8207345607417 373.60209131280862 0 373.60209131280862 988.52748713683786 0 0 0 0 34.564895532149251 60.029232265151222 0 60.029232265151222 788.48119752234197 0 0 0 0 -65.403636655512742 173.89343772867323 0 173.89343772867323 1071.3401842773128 0 0 0 0 56.35827098932873 335.50387767286975 0 335.50387767286975 741.56899676554713 0 0 0 0 42.723067233033362 144.24481275097332 0 144.24481275097332 466.42873921641512 0 0 0 0 23.953342105458432 358.27867066743511 0 358.27867066743511 865.59080870194884 0 0 0 0 97.827376289266908 442.99775979463175 0 442.99775979463175 1225.1155282804539 0 0 0 0 -14.332847239030457 202.39767972770642 0 202.39767972770642 1013.9030785591585 0 0 0 0 127.09650858648638 450.86500839683322 0 450.86500839683322 1089.7454998438207 0 0 0 0 101.36237949688768 254.66205181799251 0 254.66205181799251 1383.2831339458071 0 0 0 0 102.24951114637301 409.62316189074886 0 409.62316189074886 1595.0360008092703 0 0 0 0 164.08162221697202 234.53476719069977 0 234.53476719069977 1462.6643087580596 0 0 0 0 122.0527959114944 383.63559195299399 0 383.63559195299399 1239.8696261081895 0 0 0 0 28.858659566842334 149.68672117207097 0 149.68672117207097 1438.7655986518494 0 0 0 0 25.258963334610655 -11.516412505288827 0 -11.516412505288827 1689.8270023585928 0 0 0 0 49.391732382874693 277.53067734520573 0 277.53067734520573 1743.6953954831606 0 0 0 0 -220.65110864926055 69.243050557878632 0 69.243050557878632 1968.3675443096727 0 0 0 0 -192.44765554483746 -61.760466819147041 0 -61.760466819147041 1721.5702349164367 0 0 0 0 83.212944298295838 157.05905332321072 0 157.05905332321072 1818.0856586393097 0 0 0 0 216.93840480556105 932.29865342988114 0 932.29865342988114 2680.5053879999905 0 0 0 0 -2.1782151506292173 -1.6164092145766986 0 -1.6164092145766986 6.2231261513806473 0 0 0 0 -346.22228650980355 -309.11613319937169 0 -309.11613319937169 705.74768457959181 0 0 0 0 -89.794486721741094 682.58696479669288 0 682.58696479669288 1687.0441711448166 0 0 0 0 -492.98242411674306 -52.909770818339211 0 -52.909770818339211 1943.0381679268321 0 0 0 0 -631.28109094885008 308.76125409863562 0 308.76125409863562 2499.6723076971721 0 0 0 0 -526.64545847265185 319.71112954854743 0 319.71112954854743 1938.0587981424601 0 0 0 0 -145.16306005107387 -187.67495360351109 0 -187.67495360351109 1826.8046873279582 0 0 0 0 -410.36740067307255 71.95369757953813 0 71.95369757953813 1811.6338593403325 0 0 0 0 -387.45179577349938 -46.045434200847922 0 -46.045434200847922 2087.3026416956545 0 0 0 0 -372.35574774000355 -283.36195451810636 0 -283.36195451810636 2499.2416563366714 0 0 0 0 -335.55903143293619 -339.10426571168318 0 -339.10426571168318 1930.2200309835007 0 0 0 0 -273.08316684776946 -565.90865426510754 0 -565.90865426510754 2500.8773529956616 0 0 0 0 -129.3267767898347 -240.99593547529935 0 -240.99593547529935 1890.7593392829294 0 0 0 0 -72.358927452314333 -656.38016930397862 0 -656.38016930397862 1720.4500143360619 0 0 0 0 141.43885454998014 -1546.5674696690858 0 -1546.5674696690858 2493.8352313500109 0 0 0 0 2.0018416212684005 -4.9202894058819027 0 -4.9202894058819027 11.998567918244447 0 0 0 0 475.38277814742969 -1321.7480423599382 0 -1321.7480423599382 122.74532261348213 0 0 0 0 -65.192410181034916 208.11076929527917 0 208.11076929527917 13.612855290259176 0 0 0 0 267.05947912190084 -447.5782108475114 0 -447.5782108475114 1277.9972368622475 0 0 0 0 -28.034649102460868 -662.41917557337001 0 -662.41917557337001 1130.1257561593466 0 0 0 0 14.930127262363101 -76.790542213338995 0 -76.790542213338995 993.12464452113181 0 0 0 0 69.006427784351985 -230.94130538216882 0 -230.94130538216882 1382.2473217822571 0 0 0 0 -385.43220150662944 -45.992542184922058 0 -45.992542184922058 1346.6198492052899 0 0 0 0 68.885303972218836 -85.908575681118236 0 -85.908575681118236 1233.2440389545645 0 0 0 0 82.285157105484174 -119.4274949602077 0 -119.4274949602077 1301.8019868357296 0 0 0 0 29.031997648093515 -64.474123678457573 0 -64.474123678457573 1472.9649926904513 0 0 0 0 27.86788843594303 -309.48886561272229 0 -309.48886561272229 1610.547745312806 0 0 0 0 15.44688806955989 -255.15861767690512 0 -255.15861767690512 1376.7901821413952 0 0 0 0 -617.03260610640291 198.82732201584986 0 198.82732201584986 2499.0393930899936 0 0 0 0 -59.610748601197869 -456.41086308219474 0 -456.41086308219474 1748.3362607202271 0 0 0 0 -259.76509104660238 -657.32479775726824 0 -657.32479775726824 1558.1391814296112 0 0 0 0 -86.175154859837363 1135.0892540582263 0 1135.0892540582263 2497.0660669662407 0 0 0 0 -299.512193229937 257.09281780856145 0 257.09281780856145 399.76786991319386 0 0 0 0 -828.0018384887029 -52.943464670734102 0 -52.943464670734102 1037.4075195881242 0 0 0 0 -490.64066309340961 215.72625716906487 0 215.72625716906487 1050.9527906794792 0 0 0 0 2.6206561434881004 -11.549324261805573 0 -11.549324261805573 25.576355477461838 0 0 0 0 -85.726647014996331 586.18053074883392 0 586.18053074883392 798.72750015205565 0 0 0 0 -630.73859539686964 -418.88713190772887 0 -418.88713190772887 495.48245475570366 0 0 0 0 -347.41447718132167 -215.82408809331901 0 -215.82408809331901 2102.6558549475194 0 0 0 0 -341.32709358710332 -464.07907570528005 0 -464.07907570528005 1589.5552212912589 0 0 0 0 -52.311977547093818 -1397.6184015949766 0 -1397.6184015949766 4060.5963410275681 0 0 0 0 -182.79296542472892 822.51440615520096 0 822.51440615520096 3435.5200806628854 0 0 0 0 889.74263277582691 -1021.2850733253363 0 -1021.2850733253363 -245.20497509360393 0 0 0 0 2.0647039623138133 -6.1462612716550673 0 -6.1462612716550673 13.55538270247699 0 0 0 0 374.87172573650707 -1947.1737625266323 0 -1947.1737625266323 742.30901526310117 0 0 0 0 274.6762838519482 -1195.825060535245 0 -1195.825060535245 1904.1920253426724 0 0 0 0 308.93000857363899 -880.77412085812421 0 -880.77412085812421 862.85836869086779 0 0 0 0 857.21101529379166 -2281.1365517768136 0 -2281.1365517768136 1648.9560897102019 0 0 0 0 1717.3227430323047 -514.21773562938688 0 -514.21773562938688 4064.9382292065457 0 0 0 0 330.87118152060964 -1562.547823911631 0 -1562.547823911631 3761.4500386223372 0 0 0 0 -969.33715015818689 406.60295612548725 0 406.60295612548725 3455.1164200677013 0 0 0 0 -473.12947019611249 138.38589444178069 0 138.38589444178069 1611.1741892524878 0 0 0 0 -290.50570931923721 -1770.203353520159 0 -1770.203353520159 4295.7625553450562 0 0 0 0 -598.98339391617219 -907.56717186387323 0 -907.56717186387323 1897.6487626256639 0 0 0 0 -413.21109732397576 -618.8659781773531 0 -618.8659781773531 2324.4400539621711 0 0 0 0 -495.52998302383332 228.73768540372475 0 228.73768540372475 1704.4291545110264 0 0 0 0 -251.62613743568011 -243.49084142989341 0 -243.49084142989341 1554.2837413173183 0 0 0 0 -455.98855102121161 -414.5189513399705 0 -414.5189513399705 1458.2296857335896 0 0 0 0 -135.52970171287166 -789.52476178436336 0 -789.52476178436336 1555.4774596193092 0 0 0 0 -270.07501768957945 -761.21686130661328 0 -761.21686130661328 1773.6438828157043 0 0 0 0 37.989911223896911 -335.69161152278321 0 -335.69161152278321 83.026191943601589 0 0 0 0 -32.070913556636782 -294.72578119832997 0 -294.72578119832997 -96.983891473129916 0 0 0 0 -2.1795694609301393 -125.62345816319657 0 -125.62345816319657 277.47674766340788 0 0 0 0 -14.02453038492115 -132.59765336464079 0 -132.59765336464079 286.9099526436039 0 0 0 0 -242.41186019385293 14.578363296248426 0 14.578363296248426 830.63111295476119 0 0 0 0 -148.41847306298962 -42.814724729843874 0 -42.814724729843874 828.63165496454894 0 0 0 0 -65.773661794422992 92.290942552886918 0 92.290942552886918 225.15819100993394 0 0 0 0 -173.87687588144377 -203.3235052173477 0 -203.3235052173477 -453.00857142975656 0 0 0 0 -0.36814165098951751 -2.1576247960964032 0 -2.1576247960964032 17.190096329087083 0 0 0 0 -851.22028928754366 724.10846804352695 0 724.10846804352695 1672.4655511148303 0 0 0 0 -329.61794610942798 783.61861556845724 0 783.61861556845724 480.38082284739357 0 0 0 0 -870.54666274995395 -228.87877421351914 0 -228.87877421351914 153.64651249154485 0 0 0 0 -344.01012300003345 -290.5671705246059 0 -290.5671705246059 88.547058480849955 0 0 0 0 -333.69667313680361 -48.28337827856376 0 -48.28337827856376 -19.031232970410201 0 0 0 0 -1.9302705151396622 -3.2434130231309517 0 -3.2434130231309517 35.546228864377682 0 0 0 0 185.87838181625301 -74.163520210012848 0 -74.163520210012848 -73.258014200626349 0 0 0 0 -223.21827443551547 -16.235050492086884 0 -16.235050492086884 297.44447210173348 0 0 0 0 632.20619715829798 -284.13316406555896 0 -284.13316406555896 -366.40130129879253 0 0 0 0 1638.6798918838924 -1971.1940468852526 0 -1971.1940468852526 1632.1467694764942 0 0 0 0 303.70398587940753 -996.22732250060926 0 -996.22732250060926 1622.3705066990115 0 0 0 0 92.474894456179527 -278.24668043481324 0 -278.24668043481324 663.37308752319768 0 0 0 0 70.554371331461482 -390.62253758632687 0 -390.62253758632687 563.96162510998693 0 0 0 0 117.89213287549057 118.26738997987741 0 118.26738997987741 104.70015688181593 0 0 0 0 239.72503107810775 309.53102540635518 0 309.53102540635518 772.27978247106466 0 0 0 0 124.9476445490092 -8.2178694092399382 0 -8.2178694092399382 -99.328203575656516 0 0 0 0 -2.5957801198172774 0.75122350446278574 0 0.75122350446278574 5.5122822114172578 0 0 0 0 132.45152131769703 573.4670206679607 0 573.4670206679607 1233.6842924422708 0 0 0 0 118.25515222811208 -468.36566278412829 0 -468.36566278412829 1032.3908354877167 0 0 0 0 0.69225528182323681 -1.9553391077134283 0 -1.9553391077134283 4.1885677697009811 0 0 0 0 -198.74832037033013 -64.807480002298689 0 -64.807480002298689 35.225524888315704 0 0 0 0 -2.1283485715942749 -4.6649445126818172 0 -4.6649445126818172 35.74679707903023 0 0 0 0 -188.77390664496829 100.8927453927281 0 100.8927453927281 128.1736292980604 0 0 0 0 -128.69225953446721 -174.37159557652558 0 -174.37159557652558 -47.391230148190516 0 0 0 0 -219.27927761937872 -235.172563391312 0 -235.172563391312 154.29329458832217 0 0 0 0 -171.88153400638021 -320.61011314814277 0 -320.61011314814277 191.95212838343286 0 0 0 0 -76.731669016761316 -264.29146436484007 0 -264.29146436484007 48.089003246488573 0 0 0 0 182.28808631599696 -239.35254633027398 0 -239.35254633027398 567.39612120186575 0 0 0 0 -171.82008616327028 -287.207675240752 0 -287.207675240752 -397.29998497105043 0 0 0 0 4.8055699967160379 -9.1767395322602496 0 -9.1767395322602496 6.7944554449180128 0 0 0 0 -92.681487771842811 4.8163890934847586 0 4.8163890934847586 1111.7951462001147 0 0 0 0 1.9751056556819897 -5.8724860610072085 0 -5.8724860610072085 1.4523424509488461 0 0 0 0 113.50839376065522 -110.59737732474241 0 -110.59737732474241 -754.8650443185943 0 0 0 0 1.3012437533248939 -0.87579434300138814 0 -0.87579434300138814 -0.34265197458258534 0 0 0 0 -74.473466687460018 -57.70746596610843 0 -57.70746596610843 -668.75511416509107 0 0 0 0 -168.46202386288633 -219.24308314233349 0 -219.24308314233349 286.48886810137628 0 0 0 0 -15.523568259326566 -158.56383492883469 0 -158.56383492883469 114.86675788963475 0 0 0 0 -57.762313575027463 -269.06930164283312 0 -269.06930164283312 41.47243218577205 0 0 0 0 -78.288309175379027 -303.97007078654133 0 -303.97007078654133 48.779159221850932 0 0 0 0 299.09799991055968 32.396267787533361 0 32.396267787533361 1091.6768092612915 0 0 0 0 412.74130943341856 228.68301013654946 0 228.68301013654946 1159.8879152285717 0 0 0 0 160.43731300245685 155.48827260257167 0 155.48827260257167 1145.1805023801317 0 0 0 0 208.71984879218161 67.173708602060287 0 67.173708602060287 1299.7812522653439 0 0 0 0 111.51392985762755 -87.045767470773626 0 -87.045767470773626 1060.4288851952315 0 0 0 0 -38.941279156431392 -87.757337631494011 0 -87.757337631494011 1258.1538651522578 0 0 0 0 -64.994932814151142 -196.31576274608142 0 -196.31576274608142 1417.1232123765176 0 0 0 0 204.80006738936552 -68.394641684591988 0 -68.394641684591988 703.40734625570803 0 0 0 0 59.14271938933544 -437.34742710210719 0 -437.34742710210719 1067.1899026176434 0 0 0 0 221.40003386595444 -113.34836141253709 0 -113.34836141253709 820.42723440472582 0 0 0 0 108.46550136421311 8.1454561755099348 0 8.1454561755099348 816.99709302026167 0 0 0 0 232.49023460697592 88.01328338397343 0 88.01328338397343 596.95116287252858 0 0 0 0 264.48192115297383 195.17301402127214 0 195.17301402127214 955.02097141817785 0 0 0 0 407.14605459612392 190.70765690850067 0 190.70765690850067 1010.0253488087892 0 0 0 0 308.28306626178124 110.18745810124938 0 110.18745810124938 1119.8641886261194 0 0 0 0 302.41195431269927 62.495663604289803 0 62.495663604289803 984.68842451783166 0 0 0 0 633.72872588487087 1.0773875283630332 0 1.0773875283630332 1155.8537215966771 0 0 0 0 754.66133624027327 512.36655001339386 0 512.36655001339386 1024.6884194149352 0 0 0 0 290.85577044804597 241.33271979264828 0 241.33271979264828 1477.2820580416083 0 0 0 0 231.34830831706745 122.81228378138258 0 122.81228378138258 767.60647842109211 0 0 0 0 352.6914219098378 391.4896371833247 0 391.4896371833247 899.6545534604993 0 0 0 0 204.48510187491144 380.81228018577076 0 380.81228018577076 1090.9677089880388 0 0 0 0 308.33806466316753 320.79245162431005 0 320.79245162431005 994.08480620290538 0 0 0 0 82.725861367842583 370.78791834643926 0 370.78791834643926 994.16954784077188 0 0 0 0 254.19527586119474 272.79602306040442 0 272.79602306040442 1050.1250060844322 0 0 0 0 150.63575964099556 243.93215081389098 0 243.93215081389098 1042.1011035892607 0 0 0 0 198.30334486447271 354.5436861287335 0 354.5436861287335 993.1588021896896 0 0 0 0 385.02352842090602 338.13562685691795 0 338.13562685691795 949.54645123943374 0 0 0 0 69.710680550595953 -34.264083730428865 0 -34.264083730428865 839.33723615670533 0 0 0 0 321.63967968674967 143.68812247462051 0 143.68812247462051 1076.3661970568537 0 0 0 0 183.92405843225731 416.17676764509361 0 416.17676764509361 1119.758588037701 0 0 0 0 0.69457938978255074 -1.4109580908910608 0 -1.4109580908910608 5.3000456337327222 0 0 0 0 250.60717993088463 -171.97133215314898 0 -171.97133215314898 121.17255378106893 0 0 0 0 -172.41402303116638 87.574142460654912 0 87.574142460654912 207.31802862388031 0 0 0 0 232.45887582786781 57.468293055346294 0 57.468293055346294 205.53082423569049 0 0 0 0 173.55750366001121 -174.39280115682959 0 -174.39280115682959 -116.01929315832604 0 0 0 0 126.49141675064743 145.58711296258116 0 145.58711296258116 39.745688215871269 0 0 0 0 -84.583871976545424 -12.627862253106287 0 -12.627862253106287 568.05015473811727 0 0 0 0 147.93850894876618 177.24286617187499 0 177.24286617187499 733.29517865060188 0 0 0 0 251.1266298626972 130.40317305838653 0 130.40317305838653 563.97665144431448 0 0 0 0 15.985016267854007 152.96279727755609 0 152.96279727755609 795.44061196917482 0 0 0 0 248.23906689527291 404.91593706947242 0 404.91593706947242 937.27452722934322 0 0 0 0 -80.233034845192151 142.84193422066028 0 142.84193422066028 767.1343578324304 0 0 0 0 -123.91129691413073 52.471408469966264 0 52.471408469966264 932.21076217296468 0 0 0 0 -84.698223158700586 38.499866682725497 0 38.499866682725497 1012.842269552355 0 0 0 0 -100.80012306028519 45.968760474115697 0 45.968760474115697 1036.764300955263 0 0 0 0 -78.375512645315993 -22.624794813080371 0 -22.624794813080371 976.73841843167611 0 0 0 0 249.806671859891 314.67951940803141 0 314.67951940803141 1133.5086633207975 0 0 0 0 -131.25817039444291 -74.555606596359212 0 -74.555606596359212 1398.8098684545439 0 0 0 0 -73.384780621482577 69.845553234736144 0 69.845553234736144 917.97233013267578 0 0 0 0 350.07442190659526 166.12608100926172 0 166.12608100926172 306.6242814006946 0 0 0 0 -38.622126427780756 -22.47021173520352 0 -22.47021173520352 773.70512813418827 0 0 0 0 340.8469473046855 280.87305929130162 0 280.87305929130162 841.12962158789651 0 0 0 0 455.46566337502242 62.433432413481569 0 62.433432413481569 958.01807622054912 0 0 0 0 289.0702690687109 30.926218404396423 0 30.926218404396423 1301.657663799524 0 0 0 0 95.162375650907336 236.85000214471711 0 236.85000214471711 1096.760598370307 0 0 0 0 133.27576840273107 242.71914062597443 0 242.71914062597443 1055.8006457296469 0 0 0 0 337.35374930760918 252.13593804731681 0 252.13593804731681 1055.1827272386895 0 0 0 0 150.76129534549608 269.14098814799041 0 269.14098814799041 1111.3568712076103 0 0 0 0 178.81888949320685 157.35726281187453 0 157.35726281187453 1050.2116489702603 0 0 0 0 240.86276184137 401.79218720422614 0 401.79218720422614 510.25289690831778 0 0 0 0 55.742808985767851 294.94925775419688 0 294.94925775419688 719.81663914997216 0 0 0 0 403.12308271225692 451.54398698041587 0 451.54398698041587 715.64258513404639 0 0 0 0 3.6413879189634781 1.5701354687130049 0 1.5701354687130049 1.1498297991077129 0 0 0 0 70.249897112239296 478.8978747407773 0 478.8978747407773 1335.7772396063247 0 0 0 0 170.53616748729087 444.43332628552707 0 444.43332628552707 758.50755126633885 0 0 0 0 74.989747924675157 312.56714042531985 0 312.56714042531985 753.64244596796925 0 0 0 0 97.948400480760256 -229.30816734611926 0 -229.30816734611926 644.62698301053751 0 0 0 0 -70.024864651685675 -84.575712541065514 0 -84.575712541065514 53.156718864927825 0 0 0 0 8.5365450925837649 92.017861665324745 0 92.017861665324745 11.739281405742076 0 0 0 0 3.5499347774389429 2.6253402016766714 0 2.6253402016766714 1.1261007373152836 0 0 0 0 4.3743492287115231 2.5583112464587998 0 2.5583112464587998 3.2282765915870613 0 0 0 0 11.604565285472859 405.63122919377201 0 405.63122919377201 1129.0020532311319 0 0 0 0 345.65089379043502 568.00137684335095 0 568.00137684335095 787.41994770375823 0 0 0 0 -91.502153425070389 117.15759924920894 0 117.15759924920894 591.60555863286572 0 0 0 0 120.4624800633711 218.07199132698827 0 218.07199132698827 505.40323056603665 0 0 0 0 120.1007551417888 454.92420873382071 0 454.92420873382071 787.08969560449623 0 0 0 0 99.178017794984868 61.659909834971359 0 61.659909834971359 232.07518235053794 0 0 0 0 91.723825262905848 257.20468949690985 0 257.20468949690985 475.67923546952079 0 0 0 0 114.92266027859023 85.222432767048304 0 85.222432767048304 107.20755404817828 0 0 0 0 39.837779839640802 47.099365083964585 0 47.099365083964585 235.84605429382646 0 0 0 0 -29.350806808061861 59.44314939402102 0 59.44314939402102 342.98458113123161 0 0 0 0 73.390446698028427 162.48484036833906 0 162.48484036833906 301.8260372618679 0 0 0 0 65.582869280135583 50.424914557768716 0 50.424914557768716 101.93567199293466 0 0 0 0 -10.969683671204166 45.729787278589356 0 45.729787278589356 101.69210045200862 0 0 0 0 0.53859660030475776 -0.36142516742614461 0 -0.36142516742614461 -0.45970357815140517 0 0 0 0 24.314553991312096 3.6616555474156485 0 3.6616555474156485 31.077409300676663 0 0 0 0 86.807825525198609 119.45957469067798 0 119.45957469067798 189.17579875087176 0 0 0 0 246.2491055806654 318.99197345639914 0 318.99197345639914 420.09644885229864 0 0 0 0 83.413676039243498 74.214060848509291 0 74.214060848509291 244.82473333571033 0 0 0 0 3.8177210977708 71.171835819848638 0 71.171835819848638 281.04361719426561 0 0 0 0 170.72797090136771 26.529131466175386 0 26.529131466175386 286.25025890782308 0 0 0 0 30.591951314787138 -46.387710421682641 0 -46.387710421682641 9.195706181713831 0 0 0 0 153.30458732643081 38.091195883245746 0 38.091195883245746 -42.767476306849858 0 0 0 0 18.083804298343466 7.6495622379416091 0 7.6495622379416091 -3.1675581775634782 0 0 0 0 11.623731670839561 5.6101413410647183 0 5.6101413410647183 25.148132326326959 0 0 0 0 6.61038766808311 -1.905529615571389 0 -1.905529615571389 6.5401696668091134 0 0 0 0 4.177635476125344 -3.8795346389977237 0 -3.8795346389977237 12.122961248318852 0 0 0 0 16.760680655061151 85.25747028898877 0 85.25747028898877 74.16874684463437 0 0 0 0 37.133023696367736 1.5204557795035392 0 1.5204557795035392 -1.4312480511094492 0 0 0 0 -580.8475251932141 323.80673025151918 0 323.80673025151918 600.93729167324636 0 0 0 0 -25.220233318283135 -209.80161384707571 0 -209.80161384707571 -89.152628919436665 0 0 0 0 60.710707011308159 41.03064972710763 0 41.03064972710763 66.626987839121284 0 0 0 0 8.6462168643535726 6.8912041746054609 0 6.8912041746054609 23.022348270218146 0 0 0 0 62.13361345122803 41.595438340325927 0 41.595438340325927 54.487223519878171 0 0 0 0 20.391707305243706 7.0611893025476604 0 7.0611893025476604 9.5140999493585525 0 0 0 0 16.991142918598719 15.138747904304473 0 15.138747904304473 19.470934690133959 0 0 0 0 9.1711484387196833 8.3548930975230178 0 8.3548930975230178 6.4771091119619086 0 0 0 0 33.743889646856466 18.410863671195166 0 18.410863671195166 10.783443761495718 0 0 0 0 16.917836465894652 10.272375409702363 0 10.272375409702363 21.984923189389519 0 0 0 0 20.532310524955392 15.255672715284163 0 15.255672715284163 21.419864065281217 0 0 0 0 20.835490714453044 14.39417041510751 0 14.39417041510751 25.799731881299522 0 0 0 0 20.842643446548209 17.382433323102305 0 17.382433323102305 27.818614139134297 0 0 0 0 21.95014776348944 12.138352746320379 0 12.138352746320379 15.152007489632524 0 0 0 0 23.851737606586539 21.606419938485487 0 21.606419938485487 23.181542477774201 0 0 0 0 34.779163767920181 5.9906762658501975 0 5.9906762658501975 7.787267532577971 0 0 0 0 20.494594323795045 5.6459588040356792 0 5.6459588040356792 14.063312692092353 0 0 0 0 20.290291650660933 3.0814798653110174 0 3.0814798653110174 8.2982935838454637 0 0 0 0 23.232514516246738 14.098089178783994 0 14.098089178783994 13.042654572462197 0 0 0 0 22.998375179064169 14.627172279491788 0 14.627172279491788 20.534301078529097 0 0 0 0 38.49135977144617 18.977641941827642 0 18.977641941827642 0.80760421083687106 0 0 0 0 41.18127022094427 18.576492460957525 0 18.576492460957525 -1.9586428479160531 0 0 0 0 9.5632879355789573 3.9976894938113103 0 3.9976894938113103 -0.19416126879958995 0 0 0 0 48.402025465519273 23.831600004183201 0 23.831600004183201 -32.040448505489621 0 0 0 0 66.74297130896116 -7.8995062662179407 0 -7.8995062662179407 -11.439478826338018 0 0 0 0 16.377817034163684 11.00068702007303 0 11.00068702007303 11.026603682308632 0 0 0 0 16.242788156561801 18.2272783236549 0 18.2272783236549 12.712381751691282 0 0 0 0 18.932919588980283 14.246898673870668 0 14.246898673870668 11.276273860664332 0 0 0 0 14.119039031608281 12.764982397941367 0 12.764982397941367 13.035148360562744 0 0 0 0 23.785246649751723 15.908202270841258 0 15.908202270841258 8.0972519221840713 0 0 0 0 10.54202352406719 9.5455178553820588 0 9.5455178553820588 1.3067212952009868 0 0 0 0 23.234691327479325 10.971113371113951 0 10.971113371113951 3.773375827949593 0 0 0 0 18.658937735931666 13.419139451896122 0 13.419139451896122 14.518800340032868 0 0 0 0 25.715049834761885 10.813101507301326 0 10.813101507301326 2.1094929770042654 0 0 0 0 28.783968000770358 19.666308572501705 0 19.666308572501705 12.950952239448753 0 0 0 0 21.453197744493082 12.606477720444673 0 12.606477720444673 14.40906742750667 0 0 0 0 25.998686585531686 18.022426417359384 0 18.022426417359384 11.855214245588286 0 0 0 0 26.667223252210533 17.115347585320706 0 17.115347585320706 26.335152675659629 0 0 0 0 25.706189770280616 20.303012031115941 0 20.303012031115941 47.647378261346603 0 0 0 0 16.153424440368326 23.078822621404925 0 23.078822621404925 36.187841240542184 0 0 0 0 0.26273742691465429 0.66478806159443593 0 0.66478806159443593 1.6012839319292169 0 0 0 0 20.756672129133221 15.678426579059305 0 15.678426579059305 27.316561475003255 0 0 0 0 6.7083024465030761 12.257947463850659 0 12.257947463850659 25.820008610599004 0 0 0 0 12.232049410028424 7.9684225598243259 0 7.9684225598243259 15.910218175776237 0 0 0 0 10.825957792170747 8.3890265171269647 0 8.3890265171269647 5.9956627952373296 0 0 0 0 16.214579104247491 8.9678356592145576 0 8.9678356592145576 -2.9294558134698576 0 0 0 0 19.870107666352851 18.229535367379867 0 18.229535367379867 15.629462137232622 0 0 0 0 24.254727650264613 12.999562402055744 0 12.999562402055744 12.99824929703027 0 0 0 0 24.136624666275793 13.782211910838669 0 13.782211910838669 14.266437784466689 0 0 0 0 22.449893801906001 14.375789248762885 0 14.375789248762885 12.37714070988477 0 0 0 0 23.518419567304591 12.466938895395288 0 12.466938895395288 12.675925833005749 0 0 0 0 22.542744051278024 6.0238083374157583 0 6.0238083374157583 -5.4614578356942403 0 0 0 0 24.151574843916478 11.939760751378344 0 11.939760751378344 10.852146056786296 0 0 0 0 24.936802418358639 13.897680609858071 0 13.897680609858071 6.7902238742171903 0 0 0 0 15.547803716378919 11.683194679799406 0 11.683194679799406 9.0155740999583429 0 0 0 0 6.9451576559461063 -1.2139688891784672 0 -1.2139688891784672 0.45575416425432991 0 0 0 0 25.452932471676149 15.925139796738222 0 15.925139796738222 10.429210587542912 0 0 0 0 -64.118700216905893 -6.8061461101345913 0 -6.8061461101345913 318.96262170801674 0 0 0 0 738.96358756001791 -189.0726321247239 0 -189.0726321247239 -42.744230836869974 0 0 0 0 54.578582909455918 -4.7524235173090581 0 -4.7524235173090581 -4.8992099425692892 0 0 0 0 85.674813266224191 17.497260538575574 0 17.497260538575574 20.868207274073029 0 0 0 0 167.17114737150405 12.126605766847206 0 12.126605766847206 -262.48440335506166 0 0 0 0 6.0607798285215857 -11.149110278039316 0 -11.149110278039316 -5.0198793935968276 0 0 0 0 -90.484767727437429 82.169314029721136 0 82.169314029721136 854.88669406130794 0 0 0 0 0.40844620479037985 22.332009290952556 0 22.332009290952556 146.75635578615766 0 0 0 0 -2.773149567656219 50.122092593157504 0 50.122092593157504 222.40945399369957 0 0 0 0 80.252935462503956 74.610603046305187 0 74.610603046305187 141.81419149244903 0 0 0 0 51.292653991626828 15.691382813212627 0 15.691382813212627 3.3999661949141124 0 0 0 0 112.98517204107702 -27.08399960479619 0 -27.08399960479619 57.457809967967478 0 0 0 0 125.83411929729118 164.75393886508209 0 164.75393886508209 196.39128984623676 0 0 0 0 8.1681406209047935 6.9711742372585945 0 6.9711742372585945 1.6193660907103542 0 0 0 0 73.461662649827304 161.70299380554388 0 161.70299380554388 400.73415205069614 0 0 0 0 76.370070398444113 -149.17729429078645 0 -149.17729429078645 116.15217202158965 0 0 0 0 12.195693234513199 -9.2411403874286684 0 -9.2411403874286684 6.3906429691906474 0 0 0 0 148.98577858118006 374.03251314052613 0 374.03251314052613 -63.536199127418627 0 0 0 0 -167.52678229100411 -297.24149156951262 0 -297.24149156951262 -55.553377068630653 0 0 0 0 184.15133043964215 -117.91312216590632 0 -117.91312216590632 -74.107581489480566 0 0 0 0 -452.45364525784282 406.41508172211297 0 406.41508172211297 -116.27138666040264 0 0 0 0 -152.17564038110186 358.852674438137 0 358.852674438137 436.73622499038174 0 0 0 0 1029.6237563219133 348.61281726627567 0 348.61281726627567 -488.26008335199003 0 0 0 0 384.04384382778471 13.145814617075303 0 13.145814617075303 43.637883959630926 0 0 0 0 224.91105757232162 47.509902009927828 0 47.509902009927828 22.64723820821564 0 0 0 0 381.54220580459889 -6.4528262072544749 0 -6.4528262072544749 -106.23204122000607 0 0 0 0 101.7185212850884 -21.496417085620124 0 -21.496417085620124 77.097788777158712 0 0 0 0 185.30210882333836 -159.62882895703842 0 -159.62882895703842 160.50878733945865 0 0 0 0 788.37016442128493 -404.27149297220421 0 -404.27149297220421 90.624784324965731 0 0 0 0 329.3749463119866 -100.15672221651766 0 -100.15672221651766 -105.8382433049297 0 0 0 0 -47.828687375767458 -10.190205097404942 0 -10.190205097404942 48.123909586302034 0 0 0 0 0.86106790093637908 -4.0828842041019193 0 -4.0828842041019193 11.158307990919916 0 0 0 0 -26.954018896622074 31.253627061385487 0 31.253627061385487 69.697387852433167 0 0 0 0 6.7237950917248615 -3.8037741439783161 0 -3.8037741439783161 1.8810701195753161 0 0 0 0 5.1273011499545191 24.172865216349237 0 24.172865216349237 -22.079977419638453 0 0 0 0 -132.38657190785671 -459.61157573012315 0 -459.61157573012315 575.60750437876413 0 0 0 0 -6.0667912101553156 32.899306012506713 0 32.899306012506713 6.3667941824824084 0 0 0 0 -22.317036210186188 53.972102728710524 0 53.972102728710524 -19.977120864732569 0 0 0 0 147.60590093905557 -135.88260163055202 0 -135.88260163055202 137.45676140619116 0 0 0 0 7.2026570260221501 -4.6876094546891167 0 -4.6876094546891167 3.1814327892507492 0 0 0 0 -319.94360589665484 -47.556536948606663 0 -47.556536948606663 376.95252785195589 0 0 0 0 217.56213170769843 322.32794214008027 0 322.32794214008027 -518.0973492727644 0 0 0 0 3.9440275977187893 -1.6344195992296768 0 -1.6344195992296768 0.58055454823249164 0 0 0 0 -38.954276638245574 72.034763759016641 0 72.034763759016641 75.956841558300937 0 0 0 0 8.0523454530439267 -35.776702714421845 0 -35.776702714421845 112.12876733330086 0 0 0 0 73.886430334867327 579.36997902228177 0 579.36997902228177 -128.51267269858727 0 0 0 0 -571.1435392309686 152.81234348871203 0 152.81234348871203 752.81183865327694 0 0 0 0 543.79858675081596 -0.96242634401914984 0 -0.96242634401914984 -211.32354062933518 0 0 0 0 51.752666017453784 -9.7625476792019228 0 -9.7625476792019228 -6.6135730219325239 0 0 0 0 19.706421954675534 108.77838416552731 0 108.77838416552731 128.82754625121379 0 0 0 0 730.53417889756565 -786.83236595995822 0 -786.83236595995822 -157.71741355575068 0 0 0 0 616.37165218812152 725.2173919411407 0 725.2173919411407 375.33467329364066 0 0 0 0 1194.2770594601825 -539.44070686248233 0 -539.44070686248233 -201.6818634171841 0 0 0 0 -310.41471209996234 690.01056336460351 0 690.01056336460351 892.4077754316786 0 0 0 0 199.90635588566511 998.00296494947543 0 998.00296494947543 611.04348959524395 0 0 0 0 -12.034701593758655 614.90779024390213 0 614.90779024390213 266.11520573766393 0 0 0 0 -66.877336561938137 -354.95692778209377 0 -354.95692778209377 2088.6904121994412 0 0 0 0 356.50027985205816 79.917885145838227 0 79.917885145838227 -126.62556492633666 0 0 0 0 975.36812047589774 736.55788473457505 0 736.55788473457505 890.62167917202987 0 0 0 0 9.4776258789347025 5.2752843603843189 0 5.2752843603843189 4.0568882988783912 0 0 0 0 -79.723460374392744 59.867792927951086 0 59.867792927951086 759.43340369687212 0 0 0 0 -16.136533950676267 6.516446576586759 0 6.516446576586759 653.0658315604669 0 0 0 0 -57.367850002076011 370.61999449446012 0 370.61999449446012 615.04345183240366 0 0 0 0 38.889735493576154 162.85434270435508 0 162.85434270435508 55.971684754993476 0 0 0 0 29.658946178620681 188.72567438506303 0 188.72567438506303 272.27772023364014 0 0 0 0 -28.858140189662663 76.340987790290455 0 76.340987790290455 443.53851547489103 0 0 0 0 -34.739809005626739 109.72513134714154 0 109.72513134714154 554.19616559416318 0 0 0 0 -31.136596752821788 100.65406197242555 0 100.65406197242555 590.18683149386197 0 0 0 0 -85.344420921716619 156.19387378090948 0 156.19387378090948 537.31069310629391 0 0 0 0 -21.738123459221242 213.46504817144341 0 213.46504817144341 805.385386986909 0 0 0 0 36.339604352404422 148.10016503920633 0 148.10016503920633 530.63438851745195 0 0 0 0 1.7783675939960091 -3.7144330172507214 0 -3.7144330172507214 2.7090832286410134 0 0 0 0 51.189009144220222 82.013988848945701 0 82.013988848945701 571.26657314796466 0 0 0 0 183.42670263242144 94.600307615243764 0 94.600307615243764 431.55394405864354 0 0 0 0 68.970078511973497 317.87780105202359 0 317.87780105202359 1184.9738763649966 0 0 0 0 2.0431684520699491 -47.860611445110408 0 -47.860611445110408 282.09128818106001 0 0 0 0 -41.332391734169505 49.425289722539674 0 49.425289722539674 611.75738974383239 0 0 0 0 -49.652613073072644 10.99293648589628 0 10.99293648589628 218.67370219391887 0 0 0 0 44.387688573231934 16.020236839823454 0 16.020236839823454 5.5339976733376961 0 0 0 0 89.889406701907319 63.501226542868608 0 63.501226542868608 22.970290788463899 0 0 0 0 69.437529291492865 -0.012825649169826647 0 -0.012825649169826647 80.649494676108588 0 0 0 0 108.53463787883084 34.441664616622802 0 34.441664616622802 110.65394535712585 0 0 0 0 261.02989694037115 -86.032410641440947 0 -86.032410641440947 166.7581051199486 0 0 0 0 -124.95909534843759 63.646034628871348 0 63.646034628871348 195.67925882646068 0 0 0 0 -19.276924384531412 72.718206200684108 0 72.718206200684108 159.48402094894846 0 0 0 0 -96.975996362555634 123.78724369423435 0 123.78724369423435 142.27768744050945 0 0 0 0 98.141361503316602 -154.20013274116218 0 -154.20013274116218 319.02930939579164 0 0 0 0 135.98040161908921 -106.42573347248435 0 -106.42573347248435 177.63202872156762 0 0 0 0 215.32011107243761 -80.099419970760209 0 -80.099419970760209 151.49019605226204 0 0 0 0 135.70854840354514 -156.05706955045571 0 -156.05706955045571 294.65684361285048 0 0 0 0 82.564446231326656 -108.77334569491904 0 -108.77334569491904 179.73312916071473 0 0 0 0 19.351352864364344 30.642968033716897 0 30.642968033716897 112.85333114139439 0 0 0 0 115.35938087883505 -45.654720726977757 0 -45.654720726977757 52.096422323662409 0 0 0 0 34.575315057999362 12.067856155254624 0 12.067856155254624 4.3726731017602276 0 0 0 0 90.19590018949657 -72.255785562362689 0 -72.255785562362689 596.36966280085835 0 0 0 0 -67.863296354280465 -247.13233699059128 0 -247.13233699059128 762.61107621212068 0 0 0 0 -58.832442879112932 -315.88990730279966 0 -315.88990730279966 -135.51811662343425 0 0 0 0 1.2649979822993203 -0.40386982100930879 0 -0.40386982100930879 0.96135989883445916 0 0 0 0 26.223716335931385 -57.687550771612223 0 -57.687550771612223 595.35258223430174 0 0 0 0 -44.300777088339601 -163.05934137721033 0 -163.05934137721033 507.93163438746888 0 0 0 0 32.285117965115205 62.797740680633069 0 62.797740680633069 611.79946623225351 0 0 0 0 31.514328746111573 83.604383697728451 0 83.604383697728451 548.73181288982414 0 0 0 0 103.54163251890532 -109.62230693181209 0 -109.62230693181209 218.79248491433009 0 0 0 0 62.580891242990219 -138.73061591460237 0 -138.73061591460237 389.51160672708284 0 0 0 0 31.692746015496596 -105.23566494074839 0 -105.23566494074839 763.87390979271004 0 0 0 0 21.373149183983386 7.5758920728511079 0 7.5758920728511079 3.5057299337505086 0 0 0 0 364.88817279418799 -358.89638769013345 0 -358.89638769013345 699.98286576853116 0 0 0 0 7.1605694902602792 2.6384432493865617 0 2.6384432493865617 2.2145238294949401 0 0 0 0 17.438872857616843 -23.340107693878963 0 -23.340107693878963 1163.0671806896607 0 0 0 0 207.22157383284321 -299.59361422598158 0 -299.59361422598158 506.3945981352399 0 0 0 0 420.49316875080979 -218.1919007460848 0 -218.1919007460848 346.89291160867288 0 0 0 0 210.44590577557778 -239.19944194918196 0 -239.19944194918196 329.87562706498647 0 0 0 0 216.60936112252875 -211.30776303067705 0 -211.30776303067705 361.38650772994606 0 0 0 0 230.91608791316958 -177.56799539669373 0 -177.56799539669373 249.04226208795171 0 0 0 0 286.51741624341048 -247.29958299004284 0 -247.29958299004284 297.35971094396336 0 0 0 0 344.9313125336339 -173.47959264808378 0 -173.47959264808378 206.42824364228727 0 0 0 0 247.41225061384284 -163.58343748264269 0 -163.58343748264269 223.11810235100529 0 0 0 0 72.75962539704642 -159.94549945988047 0 -159.94549945988047 314.93034799415182 0 0 0 0 37.355797103466557 -68.303522497913036 0 -68.303522497913036 237.88049858844533 0 0 0 0 133.85964490723472 -204.19333199478842 0 -204.19333199478842 333.90646885111346 0 0 0 0 191.3841728287025 -185.45027547046448 0 -185.45027547046448 339.62964514689884 0 0 0 0 145.04347095655339 -176.50553306208712 0 -176.50553306208712 283.40513078176446 0 0 0 0 112.78544879185938 -190.87107783391548 0 -190.87107783391548 380.52424446532314 0 0 0 0 137.06756146047337 -172.44852378392352 0 -172.44852378392352 268.36526848325866 0 0 0 0 126.4409288186821 -141.29845977741866 0 -141.29845977741866 468.20787327766811 0 0 0 0 116.24935935812664 -176.50940298217483 0 -176.50940298217483 380.91176579656917 0 0 0 0 139.59737353669152 -160.06807552273131 0 -160.06807552273131 329.05344367156795 0 0 0 0 176.00939876572465 -106.81495281512161 0 -106.81495281512161 400.94148477551062 0 0 0 0 164.89726954359776 16.533895042607583 0 16.533895042607583 376.91355765079243 0 0 0 0 151.99880574427883 -8.2456607410647962 0 -8.2456607410647962 475.999562257246 0 0 0 0 152.63507486337295 -15.035611129176687 0 -15.035611129176687 332.02764718224716 0 0 0 0 24.0899363203755 -43.317835060004199 0 -43.317835060004199 696.61330238667142 0 0 0 0 45.296101779753371 -6.6174300749344184 0 -6.6174300749344184 577.05677269141779 0 0 0 0 282.66199098184279 -174.64102653657301 0 -174.64102653657301 169.79836802974023 0 0 0 0 269.59032257959279 -69.76089173825676 0 -69.76089173825676 171.0405275102934 0 0 0 0 214.52897191806096 -165.29716510080334 0 -165.29716510080334 291.98532086160412 0 0 0 0 178.75573845642066 -93.773044094254146 0 -93.773044094254146 273.06583377100924 0 0 0 0 153.49101568387687 64.436396806915582 0 64.436396806915582 218.8926910066707 0 0 0 0 241.21890664868624 -57.079304675816275 0 -57.079304675816275 258.0238323870999 0 0 0 0 267.69815369267553 -105.85478150804647 0 -105.85478150804647 52.83012339574816 0 0 0 0 379.15722943251876 30.825618619742272 0 30.825618619742272 68.698891021537975 0 0 0 0 293.00279514644353 116.7285576907484 0 116.7285576907484 181.88129848200515 0 0 0 0 192.30797460738631 102.12818793007682 0 102.12818793007682 108.7175995312864 0 0 0 0 147.09594457402727 158.46484636783498 0 158.46484636783498 172.42560576212554 0 0 0 0 16.54891244202711 -3.9494387110024682 0 -3.9494387110024682 -0.010408831400695817 0 0 0 0 -7.0029586892376372 284.43643895588855 0 284.43643895588855 18.366927960107205 0 0 0 0 6.4039614156412465 -2.5510351432162892 0 -2.5510351432162892 0.87487511047521949 0 0 0 0 442.19646022888446 393.17192398925818 0 393.17192398925818 358.41624289813626 0 0 0 0 241.73101514866289 -707.69111882291406 0 -707.69111882291406 -342.14444855717193 0 0 0 0 20.218358667470401 -1.5553336980062689 0 -1.5553336980062689 0.8647188937087229 0 0 0 0 79.3454700288612 -26.333303355017051 0 -26.333303355017051 2.2142200615944603 0 0 0 0 2.5110129366369023 -1.606544705245053 0 -1.606544705245053 0.51960926742269109 0 0 0 0 119.62503360804817 38.894944115832004 0 38.894944115832004 -343.14091738612206 0 0 0 0 73.432439407064521 199.31742600620237 0 199.31742600620237 247.88681938825994 0 0 0 0 221.50655912077448 -145.9304885526235 0 -145.9304885526235 -662.30900746948009 0 0 0 0 -39.643879278981558 153.51311310958954 0 153.51311310958954 179.25475955056027 0 0 0 0 13.381811259636379 5.4778757613307789 0 5.4778757613307789 193.14087866498448 0 0 0 0 -46.5756689402657 -15.043951415162155 0 -15.043951415162155 477.23650707472007 0 0 0 0 21.659890684650925 6.6476066602342598 0 6.6476066602342598 2.6010569524491913 0 0 0 0 32.960944172369636 30.866066490940284 0 30.866066490940284 9.2077958740810573 0 0 0 0 114.17015942190957 152.48248110201735 0 152.48248110201735 -48.067188684382927 0 0 0 0 1.7953528270489798 1.1081721547617462 0 1.1081721547617462 2.4696914004097117 0 0 0 0 17.694710449213645 6.8592111219254406 0 6.8592111219254406 3.0522058674917147 0 0 0 0 337.87873608875907 -76.242938939389205 0 -76.242938939389205 62.170127087878427 0 0 0 0 -8.9660743430267758 -235.37210316514938 0 -235.37210316514938 482.18555583123816 0 0 0 0 -29.071867042506884 213.38763741101519 0 213.38763741101519 404.74483934864838 0 0 0 0 122.94087380322742 60.399849928717231 0 60.399849928717231 505.37902896294509 0 0 0 0 706.64420544464144 -233.22117004407784 0 -233.22117004407784 362.6954653916473 0 0 0 0 146.7593794695911 454.18118364690736 0 454.18118364690736 1479.1471310288762 0 0 0 0 7.4928078748866689 2.357523340828493 0 2.357523340828493 1.9161957660524003 0 0 0 0 125.26170084608839 -368.30084476788033 0 -368.30084476788033 644.3625145919832 0 0 0 0 32.556978576821393 -201.95351903580558 0 -201.95351903580558 515.08685515030993 0 0 0 0 -12.264737830837475 -274.87714418717133 0 -274.87714418717133 976.7481804441868 0 0 0 0 422.56452403820259 -483.36396648342367 0 -483.36396648342367 666.25604240138273 0 0 0 0 236.65819370661478 -271.54814069701865 0 -271.54814069701865 727.35304317478949 0 0 0 0 -142.34539056201311 -29.32922855200195 0 -29.32922855200195 579.50758437123113 0 0 0 0 96.063717604624799 136.75177493457886 0 136.75177493457886 10.333445964615748 0 0 0 0 5.0988606176817086 -4.2919433869228918 0 -4.2919433869228918 3.7703618638989056 0 0 0 0 340.56962583698987 -115.0661396094747 0 -115.0661396094747 10.569218579319568 0 0 0 0 247.40524488063784 -107.15991700372979 0 -107.15991700372979 142.48658518310003 0 0 0 0 467.61598518845358 -419.56505449495171 0 -419.56505449495171 417.129059646315 0 0 0 0 158.25105344535586 -152.18360495110937 0 -152.18360495110937 295.31346915351833 0 0 0 0 255.44906672338766 -338.82399142168532 0 -338.82399142168532 572.33440297983179 0 0 0 0 101.24753251417019 -170.74524057074041 0 -170.74524057074041 541.32454026625783 0 0 0 0 168.42347797567982 -234.53656619233152 0 -234.53656619233152 361.7860860353112 0 0 0 0 86.193439504171693 -161.82706546808549 0 -161.82706546808549 537.16536696203184 0 0 0 0 -4.7169522708250042 -60.022126106935502 0 -60.022126106935502 853.83337337800549 0 0 0 0 65.413659985430968 -179.83959868658258 0 -179.83959868658258 731.46688141635241 0 0 0 0 122.01520839309433 -325.4065225622835 0 -325.4065225622835 1194.9215155600396 0 0 0 0 91.743175787682958 -177.0649628197707 0 -177.0649628197707 592.23100094388542 0 0 0 0 397.82138850337674 56.322468157792031 0 56.322468157792031 653.29103526805557 0 0 0 0 -8.2870224010098497 -15.801708915249037 0 -15.801708915249037 61.542037173152494 0 0 0 0 -17.137591388254265 27.85195547658077 0 27.85195547658077 192.81332352830213 0 0 0 0 0.21215817561121589 -42.791039755909878 0 -42.791039755909878 78.678652140457416 0 0 0 0 -8.2582113761024729 4.8223456709274615 0 4.8223456709274615 26.216190905306576 0 0 0 0 -5.9260694608395355 -42.477514882863034 0 -42.477514882863034 -11.528362846453092 0 0 0 0 -25.7478891173443 -6.8119296673612553 0 -6.8119296673612553 57.591506247037614 0 0 0 0 0.54175173532594134 1.4371662553376297 0 1.4371662553376297 11.906778588257239 0 0 0 0 -36.842787271620182 12.091212816882035 0 12.091212816882035 95.921304737319588 0 0 0 0 -24.700809555728341 -22.918979319238133 0 -22.918979319238133 40.863735644685221 0 0 0 0 -78.81343375781546 -22.802409776537388 0 -22.802409776537388 61.592128087700985 0 0 0 0 -1.4176676202212481 -7.6237249690928977 0 -7.6237249690928977 49.897399790596609 0 0 0 0 -65.821932788314825 -80.741886447176512 0 -80.741886447176512 -40.632818376019713 0 0 0 0 -4.205120261405316 0.89692903949861602 0 0.89692903949861602 14.551625283976605 0 0 0 0 -13.4839529722598 -2.827908222345286 0 -2.827908222345286 58.262852581079642 0 0 0 0 -1.3306720862153325 -5.7527914013566246 0 -5.7527914013566246 51.75938571829289 0 0 0 0 -62.761645307186996 -16.982686470750195 0 -16.982686470750195 74.367630807129899 0 0 0 0 -23.948179098148017 1.1269859193198499 0 1.1269859193198499 56.924154387288581 0 0 0 0 -23.713009923221097 6.6248622364566927 0 6.6248622364566927 91.647180487518199 0 0 0 0 -1.7903100395742513 5.7266645745185087 0 5.7266645745185087 52.588413899182342 0 0 0 0 6.0151906345445365 5.8955722686318381 0 5.8955722686318381 5.9909820929920272 0 0 0 0 25.762880396041282 303.26173535538692 0 303.26173535538692 1293.2351053260154 0 0 0 0 161.3139769109921 159.55072856466359 0 159.55072856466359 956.68006079925544 0 0 0 0 -3.4609042046658942 87.97444322926458 0 87.97444322926458 1007.7104463904543 0 0 0 0 -32.640050970148167 129.47991009552788 0 129.47991009552788 1431.0966846826414 0 0 0 0 13.485186896526841 273.44380575898685 0 273.44380575898685 1690.7477972395759 0 0 0 0 49.056413257959861 50.163590163640038 0 50.163590163640038 -15.435985158692347 0 0 0 0 2.3491456542128395 2.7066115814115506 0 2.7066115814115506 0.87853796419257435 0 0 0 0 176.05449219458481 203.05455255226843 0 203.05455255226843 168.54678688548302 0 0 0 0 0.022384816891355214 101.53995778027092 0 101.53995778027092 1087.1593573581195 0 0 0 0 141.77587046588027 287.10484049983643 0 287.10484049983643 1326.3359451709257 0 0 0 0 0.030704222882486781 209.31203007542354 0 209.31203007542354 1408.1563797091039 0 0 0 0 -291.01376802867617 365.68796321785976 0 365.68796321785976 2498.3112660347542 0 0 0 0 78.512424713740984 211.78827530061426 0 211.78827530061426 1350.1786731075044 0 0 0 0 -0.8211581074394434 1.4242128308473809 0 1.4242128308473809 3.2624897551677634 0 0 0 0 3.8537316484316193 99.356734993125428 0 99.356734993125428 1976.6437157847395 0 0 0 0 0.55390126866582923 101.07193446738893 0 101.07193446738893 1988.6065914688693 0 0 0 0 -2.334177554175906 2.5301085697498991 0 2.5301085697498991 3.6793980494257159 0 0 0 0 -28.032131229762513 330.68059086397989 0 330.68059086397989 1798.3270515556651 0 0 0 0 61.513130329186197 205.51470707443877 0 205.51470707443877 1440.1034699362644 0 0 0 0 135.50357274059752 245.05556616701142 0 245.05556616701142 1314.0602724661294 0 0 0 0 -221.79044957297171 179.77081863151034 0 179.77081863151034 2425.5746922976468 0 0 0 0 -90.860703573795277 581.5704685608207 0 581.5704685608207 1173.4776584798674 0 0 0 0 -108.33098555973362 640.56385810057327 0 640.56385810057327 1455.3588290610642 0 0 0 0 -1.5373393780531772 0.91208181316561365 0 0.91208181316561365 3.2772122567834838 0 0 0 0 -127.67679624770543 818.31840705548348 0 818.31840705548348 1579.689964625361 0 0 0 0 107.16739381692807 470.24117824648238 0 470.24117824648238 1959.5275489998457 0 0 0 0 145.89819893651995 615.35941675176309 0 615.35941675176309 2470.8793176863983 0 0 0 0 534.57299336867561 719.5127114811221 0 719.5127114811221 976.83696895932371 0 0 0 0 1126.5121602874831 1608.1141912677813 0 1608.1141912677813 2310.5828260231428 0 0 0 0 251.14836167638222 973.24026236350619 0 973.24026236350619 1481.890201119586 0 0 0 0 57.610536975635952 568.99282201716414 0 568.99282201716414 1142.948175704536 0 0 0 0 340.57456549352668 425.90104723011791 0 425.90104723011791 351.07541391334235 0 0 0 0 -23.923329638047221 -15.518512010505219 0 -15.518512010505219 -5.9538938961704844 0 0 0 0 -2.0841437887675021 -3.685655203578257 0 -3.685655203578257 23.653337003385218 0 0 0 0 422.42415392005728 657.98806125193732 0 657.98806125193732 992.26950958463385 0 0 0 0 -4.0586137772482651 -13.413882574918674 0 -13.413882574918674 9.4713867490418693 0 0 0 0 -40.323884279957923 -46.626300977260144 0 -46.626300977260144 3.1915807321638567 0 0 0 0 -30.316828377517226 -28.358998767363119 0 -28.358998767363119 3.9803800012959982 0 0 0 0 -75.656837405142142 -102.08587627309316 0 -102.08587627309316 -56.359746811867808 0 0 0 0 -0.16927288318424871 -54.512570664486702 0 -54.512570664486702 -30.378912761199899 0 0 0 0 15.562876264299121 -16.750371518726752 0 -16.750371518726752 -83.713083514390746 0 0 0 0 37.875572971911666 -30.578098593774783 0 -30.578098593774783 -67.818421986059604 0 0 0 0 -37.400245160537501 -30.720410075500908 0 -30.720410075500908 13.734086775262826 0 0 0 0 -95.879056626039528 -82.708848584756197 0 -82.708848584756197 -3.2004498937676544 0 0 0 0 -88.228513170473889 -120.99485526287754 0 -120.99485526287754 -65.906377333009914 0 0 0 0 -111.85995856227055 -116.17322711469023 0 -116.17322711469023 -35.516053424467827 0 0 0 0 -5.5132936896721212 -10.690741899978654 0 -10.690741899978654 -2.8661365973704989 0 0 0 0 -4.8602344017902013 -14.617576916279802 0 -14.617576916279802 23.424862868119476 0 0 0 0 39.785328818934033 49.083772712034261 0 49.083772712034261 536.60946431731281 0 0 0 0 -3.6536558790567142 305.21186774201851 0 305.21186774201851 662.65686701495724 0 0 0 0 -117.4323795555681 7.5114452073539724 0 7.5114452073539724 711.1018885259673 0 0 0 0 -172.88454514656837 220.33187150405865 0 220.33187150405865 1482.9129201231995 0 0 0 0 34.836703347708863 -12.796873903120286 0 -12.796873903120286 879.56793914055015 0 0 0 0 -1.4676494086329512 245.59205315371946 0 245.59205315371946 617.25054791986622 0 0 0 0 0.62735807187191828 -16.493969876678349 0 -16.493969876678349 7.0049555112392685 0 0 0 0 -5.244950699898709 -23.156943526606483 0 -23.156943526606483 43.087132402119551 0 0 0 0 66.77470008713442 -129.39442636844615 0 -129.39442636844615 265.49987969394715 0 0 0 0 3.3417090304913364 -1.5136446910769337 0 -1.5136446910769337 -1.3708661622190164 0 0 0 0 -1.1589577513291121 -8.731101084526415 0 -8.731101084526415 46.950279099557065 0 0 0 0 -21.416570159045875 -38.457253534674237 0 -38.457253534674237 42.846511265306617 0 0 0 0 108.0862058052283 135.92876986942429 0 135.92876986942429 161.24310618499294 0 0 0 0 -4.4726409858449916 -16.141435717709982 0 -16.141435717709982 13.177725317838089 0 0 0 0 18.335704809411482 -9.0196704184199916 0 -9.0196704184199916 34.758883173944469 0 0 0 0 103.79906593141095 -171.48314074003792 0 -171.48314074003792 -243.80916037033239 0 0 0 0 -12.822603218069069 -16.915390120175822 0 -16.915390120175822 52.166187759628627 0 0 0 0 13.25169891860628 -33.415748613999313 0 -33.415748613999313 40.487557290834957 0 0 0 0 -7.8249790149237697 -29.169737558822817 0 -29.169737558822817 65.320660517943907 0 0 0 0 -10.491449559875718 -20.4882168033364 0 -20.4882168033364 37.369361683862735 0 0 0 0 -56.984893973543365 -41.864537957178072 0 -41.864537957178072 55.857690981792985 0 0 0 0 -7.847255074740481 -15.213426883941544 0 -15.213426883941544 68.582221390761191 0 0 0 0 47.592946058072926 -45.222068098755699 0 -45.222068098755699 18.46793026427622 0 0 0 0 56.556212428426306 28.868326606832852 0 28.868326606832852 56.292041759375479 0 0 0 0 -15.858975490305738 -5.0770157185179414 0 -5.0770157185179414 39.141733894743084 0 0 0 0 -109.55841091154798 -170.88506439387311 0 -170.88506439387311 19.251170678050215 0 0 0 0 -63.675785946507858 109.25730052374092 0 109.25730052374092 72.486561245777921 0 0 0 0 -206.28021902879925 -246.49022866716814 0 -246.49022866716814 -108.84384278389916 0 0 0 0 23.884134571660809 -19.134425445857026 0 -19.134425445857026 3.4054982557414064 0 0 0 0 -73.127662765240814 -101.93893057592788 0 -101.93893057592788 -10.163931940580369 0 0 0 0 -68.139159720029511 -52.986355439152248 0 -52.986355439152248 -6.2925614296545973 0 0 0 0 5.6286364265590692 -71.137167935363323 0 -71.137167935363323 -19.204317507967062 0 0 0 0 -5.1464562977330388 -38.018432894445141 0 -38.018432894445141 16.827825624059187 0 0 0 0 -15.091439495785608 -57.619562662586304 0 -57.619562662586304 -6.562229363451479 0 0 0 0 33.671634863839017 -72.002739397456025 0 -72.002739397456025 -12.695858963837964 0 0 0 0 -12.437651001726351 -70.693625424369429 0 -70.693625424369429 -56.511260603401752 0 0 0 0 -49.720672904871037 -102.92438687782646 0 -102.92438687782646 -29.083463179245882 0 0 0 0 13.019352989915205 -68.995975461944909 0 -68.995975461944909 -32.555264156537305 0 0 0 0 -45.594974019142256 -67.559903851578838 0 -67.559903851578838 -13.875615112759988 0 0 0 0 23.381834218144451 -24.878480374212248 0 -24.878480374212248 1.5939131099055714 0 0 0 0 -127.30333573228381 -185.08784701761397 0 -185.08784701761397 -167.83540292397811 0 0 0 0 -100.60878845874868 -112.13716096739881 0 -112.13716096739881 -2.6547704909244203 0 0 0 0 -68.206658631706887 84.959003191972442 0 84.959003191972442 17.026477952240384 0 0 0 0 3.9140428550845776 -0.027403874211451296 0 -0.027403874211451296 -2.5071838902341881 0 0 0 0 2.8608520283075545 -8.8327470073164296 0 -8.8327470073164296 6.323877452767519 0 0 0 0 89.13312501529046 -28.736071478426311 0 -28.736071478426311 -20.509968600688808 0 0 0 0 -388.59748361541369 -200.03429027175298 0 -200.03429027175298 -119.273032639132 0 0 0 0 19.239536246960142 -67.771750776937552 0 -67.771750776937552 -23.714524937586248 0 0 0 0 12.250104817490318 -41.83402041133121 0 -41.83402041133121 0.43151183676673099 0 0 0 0 167.99102541594834 -5.0733108717267896 0 -5.0733108717267896 -12.167964283298716 0 0 0 0 42.918731524494348 -15.478033547765335 0 -15.478033547765335 28.132364348879491 0 0 0 0 62.847960757785131 -32.013694757770281 0 -32.013694757770281 -23.052741801915545 0 0 0 0 -187.48511963224564 -140.99563695113829 0 -140.99563695113829 -190.42240160952224 0 0 0 0 -183.85171233876963 -160.40639551059394 0 -160.40639551059394 -179.18249236799966 0 0 0 0 2.2772172269465685 -1.2665429318869386 0 -1.2665429318869386 0.083024913184054583 0 0 0 0 -226.60573841447848 -206.75429516524491 0 -206.75429516524491 238.0269816965083 0 0 0 0 -122.77475768800741 -141.58008948923452 0 -141.58008948923452 -199.72707816028742 0 0 0 0 -102.90343053611207 -103.73935192699537 0 -103.73935192699537 -128.11506687176006 0 0 0 0 -286.62812041686834 -79.320814428733684 0 -79.320814428733684 -56.701574606711802 0 0 0 0 -166.87348714863901 -73.134624835331579 0 -73.134624835331579 -74.560222420561331 0 0 0 0 -41.615674085102 -120.30666463903617 0 -120.30666463903617 -139.43344527882437 0 0 0 0 -163.8169031820612 -51.34980910426566 0 -51.34980910426566 55.497375265716983 0 0 0 0 -65.20903600455938 -130.20990581592559 0 -130.20990581592559 146.9986676326007 0 0 0 0 -72.178418820910338 -163.0006492288594 0 -163.0006492288594 28.334675208569934 0 0 0 0 -292.54481658308305 -127.13370454234064 0 -127.13370454234064 56.099005916177703 0 0 0 0 -195.25820204307865 -48.544990935473834 0 -48.544990935473834 33.362260623143811 0 0 0 0 4.0923038870004103 -13.354601541949148 0 -13.354601541949148 2.4857017753137001 0 0 0 0 -2.47403390992076 -19.943977244047602 0 -19.943977244047602 36.502899262670454 0 0 0 0 9.9065819924130096 -44.74087495355343 0 -44.74087495355343 -21.851038160215467 0 0 0 0 -29.81103029797714 -35.947605973451573 0 -35.947605973451573 10.997675801972946 0 0 0 0 41.775450132436617 -10.836142984651815 0 -10.836142984651815 -4.703834086394636 0 0 0 0 -6.4879819560969736 -84.666154552192893 0 -84.666154552192893 -32.235874907311654 0 0 0 0 -2.8289953578643985 -26.868377223935667 0 -26.868377223935667 29.044805200487843 0 0 0 0 -25.986613441712507 -57.001607784142834 0 -57.001607784142834 -134.25821459932922 0 0 0 0 -103.21786947075873 -57.948631638171719 0 -57.948631638171719 108.1248205001757 0 0 0 0 1886.4667046480472 149.7380368400045 0 149.7380368400045 2502.1237616766921 0 0 0 0 493.24910788549118 1057.0056336951457 0 1057.0056336951457 2743.1281331829723 0 0 0 0 1.4479754739559783 -3.2119155915113708 0 -3.2119155915113708 12.597573244167506 0 0 0 0 -51.077181525888818 -37.106895784707376 0 -37.106895784707376 17.505978208930173 0 0 0 0 162.47905644124216 -70.3829361962039 0 -70.3829361962039 -120.56263613107149 0 0 0 0 40.306646068302655 -176.37913159326854 0 -176.37913159326854 -137.26408321771305 0 0 0 0 140.29210184073418 18.552930222307623 0 18.552930222307623 -72.078471315035131 0 0 0 0 -0.84262817787650857 -0.4322319818065381 0 -0.4322319818065381 9.8170310771159279 0 0 0 0 71.234804795790296 -93.95501982240603 0 -93.95501982240603 40.269739166644285 0 0 0 0 490.94294096608144 852.5698378184552 0 852.5698378184552 2615.0538192252934 0 0 0 0 300.19937349328268 1071.6053286490023 0 1071.6053286490023 2466.909820258581 0 0 0 0 -0.29776296785369061 -0.28191831045459281 0 -0.28191831045459281 6.7470038436244124 0 0 0 0 841.39453737286146 -1826.9388094974565 0 -1826.9388094974565 4470.9268672795115 0 0 0 0 575.90065591637949 973.67944904528485 0 973.67944904528485 2823.4174857467733 0 0 0 0 2412.805417409541 -1272.1992310057285 0 -1272.1992310057285 769.75758160853002 0 0 0 0 497.93387988229426 428.0688774749724 0 428.0688774749724 -530.40432173782028 0 0 0 0 3.7521766768515521 -5.5572466503811935 0 -5.5572466503811935 20.208376707245691 0 0 0 0 523.65690589432677 -923.71017238432614 0 -923.71017238432614 2044.199786105346 0 0 0 0 1418.8283155322169 -331.58001005293113 0 -331.58001005293113 -112.52129426388274 0 0 0 0 1251.8902940668484 -1756.9198506957191 0 -1756.9198506957191 1371.6425036297587 0 0 0 0 451.31412629757023 -786.6972884807019 0 -786.6972884807019 547.83897642900411 0 0 0 0 720.6445921377267 -808.22746399085554 0 -808.22746399085554 136.15159298192157 0 0 0 0 0.71752248863103141 -16.971675030265803 0 -16.971675030265803 47.877717700578074 0 0 0 0 -316.21913851202271 -223.32237827369318 0 -223.32237827369318 224.33725427025638 0 0 0 0 -106.27808527548996 0.42059555002742854 0 0.42059555002742854 81.022512562267366 0 0 0 0 17.671838184428907 131.91499268987536 0 131.91499268987536 148.68730679363216 0 0 0 0 -130.4728954608313 -303.97824545683034 0 -303.97824545683034 -79.769600922289101 0 0 0 0 -6.2693203451722237 1.0784918746736736 0 1.0784918746736736 7.1626427801523249 0 0 0 0 369.25944194649344 -486.34971155451422 0 -486.34971155451422 172.64763632759423 0 0 0 0 7.9780563542763048 -105.81762236143186 0 -105.81762236143186 -53.770872825082733 0 0 0 0 348.93989893474213 -691.71198535065196 0 -691.71198535065196 549.52098313297574 0 0 0 0 188.23197518616541 -552.81943208390476 0 -552.81943208390476 539.97905955207534 0 0 0 0 112.96313778631998 -793.2546994194654 0 -793.2546994194654 1138.2887535418267 0 0 0 0 36.779867910849077 -780.62666846999673 0 -780.62666846999673 1140.0804186251626 0 0 0 0 631.80567559479255 -1112.1742318381075 0 -1112.1742318381075 686.95367606175842 0 0 0 0 401.57912969032446 -1283.3628850572263 0 -1283.3628850572263 1751.2382138059656 0 0 0 0 -303.41231116848763 -985.27308279911995 0 -985.27308279911995 2499.6367840681346 0 0 0 0 48.969810478044735 -1053.6948798130561 0 -1053.6948798130561 1710.0918653221815 0 0 0 0 -263.62780127957569 -672.93512545017256 0 -672.93512545017256 1844.2305411466768 0 0 0 0 -284.54492130579359 -658.66192981558197 0 -658.66192981558197 1435.5201403872215 0 0 0 0 39.957602074357965 -909.83640431466119 0 -909.83640431466119 1316.3532123330078 0 0 0 0 -178.38175713285477 -914.93792140120422 0 -914.93792140120422 1693.1485805417287 0 0 0 0 58.343349296400277 -581.83454013731716 0 -581.83454013731716 716.54948938579764 0 0 0 0 -84.168009225807509 -617.20688257811526 0 -617.20688257811526 1173.3065531984303 0 0 0 0 -86.99576902547426 -314.78732297630995 0 -314.78732297630995 946.62101436039302 0 0 0 0 -77.431092608075403 -641.21178127230087 0 -641.21178127230087 1228.479492291619 0 0 0 0 -42.372049593447173 -148.28817453688316 0 -148.28817453688316 718.09954970717808 0 0 0 0 -112.62759889293756 -255.61597064685066 0 -255.61597064685066 817.20921568702033 0 0 0 0 54.316247992778585 -316.82903454292318 0 -316.82903454292318 283.15341699321289 0 0 0 0 114.60024271999421 -175.53635273422697 0 -175.53635273422697 292.52349680914267 0 0 0 0 126.60372196714002 -329.67716218305213 0 -329.67716218305213 580.6140642366081 0 0 0 0 119.68812187416437 -275.76998161541849 0 -275.76998161541849 343.8865378302944 0 0 0 0 44.977718393557325 -321.65933234160184 0 -321.65933234160184 400.54380183527792 0 0 0 0 131.04295760677726 -584.96040295333296 0 -584.96040295333296 708.83126724313843 0 0 0 0 181.62328089308147 -336.25492936979026 0 -336.25492936979026 177.40878824871834 0 0 0 0 -117.8079137686309 -85.539777993999451 0 -85.539777993999451 158.87635940950122 0 0 0 0 -14.168912734213791 -109.85391763315602 0 -109.85391763315602 -214.50070674448216 0 0 0 0 -31.805445120565054 -40.378151086577418 0 -40.378151086577418 12.497849348568707 0 0 0 0 -61.091334158173822 -130.37844570685047 0 -130.37844570685047 57.971219006234605 0 0 0 0 -11.422729425164448 -355.26269071453316 0 -355.26269071453316 298.34963503293329 0 0 0 0 2.5472699191524604 -0.88019883849332103 0 -0.88019883849332103 -0.40160907142622193 0 0 0 0 -68.462444915667902 -166.71796536209604 0 -166.71796536209604 -497.55449019660591 0 0 0 0 74.31560020285454 -10.910381071393203 0 -10.910381071393203 -202.58309222989919 0 0 0 0 -89.414296005481674 -91.044111548961155 0 -91.044111548961155 -230.13616035471932 0 0 0 0 -56.354326607015537 -167.9932204432007 0 -167.9932204432007 -228.57659792853156 0 0 0 0 4.388141365234107 -2.3533212848436449 0 -2.3533212848436449 0.0085027767735752491 0 0 0 0 61.264110620879364 -365.70143579827345 0 -365.70143579827345 -343.90465854133436 0 0 0 0 66.350287601466789 -191.12878909088613 0 -191.12878909088613 547.36286319015926 0 0 0 0 65.396227819078334 -169.00902823758292 0 -169.00902823758292 219.45271004132519 0 0 0 0 -147.8439400040952 81.227856035526202 0 81.227856035526202 -17.264750360078324 0 0 0 0 60.74918177128778 -80.812945269106422 0 -80.812945269106422 -671.61260294434396 0 0 0 0 29.044790809985898 -169.27159965055398 0 -169.27159965055398 586.46593791433406 0 0 0 0 1.5959593898308739 -0.76379874048604535 0 -0.76379874048604535 -0.086146615235509927 0 0 0 0 -23.978223438434526 -199.24702580597841 0 -199.24702580597841 651.81600745721516 0 0 0 0 -12.451354330287931 -220.51002469657692 0 -220.51002469657692 -720.34174790070392 0 0 0 0 -20.323790070685476 -97.845785055764281 0 -97.845785055764281 -650.20183704075134 0 0 0 0 0.31488211039066627 -1.7036449407039669 0 -1.7036449407039669 0.84792474414447128 0 0 0 0 163.23034525471405 -197.05260625989467 0 -197.05260625989467 -408.56940492476633 0 0 0 0 2.7190220471099131 -2.5210316947545266 0 -2.5210316947545266 -0.49062349339778599 0 0 0 0 111.37602260232711 -251.56175466768036 0 -251.56175466768036 -79.008521325908077 0 0 0 0 -14.812403544069159 -93.229586981952949 0 -93.229586981952949 -110.61655996313493 0 0 0 0 -91.14122411213539 -104.14668782099943 0 -104.14668782099943 -240.65287048336904 0 0 0 0 256.95562513193954 -280.80716954763193 0 -280.80716954763193 -208.54423213204063 0 0 0 0 17.227824192120579 53.547053514917934 0 53.547053514917934 -508.64778789848788 0 0 0 0 -31.252995884211884 62.898272712636754 0 62.898272712636754 749.44180780381976 0 0 0 0 92.518547501171071 47.587120284300909 0 47.587120284300909 450.48736995070976 0 0 0 0 -101.49719382468993 60.340285472386313 0 60.340285472386313 1450.1283324789592 0 0 0 0 -31.645632318662621 -7.3356679948101373 0 -7.3356679948101373 1047.9548475088886 0 0 0 0 28.976911286411053 -39.605761171962513 0 -39.605761171962513 871.15737675684795 0 0 0 0 43.197143200013272 -16.281119066097745 0 -16.281119066097745 1036.1633813926564 0 0 0 0 81.665211858311295 130.68531934159546 0 130.68531934159546 1085.934398930287 0 0 0 0 118.84881897335617 48.570607700545224 0 48.570607700545224 743.94705733416049 0 0 0 0 54.05945638239848 -172.71455736768075 0 -172.71455736768075 1062.1722151082176 0 0 0 0 33.426040615080808 -73.879905989903364 0 -73.879905989903364 613.38300190571317 0 0 0 0 40.467074093658766 -68.01447372954317 0 -68.01447372954317 616.51663522985473 0 0 0 0 43.116779716694964 -29.555423133744625 0 -29.555423133744625 428.41403109732346 0 0 0 0 -7.2014563119432751 -36.723701084020831 0 -36.723701084020831 519.21136053305963 0 0 0 0 -67.570623411628731 64.733855147966096 0 64.733855147966096 376.10134672060667 0 0 0 0 44.180428095409354 74.623460850851529 0 74.623460850851529 487.57915597808096 0 0 0 0 -67.936922258501454 150.0581981172345 0 150.0581981172345 823.04526809492063 0 0 0 0 54.025603031435764 115.69219607474861 0 115.69219607474861 609.93881901910208 0 0 0 0 39.500506565995238 114.889555138996 0 114.889555138996 631.75510445175541 0 0 0 0 6.8306955125004523 3.0810507109387828 0 3.0810507109387828 0.5664278375271774 0 0 0 0 102.85599039429553 169.32018062593215 0 169.32018062593215 -35.348230031337152 0 0 0 0 2.5284903612493128 1.2754668462388281 0 1.2754668462388281 0.53474429734556672 0 0 0 0 -72.404519843050139 123.89068165950516 0 123.89068165950516 479.54237395446762 0 0 0 0 -63.097372859474604 165.25496786063241 0 165.25496786063241 551.31373748908663 0 0 0 0 77.298207035851192 101.36218728526092 0 101.36218728526092 266.44788548161341 0 0 0 0 7.9422637031827961 3.3520580323660667 0 3.3520580323660667 0.76179846666296136 0 0 0 0 196.33773785545736 254.81119243972898 0 254.81119243972898 567.43238203903206 0 0 0 0 18.161896660276909 187.65987450085731 0 187.65987450085731 652.52733650135997 0 0 0 0 447.72138208958086 199.23452113875828 0 199.23452113875828 619.84509984683609 0 0 0 0 -1.1796650720002617 213.91801333803778 0 213.91801333803778 985.2257309552042 0 0 0 0 10.99115841186358 236.22127069301791 0 236.22127069301791 674.66740225093963 0 0 0 0 98.455028778840187 333.57310074883389 0 333.57310074883389 390.07862565468531 0 0 0 0 -7.4964284992731791 385.50088068980403 0 385.50088068980403 728.20193936736905 0 0 0 0 215.183071955375 606.19759594678544 0 606.19759594678544 844.27390998830015 0 0 0 0 606.62909064820906 270.93300717982856 0 270.93300717982856 42.465264784794272 0 0 0 0 -6.0251527133641503 -26.420424820978951 0 -26.420424820978951 99.423687114323002 0 0 0 0 295.41201522901792 175.27119598357604 0 175.27119598357604 26.753247239950724 0 0 0 0 114.10961613131008 253.31470036076917 0 253.31470036076917 412.12155367078958 0 0 0 0 84.691217133857663 123.13151699362243 0 123.13151699362243 148.65142571702745 0 0 0 0 35.6263971520452 16.535694908258719 0 16.535694908258719 4.6166255076263205 0 0 0 0 126.95809974731503 131.05870571674859 0 131.05870571674859 130.05207815385074 0 0 0 0 41.007696387783653 30.622133454973664 0 30.622133454973664 -0.33231858816361637 0 0 0 0 17.087870294191088 10.345036102015612 0 10.345036102015612 0.42215706765022176 0 0 0 0 -0.28987952294801289 -38.911238677843357 0 -38.911238677843357 29.023119463525575 0 0 0 0 28.393628048492701 15.350261909701658 0 15.350261909701658 12.971503053628112 0 0 0 0 10.410972399838737 2.712192008362333 0 2.712192008362333 1.2750760461017876 0 0 0 0 30.161647282691668 13.755371103981993 0 13.755371103981993 4.645250468868106 0 0 0 0 -28.151722539041657 19.050794942450011 0 19.050794942450011 31.987527957833663 0 0 0 0 37.371445059773393 15.866615674385258 0 15.866615674385258 6.3487919072901491 0 0 0 0 77.493100380270334 12.501736002688631 0 12.501736002688631 -44.073668690878549 0 0 0 0 -21.187517096961528 259.87736903451514 0 259.87736903451514 -190.44382518131897 0 0 0 0 2.063155020900922 21.773022266032058 0 21.773022266032058 40.376249825450941 0 0 0 0 -21.376113894609034 134.98437385773013 0 134.98437385773013 569.20949417703741 0 0 0 0 -42.696041193821202 152.97153218171843 0 152.97153218171843 629.81902717935372 0 0 0 0 -23.062429961546741 146.75186080176263 0 146.75186080176263 627.6668678887072 0 0 0 0 -50.391077701647646 250.62370406767695 0 250.62370406767695 755.18011464770825 0 0 0 0 -49.417525644000762 284.666887766336 0 284.666887766336 530.29647697827841 0 0 0 0 -0.99566504404629086 287.17924435359782 0 287.17924435359782 582.78200209870738 0 0 0 0 -10.580291150929042 387.29662450613978 0 387.29662450613978 631.53839905573477 0 0 0 0 -20.583202569097466 224.82876997253334 0 224.82876997253334 433.06745852894528 0 0 0 0 -18.624772513052449 290.0517615953122 0 290.0517615953122 655.93492776925086 0 0 0 0 181.43701505539775 429.86224054357092 0 429.86224054357092 306.6680997201438 0 0 0 0 167.10352685515045 187.49670296067416 0 187.49670296067416 25.781626063355361 0 0 0 0 74.322437187965932 219.25531310002089 0 219.25531310002089 1111.0795091524633 0 0 0 0 319.03071192952257 686.09434516038164 0 686.09434516038164 1585.1944595786745 0 0 0 0 19.260004701126491 468.56043072109605 0 468.56043072109605 831.6814599783429 0 0 0 0 22.681522267298853 11.236077726230064 0 11.236077726230064 6.3825309007196722 0 0 0 0 -32.953417767474093 49.48817652354046 0 49.48817652354046 1210.2514656249332 0 0 0 0 -57.906779835351017 40.575300939046429 0 40.575300939046429 1210.4391051915954 0 0 0 0 152.84364437697923 -308.17321165823523 0 -308.17321165823523 1779.181451899909 0 0 0 0 -132.15252383610914 3.2767536620985993 0 3.2767536620985993 -71.203575427265605 0 0 0 0 18.519070911846029 302.89857918302323 0 302.89857918302323 -367.91255958745023 0 0 0 0 21.087845430384746 5.5829976899904352 0 5.5829976899904352 -0.43606450985364376 0 0 0 0 66.262715585962724 -0.21336405179317808 0 -0.21336405179317808 -55.516241689256276 0 0 0 0 -115.44832619603039 2.4402061664623034 0 2.4402061664623034 18.4783167659225 0 0 0 0 351.68782134716821 374.41499575960552 0 374.41499575960552 -108.74455392689515 0 0 0 0 1352.3994837680293 782.0363223593522 0 782.0363223593522 -165.83460714929379 0 0 0 0 408.2950160677965 220.68200206715483 0 220.68200206715483 -8.7776495333964704 0 0 0 0 -17.44726571911724 44.643945924759464 0 44.643945924759464 3040.9524687624616 0 0 0 0 671.67247365230128 56.956393703232607 0 56.956393703232607 -635.81637276904439 0 0 0 0 15.334667704491917 2.0110292261830338 0 2.0110292261830338 1.0479564391260787 0 0 0 0 232.8242985564234 702.45982476240533 0 702.45982476240533 2640.9886019565383 0 0 0 0 103.38243913361521 967.73985796214401 0 967.73985796214401 1196.3019306597271 0 0 0 0 390.85401440475016 -514.91334011125764 0 -514.91334011125764 824.421528105373 0 0 0 0 1495.2103733454078 573.9140150846124 0 573.9140150846124 752.06928596087891 0 0 0 0 263.19588194977314 -276.05437137296576 0 -276.05437137296576 536.19254843434146 0 0 0 0 286.17461994444056 660.75612954547614 0 660.75612954547614 557.57293990284961 0 0 0 0 373.15169902636376 -139.77540003018476 0 -139.77540003018476 189.2196714489728 0 0 0 0 -5.086297320242867 -2.8009409259406794 0 -2.8009409259406794 -1.1004851232106887 0 0 0 0 98.753593855526105 273.90450709499783 0 273.90450709499783 -322.73276123930918 0 0 0 0 319.3153251976064 -516.93261099668234 0 -516.93261099668234 256.06447750002371 0 0 0 0 -148.96861701467583 -208.45761180817317 0 -208.45761180817317 307.20375366571716 0 0 0 0 -341.83893456433407 -65.866329812530239 0 -65.866329812530239 152.68368602798728 0 0 0 0 -309.87845581032275 65.468151124361611 0 65.468151124361611 215.09342286282481 0 0 0 0 -261.85727009547554 10.413433729654571 0 10.413433729654571 163.62595359206171 0 0 0 0 55.035735209330142 184.89808060354517 0 184.89808060354517 191.94435953014727 0 0 0 0 48.648135599964007 182.7074325712947 0 182.7074325712947 260.85110989940426 0 0 0 0 -316.72674355988954 140.49992364224545 0 140.49992364224545 348.42986567982371 0 0 0 0 -111.92938981461521 -73.960464804868025 0 -73.960464804868025 211.68841539655659 0 0 0 0 119.07579420473598 140.57296901272912 0 140.57296901272912 215.5070877530452 0 0 0 0 -78.611325188393053 -156.95094648823795 0 -156.95094648823795 229.21389793925482 0 0 0 0 -165.2912490493004 -100.07832819629402 0 -100.07832819629402 324.12193120913889 0 0 0 0 -182.62763977165622 -188.87353033878912 0 -188.87353033878912 -106.81309842697374 0 0 0 0 -758.72109090133335 -289.98769741984142 0 -289.98769741984142 256.79322182677424 0 0 0 0 1.9074090435526232 -7.3062377562854364 0 -7.3062377562854364 7.0702330200854675 0 0 0 0 69.360065617075861 -52.902665410216287 0 -52.902665410216287 40.052452733958489 0 0 0 0 76.843317053418104 -9.9446045083950594 0 -9.9446045083950594 48.516077105919976 0 0 0 0 407.31597623736576 -96.198573475901412 0 -96.198573475901412 -1.9244020471414842 0 0 0 0 0.52570166623648396 -2.607323867726322 0 -2.607323867726322 3.5680728109690278 0 0 0 0 -406.51470366534636 151.42167499231709 0 151.42167499231709 70.413789253063442 0 0 0 0 -758.1750773477529 -28.180508363269837 0 -28.180508363269837 282.1827832695235 0 0 0 0 -64.154388846659003 -18.797176325555483 0 -18.797176325555483 48.74705106498277 0 0 0 0 79.0867842953935 -56.251674760565948 0 -56.251674760565948 27.97010948524985 0 0 0 0 -25.106064784686168 -62.473130883163321 0 -62.473130883163321 83.156230460595907 0 0 0 0 67.619603123932166 -43.925352885670691 0 -43.925352885670691 1.3319770684902323 0 0 0 0 -12.290713613412208 -44.309008723572333 0 -44.309008723572333 37.402261371189525 0 0 0 0 -6.2387354732841231 -66.491161748035665 0 -66.491161748035665 25.329385825451027 0 0 0 0 -52.53383659498104 -52.626189966133097 0 -52.626189966133097 27.82289719516848 0 0 0 0 -47.969283602958058 -46.692758015039544 0 -46.692758015039544 -32.912899326263869 0 0 0 0 -138.23671286889112 33.100566118324423 0 33.100566118324423 -157.20802452933276 0 0 0 0 19.509947125153715 -18.103435048540788 0 -18.103435048540788 -0.19393941131654913 0 0 0 0 -61.027112879828337 -46.306386967407889 0 -46.306386967407889 20.648001709465461 0 0 0 0 -308.66609397124648 -168.94815706692043 0 -168.94815706692043 88.129248329438269 0 0 0 0 -43.339126694815036 -80.105050328449579 0 -80.105050328449579 107.79172723609372 0 0 0 0 -275.28985406909123 -671.3540372218049 0 -671.3540372218049 -16.408342572467518 0 0 0 0 49.430264765311222 -239.82224936944476 0 -239.82224936944476 604.91038593996927 0 0 0 0 -381.08710239141124 -450.55565084303544 0 -450.55565084303544 123.56385485823557 0 0 0 0 -7.4439961073236214 -18.868708923488001 0 -18.868708923488001 74.915316135169576 0 0 0 0 214.43095175527196 -37.634066104685189 0 -37.634066104685189 10.897695427804138 0 0 0 0 154.42381209186067 -563.48081910167775 0 -563.48081910167775 48.416259008925408 0 0 0 0 5.6197084607505658 -3.7278018600550809 0 -3.7278018600550809 -3.3363536220138315 0 0 0 0 617.99742044469895 -81.320966920618957 0 -81.320966920618957 -5.2457506625214592 0 0 0 0 -4.897533584296152 -2.251088119597469 0 -2.251088119597469 1.4729563504084808 0 0 0 0 508.12093728094806 -542.73088285910308 0 -542.73088285910308 46.851616768952226 0 0 0 0 -47.55547775875857 -174.66753609932493 0 -174.66753609932493 634.341016138329 0 0 0 0 -38.949753724823836 -148.36871018059196 0 -148.36871018059196 -349.16174645115825 0 0 0 0 -25.430850253310282 -10.724141223717126 0 -10.724141223717126 0.079975136011725567 0 0 0 0 -62.657346633993257 -20.296418777406871 0 -20.296418777406871 6.2033676153996566 0 0 0 0 55.964619664866007 -210.11095204575008 0 -210.11095204575008 461.2508209286716 0 0 0 0 39.431111338585197 8.6757322428384214 0 8.6757322428384214 394.67498346899447 0 0 0 0 317.67632822577343 -28.128449991545494 0 -28.128449991545494 127.56911591201788 0 0 0 0 -136.48497375913303 -73.024927830752858 0 -73.024927830752858 227.35903848061935 0 0 0 0 -165.43266334829059 18.810762066777897 0 18.810762066777897 178.94783684836511 0 0 0 0 30.788545187333511 75.351114302835413 0 75.351114302835413 84.838435529245544 0 0 0 0 115.89998858857234 95.946286485188466 0 95.946286485188466 151.18126466557078 0 0 0 0 45.993592197192868 -40.147055876072272 0 -40.147055876072272 281.60363896241324 0 0 0 0 124.33128745426438 154.04420045034749 0 154.04420045034749 396.82024144464049 0 0 0 0 24.974541581710582 44.509094543285755 0 44.509094543285755 315.37368697712554 0 0 0 0 -18.101338169865812 -5.9406139675285417 0 -5.9406139675285417 -0.19963834782284096 0 0 0 0 -91.252121604942118 91.122301322252497 0 91.122301322252497 -2.1926010142087762 0 0 0 0 -185.74923850656114 -485.69499725595961 0 -485.69499725595961 708.93317097195359 0 0 0 0 140.88302688280692 -111.4673887966419 0 -111.4673887966419 264.40766074591011 0 0 0 0 -1487.1591449376842 -258.16728873569446 0 -258.16728873569446 437.92207526753373 0 0 0 0 414.30234946451367 222.6849341830798 0 222.6849341830798 91.855438677281199 0 0 0 0 -2.0324424665084146 4.6572362880785949 0 4.6572362880785949 -1.6037360323673653 0 0 0 0 -252.16307487261565 215.2485708463646 0 215.2485708463646 36.307029471941405 0 0 0 0 -183.73957015627866 -676.99219299652668 0 -676.99219299652668 141.36365088617458 0 0 0 0 -267.0884593794558 265.62251325129546 0 265.62251325129546 -38.999336973844038 0 0 0 0 -4.0169480826628288 9.9896590164477921 0 9.9896590164477921 -12.86631008778788 0 0 0 0 -1609.7488030282439 27.201842044914883 0 27.201842044914883 611.95136915553667 0 0 0 0 75.793890293695313 63.431245476673212 0 63.431245476673212 -77.802027650148375 0 0 0 0 -833.91748319881754 208.30666770348034 0 208.30666770348034 70.047782680674572 0 0 0 0 -4.0001557747825434 26.44988154736695 0 26.44988154736695 -31.923096070102929 0 0 0 0 345.92934849151038 641.555832737733 0 641.555832737733 -122.65369488056604 0 0 0 0 -242.10090041772855 658.90587625256376 0 658.90587625256376 150.71185061913457 0 0 0 0 -32.896384699996133 40.502278358229887 0 40.502278358229887 59.112002670215588 0 0 0 0 25.944490378209593 36.775124215262622 0 36.775124215262622 3.0667653530836105 0 0 0 0 -19.471314999450897 168.47891814762079 0 168.47891814762079 -35.968813446084596 0 0 0 0 0.25754209748167511 27.578152565010114 0 27.578152565010114 40.658608660581208 0 0 0 0 5.3466553636326353 23.288490524702866 0 23.288490524702866 -24.909495208717772 0 0 0 0 3.7679679391643219 23.22467971676511 0 23.22467971676511 51.845664040787682 0 0 0 0 -87.958242886928701 229.46480230625821 0 229.46480230625821 -9.0738194863115496 0 0 0 0 -23.863534848202107 71.171548526333936 0 71.171548526333936 28.995125308530987 0 0 0 0 -155.52619362406676 64.98168838467609 0 64.98168838467609 83.821861065229314 0 0 0 0 138.27378523342344 120.87863377320605 0 120.87863377320605 7.0462331065064063 0 0 0 0 256.58506669867984 80.602517357419856 0 80.602517357419856 -0.40279174057468481 0 0 0 0 -33.950612778376467 79.721575117591556 0 79.721575117591556 211.1941766424643 0 0 0 0 -25.156901636203486 135.81489098482166 0 135.81489098482166 108.81985176875969 0 0 0 0 -163.49855047576966 105.95113472228695 0 105.95113472228695 72.523748567822167 0 0 0 0 -1.9908797397049574 12.104103319464706 0 12.104103319464706 22.164783358176862 0 0 0 0 -2.8208080708341186 13.579298630262201 0 13.579298630262201 49.642404285943485 0 0 0 0 -4.5845420808979656 5.5160020752855488 0 5.5160020752855488 34.3735287839732 0 0 0 0 -18.335173968096569 -14.169281667156611 0 -14.169281667156611 34.305794524516386 0 0 0 0 -38.884343947689999 -8.9547536513313162 0 -8.9547536513313162 34.484261448960751 0 0 0 0 -7.2888525713310788 -5.4906226813637673 0 -5.4906226813637673 43.509700412625989 0 0 0 0 8.6131020265502229 71.341217129447614 0 71.341217129447614 44.123189181627822 0 0 0 0 2.9043931922017983 22.175476301355332 0 22.175476301355332 55.836250817238664 0 0 0 0 -22.023329710496455 30.588922095403177 0 30.588922095403177 7.3230902059294749 0 0 0 0 0.70080823986601359 2.3175084021123098 0 2.3175084021123098 9.2043674240098028 0 0 0 0 25.016966393334087 44.331998870551615 0 44.331998870551615 89.530454524494417 0 0 0 0 31.815755918137256 42.354188293571497 0 42.354188293571497 0.72772485882160254 0 0 0 0 -25.307243971207527 11.512454231768061 0 11.512454231768061 53.22242146183271 0 0 0 0 -41.096483860221269 46.945173643776798 0 46.945173643776798 54.44546158578305 0 0 0 0 21.667825362941585 37.636791218727012 0 37.636791218727012 63.723183222260559 0 0 0 0 43.17611408277071 15.255957682496955 0 15.255957682496955 61.541940869719838 0 0 0 0 29.078080241890348 28.73399230241921 0 28.73399230241921 54.257733014830592 0 0 0 0 -161.3108425569601 -65.912768927202706 0 -65.912768927202706 -4.0210987730533816 0 0 0 0 -50.395800519428121 249.56913524947595 0 249.56913524947595 -563.48997784755193 0 0 0 0 80.638870250730861 132.18242578628269 0 132.18242578628269 -612.47999275124312 0 0 0 0 7.5212486205401134 -2.9359691218375303 0 -2.9359691218375303 -17.606584069914277 0 0 0 0 399.32317156694467 383.22356819464039 0 383.22356819464039 -524.63544885791634 0 0 0 0 11.145930593130171 33.881039327890903 0 33.881039327890903 25.119129556855043 0 0 0 0 -5.0968604856161619 5.2881948282483791 0 5.2881948282483791 82.996791615674738 0 0 0 0 16.082751205303794 6.5274181729646443 0 6.5274181729646443 47.659572876436869 0 0 0 0 58.564426572198016 3.5632086856421665 0 3.5632086856421665 48.88640242863039 0 0 0 0 0.047610628532958651 -13.140541920176474 0 -13.140541920176474 11.669706418608257 0 0 0 0 2.7706082677427357 4.0102267686817328 0 4.0102267686817328 5.885881384870828 0 0 0 0 -4.8057051653428218 32.014908638375346 0 32.014908638375346 31.084063489091932 0 0 0 0 153.99073362081901 -45.766454670838357 0 -45.766454670838357 -311.89888673096721 0 0 0 0 -82.73598665350157 -137.39968553764629 0 -137.39968553764629 -26.728149917027622 0 0 0 0 3.1164271481458883 2.6121113938605163 0 2.6121113938605163 6.3341327317905041 0 0 0 0 -2.5681244042032674 4.1538625971116971 0 4.1538625971116971 35.031743204624433 0 0 0 0 41.499488996517016 30.973468855227111 0 30.973468855227111 8.7748200258938596 0 0 0 0 8.6790158370322388 11.023529754784249 0 11.023529754784249 23.249915019943728 0 0 0 0 -4.768925701068838 13.685400871530874 0 13.685400871530874 23.76456110784784 0 0 0 0 0.049599054625913297 4.2127598776709902 0 4.2127598776709902 27.828411477669661 0 0 0 0 -6.2915351980491323 12.51160067867022 0 12.51160067867022 23.595682468549057 0 0 0 0 16.61120629171041 44.910410394462332 0 44.910410394462332 37.818511431752029 0 0 0 0 5.2213635714719837 13.500911853566421 0 13.500911853566421 18.344825662053694 0 0 0 0 -7.1052808700260357 11.800337566353846 0 11.800337566353846 23.09085534955193 0 0 0 0 -5.9907489370360736 12.718872699944768 0 12.718872699944768 23.033526059822179 0 0 0 0 5.4627637800623141 15.897728902424902 0 15.897728902424902 21.042253256353376 0 0 0 0 10.119339043674493 23.339757347392492 0 23.339757347392492 16.863016850806432 0 0 0 0 1.0180852740777482 7.2290042405365966 0 7.2290042405365966 7.6944622351438738 0 0 0 0 7.6884120998014573 11.430773465172507 0 11.430773465172507 16.000214080832905 0 0 0 0 -0.23618089685508847 5.7276851180670718 0 5.7276851180670718 19.416597148429901 0 0 0 0 0.0032727077564681734 2.2374272649103659 0 2.2374272649103659 10.448027555816225 0 0 0 0 4.5034570076313685 7.9913515495718457 0 7.9913515495718457 20.07570962801401 0 0 0 0 -0.95787368951309326 4.7032676615486366 0 4.7032676615486366 20.858986531894544 0 0 0 0 1.8078814841443742 8.1578552147022378 0 8.1578552147022378 13.746987149290092 0 0 0 0 -3.152257136936953 5.7854663824000454 0 5.7854663824000454 18.701912950171391 0 0 0 0 -4.253237264331915 5.0075187172915321 0 5.0075187172915321 18.325434913102072 0 0 0 0 -0.11852735643716006 3.5179373184574843 0 3.5179373184574843 17.993899763805928 0 0 0 0 13.012422779261762 8.4574035036639543 0 8.4574035036639543 14.403648243038333 0 0 0 0 -12.733604923571598 10.174733359774109 0 10.174733359774109 28.071501680358779 0 0 0 0 0.88772780998237066 1.7620816693085999 0 1.7620816693085999 2.1057682252165364 0 0 0 0 18.815994462175006 33.911566463350027 0 33.911566463350027 21.133031770819798 0 0 0 0 -0.9912837638112082 -0.38828671717311636 0 -0.38828671717311636 5.8180621434898256 0 0 0 0 83.596174741728063 53.074417086099857 0 53.074417086099857 48.759986974599087 0 0 0 0 -6.3492064709958758 -9.9844982478316524 0 -9.9844982478316524 46.252516943743103 0 0 0 0 0.8225130185927505 6.362490800950539 0 6.362490800950539 9.681841860126255 0 0 0 0 2.3441497214899543 -31.757389566180791 0 -31.757389566180791 18.973465806018794 0 0 0 0 1.3851877692563903 4.1095020456414204 0 4.1095020456414204 11.005159393171198 0 0 0 0 -1.1534858831751393 -3.7701105038596125 0 -3.7701105038596125 8.1373172479636651 0 0 0 0 0.45984536859712932 -25.118810154464882 0 -25.118810154464882 2.7679390482080635 0 0 0 0 0.016999779390892922 2.2820540486029159 0 2.2820540486029159 11.982719695333714 0 0 0 0 -19.192580997205305 -17.956226577276539 0 -17.956226577276539 17.029456747921358 0 0 0 0 -2.4687752166100836 8.7495366446455591 0 8.7495366446455591 36.52601267665159 0 0 0 0 8.6638771743848153 11.586661992256268 0 11.586661992256268 25.167912072094623 0 0 0 0 6.8328415833507261 8.8822199627800273 0 8.8822199627800273 26.188839914950421 0 0 0 0 4.2787598794470796 6.9281725038454169 0 6.9281725038454169 22.903852360293968 0 0 0 0 1.1275742037940653 6.3869003000338012 0 6.3869003000338012 32.030745703826419 0 0 0 0 -22.970705778046966 -22.180281406603171 0 -22.180281406603171 42.322226122385473 0 0 0 0 -4.2963905936421725 -5.2828301993067726 0 -5.2828301993067726 12.221415905978574 0 0 0 0 -1.8890632171652029 -2.8366951025469547 0 -2.8366951025469547 21.721318446211512 0 0 0 0 -2.0906120221074653 -5.8494154046150726 0 -5.8494154046150726 9.4528560501612446 0 0 0 0 -28.405950706862143 -5.4911988444764575 0 -5.4911988444764575 40.044402142128092 0 0 0 0 -32.401804860225127 -7.8345970923328423 0 -7.8345970923328423 40.465847744963867 0 0 0 0 -53.49523532358171 -21.647652348430711 0 -21.647652348430711 13.545470768818632 0 0 0 0 -3.6117781685664179 1.0057555962451872 0 1.0057555962451872 23.889931291139845 0 0 0 0 -7.91958074904095 -2.7200418471948993 0 -2.7200418471948993 35.694904661326859 0 0 0 0 -38.882294200570641 -9.4804204828251386 0 -9.4804204828251386 22.989322655368596 0 0 0 0 -2.1308565002203537 12.086133458562671 0 12.086133458562671 26.820429659063564 0 0 0 0 -31.460694429134719 -15.99660585597303 0 -15.99660585597303 77.398479814983148 0 0 0 0 -7.73632407823591 -37.337503615995956 0 -37.337503615995956 48.605830184358638 0 0 0 0 -46.936662206117134 -22.148446326032627 0 -22.148446326032627 55.25483925206936 0 0 0 0 -0.065254791100673754 -3.8009561409890011 0 -3.8009561409890011 46.00282664293627 0 0 0 0 0.20365474916441742 -31.395790773825865 0 -31.395790773825865 57.060638136583293 0 0 0 0 5.5201138740329156 -22.877157423092285 0 -22.877157423092285 32.484616910460318 0 0 0 0 -15.445675462755418 -62.416807147208601 0 -62.416807147208601 50.527863769682881 0 0 0 0 -52.31375445299966 19.893003053445682 0 19.893003053445682 46.539583949677763 0 0 0 0 -0.65159306126480587 -5.465116557421041 0 -5.465116557421041 8.9726705300834055 0 0 0 0 -3.803204203076973 1.6990985001939407 0 1.6990985001939407 9.0198452875338262 0 0 0 0 -42.971315867766407 -25.702030166045006 0 -25.702030166045006 24.166182374407072 0 0 0 0 -18.62576125760248 -35.2448178140057 0 -35.2448178140057 79.685873241850089 0 0 0 0 -6.5482861058388355 -1.3054243510848558 0 -1.3054243510848558 58.579862985635899 0 0 0 0 -17.847350748763574 -1.054279886337099 0 -1.054279886337099 51.15374143302688 0 0 0 0 -7.2777959323553922 -0.59571320890792379 0 -0.59571320890792379 33.193580642925269 0 0 0 0 -36.757267532364494 -7.3879855199193116 0 -7.3879855199193116 81.633293092134409 0 0 0 0 -0.67346713313808149 -3.4855976202659633 0 -3.4855976202659633 6.9591811777085582 0 0 0 0 -0.52981648851357932 -5.8212100924151144 0 -5.8212100924151144 49.466529563274037 0 0 0 0 -251.94835357099146 18.342049280548963 0 18.342049280548963 107.10964338511167 0 0 0 0 -183.63200693127737 63.132805416486917 0 63.132805416486917 78.050233328183822 0 0 0 0 -574.25379348431488 -156.47367032775946 0 -156.47367032775946 128.53771532171095 0 0 0 0 -6.9505489086049135 -9.8975657413841169 0 -9.8975657413841169 40.098648333057625 0 0 0 0 -63.139293721071738 -52.183773515811481 0 -52.183773515811481 -5.2493612419930287 0 0 0 0 -270.56627739258215 213.82203632658457 0 213.82203632658457 155.80962440749136 0 0 0 0 -2.3708626837490803 -3.9700682426767528 0 -3.9700682426767528 44.970426500866807 0 0 0 0 0.66029377642701093 -19.879756808373713 0 -19.879756808373713 -2.4490957366870134 0 0 0 0 -21.831508800817346 -31.1052814804425 0 -31.1052814804425 203.31807308326825 0 0 0 0 40.616054971661697 61.001047445650329 0 61.001047445650329 -304.17581853136653 0 0 0 0 -122.46859810883041 -74.460000750397739 0 -74.460000750397739 545.2940704918874 0 0 0 0 -83.755865101257854 -48.473185225846464 0 -48.473185225846464 84.673542107295361 0 0 0 0 -49.142981166129523 10.424575055434616 0 10.424575055434616 100.06236130479374 0 0 0 0 0.28978275026288736 -0.5998603636229376 0 -0.5998603636229376 2.4356070259128728 0 0 0 0 -1.9963018061337801 -6.4073236476022188 0 -6.4073236476022188 52.512173889498797 0 0 0 0 -73.78657654317999 208.65758782794728 0 208.65758782794728 564.56236155331135 0 0 0 0 89.116481024427287 -112.75638762289964 0 -112.75638762289964 -22.056891494168667 0 0 0 0 -92.295248335135796 -64.072312344564125 0 -64.072312344564125 94.220125473410008 0 0 0 0 -19.302976627398721 73.913257777476247 0 73.913257777476247 -100.51877186817001 0 0 0 0 -22.710798357712633 80.527274312258669 0 80.527274312258669 99.351044258204638 0 0 0 0 23.173087237733199 23.034861490181356 0 23.034861490181356 26.958112104592146 0 0 0 0 -3.0868084754560812 68.307236138221924 0 68.307236138221924 151.73520311075845 0 0 0 0 0.24526342677815277 -1.0746833666760125 0 -1.0746833666760125 0.43362990962238257 0 0 0 0 -0.15640955091052303 -0.35141327986974602 0 -0.35141327986974602 0.76983027730628351 0 0 0 0 -0.063462253258387169 -37.263696871938009 0 -37.263696871938009 -43.096046375598235 0 0 0 0 -36.375350255347399 -18.90602596694589 0 -18.90602596694589 155.97864506836777 0 0 0 0 37.480392384126986 96.212167232566571 0 96.212167232566571 199.88346428457589 0 0 0 0 -13.955860932060261 -1.9592528277498786 0 -1.9592528277498786 90.576334341996699 0 0 0 0 4.2129074346071596 3.5266880219890879 0 3.5266880219890879 6.7769243992601389 0 0 0 0 53.458102395209835 45.835968756742659 0 45.835968756742659 -64.984381673351891 0 0 0 0 0.040426835512093862 13.074459400493652 0 13.074459400493652 55.401696363536757 0 0 0 0 7.9744802077761854 15.831112061579915 0 15.831112061579915 48.54025119146354 0 0 0 0 0.043733888437762797 0.045144639688800225 0 0.045144639688800225 -0.61340049601250257 0 0 0 0 -0.0055049358307307679 33.406987434977054 0 33.406987434977054 -64.094108547607902 0 0 0 0 83.451473877533658 -82.367497504332277 0 -82.367497504332277 47.939814434543223 0 0 0 0 -1.6205477670975674 -1.7576527892386764 0 -1.7576527892386764 2.9412985374410709 0 0 0 0 87.988828044946786 -64.363612275927153 0 -64.363612275927153 -372.22499402934045 0 0 0 0 455.93965035871702 -210.78310775194404 0 -210.78310775194404 -470.28546749931775 0 0 0 0 -64.595052932376348 10.127560260891187 0 10.127560260891187 90.371122982163797 0 0 0 0 -73.598854221817334 283.03171599535926 0 283.03171599535926 -294.0277832844622 0 0 0 0 -45.989592952726525 18.021349022936192 0 18.021349022936192 89.158174449730723 0 0 0 0 5.0171604409248101 25.849770646380072 0 25.849770646380072 74.783859593989405 0 0 0 0 2.1491510312831963 88.523072203137417 0 88.523072203137417 -53.527937971150095 0 0 0 0 32.200892711766755 36.864144660645252 0 36.864144660645252 22.243131539580645 0 0 0 0 23.473796846647229 44.240298091934307 0 44.240298091934307 20.963921075988274 0 0 0 0 19.644014839152078 37.224213578840136 0 37.224213578840136 137.59612120562451 0 0 0 0 38.410803540395364 75.196750987591258 0 75.196750987591258 123.92877559412591 0 0 0 0 28.029059667013826 79.607373000653752 0 79.607373000653752 148.67951387353423 0 0 0 0 3.4939676920828191 2.1111137579244854 0 2.1111137579244854 11.629816177207601 0 0 0 0 -5.233958513090867 0.72988921087703318 0 0.72988921087703318 13.465426855164045 0 0 0 0 43.720451652637621 36.568295935321657 0 36.568295935321657 45.872904192649003 0 0 0 0 -42.205898313877697 -0.97990939138981048 0 -0.97990939138981048 133.32748204134987 0 0 0 0 8.6994416450842973 15.356716224063033 0 15.356716224063033 -7.9369527781218494 0 0 0 0 64.034574596420498 53.349655124875426 0 53.349655124875426 120.13672088202475 0 0 0 0 12.834233098578352 15.403794009587727 0 15.403794009587727 159.38140730041778 0 0 0 0 -4.1618255523922016 51.677699494493936 0 51.677699494493936 127.69724682215747 0 0 0 0 -10.711233231566315 -17.401932190540037 0 -17.401932190540037 19.141462825035099 0 0 0 0 -74.022375989572083 -5.3056522161714383 0 -5.3056522161714383 238.47643640639581 0 0 0 0 22.34416324960057 23.746367002262559 0 23.746367002262559 73.495336616138957 0 0 0 0 -13.123792549477514 6.9621003407373792 0 6.9621003407373792 47.815603230366833 0 0 0 0 -15.34272841875104 0.50870441634775432 0 0.50870441634775432 40.778355964919143 0 0 0 0 -6.880198969062624 6.7083926491385597 0 6.7083926491385597 5.2399045627583689 0 0 0 0 -80.687491505289472 -76.243199661417748 0 -76.243199661417748 136.25075949069651 0 0 0 0 -27.636224429816139 20.246088629472069 0 20.246088629472069 66.285433392593404 0 0 0 0 -21.647639155437815 7.7583741456188875 0 7.7583741456188875 13.296446465902491 0 0 0 0 -23.575358507421697 14.548054764767585 0 14.548054764767585 49.869577581484918 0 0 0 0 -8.9709284321054383 12.723627748495346 0 12.723627748495346 54.672365201709908 0 0 0 0 -34.595020723691505 -8.6207766171719413 0 -8.6207766171719413 40.803880210485659 0 0 0 0 33.316668048430984 32.002538203232689 0 32.002538203232689 54.375981278892141 0 0 0 0 2.1596052912099974 5.484720431475111 0 5.484720431475111 12.869479840650243 0 0 0 0 -3.5870060367788801 29.906923109606694 0 29.906923109606694 66.549724277634013 0 0 0 0 -9.1504232488376829 20.086487354054043 0 20.086487354054043 49.78602613190742 0 0 0 0 5.1341498644005696 10.026548275556706 0 10.026548275556706 56.276559540106973 0 0 0 0 4.9715101432688265 22.005762297689088 0 22.005762297689088 5.876688813986128 0 0 0 0 -1.3079680713942274 1.8255709257031896 0 1.8255709257031896 25.467815122185769 0 0 0 0 -0.11966050749914746 -28.953518328765135 0 -28.953518328765135 78.118834934430197 0 0 0 0 -9.0170163985842997 -11.067771349565533 0 -11.067771349565533 36.767139156768906 0 0 0 0 8.5742816597423506 -22.553701928774011 0 -22.553701928774011 40.141871336585126 0 0 0 0 8.5630696863630291 9.1954531767041772 0 9.1954531767041772 -30.189536908437731 0 0 0 0 8.6315415542567226 -85.640621576067488 0 -85.640621576067488 125.16666311885638 0 0 0 0 -0.20751482748513045 -39.438726469379617 0 -39.438726469379617 165.62356366499444 0 0 0 0 -1.9537834274365808 54.306145250066038 0 54.306145250066038 374.73048275185283 0 0 0 0 45.20188099816631 247.00612573654507 0 247.00612573654507 396.65797268033475 0 0 0 0 70.913790559655936 -8.0265193023260508 0 -8.0265193023260508 55.95348521444248 0 0 0 0 7.8792787539900546 -15.257024678535203 0 -15.257024678535203 28.407468350666107 0 0 0 0 -245.48624158905295 -190.7191570918003 0 -190.7191570918003 102.63838352353196 0 0 0 0 125.79783944380898 180.78030701624084 0 180.78030701624084 208.54402578550071 0 0 0 0 -17.712209809171441 35.036564187576005 0 35.036564187576005 -68.656807045757887 0 0 0 0 71.427828186713327 152.1418098529939 0 152.1418098529939 673.09102369527682 0 0 0 0 -11.582280483434687 245.29049090727858 0 245.29049090727858 665.42827401422255 0 0 0 0 385.53541933289222 841.09082110311283 0 841.09082110311283 1517.9649656212969 0 0 0 0 0.99577991541218525 -20.507954701701237 0 -20.507954701701237 801.94912748855859 0 0 0 0 -109.92788666904991 307.60571631260609 0 307.60571631260609 1390.5791208944647 0 0 0 0 -1.4683990959271951 -54.871059318855174 0 -54.871059318855174 415.52665053067904 0 0 0 0 -138.49739223263592 416.25984575935217 0 416.25984575935217 1364.0645291499723 0 0 0 0 -0.33354257474841331 -0.66106427686970193 0 -0.66106427686970193 3.3639097096246928 0 0 0 0 -0.045556386354531041 0.075296218859151054 0 0.075296218859151054 0.46006222400401953 0 0 0 0 -106.73786849937485 -13.825940809561871 0 -13.825940809561871 1531.2588696014573 0 0 0 0 -87.623392689965939 316.89989626382521 0 316.89989626382521 709.34895575710107 0 0 0 0 241.77111529604474 -343.63730985790608 0 -343.63730985790608 85.18763503266382 0 0 0 0 76.451198396269831 -43.317467964239768 0 -43.317467964239768 86.236198773549404 0 0 0 0 47.029987353924135 133.52867850876828 0 133.52867850876828 -164.1591569953307 0 0 0 0 -0.02025447310367753 -4.8930736154959815 0 -4.8930736154959815 -0.59455622668610886 0 0 0 0 -10.469629064422298 -2.0705136966571445 0 -2.0705136966571445 1.0850642096193042 0 0 0 0 0.48040055474832843 -0.26328884277572939 0 -0.26328884277572939 1.398046219893331 0 0 0 0 -215.87110866268858 -154.83002960259182 0 -154.83002960259182 160.20905706539634 0 0 0 0 405.69074595564371 563.51956214057236 0 563.51956214057236 899.1456647633313 0 0 0 0 523.92523658295408 -424.29627598238949 0 -424.29627598238949 956.13982954641688 0 0 0 0 228.57954610565574 240.91923774488532 0 240.91923774488532 186.57049188185556 0 0 0 0 406.76240424854427 1155.5467247401539 0 1155.5467247401539 2127.6939825656882 0 0 0 0 -32.257916515424228 375.24266636170523 0 375.24266636170523 2416.9564437062509 0 0 0 0 -486.38883996998084 115.94249549900996 0 115.94249549900996 1840.3031060528592 0 0 0 0 -132.44649732503058 -509.86270893513392 0 -509.86270893513392 1478.1783020323201 0 0 0 0 -81.177684161611182 -595.11607621483381 0 -595.11607621483381 192.29304741269152 0 0 0 0 3.7366585394268661 -5.497378825058604 0 -5.497378825058604 10.772135567054875 0 0 0 0 -240.43888081326759 272.66624195943587 0 272.66624195943587 179.04131805397333 0 0 0 0 199.00657201927402 217.5114254383443 0 217.5114254383443 -0.64279744036321063 0 0 0 0 0.10305649592425181 -5.1407619464112599 0 -5.1407619464112599 -2.0973221265562358 0 0 0 0 -21.0562394014853 -0.94087238846623222 0 -0.94087238846623222 -28.368184783714241 0 0 0 0 -225.9356405621229 167.61240415078282 0 167.61240415078282 619.5098098358576 0 0 0 0 16.217524607070924 -31.168996564091785 0 -31.168996564091785 16.237039029917753 0 0 0 0 -37.798613814514283 46.056146044134948 0 46.056146044134948 227.05363558727913 0 0 0 0 69.842142328439877 29.208951246338984 0 29.208951246338984 106.65999726631344 0 0 0 0 355.67934629042429 20.546542900505301 0 20.546542900505301 -774.96225688736376 0 0 0 0 497.12327717944413 1566.5915138649564 0 1566.5915138649564 759.36430161340104 0 0 0 0 -625.1164290553952 130.07444415101781 0 130.07444415101781 2663.5924696767543 0 0 0 0 -220.40980717115599 -16.048484857063158 0 -16.048484857063158 616.41421964171866 0 0 0 0 -608.74126337003418 237.84797269538103 0 237.84797269538103 1669.0179515050404 0 0 0 0 -515.26507278614235 -29.666375617285667 0 -29.666375617285667 1235.9838321912466 0 0 0 0 -217.33296807728402 -253.51036848784861 0 -253.51036848784861 791.55796834680223 0 0 0 0 -459.65651102745323 -306.75122595072025 0 -306.75122595072025 1633.2290276838612 0 0 0 0 490.80626330853829 -569.16981321835556 0 -569.16981321835556 802.21703667043766 0 0 0 0 -254.2697352902178 -329.62279605583535 0 -329.62279605583535 1164.9973447404336 0 0 0 0 -148.89700186819391 -822.96354815192899 0 -822.96354815192899 2233.3655657266245 0 0 0 0 -229.50387382763074 -291.81144270578807 0 -291.81144270578807 1155.529365774104 0 0 0 0 292.89016165433532 -568.36569136345133 0 -568.36569136345133 269.13278324430576 0 0 0 0 -36.899940015537595 -219.56809435820833 0 -219.56809435820833 208.02701540559065 0 0 0 0 113.86146900066797 29.985231359689351 0 29.985231359689351 -112.21626619930612 0 0 0 0 -551.92411331548101 548.86809241859009 0 548.86809241859009 -367.81743688473944 0 0 0 0 -22.212491682962444 53.05916231435134 0 53.05916231435134 47.334157476730887 0 0 0 0 -7.9857093113578799 27.185400411412559 0 27.185400411412559 34.607412402958687 0 0 0 0 -227.0908993030319 368.05231700126598 0 368.05231700126598 595.08250859586406 0 0 0 0 160.05953236630376 226.02930778232258 0 226.02930778232258 -222.82353965340735 0 0 0 0 15.398971515420044 646.69917374223951 0 646.69917374223951 1068.6035497470402 0 0 0 0 329.01832077563506 1000.9563852969914 0 1000.9563852969914 174.67807881903718 0 0 0 0 3.117528595528519 2.0601290113428519 0 2.0601290113428519 0.0097508741400957888 0 0 0 0 99.083040760320728 501.73484964302406 0 501.73484964302406 -391.23266039641749 0 0 0 0 540.42590044850249 809.85674475510496 0 809.85674475510496 1290.0508432573843 0 0 0 0 -5.3777388228869407 6.4694289174866704 0 6.4694289174866704 33.592505541741019 0 0 0 0 967.47560939516302 1290.2487332620385 0 1290.2487332620385 1549.1116266635363 0 0 0 0 -40.509419747584616 776.62795797454601 0 776.62795797454601 2789.4604960125725 0 0 0 0 -32.482695894377684 265.57676040129445 0 265.57676040129445 1050.9994220921872 0 0 0 0 -73.061692626774857 851.31587916311764 0 851.31587916311764 1613.8781726827474 0 0 0 0 -39.218133669376321 340.92234374607847 0 340.92234374607847 771.87904889555648 0 0 0 0 -638.48177992533749 176.24886237902319 0 176.24886237902319 1123.1170849735645 0 0 0 0 -291.41172026015829 559.69734720051383 0 559.69734720051383 798.6920573831303 0 0 0 0 401.93079315242625 -1609.4642087824518 0 -1609.4642087824518 1547.597722751816 0 0 0 0 778.91764886030069 -1009.0038573120764 0 -1009.0038573120764 -823.34184086123059 0 0 0 0 24.17325510010793 -39.684725633571887 0 -39.684725633571887 21.325483365038096 0 0 0 0 0.7814515592490352 -52.863483884400921 0 -52.863483884400921 233.96404014777363 0 0 0 0 1.8122929918595219 25.219069062026392 0 25.219069062026392 249.04923261158547 0 0 0 0 -1.1321648035134313 -2.3052647357451548 0 -2.3052647357451548 1.890412121074398 0 0 0 0 -42.370640711685155 1.7391433226293884 0 1.7391433226293884 355.1609055500594 0 0 0 0 -11.89363896911118 -127.49290405921784 0 -127.49290405921784 -35.035784609590337 0 0 0 0 -50.792781916722561 -83.155668226239868 0 -83.155668226239868 335.02383612672566 0 0 0 0 -15.931138230894248 -44.659017114139715 0 -44.659017114139715 109.56101686793409 0 0 0 0 -38.398358996480056 -131.44267812149337 0 -131.44267812149337 93.586796212868649 0 0 0 0 -40.582576850484884 -18.013941394427093 0 -18.013941394427093 134.72205960145402 0 0 0 0 -43.143805317925285 -85.147944026271034 0 -85.147944026271034 97.270218512108841 0 0 0 0 -70.469638337575134 -79.446484784413769 0 -79.446484784413769 12.59890130005806 0 0 0 0 -54.79908847883064 -49.41231131805398 0 -49.41231131805398 51.827069949220459 0 0 0 0 -51.749973196629284 -4.1225503873031357 0 -4.1225503873031357 143.86265373846982 0 0 0 0 -76.921621334600331 -1.7671750212575716 0 -1.7671750212575716 175.43215425147355 0 0 0 0 -0.73821890388096278 -2.9083559502008853 0 -2.9083559502008853 2.5243633854633529 0 0 0 0 -85.544333984520108 -23.747537343464501 0 -23.747537343464501 164.19920067611383 0 0 0 0 -0.22880980073033719 -3.3436999980579856 0 -3.3436999980579856 1.3469533633494777 0 0 0 0 70.148027527773138 14.765101029883226 0 14.765101029883226 60.343815198917582 0 0 0 0 -19.741720411519054 93.643776706005156 0 93.643776706005156 208.21560833384137 0 0 0 0 61.667751675055797 72.83345983536492 0 72.83345983536492 84.084863817442965 0 0 0 0 -31.784736871926725 -3.9427442403466557 0 -3.9427442403466557 85.703389663580765 0 0 0 0 -15.411500500810689 70.325701450619817 0 70.325701450619817 113.96727758130874 0 0 0 0 -60.798425352264076 -25.017849916835985 0 -25.017849916835985 120.14549302587693 0 0 0 0 -51.034421558012355 75.689031103947855 0 75.689031103947855 -38.059237275978376 0 0 0 0 -182.63693631358387 -27.072462988813641 0 -27.072462988813641 122.04758755265539 0 0 0 0 -159.40111808071941 14.134957683312678 0 14.134957683312678 171.49611641531374 0 0 0 0 -94.367860442406709 -69.878064943179197 0 -69.878064943179197 79.47856236738653 0 0 0 0 -1.3013113733700008 -2.9346680355575501 0 -2.9346680355575501 -1.1005787914355274 0 0 0 0 -19.146920881205915 6.9847899636224611 0 6.9847899636224611 73.380109589306812 0 0 0 0 -23.094704324006358 -22.995947585732893 0 -22.995947585732893 100.72555324384302 0 0 0 0 -45.039323405851974 33.398936273482832 0 33.398936273482832 46.884166263349471 0 0 0 0 -44.82183947590147 -6.4347509573017305 0 -6.4347509573017305 71.384191254634061 0 0 0 0 -43.814223146349832 23.701196547539439 0 23.701196547539439 118.39675223848462 0 0 0 0 -87.548712918400355 64.024419556066277 0 64.024419556066277 199.01495940105815 0 0 0 0 -62.002344851416638 1.2232532067791908 0 1.2232532067791908 92.408487815255285 0 0 0 0 -42.773873594981069 31.750747368081647 0 31.750747368081647 186.43693787576194 0 0 0 0 -14.155841727906704 94.793109653259307 0 94.793109653259307 217.54783678649983 0 0 0 0 -24.467538518561923 -37.801027696994424 0 -37.801027696994424 159.01759031593247 0 0 0 0 -81.557049837420436 86.391115741085741 0 86.391115741085741 110.29234949027887 0 0 0 0 53.077503251368398 46.051039812162344 0 46.051039812162344 285.9587794189647 0 0 0 0 2.1844842343207347 -7.3209812541244901 0 -7.3209812541244901 286.51801437741597 0 0 0 0 -13.802109517697772 63.631060708867153 0 63.631060708867153 300.76882525769906 0 0 0 0 42.861261813438432 125.77726485187304 0 125.77726485187304 322.79064161338556 0 0 0 0 36.349336013061475 105.44675403005931 0 105.44675403005931 375.43893511277201 0 0 0 0 64.697023267249278 171.39660183701199 0 171.39660183701199 490.42848105454323 0 0 0 0 77.533349219391312 74.478682945438777 0 74.478682945438777 377.48745885945391 0 0 0 0 99.79767733224071 65.920047045958199 0 65.920047045958199 573.37793894884089 0 0 0 0 94.443750350152186 122.30298726283581 0 122.30298726283581 467.7549591884308 0 0 0 0 133.76397708205513 -11.675048503417202 0 -11.675048503417202 335.65029322494956 0 0 0 0 44.284332775283474 46.26882866878077 0 46.26882866878077 473.10954890276821 0 0 0 0 37.324536266898576 7.8109806437096267 0 7.8109806437096267 402.78530450692597 0 0 0 0 66.049284084623196 -27.460562060735356 0 -27.460562060735356 200.57533886862802 0 0 0 0 42.026287485581634 0.1344037716735329 0 0.1344037716735329 335.89067116564183 0 0 0 0 13.412107525732608 -28.250285170266125 0 -28.250285170266125 221.6016985896058 0 0 0 0 112.32065674854857 -0.62466824631337659 0 -0.62466824631337659 218.69747921521048 0 0 0 0 3.187896437031668 -58.929605133540463 0 -58.929605133540463 201.54143996716994 0 0 0 0 -27.753382083334145 -87.205387252812216 0 -87.205387252812216 161.05197181102395 0 0 0 0 27.897260190797624 -32.115767594166755 0 -32.115767594166755 160.41049181707058 0 0 0 0 9.4768651385506928 -52.861619150389743 0 -52.861619150389743 270.72777173802751 0 0 0 0 -15.257658189718313 -73.213561359381856 0 -73.213561359381856 174.83486016175084 0 0 0 0 10.417757921568409 20.840782750463404 0 20.840782750463404 209.09841662062536 0 0 0 0 -22.369473528277013 -124.42331406368612 0 -124.42331406368612 81.583407815989631 0 0 0 0 -5.7454840228638204 -111.37928342732084 0 -111.37928342732084 89.522938740170503 0 0 0 0 -31.311498390748056 -115.88342599211956 0 -115.88342599211956 106.86600221919798 0 0 0 0 8.8347759696889625 -27.848748335565688 0 -27.848748335565688 126.7227154977445 0 0 0 0 -53.641267396398689 -79.418254238295049 0 -79.418254238295049 108.22067900981347 0 0 0 0 18.11242454848616 -82.685753957433917 0 -82.685753957433917 106.81540223048796 0 0 0 0 9.2150062540177267 -38.039290754928643 0 -38.039290754928643 22.571424812753598 0 0 0 0 -248.88787204950478 -131.68945149131468 0 -131.68945149131468 264.15457291263738 0 0 0 0 -13.655683436563777 -118.14718747076222 0 -118.14718747076222 11.596829360376432 0 0 0 0 47.738510684961511 185.30697166954815 0 185.30697166954815 549.83681886694831 0 0 0 0 35.241861886832339 109.57011087892261 0 109.57011087892261 292.79660586318641 0 0 0 0 31.31011942560508 10.030417090132687 0 10.030417090132687 118.2371218974331 0 0 0 0 -57.843927207370143 382.73987521441086 0 382.73987521441086 240.95453460272984 0 0 0 0 357.61726710398648 561.99083262898785 0 561.99083262898785 194.48128321120748 0 0 0 0 73.081994480609865 109.96784103211394 0 109.96784103211394 67.99138237328043 0 0 0 0 -17.238359452386248 35.01608657081124 0 35.01608657081124 331.62537530072586 0 0 0 0 -12.023297909818201 -29.938642734508605 0 -29.938642734508605 20.060832447588531 0 0 0 0 -36.826257010793597 122.54514121219836 0 122.54514121219836 435.78297613337054 0 0 0 0 -114.64635509000982 173.06774057082839 0 173.06774057082839 405.88162480195751 0 0 0 0 -33.021640711208107 -22.29218012484705 0 -22.29218012484705 16.630313867239551 0 0 0 0 -15.071941402357648 -12.857262044186911 0 -12.857262044186911 72.442769806686556 0 0 0 0 -14.557015425071768 -122.77016942851333 0 -122.77016942851333 -68.460029483265316 0 0 0 0 -0.68432275342092908 -25.750374896289941 0 -25.750374896289941 60.114443045742519 0 0 0 0 39.948796720408609 -88.426821353701598 0 -88.426821353701598 91.774754533740634 0 0 0 0 66.064771564604598 -48.610412519286911 0 -48.610412519286911 79.360107739063096 0 0 0 0 83.466191798495856 -8.3209407463982643 0 -8.3209407463982643 108.31080945768667 0 0 0 0 47.737908654284183 86.467003531750379 0 86.467003531750379 233.83229434673194 0 0 0 0 -3.4402794094930869 -7.6327495368204836 0 -7.6327495368204836 138.25792229667422 0 0 0 0 -73.176976414102683 -72.023501794938056 0 -72.023501794938056 -37.214348939884076 0 0 0 0 38.074522546048684 31.462561166317755 0 31.462561166317755 31.337936329236982 0 0 0 0 -160.01059948707643 154.21754431996214 0 154.21754431996214 14.723639854622888 0 0 0 0 49.64241599844263 -14.769517215267115 0 -14.769517215267115 -76.812983354975586 0 0 0 0 -13.363109064794116 -27.480986584039783 0 -27.480986584039783 107.13048620587801 0 0 0 0 6.9433198935275868 -76.68508819413546 0 -76.68508819413546 -120.05539017982119 0 0 0 0 1.9503331302334459 15.025484892103236 0 15.025484892103236 -106.74322096505784 0 0 0 0 -71.833424391397784 20.922826567086304 0 20.922826567086304 -50.331858944009582 0 0 0 0 -49.325140061972604 -10.97489375200847 0 -10.97489375200847 16.255169055047347 0 0 0 0 -38.649794854759421 190.16274027032932 0 190.16274027032932 120.38475833448319 0 0 0 0 50.742087691940611 26.141424808947619 0 26.141424808947619 13.504858122071212 0 0 0 0 71.212353222472302 -34.475239829356724 0 -34.475239829356724 7.7237523816365865 0 0 0 0 16.943517684630933 11.576390419213567 0 11.576390419213567 10.04010135619319 0 0 0 0 11.668834556047571 5.6232656071343854 0 5.6232656071343854 1.4998190945061509 0 0 0 0 52.996100196900443 44.583586735006975 0 44.583586735006975 27.458727886001725 0 0 0 0 40.722077030848595 20.726349038013723 0 20.726349038013723 37.926644415143528 0 0 0 0 2.4248334889580292 4.8576027147482819 0 4.8576027147482819 -2.8792223645359627 0 0 0 0 -1.054281244727278 1.1822665889059465 0 1.1822665889059465 0.56008651335767468 0 0 0 0 8.1618410128290826 12.037000249996719 0 12.037000249996719 10.182489332669121 0 0 0 0 39.921349047595868 35.860769582301145 0 35.860769582301145 11.148474480170989 0 0 0 0 18.414694017194023 23.443652700907904 0 23.443652700907904 14.650848151782945 0 0 0 0 1.652327082561861 4.0741250826103972 0 4.0741250826103972 4.1896777043228042 0 0 0 0 0.29205837059998885 19.944179772486677 0 19.944179772486677 19.920132974439184 0 0 0 0 -23.407150846851287 13.019445194443918 0 13.019445194443918 20.297624275926211 0 0 0 0 -39.165910397590778 -21.564292522627511 0 -21.564292522627511 -13.396763594442746 0 0 0 0 65.479629236320761 -124.09934686873385 0 -124.09934686873385 -59.135226707119728 0 0 0 0 -2.9238263789744927 0.45204993362257184 0 0.45204993362257184 -1.6023886891966015 0 0 0 0 0.49834603557337687 117.66823727483961 0 117.66823727483961 77.389561125026376 0 0 0 0 11.216837640662561 106.12771664238244 0 106.12771664238244 87.818728020705748 0 0 0 0 0.21472939127691859 -0.81351934097081369 0 -0.81351934097081369 -0.19905728219855945 0 0 0 0 77.779491021436115 -70.961164873708185 0 -70.961164873708185 -105.9963545633675 0 0 0 0 116.22708675840113 55.435259427060373 0 55.435259427060373 -103.25410180104916 0 0 0 0 -19.715521142876241 -38.57952959551767 0 -38.57952959551767 7.1019170351603975 0 0 0 0 90.552729959801582 27.570667477932147 0 27.570667477932147 6.7271963532548398 0 0 0 0 51.67524574217714 13.614723799772037 0 13.614723799772037 76.392180688271765 0 0 0 0 99.211813295194588 106.44061604692251 0 106.44061604692251 64.231667675755943 0 0 0 0 44.369699755441616 92.891351309197489 0 92.891351309197489 173.66539019942138 0 0 0 0 17.188524017607051 96.756656236246272 0 96.756656236246272 354.70153093768022 0 0 0 0 58.948327878839336 105.05345680372557 0 105.05345680372557 -195.3630103321193 0 0 0 0 68.45922389617408 60.940885767828149 0 60.940885767828149 -20.527808079852548 0 0 0 0 73.736622615364467 150.85608049613802 0 150.85608049613802 -11.064494774020659 0 0 0 0 -12.575831991744053 48.695487414097443 0 48.695487414097443 89.710853470234724 0 0 0 0 58.537012820663222 140.552466410335 0 140.552466410335 132.01115301381651 0 0 0 0 126.66728225763836 225.972078481278 0 225.972078481278 204.60724528317223 0 0 0 0 42.917847148384681 108.75105601809264 0 108.75105601809264 242.98488050973538 0 0 0 0 63.649155137385605 222.94225174005078 0 222.94225174005078 300.19434971328883 0 0 0 0 161.05377311093798 326.23930076094803 0 326.23930076094803 377.0679857214418 0 0 0 0 147.46231164725759 358.46927493887779 0 358.46927493887779 396.68377144521219 0 0 0 0 260.03044549496553 317.7733217563291 0 317.7733217563291 320.46100796091196 0 0 0 0 106.75104304455454 -59.822262147303263 0 -59.822262147303263 91.989783433431512 0 0 0 0 344.05396147303827 429.82665517915439 0 429.82665517915439 408.25351150722418 0 0 0 0 3.6243437728968502 -0.61453040978217643 0 -0.61453040978217643 0.60566244845942663 0 0 0 0 408.63707681504957 254.18968805766235 0 254.18968805766235 347.04464264448325 0 0 0 0 243.61013087589527 164.30884438713474 0 164.30884438713474 488.45000685724881 0 0 0 0 250.77684378270351 187.25900556909801 0 187.25900556909801 345.55719502024294 0 0 0 0 137.50395307992039 245.77587304819826 0 245.77587304819826 353.42129037349514 0 0 0 0 191.29667475535462 173.82996182393617 0 173.82996182393617 243.75887361111819 0 0 0 0 99.568772056949456 140.07375893617791 0 140.07375893617791 347.69412291162007 0 0 0 0 140.71889704717341 50.046700200393389 0 50.046700200393389 246.13678577599057 0 0 0 0 156.36192795756688 141.10316877972218 0 141.10316877972218 339.28127281768684 0 0 0 0 166.04946520702651 16.92437384517325 0 16.92437384517325 240.95764850796513 0 0 0 0 46.944704790239939 17.907202009545472 0 17.907202009545472 249.36328631862852 0 0 0 0 148.17211171794384 92.158863481618027 0 92.158863481618027 379.22989159529243 0 0 0 0 78.549579059607822 12.115036289518684 0 12.115036289518684 367.35476087225106 0 0 0 0 280.3579691039613 195.8305973899769 0 195.8305973899769 399.40845706424443 0 0 0 0 154.97813448584657 109.94765774554617 0 109.94765774554617 410.2001016655704 0 0 0 0 262.03091787988399 200.85196537069203 0 200.85196537069203 421.23649617064075 0 0 0 0 280.60455577504399 -26.208238515941048 0 -26.208238515941048 484.99100623086269 0 0 0 0 240.9401232341479 -20.583337767560806 0 -20.583337767560806 823.05240585479623 0 0 0 0 157.11200079094124 130.60720110929833 0 130.60720110929833 554.87121795448547 0 0 0 0 674.91145222232808 90.85779653584359 0 90.85779653584359 448.18576175993076 0 0 0 0 3.0387201250040619 -2.3904883930169945 0 -2.3904883930169945 1.8326148160956137 0 0 0 0 372.12060864354862 345.98083269911513 0 345.98083269911513 393.18702618665702 0 0 0 0 16.908863382192067 -225.04578456801391 0 -225.04578456801391 839.20096565909807 0 0 0 0 206.21127920925647 -5.5736696323468777 0 -5.5736696323468777 114.24640030152659 0 0 0 0 197.2970238701993 367.0152410034035 0 367.0152410034035 480.09799525156268 0 0 0 0 269.70134507861258 300.69436519177179 0 300.69436519177179 540.31420841701765 0 0 0 0 2.3048194188886555 2.6453481015649913 0 2.6453481015649913 4.2868678870943455 0 0 0 0 -23.238237079555347 549.11553345872562 0 549.11553345872562 -75.134793177436222 0 0 0 0 91.529252221464048 -608.46754010676159 0 -608.46754010676159 1393.5551889803719 0 0 0 0 62.083128645015449 -306.95746870903918 0 -306.95746870903918 616.85774580555881 0 0 0 0 -114.6910736866048 -209.7370270447318 0 -209.7370270447318 965.05349740552629 0 0 0 0 -42.350071409602151 139.71907260763192 0 139.71907260763192 868.09710073964379 0 0 0 0 537.70832027520009 196.36147758083098 0 196.36147758083098 1142.8294329262499 0 0 0 0 446.81684736232 23.829811008597972 0 23.829811008597972 881.19461146314279 0 0 0 0 148.61176515238549 143.29877985418352 0 143.29877985418352 995.64459173346768 0 0 0 0 81.578386657703504 299.63462274631911 0 299.63462274631911 576.13782220249414 0 0 0 0 41.753112949472779 262.57982206429733 0 262.57982206429733 941.93835977861454 0 0 0 0 272.46827409396792 205.28938956309867 0 205.28938956309867 742.93758042364061 0 0 0 0 -20.562648200342664 593.62512822104327 0 593.62512822104327 643.14161505828451 0 0 0 0 -66.138370979473621 116.87042515944631 0 116.87042515944631 385.14964426371444 0 0 0 0 69.061486582681027 183.21304758380757 0 183.21304758380757 210.60972511556611 0 0 0 0 173.53413321363223 376.59688919245127 0 376.59688919245127 515.16908680475899 0 0 0 0 47.275351687299917 138.7784510792626 0 138.7784510792626 352.0133774151509 0 0 0 0 -7.4774191226315452 62.921507327915606 0 62.921507327915606 486.25460023082633 0 0 0 0 67.223085486088166 -116.50941171200611 0 -116.50941171200611 74.872226311679697 0 0 0 0 -12.227190592557236 0.32856881592306308 0 0.32856881592306308 139.27052344643016 0 0 0 0 -251.93375843427566 -7.4215065989046707 0 -7.4215065989046707 190.55133676778132 0 0 0 0 -306.69159575131198 -47.297042287722434 0 -47.297042287722434 -40.896975114135103 0 0 0 0 -65.37226111265818 104.05417408428048 0 104.05417408428048 45.128854347312881 0 0 0 0 48.650582468426364 55.890248303468979 0 55.890248303468979 491.36346529050115 0 0 0 0 -252.69551291721473 174.59028440423481 0 174.59028440423481 51.674770572164562 0 0 0 0 2.854201770401751 7.2655702647541176 0 7.2655702647541176 10.022405730746783 0 0 0 0 -69.157069979948574 -21.594135152008676 0 -21.594135152008676 9.5590049813326914 0 0 0 0 -231.69384791193397 55.874479266169146 0 55.874479266169146 12.918052379238361 0 0 0 0 -240.8555771970191 -14.349066899085756 0 -14.349066899085756 85.770563175887219 0 0 0 0 -120.01813990889423 29.926914553892857 0 29.926914553892857 32.189861752456636 0 0 0 0 -47.220997091624668 60.703446694744343 0 60.703446694744343 211.07827576023556 0 0 0 0 -205.07949268805169 -172.21188258627444 0 -172.21188258627444 -89.753651297854958 0 0 0 0 -3.0128658389819947 -0.6940370856839877 0 -0.6940370856839877 1.9749773987116868 0 0 0 0 -109.1534279031255 -52.632989444118834 0 -52.632989444118834 28.494288082009007 0 0 0 0 -99.597425872561871 -22.934559088200331 0 -22.934559088200331 45.598432820355811 0 0 0 0 -91.326365734401406 25.315704391876352 0 25.315704391876352 74.652186686784262 0 0 0 0 -140.50637613963954 -21.238421772235597 0 -21.238421772235597 101.68921579340531 0 0 0 0 -70.640368090138509 -1.6393567154809716 0 -1.6393567154809716 106.01812867361514 0 0 0 0 -104.38586526568179 -45.970121775259031 0 -45.970121775259031 23.385437458040542 0 0 0 0 -155.607728857236 -15.55290244335265 0 -15.55290244335265 120.57916972483508 0 0 0 0 -117.06504039984065 -75.266650121257044 0 -75.266650121257044 189.81150255787361 0 0 0 0 -55.453272149836266 -73.909081280900864 0 -73.909081280900864 185.0344983604009 0 0 0 0 -6.8392730773812218 -29.141698078943591 0 -29.141698078943591 147.74010663661829 0 0 0 0 -77.898368901649519 -18.016560268333706 0 -18.016560268333706 156.86660339972877 0 0 0 0 -44.953133088027244 -83.167469360421819 0 -83.167469360421819 253.51312258513553 0 0 0 0 -113.28137485289517 -31.013113311893903 0 -31.013113311893903 263.48152410345938 0 0 0 0 -83.328591528508696 -99.067983053533681 0 -99.067983053533681 205.52550202759448 0 0 0 0 -77.161433508659684 -116.96246843029076 0 -116.96246843029076 237.28852175969223 0 0 0 0 0.62085551354210367 0.48921391673432879 0 0.48921391673432879 -0.72569855288091389 0 0 0 0 19.934061184234452 -106.38889057208507 0 -106.38889057208507 237.86985584252943 0 0 0 0 -163.8634847875619 22.36385628803373 0 22.36385628803373 20.753389477278688 0 0 0 0 -7.9144265929965059 -18.459075365843091 0 -18.459075365843091 262.55221240796527 0 0 0 0 -9.6501466790044681 -2.0731545445157025 0 -2.0731545445157025 8.9311693301023212 0 0 0 0 2.5001947928660471 5.1560583208004687 0 5.1560583208004687 6.6165227456232003 0 0 0 0 -134.32751701718007 -56.864842647974001 0 -56.864842647974001 -2.4289579533724464 0 0 0 0 -133.483340387922 25.68331017280434 0 25.68331017280434 24.940317360960762 0 0 0 0 -109.42511879861291 -39.117544551796243 0 -39.117544551796243 -9.0200077429908561 0 0 0 0 -5.1015020245110065 0.41295889460171509 0 0.41295889460171509 3.9318952101510689 0 0 0 0 -49.230934838486064 5.1933724052800017 0 5.1933724052800017 151.94670368544757 0 0 0 0 22.3694305543886 -41.367135665888782 0 -41.367135665888782 56.151098061229277 0 0 0 0 3.4057374481117222 17.715157847643241 0 17.715157847643241 38.091818735985726 0 0 0 0 -81.178473076510272 43.735079447433236 0 43.735079447433236 81.624634615694958 0 0 0 0 -144.44800434599165 -43.937261421386211 0 -43.937261421386211 88.501256279958397 0 0 0 0 -142.56244358175354 39.668268413246551 0 39.668268413246551 116.88164203845372 0 0 0 0 -276.34682663000967 -224.39158400534143 0 -224.39158400534143 -36.663508618876222 0 0 0 0 -59.789817154375214 5.4510091022821143 0 5.4510091022821143 45.543215688834607 0 0 0 0 -7.7731352887827398 -2.2023881935535883 0 -2.2023881935535883 6.5963415240095173 0 0 0 0 -109.0521220110104 263.84561808147919 0 263.84561808147919 560.38284904020838 0 0 0 0 -2.4667907681687211 90.690605232684902 0 90.690605232684902 314.20499979607121 0 0 0 0 -156.45102997690401 -175.29366216290146 0 -175.29366216290146 367.17125071717601 0 0 0 0 -21.383249159227489 -197.77116132386436 0 -197.77116132386436 283.5557901764596 0 0 0 0 -3.5649462490893065 -1.0769997771513715 0 -1.0769997771513715 3.331196141180385 0 0 0 0 -192.06046050827445 -447.00486862549951 0 -447.00486862549951 -249.44658631516359 0 0 0 0 -171.1671237974374 16.859757287381399 0 16.859757287381399 174.13292021946108 0 0 0 0 -38.823300941662183 28.898302087731281 0 28.898302087731281 132.74647931015352 0 0 0 0 -89.391742064088817 145.0992276265506 0 145.0992276265506 552.02492019617785 0 0 0 0 84.036956978725811 223.42897198845822 0 223.42897198845822 420.77811305072464 0 0 0 0 -179.87891663662958 -14.759896751515043 0 -14.759896751515043 259.22978980445623 0 0 0 0 -39.264154263094497 221.00258461636986 0 221.00258461636986 477.96015244222508 0 0 0 0 62.205850660204533 264.47224429306334 0 264.47224429306334 322.52181247360568 0 0 0 0 4.9694651682840458 347.2461516215235 0 347.2461516215235 589.48808377995738 0 0 0 0 43.831848585595253 325.59799441928226 0 325.59799441928226 610.35147690928716 0 0 0 0 57.278225406215824 365.0838432030796 0 365.0838432030796 599.90131380756429 0 0 0 0 26.803407710401189 363.74542676882629 0 363.74542676882629 526.17827081413088 0 0 0 0 -80.052118109665571 320.63912590693326 0 320.63912590693326 693.21831411680614 0 0 0 0 3.0931710060166253 2.4968004728343374 0 2.4968004728343374 1.3208785451676022 0 0 0 0 133.25483677324337 442.72925914659572 0 442.72925914659572 217.79765185060387 0 0 0 0 49.469748934650852 -108.87893535147941 0 -108.87893535147941 649.09752744549769 0 0 0 0 279.71538735886406 331.0094230691393 0 331.0094230691393 544.10290704121871 0 0 0 0 131.65318425168698 338.28098152508028 0 338.28098152508028 809.66911584124682 0 0 0 0 133.48262926767165 210.58723033370552 0 210.58723033370552 619.75679137334009 0 0 0 0 123.66851478765602 290.66126635005276 0 290.66126635005276 533.74801616423065 0 0 0 0 153.18696968463064 344.89822848947551 0 344.89822848947551 601.91773609284064 0 0 0 0 84.526166674650085 246.4935815777535 0 246.4935815777535 670.06761048821863 0 0 0 0 59.441700082246825 177.89584742101761 0 177.89584742101761 482.51379189573345 0 0 0 0 119.67857239526347 285.4598340210905 0 285.4598340210905 550.30989057933039 0 0 0 0 60.525581019736819 215.97873322569285 0 215.97873322569285 462.23910667962627 0 0 0 0 27.774062638807663 153.12978397430561 0 153.12978397430561 378.47739035812265 0 0 0 0 52.800509405244156 165.99517909617862 0 165.99517909617862 295.72092715502799 0 0 0 0 90.37789066443554 280.06557589822773 0 280.06557589822773 439.43211956775485 0 0 0 0 43.218949257264285 278.36018818905359 0 278.36018818905359 470.78384188380733 0 0 0 0 90.227792826603718 206.85805444110974 0 206.85805444110974 459.43645029472827 0 0 0 0 42.738001129298937 277.22171688967865 0 277.22171688967865 571.17239324823458 0 0 0 0 -151.63176362515742 130.11643023653596 0 130.11643023653596 333.34498607653222 0 0 0 0 78.830863857044818 180.33333099289939 0 180.33333099289939 274.13918286083936 0 0 0 0 -17.241041612965546 151.43889965745984 0 151.43889965745984 349.78890357782802 0 0 0 0 -2.2810222518633765 102.84436683510376 0 102.84436683510376 261.21396187867504 0 0 0 0 -76.163761278076493 114.92831771187775 0 114.92831771187775 282.16188623075141 0 0 0 0 -41.725003756510432 117.49887869835584 0 117.49887869835584 217.72899290985515 0 0 0 0 -57.188162273804039 86.363364292832557 0 86.363364292832557 166.31852073477785 0 0 0 0 -104.69271176435541 55.251355008636892 0 55.251355008636892 104.19170887057408 0 0 0 0 15.24657096619012 70.419902286772412 0 70.419902286772412 91.216096904012375 0 0 0 0 -55.354904135653214 12.893976199186 0 12.893976199186 82.458810478645319 0 0 0 0 1.2826739471502946 4.504256514407512 0 4.504256514407512 21.905345838179585 0 0 0 0 551.01469981794253 278.32325842858336 0 278.32325842858336 72.5296092175995 0 0 0 0 181.73424373987564 104.82171247791121 0 104.82171247791121 20.311510428840847 0 0 0 0 -140.25179146501506 239.96591753727625 0 239.96591753727625 323.64469757211918 0 0 0 0 -12.722051387101601 214.15331425640034 0 214.15331425640034 196.92870352867976 0 0 0 0 76.162136697748679 314.75060476156432 0 314.75060476156432 265.99241456350137 0 0 0 0 -69.549730144249224 316.89758826482284 0 316.89758826482284 270.6221740348301 0 0 0 0 -495.78447389302318 211.19470507126243 0 211.19470507126243 467.93293596500007 0 0 0 0 -149.93900232598003 501.4057235505461 0 501.4057235505461 516.7258084479181 0 0 0 0 -69.551581782114312 304.73238059662617 0 304.73238059662617 371.57900443482504 0 0 0 0 -1474.9365108153074 151.61367805400369 0 151.61367805400369 2427.6055627333699 0 0 0 0 275.43450384061771 565.78473155238316 0 565.78473155238316 328.619658689473 0 0 0 0 193.1790416688566 -441.74118989380986 0 -441.74118989380986 -224.96960744363605 0 0 0 0 -24.420272812478288 136.48876696546358 0 136.48876696546358 199.89348993062595 0 0 0 0 185.52036821731977 99.878508189045533 0 99.878508189045533 122.4443770066282 0 0 0 0 1154.6445673228554 -1287.6014370705798 0 -1287.6014370705798 -499.63152990912204 0 0 0 0 2.6526943766196709 9.3454570665615293 0 9.3454570665615293 24.47732325424235 0 0 0 0 3.675271596342796 3.3465983264874808 0 3.3465983264874808 7.1871296338556405 0 0 0 0 298.16531607958711 50.779490874665498 0 50.779490874665498 121.9618510596265 0 0 0 0 158.92787324489717 430.91738616754083 0 430.91738616754083 668.14722265640739 0 0 0 0 196.8959698001388 502.85505645309968 0 502.85505645309968 769.77255459797016 0 0 0 0 2.8527362557603086 -1.7320448235808072 0 -1.7320448235808072 -0.1940321760906869 0 0 0 0 131.81211551641218 144.0378591246008 0 144.0378591246008 180.59808291008449 0 0 0 0 -179.77499420474044 -88.279248909873786 0 -88.279248909873786 10.201261513939244 0 0 0 0 194.73266302142247 345.71978973038131 0 345.71978973038131 385.9705163468825 0 0 0 0 221.8028002713786 338.77763545779089 0 338.77763545779089 531.68268750820425 0 0 0 0 274.41677888469121 509.65545286152337 0 509.65545286152337 630.19429930205661 0 0 0 0 245.03956013861284 435.22343873713544 0 435.22343873713544 574.16733526276948 0 0 0 0 244.2202021157153 452.6466068088024 0 452.6466068088024 632.34122851476423 0 0 0 0 102.53068482309052 313.12489249350165 0 313.12489249350165 1198.3911093597853 0 0 0 0 103.30112358338221 337.40044282717781 0 337.40044282717781 696.1581502409972 0 0 0 0 68.411215734164671 327.37774676585832 0 327.37774676585832 708.21779230375614 0 0 0 0 35.002719450818404 46.083194442842796 0 46.083194442842796 258.27368322221446 0 0 0 0 47.586291265754028 118.10271374390413 0 118.10271374390413 531.67145233035262 0 0 0 0 295.55682902755643 -136.28255598834221 0 -136.28255598834221 548.28085375436785 0 0 0 0 190.92895589593047 125.3927032275551 0 125.3927032275551 714.37825931387488 0 0 0 0 94.108160152324672 12.742172354650393 0 12.742172354650393 727.62390153938713 0 0 0 0 124.94682605275216 -77.517121020824561 0 -77.517121020824561 549.64021651825897 0 0 0 0 156.79162540478956 -116.19663401427533 0 -116.19663401427533 321.17716587735049 0 0 0 0 -19.778179690908473 -144.47861026583269 0 -144.47861026583269 475.59285752600772 0 0 0 0 647.69939034347613 87.516513346883585 0 87.516513346883585 496.31352782765316 0 0 0 0 420.94007184635871 106.34580261580413 0 106.34580261580413 500.01834077562125 0 0 0 0 348.20871998110215 54.374724766996223 0 54.374724766996223 577.09080203099802 0 0 0 0 316.57815872657238 -115.7081870242182 0 -115.7081870242182 509.04311523365504 0 0 0 0 403.3285110799776 144.99692290200619 0 144.99692290200619 872.63236761539338 0 0 0 0 469.39008745344108 -121.72004087647292 0 -121.72004087647292 823.65028234150668 0 0 0 0 291.99527762604998 284.10865707785342 0 284.10865707785342 888.5011992208747 0 0 0 0 938.83008408640569 505.94817191862478 0 505.94817191862478 930.60692792394548 0 0 0 0 227.40274346013345 606.10498750289116 0 606.10498750289116 1663.2720110598148 0 0 0 0 352.7639320220552 -48.997783291546511 0 -48.997783291546511 890.17809724814288 0 0 0 0 926.69032891999234 -338.78151465718514 0 -338.78151465718514 1319.1576856519823 0 0 0 0 228.10046133797533 576.15164725817158 0 576.15164725817158 750.19296235400543 0 0 0 0 1.9283874666936194 3.5607073099169071 0 3.5607073099169071 9.5282001860472576 0 0 0 0 139.69561360202761 30.391584005370532 0 30.391584005370532 247.08217011990928 0 0 0 0 193.30682752386224 -676.24270381386123 0 -676.24270381386123 1279.9993231658882 0 0 0 0 1007.0340223368166 701.76172386164035 0 701.76172386164035 242.18083350248344 0 0 0 0 84.096085859498601 -303.61884939001902 0 -303.61884939001902 712.93088569865358 0 0 0 0 -47.647577646724699 -8.224136068005464 0 -8.224136068005464 291.23629172166693 0 0 0 0 146.07001863776782 -71.996948139225424 0 -71.996948139225424 265.57415126273372 0 0 0 0 5.0492186407906132 -109.71945063077874 0 -109.71945063077874 456.3556508039328 0 0 0 0 -43.861020517350156 32.536877117294353 0 32.536877117294353 410.9699681682032 0 0 0 0 -90.972325069068063 -67.43980294447536 0 -67.43980294447536 748.09718923609762 0 0 0 0 -91.954470139687828 12.857790587475336 0 12.857790587475336 999.12345018034102 0 0 0 0 35.192224124244035 350.16479939426063 0 350.16479939426063 1771.6071218607758 0 0 0 0 -32.222715572576192 23.679409276406659 0 23.679409276406659 952.60436665905581 0 0 0 0 287.76690724159926 251.3794508622359 0 251.3794508622359 717.62321167998016 0 0 0 0 -26.895649161062295 186.55571506839624 0 186.55571506839624 1051.8889333876614 0 0 0 0 -50.373751899125551 101.34474952011351 0 101.34474952011351 782.41140713571076 0 0 0 0 112.18382717614033 182.63465688899669 0 182.63465688899669 616.32728647334443 0 0 0 0 69.215569768603103 127.36984848713473 0 127.36984848713473 657.09954444521281 0 0 0 0 -20.921102317965051 108.22682237716072 0 108.22682237716072 652.17092487952323 0 0 0 0 -36.975882854660696 115.62131401142324 0 115.62131401142324 789.93972062646935 0 0 0 0 -0.10406165478131149 46.076560901336052 0 46.076560901336052 736.26539247396431 0 0 0 0 -66.85578149348548 22.483335732522391 0 22.483335732522391 733.86678346962435 0 0 0 0 -67.433524335230899 33.349164386490884 0 33.349164386490884 862.30408212459224 0 0 0 0 -42.530226228658563 18.301054911713436 0 18.301054911713436 684.42956583512932 0 0 0 0 -38.463847507017213 -13.999485958487639 0 -13.999485958487639 724.21077986840828 0 0 0 0 -0.026789388945566942 7.2669794531539083 0 7.2669794531539083 731.90610969135014 0 0 0 0 -0.17336004608691197 -0.80339911754558102 0 -0.80339911754558102 0.92746144657992602 0 0 0 0 0.12413757647873169 -22.033979587249632 0 -22.033979587249632 116.45123000549211 0 0 0 0 49.196341701016649 18.422426491415536 0 18.422426491415536 -58.42784214639687 0 0 0 0 -5.2388314862568777 90.900705801301228 0 90.900705801301228 295.09953152469097 0 0 0 0 35.259973114699747 11.427111383618467 0 11.427111383618467 134.59697446865903 0 0 0 0 -3.0642432081060633 78.637594036234077 0 78.637594036234077 348.53509928082349 0 0 0 0 42.115853181242983 -39.687233921751613 0 -39.687233921751613 -43.796663860543049 0 0 0 0 -30.776064814803817 19.254828459117562 0 19.254828459117562 134.06991895357351 0 0 0 0 -1.446604866783749 -2.3177391846190858 0 -2.3177391846190858 0.42410068603450668 0 0 0 0 6.2262056359166991 -63.440284250180412 0 -63.440284250180412 27.240433536047931 0 0 0 0 10.132689522052488 28.584594795225712 0 28.584594795225712 87.617435376116191 0 0 0 0 140.17785226234867 -67.583464681149053 0 -67.583464681149053 93.985932089475682 0 0 0 0 -4.0581416083131989 0.74163239179223694 0 0.74163239179223694 10.69543745197624 0 0 0 0 -42.876525298987644 -25.501266251703782 0 -25.501266251703782 10.702566896208737 0 0 0 0 -114.9753256765016 -10.218571125064045 0 -10.218571125064045 59.222593440885248 0 0 0 0 0.6744809462680792 10.870903479581408 0 10.870903479581408 37.123854001492674 0 0 0 0 -86.6418474526061 -49.918542304778384 0 -49.918542304778384 76.527834385255119 0 0 0 0 112.60955370117892 -8.7770368214914924 0 -8.7770368214914924 -36.102224177993776 0 0 0 0 91.129464244191595 177.46253532401442 0 177.46253532401442 313.40093319621519 0 0 0 0 40.577986464116748 32.372648053751618 0 32.372648053751618 82.735452782511857 0 0 0 0 -21.227421225137448 194.93682629194518 0 194.93682629194518 315.18644464705721 0 0 0 0 73.258194888118737 439.17301370192581 0 439.17301370192581 775.70667198931915 0 0 0 0 273.92682772198111 317.26270483426197 0 317.26270483426197 228.5579453871469 0 0 0 0 481.38830854381979 -702.19794339982036 0 -702.19794339982036 -375.32073847779247 0 0 0 0 0.37834176520668084 2.201097207916213 0 2.201097207916213 14.882003084811402 0 0 0 0 3.0711253294832872 14.018651382998247 0 14.018651382998247 56.987192676992294 0 0 0 0 -651.80872547799959 604.22381930867232 0 604.22381930867232 1646.9040459249372 0 0 0 0 328.88339508234736 -439.8250525993426 0 -439.8250525993426 136.73352672958572 0 0 0 0 -208.08370474849517 -97.977705414613411 0 -97.977705414613411 529.23775779631978 0 0 0 0 -227.08061306685249 -50.525726564811521 0 -50.525726564811521 1232.8511390583008 0 0 0 0 53.761511604492938 70.728651089688356 0 70.728651089688356 83.416006828272657 0 0 0 0 -0.20543597170692107 -1.3829261213002582 0 -1.3829261213002582 2.2250288312062594 0 0 0 0 -80.776644137127661 -63.474700546750682 0 -63.474700546750682 246.37113728291297 0 0 0 0 89.335050670615985 189.47300603308395 0 189.47300603308395 463.85891148958035 0 0 0 0 -0.070959282666326021 140.1972075146536 0 140.1972075146536 681.19487835583277 0 0 0 0 106.35890878496004 4.6839265214148327 0 4.6839265214148327 342.36558428956414 0 0 0 0 -89.237831907507854 66.508961114828708 0 66.508961114828708 612.59337457364018 0 0 0 0 -65.137068750785104 26.564243271313899 0 26.564243271313899 601.31888565671397 0 0 0 0 -65.006724944629866 45.635775020418805 0 45.635775020418805 570.07566304033389 0 0 0 0 -28.231360563295652 120.24855273128196 0 120.24855273128196 339.48072947758919 0 0 0 0 -127.97305898093566 111.62617658633098 0 111.62617658633098 672.82324513587082 0 0 0 0 -38.750831237648669 184.32739724891144 0 184.32739724891144 592.90540806943318 0 0 0 0 -118.27108232803815 104.36092240681683 0 104.36092240681683 564.57460280963278 0 0 0 0 5.5021362274128478 11.664267715570531 0 11.664267715570531 163.0309752118319 0 0 0 0 7.630632487082039 8.1216858797752138 0 8.1216858797752138 156.63421298945741 0 0 0 0 8.5222282310060109 5.5765900921878711 0 5.5765900921878711 151.34828660965832 0 0 0 0 3.4747703600114619 18.172237495758964 0 18.172237495758964 147.53334417209953 0 0 0 0 12.405794225936916 6.8847477826084287 0 6.8847477826084287 155.11402489614738 0 0 0 0 13.378943487046172 16.160802510825647 0 16.160802510825647 164.07066225543531 0 0 0 0 -2.9979039025274687 15.771300939631146 0 15.771300939631146 -68.879040171255838 0 0 0 0 12.841475727855141 -39.175801435224457 0 -39.175801435224457 -113.54267533264647 0 0 0 0 6.2845870122608289 1.9565422336963287 0 1.9565422336963287 -1.7682601863638647 0 0 0 0 -23.920317848565901 4.8846226964778907 0 4.8846226964778907 -50.807786753115295 0 0 0 0 2.036209995571113 1.1457992400490902 0 1.1457992400490902 -0.58180990579607617 0 0 0 0 14.648416454354447 -55.008128265118103 0 -55.008128265118103 -172.91987113174719 0 0 0 0 11.099367968401765 3.0884281754905203 0 3.0884281754905203 15.168620665844946 0 0 0 0 -1.157918354641879 -47.932320078377415 0 -47.932320078377415 190.78618885256219 0 0 0 0 -23.956035248801527 0.083263026403983531 0 0.083263026403983531 108.87290768440289 0 0 0 0 54.596054122252099 9.6333145040607633 0 9.6333145040607633 -139.90190615683696 0 0 0 0 -4.0461937696544883 2.8755317786394201 0 2.8755317786394201 94.894918932994543 0 0 0 0 10.130277865580865 6.5683288195032219 0 6.5683288195032219 136.17538285656792 0 0 0 0 1.9985584312281972 3.7923026871784984 0 3.7923026871784984 64.4476636319162 0 0 0 0 17.220629477651528 6.38857603926499 0 6.38857603926499 125.42180492107946 0 0 0 0 13.949643135980295 4.9018653749262739 0 4.9018653749262739 132.14731017490703 0 0 0 0 13.142888942093123 13.393439160148773 0 13.393439160148773 128.66712612025458 0 0 0 0 16.88209704334804 13.372742092165936 0 13.372742092165936 117.52452189468386 0 0 0 0 8.4868815625850402 7.890355065190306 0 7.890355065190306 135.11940088507799 0 0 0 0 11.678286806225515 16.062915742427322 0 16.062915742427322 126.42466810730548 0 0 0 0 8.3886070148364524 16.664657808932134 0 16.664657808932134 140.42118071165805 0 0 0 0 12.452071174653611 25.404948722276458 0 25.404948722276458 122.17168658458831 0 0 0 0 7.8864088909213024 17.156931251930018 0 17.156931251930018 140.43410324990145 0 0 0 0 12.8512534337533 22.881870221093322 0 22.881870221093322 131.94077985978765 0 0 0 0 6.9041207667323761 29.888316906685759 0 29.888316906685759 141.04179561591627 0 0 0 0 12.837425995631747 22.04464029063115 0 22.04464029063115 123.92036694387571 0 0 0 0 3.1961111264411457 32.644936790544612 0 32.644936790544612 96.418960588432043 0 0 0 0 88.88501935700333 205.82278190923353 0 205.82278190923353 102.16443467664067 0 0 0 0 -9.8193098598494544 69.894769356036704 0 69.894769356036704 145.16836766232882 0 0 0 0 -56.81558075056455 21.037552935795247 0 21.037552935795247 142.73191529884207 0 0 0 0 -118.140437661909 29.546108681262012 0 29.546108681262012 293.08080255094683 0 0 0 0 -7.2262608820837499 -6.6438585886602226 0 -6.6438585886602226 30.412019601946255 0 0 0 0 -121.13865614211977 116.92695824645864 0 116.92695824645864 67.764098545492743 0 0 0 0 5.7273008306874544 36.231217366163946 0 36.231217366163946 117.11330855189317 0 0 0 0 -1.2795711521601731 12.061210382449133 0 12.061210382449133 58.108897042256054 0 0 0 0 -3.2219520067374106 -14.301745658485743 0 -14.301745658485743 63.926054273673799 0 0 0 0 -7.3449569435425701 24.039816871301923 0 24.039816871301923 66.525107774532785 0 0 0 0 10.800472138708301 23.281200218431422 0 23.281200218431422 118.73840229294456 0 0 0 0 -0.88652312598060234 -8.1721196708213029 0 -8.1721196708213029 26.108960860034585 0 0 0 0 3.9718710769686822 1.2655655629844627 0 1.2655655629844627 6.4928899533424635 0 0 0 0 15.224554017749142 27.117335296522242 0 27.117335296522242 120.18447497085526 0 0 0 0 14.701486174770253 41.460742226202456 0 41.460742226202456 147.80613585338733 0 0 0 0 -5.3929251005829428 -4.713097059696338 0 -4.713097059696338 7.9938316553107143 0 0 0 0 2.0848947164377094 0.706691463475142 0 0.706691463475142 -1.6606717289517494 0 0 0 0 31.473372997452316 -5.0778132743948845 0 -5.0778132743948845 1.610117952451219 0 0 0 0 66.929459716397105 -62.307907388287276 0 -62.307907388287276 23.728772313185232 0 0 0 0 -14.873384052190886 -76.705038307022278 0 -76.705038307022278 139.07416232835749 0 0 0 0 84.862809330844357 -40.478374858075313 0 -40.478374858075313 68.272266981246503 0 0 0 0 -14.907830433454365 24.937041160711487 0 24.937041160711487 106.338598023656 0 0 0 0 15.03531039692561 17.451345578562478 0 17.451345578562478 202.62895643018419 0 0 0 0 97.842577869578236 -3.9938057173203561 0 -3.9938057173203561 166.40301674936745 0 0 0 0 -20.602010927554147 -17.243056874998956 0 -17.243056874998956 59.187710917982827 0 0 0 0 -33.176704820372834 -8.3575316815367842 0 -8.3575316815367842 62.293026784491303 0 0 0 0 -4.6065471898365722 8.7956981715569889 0 8.7956981715569889 40.49936197595445 0 0 0 0 -37.343166684433527 -32.928628556554941 0 -32.928628556554941 55.950131176129162 0 0 0 0 -63.405373753813365 -43.836430431750159 0 -43.836430431750159 84.926209950224802 0 0 0 0 -24.312814246773996 -8.5581335038277757 0 -8.5581335038277757 21.229839957682998 0 0 0 0 -92.271041360992967 16.716348763232418 0 16.716348763232418 55.249006147041655 0 0 0 0 -5.2464506591266762 8.2188978101467107 0 8.2188978101467107 39.292884943765642 0 0 0 0 14.687113955300447 -26.701260435282165 0 -26.701260435282165 64.734604855955695 0 0 0 0 40.241574186762591 -30.26644742980136 0 -30.26644742980136 43.891844370881813 0 0 0 0 26.311146628240749 -14.689405439530162 0 -14.689405439530162 62.613565712964167 0 0 0 0 -173.98396543135641 93.387935828739955 0 93.387935828739955 78.608253352253087 0 0 0 0 -6.1282194052316967 7.4584559244499999 0 7.4584559244499999 36.631021828904068 0 0 0 0 29.720266654250736 -21.033235505052062 0 -21.033235505052062 27.694978019264681 0 0 0 0 28.236928379450546 -18.111882731290279 0 -18.111882731290279 53.730041047403006 0 0 0 0 78.819992794948121 69.255144162098986 0 69.255144162098986 206.73885701598647 0 0 0 0 139.88175943152601 51.115069883239812 0 51.115069883239812 83.863513533546666 0 0 0 0 185.29900077062848 149.45665924947571 0 149.45665924947571 -31.949005850294725 0 0 0 0 -53.946638437389993 -88.853271121613489 0 -88.853271121613489 68.344014229589447 0 0 0 0 2.0626382657155915 1.5681891855132406 0 1.5681891855132406 0.3220556883081529 0 0 0 0 -5.1417625438298273 -17.339942233449619 0 -17.339942233449619 -13.475133508611577 0 0 0 0 8.4809472220438593 1.5426240130680871 0 1.5426240130680871 3.0307386581003275 0 0 0 0 83.109875669486428 -2.0208345850451224 0 -2.0208345850451224 -92.95928134285532 0 0 0 0 -3.7488033809108181 3.6186025193464744 0 3.6186025193464744 32.489634002465479 0 0 0 0 -73.636255832567258 79.650247759858757 0 79.650247759858757 -43.630591716407253 0 0 0 0 -45.879315917984059 75.903598332961337 0 75.903598332961337 61.395407768619407 0 0 0 0 72.611527467703127 -4.922386008286594 0 -4.922386008286594 21.975853722822649 0 0 0 0 5.0749773474696163 -0.36989282346429775 0 -0.36989282346429775 7.7740735320601075 0 0 0 0 24.446828260255643 20.222776374177556 0 20.222776374177556 47.711767259430417 0 0 0 0 30.474592540944286 -2.021123844732756 0 -2.021123844732756 26.74465812093058 0 0 0 0 36.874375075549324 -10.861061390870361 0 -10.861061390870361 34.818218415350657 0 0 0 0 39.670967372067025 -14.84679020578244 0 -14.84679020578244 37.322048906683904 0 0 0 0 26.827615012360184 -14.267931310786935 0 -14.267931310786935 39.633891248267446 0 0 0 0 127.45758686518093 -19.066857297680144 0 -19.066857297680144 -135.49659295527817 0 0 0 0 23.604404984394748 -12.636410872243195 0 -12.636410872243195 8.4373768326996679 0 0 0 0 18.368106223971782 -12.064154829554912 0 -12.064154829554912 5.1445631415585389 0 0 0 0 43.20728972890538 9.7311485911827731 0 9.7311485911827731 36.24697175056599 0 0 0 0 222.71074771024996 -144.85119356931591 0 -144.85119356931591 -133.71465575314323 0 0 0 0 89.893060864049403 -95.541613319794124 0 -95.541613319794124 345.72893778179332 0 0 0 0 2.3507033740183942 138.38108500339467 0 138.38108500339467 102.89659020031468 0 0 0 0 357.65980433985055 236.16636461659348 0 236.16636461659348 500.87891350786958 0 0 0 0 -0.45087067356504917 0.7926234070329059 0 0.7926234070329059 3.1458213092767124 0 0 0 0 329.23199429791384 24.77311095539153 0 24.77311095539153 -26.637103964008929 0 0 0 0 -108.87709701427457 174.51758395616184 0 174.51758395616184 536.13303731851192 0 0 0 0 91.882266154241734 113.36891268831005 0 113.36891268831005 54.719049947228541 0 0 0 0 -58.699140429636827 -13.253646401967671 0 -13.253646401967671 521.16918260102466 0 0 0 0 201.89193855934172 89.564251517652337 0 89.564251517652337 512.49298653795995 0 0 0 0 216.85707499593377 -24.050098751830774 0 -24.050098751830774 304.36014492940558 0 0 0 0 -23.612275613038946 34.278286958709941 0 34.278286958709941 479.69842575411894 0 0 0 0 -27.588196961989297 -11.650421419121301 0 -11.650421419121301 175.916922057786 0 0 0 0 -116.53124046677112 3.2654662343584278 0 3.2654662343584278 197.62694290307263 0 0 0 0 80.069334933792561 166.77433156267352 0 166.77433156267352 120.46639837609473 0 0 0 0 -93.72587116610157 51.552721121272043 0 51.552721121272043 243.36788511806481 0 0 0 0 231.09962223490038 275.06084372159967 0 275.06084372159967 253.36290256657321 0 0 0 0 105.66740380724696 126.52676272327972 0 126.52676272327972 80.491564644553364 0 0 0 0 70.359163102148159 124.5301005226338 0 124.5301005226338 80.562313830381754 0 0 0 0 57.229920725261763 102.98481375402935 0 102.98481375402935 113.32672897948396 0 0 0 0 67.473543962516032 111.57849762080946 0 111.57849762080946 102.12519875563703 0 0 0 0 -20.136923354097235 133.53621637502147 0 133.53621637502147 116.77324229033366 0 0 0 0 56.499580791998596 133.11266644614898 0 133.11266644614898 143.61558254051488 0 0 0 0 85.10867551652882 131.53840105355903 0 131.53840105355903 103.70521618679231 0 0 0 0 5.8558355992470439 1.7365957422121276 0 1.7365957422121276 -1.9671362788283702 0 0 0 0 30.777589475007062 165.87652657871763 0 165.87652657871763 170.88233626137298 0 0 0 0 -52.225157931690774 -16.231496111042361 0 -16.231496111042361 64.946246191523642 0 0 0 0 -64.942562079526397 156.05144060801467 0 156.05144060801467 356.82648424424406 0 0 0 0 9.6921983112079033 32.41028746025404 0 32.41028746025404 235.78184299335408 0 0 0 0 -19.016315311349899 94.044916612112502 0 94.044916612112502 152.02042945283574 0 0 0 0 -158.96991417446407 37.583855257396863 0 37.583855257396863 133.84944650368197 0 0 0 0 -6.8978001661707822 93.366097216797243 0 93.366097216797243 -7.3783630694979365 0 0 0 0 -79.607164384869975 -27.408089834664679 0 -27.408089834664679 96.139037621201169 0 0 0 0 26.900365499596774 36.571861541156068 0 36.571861541156068 63.89111176073493 0 0 0 0 -2.20799944401689 11.045964022615589 0 11.045964022615589 81.268339788631948 0 0 0 0 -86.187360878673644 -37.263739488835199 0 -37.263739488835199 85.418247502188024 0 0 0 0 1.0356888539869793 13.773697896137413 0 13.773697896137413 3.2225747364008086 0 0 0 0 -112.29530042389069 24.345636708055054 0 24.345636708055054 29.324033425604284 0 0 0 0 -9.1066223518955809 -1.0421561862094606 0 -1.0421561862094606 18.058738014510482 0 0 0 0 -186.13200548092573 166.21925434816512 0 166.21925434816512 3.0575383061222965 0 0 0 0 -139.71955224693011 80.764037609880688 0 80.764037609880688 70.720421777874435 0 0 0 0 -236.1978937329477 73.450588425259411 0 73.450588425259411 121.99557933353026 0 0 0 0 -151.31641873033004 23.009131807781159 0 23.009131807781159 161.80862880620043 0 0 0 0 -91.840596132256906 25.696358969431458 0 25.696358969431458 107.17587361750839 0 0 0 0 -142.44583967335439 -49.593450386070344 0 -49.593450386070344 145.96733956849494 0 0 0 0 -101.87816183448922 -70.367645602389075 0 -70.367645602389075 28.863224888464174 0 0 0 0 -9.4696739273204003 1.5581010096029786 0 1.5581010096029786 81.975703709609206 0 0 0 0 -51.394756920075451 11.385796745777952 0 11.385796745777952 83.343219431942998 0 0 0 0 -25.406848904774961 35.524956398108316 0 35.524956398108316 67.537577915938527 0 0 0 0 -14.930771053677745 29.438661387539014 0 29.438661387539014 66.161629290987548 0 0 0 0 7.2593856120256532 35.095258982815722 0 35.095258982815722 538.90346255639088 0 0 0 0 5.5579591473922534 -1.823216734565495 0 -1.823216734565495 15.102626313583521 0 0 0 0 -8.8705623472596926 14.275488998948276 0 14.275488998948276 85.341502301474065 0 0 0 0 13.072450715088053 30.844588011236624 0 30.844588011236624 50.653341282924885 0 0 0 0 10.806776268518597 31.081455456214861 0 31.081455456214861 41.364539330234379 0 0 0 0 5.8886290147638647 15.987502929936454 0 15.987502929936454 50.987422363203223 0 0 0 0 -17.162869710547966 35.080355751597381 0 35.080355751597381 76.607865381905867 0 0 0 0 -20.705651644733734 50.090969779274019 0 50.090969779274019 59.297005314940179 0 0 0 0 -4.1260890531848418 44.952629098690522 0 44.952629098690522 86.805946113609252 0 0 0 0 8.3853412414538298 56.978866362692429 0 56.978866362692429 53.312878860313504 0 0 0 0 -38.74105613872598 49.597420153751955 0 49.597420153751955 53.228199879267777 0 0 0 0 4.0679633889049001 57.013089198062517 0 57.013089198062517 -7.8572868788760388 0 0 0 0 -4.8393992928613443 54.890263557543221 0 54.890263557543221 23.249857089060242 0 0 0 0 -75.605672107722057 59.735414345475874 0 59.735414345475874 49.846070363299077 0 0 0 0 -16.713007641212002 10.116481741920708 0 10.116481741920708 12.512375593471752 0 0 0 0 8.2923108051800227 -27.108184838776651 0 -27.108184838776651 674.85944014552479 0 0 0 0 20.657200993356781 18.562841769973986 0 18.562841769973986 15.519710370783535 0 0 0 0 -89.486592069162725 -87.428770250828165 0 -87.428770250828165 -28.054766112436482 0 0 0 0 -65.585813626974414 12.983925050339167 0 12.983925050339167 177.61375854353537 0 0 0 0 -182.58520466259051 804.93211807226453 0 804.93211807226453 744.11929016376962 0 0 0 0 -444.50261744004456 205.23619660180339 0 205.23619660180339 214.72054163214671 0 0 0 0 554.23091513771578 -69.854721084211633 0 -69.854721084211633 -251.53469055040114 0 0 0 0 -386.28753647029589 334.35828952773227 0 334.35828952773227 -4.4929736367339501 0 0 0 0 -7.9127072883971579 0.18271616790965339 0 0.18271616790965339 0.97412632480040173 0 0 0 0 -27.974410697832354 179.92247771898474 0 179.92247771898474 -294.815337835018 0 0 0 0 -179.97790378481659 193.88429282271909 0 193.88429282271909 87.73815466742235 0 0 0 0 -170.75935094913802 160.22035694320402 0 160.22035694320402 130.56352856173908 0 0 0 0 -148.44872774476244 141.84459896196859 0 141.84459896196859 124.93778536931404 0 0 0 0 -438.89394242753997 -38.832557709653884 0 -38.832557709653884 175.00664303839585 0 0 0 0 115.5444508835717 -18.508193300942366 0 -18.508193300942366 115.93719816597877 0 0 0 0 -193.73804523292711 75.645323127900156 0 75.645323127900156 186.54540356287907 0 0 0 0 -30.240697867342533 -31.71333307545865 0 -31.71333307545865 188.13403026238029 0 0 0 0 -164.58519192603126 152.69058460761153 0 152.69058460761153 134.86934993093746 0 0 0 0 -162.20255252121569 140.89173814899186 0 140.89173814899186 143.46535199409118 0 0 0 0 -63.385684501423384 128.83664183421206 0 128.83664183421206 102.5119475100837 0 0 0 0 -250.64251198201964 163.86562294699979 0 163.86562294699979 150.27862033860038 0 0 0 0 -189.5510651566583 153.1107746777343 0 153.1107746777343 147.97034691694716 0 0 0 0 -161.64602158166008 145.10894084446591 0 145.10894084446591 132.04884880250029 0 0 0 0 -141.7699481457239 92.598048738145735 0 92.598048738145735 136.10217751897289 0 0 0 0 -213.06271369647584 96.852472995167773 0 96.852472995167773 160.20256025503477 0 0 0 0 -188.19665752690344 75.530522267355991 0 75.530522267355991 178.30748200982634 0 0 0 0 -197.80877147652973 34.130124808706569 0 34.130124808706569 144.58113704599964 0 0 0 0 -161.85510462606908 19.328025042806985 0 19.328025042806985 150.67483941193495 0 0 0 0 -43.744831107847858 16.861495567798556 0 16.861495567798556 103.74196552868671 0 0 0 0 -86.810405033618736 24.770217188714014 0 24.770217188714014 108.05212452779961 0 0 0 0 -140.46142574995702 70.364334995754461 0 70.364334995754461 115.22411058119906 0 0 0 0 -90.98987375919387 42.304519435198017 0 42.304519435198017 127.06683879258344 0 0 0 0 -59.052141383632261 55.086385615170002 0 55.086385615170002 109.82123114729075 0 0 0 0 -59.001418815854777 51.567479696044757 0 51.567479696044757 84.734516119482578 0 0 0 0 -12.076202909214771 8.2929427625458629 0 8.2929427625458629 100.02514723207423 0 0 0 0 -11.45013793259568 31.564797695398738 0 31.564797695398738 68.390185327123618 0 0 0 0 -41.434189504827373 39.148414270784997 0 39.148414270784997 90.218568956799572 0 0 0 0 -56.27401106927573 59.639748873050848 0 59.639748873050848 77.849503433040809 0 0 0 0 -60.456063438992715 94.228547387683648 0 94.228547387683648 53.364890700137039 0 0 0 0 -44.498423545204787 76.94757903093705 0 76.94757903093705 71.28249758171296 0 0 0 0 -55.292582648187818 151.87747627809586 0 151.87747627809586 -55.904773061927699 0 0 0 0 -138.0163330218129 136.18146891038123 0 136.18146891038123 120.57633050759978 0 0 0 0 -146.85847954815472 153.33529952778918 0 153.33529952778918 93.671385527304665 0 0 0 0 -138.70277970702591 106.89602241665125 0 106.89602241665125 119.31905812476543 0 0 0 0 -107.63639383138434 101.10061874197709 0 101.10061874197709 73.669383179971192 0 0 0 0 8.5237617456987209 61.726060664252145 0 61.726060664252145 -7.3150873676277115 0 0 0 0 40.622320451682754 90.454666346297017 0 90.454666346297017 0.63823320070514455 0 0 0 0 68.104785748757422 5.3465104737333604 0 5.3465104737333604 32.626578523893841 0 0 0 0 -3.0060351470310707 60.681188097310951 0 60.681188097310951 1.9675117700789997 0 0 0 0 28.786917445824656 51.483290247728291 0 51.483290247728291 37.911963055565138 0 0 0 0 3.4989106830514629 1.9263098777893575 0 1.9263098777893575 3.9211819894978106 0 0 0 0 24.12444172566029 45.977864387661612 0 45.977864387661612 61.183309811174695 0 0 0 0 47.100457482283673 -0.41340438430779614 0 -0.41340438430779614 145.90760235059133 0 0 0 0 3.308088639453878 4.8230729049317915 0 4.8230729049317915 6.4100478889932475 0 0 0 0 -16.837038041368942 28.33514889649814 0 28.33514889649814 64.927418938750634 0 0 0 0 9.1303976954831221 1.5538508508824851 0 1.5538508508824851 8.3418670067717215 0 0 0 0 5.3658411414944567 42.613022696692497 0 42.613022696692497 -11.770111998205721 0 0 0 0 14.761872104867507 18.171761864254222 0 18.171761864254222 -11.039229953257745 0 0 0 0 18.375087129192252 12.593676137545117 0 12.593676137545117 17.466365768177639 0 0 0 0 1.9921461114979842 6.2956979585220125 0 6.2956979585220125 15.379312094264336 0 0 0 0 -0.62176493659308818 2.5873600644735042 0 2.5873600644735042 3.1957141397200672 0 0 0 0 132.87623396033996 239.58583890576938 0 239.58583890576938 225.4094829521564 0 0 0 0 -70.22639442613945 -0.19653607705186005 0 -0.19653607705186005 20.886946380749578 0 0 0 0 1.1892449809787067 2.1375926128069374 0 2.1375926128069374 13.90566687888807 0 0 0 0 -79.904051510322461 71.44482594157671 0 71.44482594157671 18.582581764829229 0 0 0 0 395.20296253813649 278.92049467949619 0 278.92049467949619 88.313950297757401 0 0 0 0 374.21314593351781 515.88836091728808 0 515.88836091728808 284.54391034235596 0 0 0 0 389.21749463952801 525.50130161593188 0 525.50130161593188 288.96123667108986 0 0 0 0 154.65166550436697 344.11299275218335 0 344.11299275218335 406.75073897520087 0 0 0 0 207.44697058172824 214.03315846090845 0 214.03315846090845 57.177921512302419 0 0 0 0 -21.495003759986275 49.797292681761974 0 49.797292681761974 421.89073587926396 0 0 0 0 -30.964318537829968 -126.46312129089711 0 -126.46312129089711 86.641433215758298 0 0 0 0 76.970474138185637 29.701171765518666 0 29.701171765518666 481.74751524187013 0 0 0 0 62.736140355555108 -91.523812457820895 0 -91.523812457820895 -221.58604153405759 0 0 0 0 87.174630533740128 163.71379892812547 0 163.71379892812547 170.74237178343174 0 0 0 0 544.69459201582504 772.09133328495955 0 772.09133328495955 300.79119303301377 0 0 0 0 13.381371932128452 4.9268602338832466 0 4.9268602338832466 0.83335794656839823 0 0 0 0 418.28130084905933 116.76056420247187 0 116.76056420247187 -0.29057749210915063 0 0 0 0 157.16408125188991 382.10859470416744 0 382.10859470416744 750.81665170456108 0 0 0 0 418.89452933610664 423.61090699587658 0 423.61090699587658 117.96841163589852 0 0 0 0 739.91213506655185 679.50204671810752 0 679.50204671810752 321.93536771793333 0 0 0 0 217.85409800925845 217.30320281117747 0 217.30320281117747 124.97671432725474 0 0 0 0 116.84761654066097 174.22470322720255 0 174.22470322720255 309.96059326857358 0 0 0 0 188.33960977275638 120.52003033661094 0 120.52003033661094 170.67631359158986 0 0 0 0 147.22840736849685 81.97074220790455 0 81.97074220790455 422.62704129172107 0 0 0 0 177.75980364282805 252.39095244741475 0 252.39095244741475 714.95836504606496 0 0 0 0 334.85039151507226 376.27245718206905 0 376.27245718206905 326.01682107716624 0 0 0 0 327.16940659772081 382.98897871708323 0 382.98897871708323 328.93401030384121 0 0 0 0 -118.33031062297869 -110.4004740910359 0 -110.4004740910359 191.41672336075862 0 0 0 0 -0.08714489232265521 1.6436413779732106 0 1.6436413779732106 5.4321187730550662 0 0 0 0 1015.3317114814836 582.52372206159635 0 582.52372206159635 236.05023817090841 0 0 0 0 435.2323028018036 599.50640253852271 0 599.50640253852271 676.92112689358328 0 0 0 0 492.54257644790232 142.17610239046371 0 142.17610239046371 293.15879716386553 0 0 0 0 141.80305970370318 343.58942546995058 0 343.58942546995058 380.63479279725289 0 0 0 0 364.74822471805601 569.59963056166453 0 569.59963056166453 590.34721005450956 0 0 0 0 45.015868165643042 52.131216912195669 0 52.131216912195669 160.10434286578675 0 0 0 0 -68.252757907761406 136.91979659281787 0 136.91979659281787 701.71674044643169 0 0 0 0 16.010539767263253 36.772786620917032 0 36.772786620917032 161.94705450578476 0 0 0 0 4.8188645793561591 123.50072629514943 0 123.50072629514943 225.19249116148421 0 0 0 0 118.8404915115425 377.17509446169424 0 377.17509446169424 682.81243501738481 0 0 0 0 168.22046353018413 372.81533425097768 0 372.81533425097768 388.0610143420563 0 0 0 0 121.40346493207198 109.59906664873597 0 109.59906664873597 297.74470148098771 0 0 0 0 288.86182240825656 355.76680927224515 0 355.76680927224515 324.83123322938627 0 0 0 0 213.9694104270402 122.523063131659 0 122.523063131659 3.8158122331951745 0 0 0 0 62.515591082104947 -57.780853006908728 0 -57.780853006908728 -23.804546467077671 0 0 0 0 8.8945252379838351 -0.37576118881872844 0 -0.37576118881872844 0.10471690339432982 0 0 0 0 111.94695350285383 -61.443982277258328 0 -61.443982277258328 21.45248870470823 0 0 0 0 42.792337145392594 198.49723575864482 0 198.49723575864482 200.90181304950966 0 0 0 0 50.629259168723365 18.260885491701629 0 18.260885491701629 92.083662507917325 0 0 0 0 -7.33161292542718 19.866654006833414 0 19.866654006833414 295.4459843885561 0 0 0 0 -60.608414754959085 -5.6524629922769236 0 -5.6524629922769236 108.25751604108518 0 0 0 0 8.3534735720416222 -0.43796098815781193 0 -0.43796098815781193 0.066730560090963564 0 0 0 0 113.22827255189986 4.2973866412721691 0 4.2973866412721691 -101.43455619883753 0 0 0 0 110.29481057039447 104.82078881535563 0 104.82078881535563 75.864174224504495 0 0 0 0 -54.952165373513708 125.2186067073817 0 125.2186067073817 337.23711969191208 0 0 0 0 -43.254946081307025 165.28090161651562 0 165.28090161651562 399.20229271351127 0 0 0 0 14.292798136575584 145.43853193204268 0 145.43853193204268 340.65328410699294 0 0 0 0 -57.097325563998311 174.29304133364349 0 174.29304133364349 405.30374167460832 0 0 0 0 225.3137025437718 221.97927806471853 0 221.97927806471853 316.37426914173193 0 0 0 0 -15.241315824916455 -139.7650879161265 0 -139.7650879161265 236.14060938204784 0 0 0 0 289.41913448436753 278.24826538662455 0 278.24826538662455 224.33270560787059 0 0 0 0 2.3760299855129574 -1.6745946576876634 0 -1.6745946576876634 1.0513083769318996 0 0 0 0 -84.089100189390592 19.003285184182459 0 19.003285184182459 377.01750120503857 0 0 0 0 0.10845523422540282 76.122691463733645 0 76.122691463733645 155.72341711234549 0 0 0 0 335.13193483382747 116.8074827037799 0 116.8074827037799 150.48327739740125 0 0 0 0 -17.917222428206514 131.77977533712692 0 131.77977533712692 420.97353096497682 0 0 0 0 5.8158490001953993 -3.2513066443052878 0 -3.2513066443052878 1.6871289857626621 0 0 0 0 178.76935136745305 -130.70401070026855 0 -130.70401070026855 244.40738783477354 0 0 0 0 84.104954962051124 19.819913384410029 0 19.819913384410029 205.29673007179736 0 0 0 0 -30.175093537339308 -29.765536271710516 0 -29.765536271710516 186.54569921521761 0 0 0 0 -656.33516160660656 125.18855450855335 0 125.18855450855335 133.21243884134583 0 0 0 0 -288.92433785863614 -5.1093448840947531 0 -5.1093448840947531 267.87326719795965 0 0 0 0 -270.47595265005657 35.303624449406925 0 35.303624449406925 132.66910826525418 0 0 0 0 -321.72226608516212 25.021328169037588 0 25.021328169037588 142.14358890391304 0 0 0 0 -355.91063234087051 153.2376581944045 0 153.2376581944045 49.582484926620964 0 0 0 0 -269.24750710160151 56.575937310197332 0 56.575937310197332 59.478090246161628 0 0 0 0 -177.84334380633663 131.72607442331355 0 131.72607442331355 -23.783656886451354 0 0 0 0 -8.5690046044219343 11.998808137234391 0 11.998808137234391 41.250346677355992 0 0 0 0 -2.4246909084952364 8.4363650190055779 0 8.4363650190055779 43.260923943306409 0 0 0 0 -327.1694180830782 351.80003637285699 0 351.80003637285699 -264.76247594784945 0 0 0 0 -2.0826099975946875 -2.7785713992701346 0 -2.7785713992701346 8.8116333736256607 0 0 0 0 -68.540775012312224 -105.07751580457625 0 -105.07751580457625 -85.049384522804758 0 0 0 0 -3.2565554422741627 -3.9776229780616603 0 -3.9776229780616603 7.2003861746889584 0 0 0 0 21.055593762837816 -112.61083049305307 0 -112.61083049305307 238.06078327352589 0 0 0 0 -709.55912913249631 -135.66591765907651 0 -135.66591765907651 268.35211455187527 0 0 0 0 -36.529492976143956 -19.542173499918135 0 -19.542173499918135 147.20835441768713 0 0 0 0 -8.3261789740993777 -13.789646917648263 0 -13.789646917648263 45.71686695441614 0 0 0 0 -57.084392229131481 -14.439326727857406 0 -14.439326727857406 159.66378801820974 0 0 0 0 -132.44141046186996 -18.821078662818763 0 -18.821078662818763 124.56051016769197 0 0 0 0 -48.461600391834509 -10.758270635589724 0 -10.758270635589724 120.67772196487931 0 0 0 0 -136.72997965523791 -180.47491278347934 0 -180.47491278347934 197.89391680201516 0 0 0 0 -112.86767472657084 -12.394650035101222 0 -12.394650035101222 171.89806507195317 0 0 0 0 -336.80341862568457 89.137869885533291 0 89.137869885533291 184.9505791795782 0 0 0 0 -239.12110128040513 2.9928693382316851 0 2.9928693382316851 208.18047177167318 0 0 0 0 -256.08714928814879 165.2126267083695 0 165.2126267083695 162.28046082223591 0 0 0 0 -368.14922373514855 164.95870223789825 0 164.95870223789825 162.35442483393126 0 0 0 0 -341.66288533515763 144.00554655434098 0 144.00554655434098 158.49758872578968 0 0 0 0 -500.52864901826251 38.710681303040474 0 38.710681303040474 203.31595022796682 0 0 0 0 -249.64902542186428 105.66570501167735 0 105.66570501167735 -260.13890308828559 0 0 0 0 -780.82253652985673 364.02930592763005 0 364.02930592763005 62.691584199776116 0 0 0 0 -241.54499936749289 56.907246477854642 0 56.907246477854642 27.546306513657328 0 0 0 0 -266.51834923565184 281.40065917421271 0 281.40065917421271 69.551159399139578 0 0 0 0 -123.78485657273995 206.31999668577191 0 206.31999668577191 86.10864326229057 0 0 0 0 78.850059285778116 20.345894102501916 0 20.345894102501916 78.664752072751071 0 0 0 0 72.820634060546581 183.43056819229969 0 183.43056819229969 39.380068017024314 0 0 0 0 -121.91138293127733 164.43227448123434 0 164.43227448123434 81.19429692216363 0 0 0 0 -93.713375964342958 54.155532180725459 0 54.155532180725459 72.076388627654524 0 0 0 0 3.0588995036874991 -0.83550698756106101 0 -0.83550698756106101 0.42496351114710151 0 0 0 0 37.62466069236325 -47.23379533921252 0 -47.23379533921252 -12.946377551332262 0 0 0 0 -33.533705939040374 181.89197610558767 0 181.89197610558767 475.53855211081782 0 0 0 0 -84.085895709969918 -116.13716568847303 0 -116.13716568847303 239.74107385791694 0 0 0 0 -155.99860958939826 200.85430377207922 0 200.85430377207922 269.60846483344358 0 0 0 0 158.64404670223666 85.852583764772135 0 85.852583764772135 216.87444628599769 0 0 0 0 -103.59375307234359 -29.586854738776765 0 -29.586854738776765 227.99779505807237 0 0 0 0 -117.93664682178496 11.88508886980344 0 11.88508886980344 279.19443941370628 0 0 0 0 -262.00950276379444 -13.35387620617621 0 -13.35387620617621 307.71277992047453 0 0 0 0 -77.32586735418954 133.92720642791392 0 133.92720642791392 338.7745946841751 0 0 0 0 -172.30715380291622 -98.093264611688937 0 -98.093264611688937 148.95675247060717 0 0 0 0 -205.05759580757149 -33.841771519622853 0 -33.841771519622853 253.5003482391221 0 0 0 0 -178.47932982843849 -72.264484012470348 0 -72.264484012470348 229.42195635402459 0 0 0 0 -191.26709627261516 -36.729551493141116 0 -36.729551493141116 145.66797602681618 0 0 0 0 -230.19427601085044 -46.141607020876108 0 -46.141607020876108 231.67852962981215 0 0 0 0 -217.87417390849987 -35.927410603471799 0 -35.927410603471799 203.27133754870738 0 0 0 0 -326.20792322698253 9.1061302364141739 0 9.1061302364141739 222.73500241415604 0 0 0 0 -123.20011162032483 -96.060160026395693 0 -96.060160026395693 223.65359039004397 0 0 0 0 -275.54713688228003 1.4036532776153763 0 1.4036532776153763 166.14125338740996 0 0 0 0 0.80972380563979485 15.145780673031183 0 15.145780673031183 5.04059705645642 0 0 0 0 -290.93781018793015 16.495854663853606 0 16.495854663853606 231.02056282416743 0 0 0 0 -22.629766602185555 2.9605115576414391 0 2.9605115576414391 131.33752904230641 0 0 0 0 -121.60093100575614 51.471718253294966 0 51.471718253294966 231.56668352312334 0 0 0 0 -80.438205431384631 -31.315421242617958 0 -31.315421242617958 57.538550635268621 0 0 0 0 -44.524393496718403 19.148585864320921 0 19.148585864320921 124.31610987009117 0 0 0 0 -32.59032153221284 4.3583501769389841 0 4.3583501769389841 -1.8106889531885457 0 0 0 0 -47.379621245559974 -2.9099712721927062 0 -2.9099712721927062 382.14387159625767 0 0 0 0 -47.567332044854993 27.482189599166304 0 27.482189599166304 286.98964174287539 0 0 0 0 -58.645870847714832 181.25046143562213 0 181.25046143562213 545.54699478550901 0 0 0 0 -124.61145784768814 -29.886241369502386 0 -29.886241369502386 146.12200952374951 0 0 0 0 -126.15588727538375 -51.668100172580239 0 -51.668100172580239 84.829311098888866 0 0 0 0 -271.96734284266131 -144.00891830680848 0 -144.00891830680848 185.90720940384017 0 0 0 0 -144.15153132815431 -48.235313434699492 0 -48.235313434699492 139.48887375196136 0 0 0 0 -301.47366384345332 -530.68190241032789 0 -530.68190241032789 -600.80974009127749 0 0 0 0 -6.2006769937729231 0.074765874394898901 0 0.074765874394898901 1.01156907301975 0 0 0 0 -146.69788038604929 -213.15751521331549 0 -213.15751521331549 -166.83614948439208 0 0 0 0 53.203708059721976 39.782646062515596 0 39.782646062515596 600.85988451183948 0 0 0 0 -19.673608878155349 0.5317480855402863 0 0.5317480855402863 2.6795760626734975 0 0 0 0 366.07328964240151 113.81302650948783 0 113.81302650948783 617.77483022611705 0 0 0 0 -8.3357920171474689 -317.19967183840708 0 -317.19967183840708 403.88567506106483 0 0 0 0 26.042442598403795 68.66207997658239 0 68.66207997658239 894.76781581562318 0 0 0 0 -234.3751695815281 108.72554286165177 0 108.72554286165177 895.96802036158442 0 0 0 0 -365.15033115312872 254.05714306385744 0 254.05714306385744 1347.507859041325 0 0 0 0 -189.97350137687909 242.19404441657161 0 242.19404441657161 321.42282603411149 0 0 0 0 -7.7833271511080966 -246.11327225044079 0 -246.11327225044079 19.902605788825895 0 0 0 0 2.7549225876096628 -3.1511584069856049 0 -3.1511584069856049 2.8465564199136253 0 0 0 0 17.833816791586287 -40.911425354141102 0 -40.911425354141102 -142.00755987985394 0 0 0 0 28.593321880453004 -205.65686005893076 0 -205.65686005893076 53.529040872585028 0 0 0 0 -25.430191552914039 -108.48311813162582 0 -108.48311813162582 55.259492902208876 0 0 0 0 25.430845382377811 -90.575085030061018 0 -90.575085030061018 -69.640931816240482 0 0 0 0 -51.590064631192945 -189.32254062854554 0 -189.32254062854554 446.60379069487681 0 0 0 0 -46.438873406605126 -165.01988591812915 0 -165.01988591812915 248.08248577174345 0 0 0 0 4.9113225764613162 -19.440651458704451 0 -19.440651458704451 -88.214072571667202 0 0 0 0 -16.253717084990058 -103.1127488410566 0 -103.1127488410566 212.45416546820343 0 0 0 0 -64.533081186205891 1.009674810920842 0 1.009674810920842 331.15419607080912 0 0 0 0 1.0554414300013235 -0.13599210864842348 0 -0.13599210864842348 0.20656752530020128 0 0 0 0 -126.76058987045872 -128.30315883290677 0 -128.30315883290677 455.71991713098396 0 0 0 0 -98.779630635742706 -52.546252288186224 0 -52.546252288186224 368.1464611456322 0 0 0 0 -54.171207038085413 -113.17911561663277 0 -113.17911561663277 435.98340089680278 0 0 0 0 -110.84256982289253 -67.944194306302052 0 -67.944194306302052 502.29193292387936 0 0 0 0 -174.29424932831535 -78.946208634864888 0 -78.946208634864888 605.05993006372682 0 0 0 0 -119.31866396286568 53.103800557448267 0 53.103800557448267 915.25195517378961 0 0 0 0 -109.99136681144228 -328.38959911383427 0 -328.38959911383427 654.83345255612221 0 0 0 0 -145.80087293569886 -125.72793237945552 0 -125.72793237945552 514.78639078385459 0 0 0 0 -95.686268502774965 -316.61346142303682 0 -316.61346142303682 1067.5980691642399 0 0 0 0 774.73659075152318 -230.7318469294114 0 -230.7318469294114 557.36617777313586 0 0 0 0 278.6754337115417 -596.42632138502449 0 -596.42632138502449 1218.1815194561041 0 0 0 0 29.891968723526588 24.920336641667745 0 24.920336641667745 111.51811155972246 0 0 0 0 54.086452480967637 81.256301106315732 0 81.256301106315732 338.94144447808503 0 0 0 0 325.7927327276293 454.94722525626003 0 454.94722525626003 784.42312628073705 0 0 0 0 15.550413671786373 150.78987258427878 0 150.78987258427878 233.59964392360416 0 0 0 0 -95.189212085495456 234.19378295691422 0 234.19378295691422 325.63398477523879 0 0 0 0 -703.10503306429746 -266.76717770623509 0 -266.76717770623509 770.70358884449524 0 0 0 0 -458.13966670356967 -155.83280493951315 0 -155.83280493951315 932.21944992803037 0 0 0 0 -348.30932673937104 -473.33413283041909 0 -473.33413283041909 480.07752264713781 0 0 0 0 -77.623334276366222 -267.0462338545658 0 -267.0462338545658 -126.07917586396434 0 0 0 0 387.36968054067984 -157.33019631381649 0 -157.33019631381649 134.90944173979369 0 0 0 0 410.70368978884653 -212.86376379106514 0 -212.86376379106514 204.33333476083499 0 0 0 0 45.028748570781318 -122.08396606061433 0 -122.08396606061433 189.48737837986846 0 0 0 0 -25.99287560396624 250.48153959844785 0 250.48153959844785 805.47616283538991 0 0 0 0 1.4245335990935555 -3.2816395552725446 0 -3.2816395552725446 11.095825221615257 0 0 0 0 1427.9643437790855 -306.30932296699029 0 -306.30932296699029 53.326087055225798 0 0 0 0 2.265686937044733 -4.7505999955627161 0 -4.7505999955627161 33.069206176655399 0 0 0 0 9.831487176612427 -19.228588454065175 0 -19.228588454065175 53.86730487886507 0 0 0 0 646.89474290237558 -21.901347592332968 0 -21.901347592332968 27.891596950095845 0 0 0 0 5.1926661788261583 3.8475486771942968 0 3.8475486771942968 19.910314897769382 0 0 0 0 -72.556451017119343 -29.553068670401444 0 -29.553068670401444 67.999344450174249 0 0 0 0 74.715193870397343 -71.609927061610506 0 -71.609927061610506 72.310534482683579 0 0 0 0 -31.620319886656944 -22.547269400802179 0 -22.547269400802179 99.084041894340771 0 0 0 0 -25.2920791916913 1.0210086749866605 0 1.0210086749866605 38.947054537449731 0 0 0 0 -85.411100546152738 20.559929153940175 0 20.559929153940175 75.175568253878737 0 0 0 0 -94.037173099841311 -15.164936481010955 0 -15.164936481010955 62.5673255136644 0 0 0 0 -50.914751960535796 25.174974133835349 0 25.174974133835349 81.181486660221708 0 0 0 0 -10.762452688171834 39.997718445146347 0 39.997718445146347 54.171461066376651 0 0 0 0 -5.9748779160663616 -5.6815356470142575 0 -5.6815356470142575 17.545574887743129 0 0 0 0 419.42203195575712 14.395044427270477 0 14.395044427270477 115.28372453242628 0 0 0 0 462.39809150938527 208.42353602458024 0 208.42353602458024 133.19830560783157 0 0 0 0 273.36401695353561 -70.323932494269684 0 -70.323932494269684 270.53977298206883 0 0 0 0 308.15885096633428 -209.01668952719774 0 -209.01668952719774 62.044246491976082 0 0 0 0 852.53306088433601 44.94392290856922 0 44.94392290856922 116.40751418898799 0 0 0 0 239.0419778256728 -117.48496580752362 0 -117.48496580752362 -57.574279072556237 0 0 0 0 1.9656618045216945 -11.092481759215509 0 -11.092481759215509 78.404233142057024 0 0 0 0 349.4927634170017 -225.9323020519696 0 -225.9323020519696 -94.853091345823486 0 0 0 0 34.247340375692147 10.128527415421559 0 10.128527415421559 39.032960138021735 0 0 0 0 267.54942294908687 -213.90099637685489 0 -213.90099637685489 -203.56810090699582 0 0 0 0 293.29188432711271 -116.87201204466874 0 -116.87201204466874 -181.29311507337115 0 0 0 0 53.63543590948575 -32.733351223288992 0 -32.733351223288992 -298.1095201468197 0 0 0 0 209.23718577695035 -227.36941549352741 0 -227.36941549352741 -87.696150890689751 0 0 0 0 245.25028836976708 -160.33144143979735 0 -160.33144143979735 -135.51874023770506 0 0 0 0 301.96743855037494 -76.189496348562898 0 -76.189496348562898 14.68278495685081 0 0 0 0 195.50032247680065 -160.27063473205089 0 -160.27063473205089 68.221018325217301 0 0 0 0 436.63431429984939 -13.210444947843826 0 -13.210444947843826 0.23362712352536619 0 0 0 0 101.82764161753948 -26.076098207500763 0 -26.076098207500763 -124.01414116119849 0 0 0 0 -379.68213768291753 -60.402049251555582 0 -60.402049251555582 44.916194696212187 0 0 0 0 4.3172717497171718 -6.1624636030878115 0 -6.1624636030878115 6.0315573503285265 0 0 0 0 -4.3773713949922239 -36.719600857264595 0 -36.719600857264595 42.012570740647789 0 0 0 0 -76.996030654649076 -239.72566454859407 0 -239.72566454859407 67.445639698176819 0 0 0 0 -391.8194050933962 -384.15886863288688 0 -384.15886863288688 21.624439345368955 0 0 0 0 -178.31760488569466 -30.182613313193769 0 -30.182613313193769 -158.96240424914504 0 0 0 0 -178.63835024078116 -58.32131477563621 0 -58.32131477563621 435.07378064256045 0 0 0 0 -124.69253129795197 -132.99532643764405 0 -132.99532643764405 523.74089702372294 0 0 0 0 -145.79184020148978 -43.806368432165073 0 -43.806368432165073 417.13394046825124 0 0 0 0 -60.925625930249225 21.026178832780715 0 21.026178832780715 463.75322435280395 0 0 0 0 -2.9358276011626003 -159.6080997584304 0 -159.6080997584304 305.84600445076285 0 0 0 0 -49.452890142863907 -48.770399378547154 0 -48.770399378547154 388.44054539559147 0 0 0 0 194.71089678869248 -319.03271432111069 0 -319.03271432111069 397.06285399349508 0 0 0 0 -5.3809611845899781 -101.66655106572762 0 -101.66655106572762 184.69041900002776 0 0 0 0 89.146682980743208 -203.13274344720412 0 -203.13274344720412 147.14928975188741 0 0 0 0 227.3162825504287 26.889891813427084 0 26.889891813427084 486.97834048312507 0 0 0 0 3.6674272818585294 -3.5921861219141515 0 -3.5921861219141515 1.4961413025659738 0 0 0 0 159.11978287131933 -292.02508363146626 0 -292.02508363146626 -182.91851007071455 0 0 0 0 -51.55447231096332 -133.75932898255633 0 -133.75932898255633 706.78760269784107 0 0 0 0 158.14245137263299 -271.17887777857413 0 -271.17887777857413 88.75864256186469 0 0 0 0 3.1502559461385733 -12.413991740475204 0 -12.413991740475204 106.5904141109506 0 0 0 0 -186.24706020101075 -165.02183441247871 0 -165.02183441247871 818.489241166797 0 0 0 0 -166.61215414051549 54.815027203447244 0 54.815027203447244 167.96018486179673 0 0 0 0 -56.406639792116493 -174.61485807955 0 -174.61485807955 522.19946583241108 0 0 0 0 27.024116765041981 -125.69970378926155 0 -125.69970378926155 548.42892011026743 0 0 0 0 -0.26118809958820322 0.016216195788111065 0 0.016216195788111065 2.2801062594795241 0 0 0 0 -49.665529937756219 -180.15568219215675 0 -180.15568219215675 -380.23653167379234 0 0 0 0 -91.145323407879914 -50.537803191960847 0 -50.537803191960847 114.69995422132251 0 0 0 0 -72.227520347798418 35.720526925237209 0 35.720526925237209 103.23955283894793 0 0 0 0 -48.878859493936034 13.630547708424274 0 13.630547708424274 97.071019397510099 0 0 0 0 -91.332364874437644 24.450981520147252 0 24.450981520147252 108.98829046612082 0 0 0 0 -81.135514285891986 20.183870202286926 0 20.183870202286926 107.08433831979801 0 0 0 0 -84.17723303596722 11.274449276817904 0 11.274449276817904 97.244222755543888 0 0 0 0 -5.9817857219095458 81.868688672540884 0 81.868688672540884 8.3253464728804829 0 0 0 0 -5.8733448490517048 72.423566238693013 0 72.423566238693013 196.74589497543639 0 0 0 0 -35.830761825105583 -3.065596604203165 0 -3.065596604203165 96.549198241322301 0 0 0 0 -43.851304493509815 48.304878768110939 0 48.304878768110939 196.24510181133519 0 0 0 0 -57.753590906628233 -16.528044138292898 0 -16.528044138292898 243.30084795595758 0 0 0 0 -65.099407890382281 -16.034681373013882 0 -16.034681373013882 163.24451729476459 0 0 0 0 -62.729582435120392 -17.7746579544837 0 -17.7746579544837 162.71036672755145 0 0 0 0 -61.160860255914486 -8.1412954072561661 0 -8.1412954072561661 101.39573351302533 0 0 0 0 -78.535307752114022 -44.881892805358802 0 -44.881892805358802 170.1757432118502 0 0 0 0 -76.349354251709883 -34.071968633557844 0 -34.071968633557844 176.34888718631191 0 0 0 0 -70.791136814994388 -51.459329221630469 0 -51.459329221630469 162.38964949105866 0 0 0 0 -73.229352481588194 -22.784486795668272 0 -22.784486795668272 140.25756529247155 0 0 0 0 -53.943032173584015 -19.01419805149726 0 -19.01419805149726 84.424137082736706 0 0 0 0 -69.296500393851602 -69.197577224920678 0 -69.197577224920678 104.26316569474511 0 0 0 0 -36.311297381180339 -57.348932242643059 0 -57.348932242643059 13.606373788068595 0 0 0 0 -78.189700566277679 -70.135520680883928 0 -70.135520680883928 26.593665226546364 0 0 0 0 -60.364102830556931 -28.658826468056759 0 -28.658826468056759 -92.15074929183902 0 0 0 0 -62.608206244822213 -154.92887942013476 0 -154.92887942013476 -162.05182189513471 0 0 0 0 -12.627697997071664 -11.885518430099182 0 -11.885518430099182 0.38391866029996891 0 0 0 0 0.95830035074770592 -0.55064645261719392 0 -0.55064645261719392 0.55565136436498364 0 0 0 0 25.763023611929384 -142.82194990327116 0 -142.82194990327116 -90.06990268008667 0 0 0 0 -24.200723297364675 -97.804542823852898 0 -97.804542823852898 -67.020586352488863 0 0 0 0 3.2669682110383036 -1.5059145687447675 0 -1.5059145687447675 -1.3696633814038961 0 0 0 0 -47.824248699682357 -82.44954738242086 0 -82.44954738242086 -69.143522243619373 0 0 0 0 -57.841348388803453 -64.926823779242113 0 -64.926823779242113 -86.730970338976476 0 0 0 0 -80.464144758218026 -1.2996760557143716 0 -1.2996760557143716 -123.73333845310844 0 0 0 0 16.792673639920395 -64.375756500005082 0 -64.375756500005082 -128.98021867666102 0 0 0 0 -17.186711892121821 -12.15045966947946 0 -12.15045966947946 -142.02485856087878 0 0 0 0 -95.606627944351203 -34.536394271595782 0 -34.536394271595782 -147.40044639942789 0 0 0 0 -30.603515037228135 -22.084589225371019 0 -22.084589225371019 -162.75986630527768 0 0 0 0 -161.39372221278427 -203.35602937798103 0 -203.35602937798103 -173.46540792957603 0 0 0 0 -113.8797662433426 -17.95283877869042 0 -17.95283877869042 -122.68479707488223 0 0 0 0 1.1553897575848708 0.69925748387058206 0 0.69925748387058206 -0.89218975769980347 0 0 0 0 -43.707464746410551 52.919179503405758 0 52.919179503405758 459.29099090498494 0 0 0 0 -0.43500002710788976 35.548103915816682 0 35.548103915816682 402.65430287651543 0 0 0 0 2.316483552709073 -0.25354364471838053 0 -0.25354364471838053 -0.8790394556715313 0 0 0 0 -52.142951019872271 -45.097901242865191 0 -45.097901242865191 -173.65757101721283 0 0 0 0 -29.4340214358308 51.603343330360076 0 51.603343330360076 312.87611414615822 0 0 0 0 1.288316210478996 0.11503083636036138 0 0.11503083636036138 -0.67986654333768115 0 0 0 0 6.1576407217617088 8.0644757355867114 0 8.0644757355867114 -7.0213165849017969 0 0 0 0 16.32961207176777 -30.351148897218081 0 -30.351148897218081 11.729062987657016 0 0 0 0 -46.094709412675002 31.875790602563939 0 31.875790602563939 278.38945812742168 0 0 0 0 -40.534568572265925 -29.373274413664149 0 -29.373274413664149 279.90657859135536 0 0 0 0 -57.574646894048783 -13.227654124450055 0 -13.227654124450055 304.09161440420212 0 0 0 0 -40.044268547455431 -36.747771479913354 0 -36.747771479913354 366.81909197069763 0 0 0 0 17.600117387304635 -67.447018435090285 0 -67.447018435090285 301.57211402613029 0 0 0 0 -26.543311157674907 -46.640465630429389 0 -46.640465630429389 296.36385628141215 0 0 0 0 -39.406033238245072 -71.283643827418928 0 -71.283643827418928 286.353279309551 0 0 0 0 -61.918883133053896 -44.328294860024471 0 -44.328294860024471 309.20450657219772 0 0 0 0 -46.614525025637704 -8.6735774169756041 0 -8.6735774169756041 400.99841253280943 0 0 0 0 14.026143910134124 1.0211190814334259 0 1.0211190814334259 358.61548445044536 0 0 0 0 -47.954448752228927 -63.940274444252282 0 -63.940274444252282 314.1085929528781 0 0 0 0 -13.991320038214326 -58.004451405779037 0 -58.004451405779037 287.13658713632321 0 0 0 0 -24.383133254126733 -84.502184856923122 0 -84.502184856923122 278.30502774229353 0 0 0 0 -28.950035151380689 -70.636607625290708 0 -70.636607625290708 257.86223919512122 0 0 0 0 -27.971464137158819 -67.318127195328543 0 -67.318127195328543 239.99788262684888 0 0 0 0 -41.819831001215789 -50.951497745001689 0 -50.951497745001689 248.56989966248511 0 0 0 0 -42.093188651229866 -55.952218780737894 0 -55.952218780737894 242.89774482219218 0 0 0 0 -72.754147318621108 -27.346362465083075 0 -27.346362465083075 252.91954674774024 0 0 0 0 -64.341077584591403 -49.518007380786003 0 -49.518007380786003 266.25733782970201 0 0 0 0 -65.752450089676131 -40.337479878362501 0 -40.337479878362501 265.94303397806652 0 0 0 0 -80.453930335879704 -41.487637198610173 0 -41.487637198610173 277.44980602866417 0 0 0 0 -82.983955344096103 -46.123465976277657 0 -46.123465976277657 279.93029049543838 0 0 0 0 -77.128301052760435 -57.194132837976213 0 -57.194132837976213 278.8097407259047 0 0 0 0 -52.868329780016211 -56.780238448831369 0 -56.780238448831369 274.9984399730929 0 0 0 0 -58.254250453010172 -64.479277534213907 0 -64.479277534213907 279.15699982507795 0 0 0 0 -62.386276403674856 -53.155838629849313 0 -53.155838629849313 268.51412010440254 0 0 0 0 -62.110389919747831 -40.88330476453848 0 -40.88330476453848 268.92449348497394 0 0 0 0 -72.498594492095435 -63.550338464297965 0 -63.550338464297965 283.95622957031446 0 0 0 0 -80.911995393580582 -48.746702166106843 0 -48.746702166106843 276.01660571718458 0 0 0 0 -91.824378688994329 -48.998222987687768 0 -48.998222987687768 278.59475705545628 0 0 0 0 -82.543489118386788 -53.141286479647533 0 -53.141286479647533 266.36571146093775 0 0 0 0 -88.923360369703005 -51.59483618575905 0 -51.59483618575905 266.97493657909217 0 0 0 0 -77.150102138504735 -36.866757419178612 0 -36.866757419178612 231.7287536028598 0 0 0 0 -80.548047012207462 -39.65042323547641 0 -39.65042323547641 230.69555754461908 0 0 0 0 -69.524026392280575 -9.0201588078161876 0 -9.0201588078161876 248.58521866254159 0 0 0 0 -77.55744031568338 -51.39768144658774 0 -51.39768144658774 262.16560539482452 0 0 0 0 -15.909793070009982 -55.303003841559985 0 -55.303003841559985 125.07985307079798 0 0 0 0 -84.400894749233885 -44.605461990193362 0 -44.605461990193362 240.50495156486431 0 0 0 0 -69.271175155559831 -71.061465301734643 0 -71.061465301734643 231.48261887343688 0 0 0 0 -86.193021434333787 -53.444744076477946 0 -53.444744076477946 232.34107984429284 0 0 0 0 -85.263283872547618 -43.461817276685906 0 -43.461817276685906 234.61671706369816 0 0 0 0 -86.392634712967265 -57.915996605934197 0 -57.915996605934197 264.22970089052251 0 0 0 0 -89.878504607300783 -47.872713607121113 0 -47.872713607121113 270.31406737577345 0 0 0 0 -81.825138933148992 -68.148844415078202 0 -68.148844415078202 268.03045790208489 0 0 0 0 -96.90951492271779 -46.358647329980158 0 -46.358647329980158 307.40957182884449 0 0 0 0 -90.034761769366014 -29.61960615200951 0 -29.61960615200951 299.29445249379751 0 0 0 0 -90.826871672841662 -51.030438693553151 0 -51.030438693553151 278.74610400828396 0 0 0 0 -92.292193685287202 -44.130532688475796 0 -44.130532688475796 291.92962589138187 0 0 0 0 -97.057381984857784 -52.367111757434031 0 -52.367111757434031 280.48669049431919 0 0 0 0 -89.654709835704125 -34.670224622430396 0 -34.670224622430396 288.9939746466971 0 0 0 0 -85.66833748873978 -33.96883503983554 0 -33.96883503983554 275.96382438765431 0 0 0 0 -91.20495448265865 -33.078178959802244 0 -33.078178959802244 291.52005689012003 0 0 0 0 -88.727775066749018 -14.917456496543309 0 -14.917456496543309 294.25988742476966 0 0 0 0 -73.633048603325733 -27.058285716942919 0 -27.058285716942919 275.61170523012152 0 0 0 0 -83.166282463658717 -13.319773991181137 0 -13.319773991181137 255.87436910936958 0 0 0 0 -100.25587795292086 1.8983599960556603 0 1.8983599960556603 347.36462438572562 0 0 0 0 -92.609792151750298 2.7814023924274807 0 2.7814023924274807 258.58404184920073 0 0 0 0 -70.244904903434872 -31.573610433364593 0 -31.573610433364593 321.58474655411192 0 0 0 0 -91.343794306976633 -82.707423243642552 0 -82.707423243642552 633.7850285426648 0 0 0 0 100.30607396985397 183.73108216315086 0 183.73108216315086 356.4244910008365 0 0 0 0 -82.44022870759818 -43.193490203073452 0 -43.193490203073452 319.81596676943445 0 0 0 0 3.7661377715379736 -5.2016405360538354 0 -5.2016405360538354 1.2893503860978086 0 0 0 0 71.561774945368597 -54.496275915273145 0 -54.496275915273145 28.117173857449416 0 0 0 0 144.33808394982952 -218.45551945071838 0 -218.45551945071838 196.17431626567122 0 0 0 0 62.278142485389253 -158.45916853043309 0 -158.45916853043309 217.40880759650463 0 0 0 0 -21.785655703763041 -47.986865586761269 0 -47.986865586761269 133.40004078465427 0 0 0 0 -81.038328532091782 -77.17749635519931 0 -77.17749635519931 354.62295515602455 0 0 0 0 -106.14764935158382 113.41205137264024 0 113.41205137264024 119.20751067609399 0 0 0 0 -7.4430339919872175 8.080213997583531 0 8.080213997583531 137.01789401006647 0 0 0 0 -206.14468343438284 15.961795835660268 0 15.961795835660268 291.79856414513051 0 0 0 0 -177.25192535661336 -71.792750547278047 0 -71.792750547278047 535.76845203740959 0 0 0 0 272.37684495561098 278.05890114266913 0 278.05890114266913 156.47446431514254 0 0 0 0 -168.6900542712774 102.48320334170239 0 102.48320334170239 125.69867902966325 0 0 0 0 -183.29211695922277 4.4227735622280306 0 4.4227735622280306 253.70130444995266 0 0 0 0 -169.63986892146931 -51.38109471208918 0 -51.38109471208918 171.0188710002476 0 0 0 0 -168.06367126940677 -69.707792814368077 0 -69.707792814368077 301.28113792177464 0 0 0 0 -180.23201799258459 -115.44943168342434 0 -115.44943168342434 199.87610835732994 0 0 0 0 -213.03724954222253 -12.550063117739228 0 -12.550063117739228 247.09750230508507 0 0 0 0 -41.504454919080445 -14.955347660941243 0 -14.955347660941243 99.695451770225191 0 0 0 0 -168.92308816158038 -14.737431653570184 0 -14.737431653570184 223.46029197398093 0 0 0 0 -2.5487019322652813 8.8849159070718784 0 8.8849159070718784 146.32016956737758 0 0 0 0 -0.60956516055839316 9.2173084873020183 0 9.2173084873020183 25.926004094286682 0 0 0 0 -100.91574917796788 170.46766169215516 0 170.46766169215516 144.50799219518922 0 0 0 0 -31.578672411244952 -28.924803751486706 0 -28.924803751486706 167.50529259085306 0 0 0 0 -2.0229619837009594 -17.661772159094557 0 -17.661772159094557 74.371729291534564 0 0 0 0 13.156155287364527 7.0191839054459706 0 7.0191839054459706 105.2112144534367 0 0 0 0 4.2419794867087788 -34.893891559426521 0 -34.893891559426521 110.57231339654376 0 0 0 0 32.579965500694016 -18.799733292034944 0 -18.799733292034944 13.187417070182164 0 0 0 0 -28.99294483612357 -18.605084951162098 0 -18.605084951162098 60.596948363199772 0 0 0 0 -5.3638251129125365 -23.075004718129318 0 -23.075004718129318 114.00965542834848 0 0 0 0 -57.510118199737917 -176.56227027739897 0 -176.56227027739897 -3.1190677278118528 0 0 0 0 -105.94281362372931 -16.404301369153472 0 -16.404301369153472 223.6824180041458 0 0 0 0 -14.343624139002038 -11.136973623338228 0 -11.136973623338228 31.247801666148987 0 0 0 0 -17.156667874362029 -30.251685623839876 0 -30.251685623839876 70.159613283154613 0 0 0 0 -28.41430864737049 -52.876074559688277 0 -52.876074559688277 131.09306049626321 0 0 0 0 -23.750242472735408 -60.506921105195943 0 -60.506921105195943 122.97457796461822 0 0 0 0 36.486497629286532 -15.91373834749902 0 -15.91373834749902 72.949249859404517 0 0 0 0 -31.938374900108101 22.948856762355717 0 22.948856762355717 79.113338059738453 0 0 0 0 -44.482995040090373 7.9542856724378908 0 7.9542856724378908 115.03614389404538 0 0 0 0 9.3144219288042223 21.6041954831162 0 21.6041954831162 46.108501307406186 0 0 0 0 -31.470031907147131 7.1719060106152028 0 7.1719060106152028 145.44221350932276 0 0 0 0 0.5736827628981942 0.72975275103325288 0 0.72975275103325288 13.099530170071681 0 0 0 0 -11.1785106262505 -11.953167327672418 0 -11.953167327672418 125.312645354501 0 0 0 0 -23.436442248903404 -55.264787816522585 0 -55.264787816522585 -30.811405818691128 0 0 0 0 -6.0192050217829092 22.152524674471351 0 22.152524674471351 110.951102981242 0 0 0 0 -1.9036534908373142 -62.79636309867783 0 -62.79636309867783 -40.261818566446891 0 0 0 0 -43.795586561594973 -45.171769431621215 0 -45.171769431621215 -33.433116212756431 0 0 0 0 -77.068726553521628 -71.860796966415364 0 -71.860796966415364 49.193883192452631 0 0 0 0 -37.877841988241926 -0.75139171871705912 0 -0.75139171871705912 31.1083645125982 0 0 0 0 -112.23941865069719 -106.71361754914324 0 -106.71361754914324 -43.801835154696164 0 0 0 0 23.757782682114339 4.0725960085474071 0 4.0725960085474071 1.7397821895792731 0 0 0 0 2.7973975467796706 -1.0152061730972832 0 -1.0152061730972832 -1.4123708481737651 0 0 0 0 -70.74057319532676 -24.74124618661881 0 -24.74124618661881 508.37102711473563 0 0 0 0 -31.032924261755397 -47.351243826742575 0 -47.351243826742575 -188.72761164656549 0 0 0 0 -17.023141974794271 -263.34376307512866 0 -263.34376307512866 -249.00861546579836 0 0 0 0 6.0852910977027932 -189.23102471907259 0 -189.23102471907259 683.41758506934275 0 0 0 0 1.8335052966845069 0.64426162289981903 0 0.64426162289981903 -1.2254931357958156 0 0 0 0 51.721806034751353 -162.08713138954045 0 -162.08713138954045 464.0058446455605 0 0 0 0 132.49043495381648 -11.147384080417396 0 -11.147384080417396 431.08072701028141 0 0 0 0 62.603167622004548 -72.622768688153883 0 -72.622768688153883 309.26681157846906 0 0 0 0 8.2844642281306733 -96.600747454598604 0 -96.600747454598604 389.35645498280064 0 0 0 0 -59.36186022626498 -103.97994658234893 0 -103.97994658234893 434.18825090201426 0 0 0 0 -55.540133356589649 19.036085337938857 0 19.036085337938857 294.11813335206261 0 0 0 0 -9.2924523467900144 -75.559803467378515 0 -75.559803467378515 257.49155505728413 0 0 0 0 1.6402692518349795 -1.2721760872227605 0 -1.2721760872227605 395.67166514102428 0 0 0 0 -37.604724695946061 -140.24100808468211 0 -140.24100808468211 423.89472268791724 0 0 0 0 -33.542714811641417 -82.072047563880915 0 -82.072047563880915 744.42607812200731 0 0 0 0 -30.668045295165939 -169.17292809619539 0 -169.17292809619539 492.17405871620576 0 0 0 0 -121.98708822227491 -218.02683550777147 0 -218.02683550777147 480.00174973640969 0 0 0 0 -98.577031527996041 -53.59703704610547 0 -53.59703704610547 90.941691190048005 0 0 0 0 -53.319648276970838 -292.36551280351341 0 -292.36551280351341 27.298914206519839 0 0 0 0 -15.168414477087936 -43.959524502512068 0 -43.959524502512068 -52.176283416956721 0 0 0 0 1.0805389724664884 -10.94866077945888 0 -10.94866077945888 8.3921797213628366 0 0 0 0 150.28485295865266 -239.36537912093445 0 -239.36537912093445 255.40957235450333 0 0 0 0 -28.460322317987902 -169.85427478694692 0 -169.85427478694692 273.824629918141 0 0 0 0 -20.686023827755236 -127.68154590260724 0 -127.68154590260724 186.61660358163499 0 0 0 0 -24.199300994290752 -177.16425708729366 0 -177.16425708729366 380.67727001880121 0 0 0 0 14.556129705832346 -54.931080467235695 0 -54.931080467235695 148.0785351267283 0 0 0 0 -2.4123516627550998 -73.695717503644119 0 -73.695717503644119 254.65412116705284 0 0 0 0 -0.61036641631549315 -18.038895169031687 0 -18.038895169031687 23.031929274423973 0 0 0 0 -322.09872538410491 219.31989167702432 0 219.31989167702432 130.88453004359508 0 0 0 0 -88.423463916131368 5.0187862677848898 0 5.0187862677848898 248.31209141370346 0 0 0 0 -69.412746570855234 54.526773828647492 0 54.526773828647492 18.912883789602347 0 0 0 0 -11.997114406517639 19.592774593289022 0 19.592774593289022 15.534037018192826 0 0 0 0 -477.18423179199453 -71.137054535165589 0 -71.137054535165589 302.70925532910223 0 0 0 0 -128.91860573747726 70.415816861586791 0 70.415816861586791 221.71799011481562 0 0 0 0 -30.863308009042228 13.96098568558109 0 13.96098568558109 146.86762764543431 0 0 0 0 -37.451513096097187 157.47505694630445 0 157.47505694630445 205.56184428037341 0 0 0 0 32.433392380189161 -106.56414615818358 0 -106.56414615818358 312.28136213750986 0 0 0 0 -40.385692213147195 -42.223956577203353 0 -42.223956577203353 301.23938191064371 0 0 0 0 -7.7607629509493563 -21.082654401230684 0 -21.082654401230684 135.97277824328557 0 0 0 0 -117.7680159972557 -44.519884160079073 0 -44.519884160079073 229.25198875872593 0 0 0 0 87.743925106529787 -149.0948820679896 0 -149.0948820679896 10.333992081111091 0 0 0 0 -57.245413703421946 -619.63550156529436 0 -619.63550156529436 629.6155113570494 0 0 0 0 126.84518294837471 27.838030778991651 0 27.838030778991651 205.30724647943816 0 0 0 0 22.197327727935772 -48.981418402167037 0 -48.981418402167037 518.18138981778202 0 0 0 0 -9.2182653703857795 13.362195533796694 0 13.362195533796694 -1.1059261048158078 0 0 0 0 -1.8679126572642417 -1.0631474763220012 0 -1.0631474763220012 5.9749989715178344 0 0 0 0 3.0386715216799303 -11.817093990132724 0 -11.817093990132724 -3.8625466216641975 0 0 0 0 0.20809858798384084 -11.140214938905956 0 -11.140214938905956 39.756612389769089 0 0 0 0 143.28305954749521 -320.16524135227814 0 -320.16524135227814 352.32907028115778 0 0 0 0 -2.9473773969789931 1.1310753566967868 0 1.1310753566967868 10.814677568842352 0 0 0 0 30.8201070007608 -52.01346577828312 0 -52.01346577828312 224.47734710079999 0 0 0 0 63.057596729850047 -113.18330942628904 0 -113.18330942628904 169.7485081260179 0 0 0 0 -78.775933351887943 -38.903047399596034 0 -38.903047399596034 300.08446156475054 0 0 0 0 8.154834731755777 -11.37537402756017 0 -11.37537402756017 8.8200147440794989 0 0 0 0 -83.411744773182363 126.08137914204417 0 126.08137914204417 100.87859649388702 0 0 0 0 -90.257733203514363 45.944177519944787 0 45.944177519944787 165.84452269733447 0 0 0 0 -39.600337828277119 13.691858173661686 0 13.691858173661686 136.47229907634394 0 0 0 0 17.180284885938235 -28.444770636123184 0 -28.444770636123184 97.420876093697245 0 0 0 0 -57.237238391678147 31.545665899143387 0 31.545665899143387 150.94326010049554 0 0 0 0 -18.346451095216253 7.9694391419616295 0 7.9694391419616295 113.23434686793917 0 0 0 0 -48.62690738299694 11.809743157703736 0 11.809743157703736 26.572568630926476 0 0 0 0 -31.62371009726121 41.094122041744413 0 41.094122041744413 187.13414147141157 0 0 0 0 -39.857331151080871 -13.266759452617407 0 -13.266759452617407 321.10624510604248 0 0 0 0 34.263738110667873 0.36976652711382485 0 0.36976652711382485 156.24042465192906 0 0 0 0 -39.92558161184752 23.223483536872664 0 23.223483536872664 254.10231633190278 0 0 0 0 -17.726907188414771 5.4699611054675188 0 5.4699611054675188 68.115915057402162 0 0 0 0 -4.1952295311657508 -77.849746014194352 0 -77.849746014194352 220.45485682577601 0 0 0 0 -13.826980688047115 -3.6305506123039777 0 -3.6305506123039777 125.04854657044598 0 0 0 0 42.566675263609795 -48.034449243624749 0 -48.034449243624749 47.834270393330371 0 0 0 0 9.8679572145041874 -4.649199390371038 0 -4.649199390371038 -4.3724854730734748 0 0 0 0 80.15595791994383 -19.892001923674343 0 -19.892001923674343 -32.468991990294853 0 0 0 0 105.09717015062415 -55.853236477353676 0 -55.853236477353676 41.169580930677057 0 0 0 0 -26.005399439884059 7.1512551369723951 0 7.1512551369723951 65.938449972252329 0 0 0 0 -5.0644780541715591 -18.159298733665764 0 -18.159298733665764 49.082034357231805 0 0 0 0 3.544315706513423 -2.4904199725084277 0 -2.4904199725084277 6.1787006057152407 0 0 0 0 2.7702818858051614 -4.8262340713531557 0 -4.8262340713531557 20.70410173091841 0 0 0 0 0.027209575517545659 -13.88932049507962 0 -13.88932049507962 13.879285150637088 0 0 0 0 -15.827831433829488 -39.029465354606145 0 -39.029465354606145 57.445655670080896 0 0 0 0 -7.205396599267516 -13.742372457783645 0 -13.742372457783645 2.6330087774015301 0 0 0 0 12.073882470145691 -40.283637251266782 0 -40.283637251266782 8.7967220430773523 0 0 0 0 -7.8918863160797628 -20.416097184864157 0 -20.416097184864157 15.413122427439475 0 0 0 0 26.116339659291043 -8.3794573466132078 0 -8.3794573466132078 -21.600325133288607 0 0 0 0 -1.5022327927290462 -23.50423785590192 0 -23.50423785590192 25.13176311018492 0 0 0 0 -2.2046456277777082 -12.503603513416168 0 -12.503603513416168 -1.92592632104882 0 0 0 0 -13.357100343200727 -43.049304034622764 0 -43.049304034622764 6.6364602356534306 0 0 0 0 68.259805713923924 -97.949894869725313 0 -97.949894869725313 -60.557156662879606 0 0 0 0 -103.06146369909402 44.68733886168593 0 44.68733886168593 25.110504539123212 0 0 0 0 -3.095306078719247 1.0510593642469175 0 1.0510593642469175 4.1918314648622026 0 0 0 0 -15.641611037578514 -39.85422716137009 0 -39.85422716137009 21.785311603125592 0 0 0 0 -29.252005368034588 -46.969856394645831 0 -46.969856394645831 30.779808703109666 0 0 0 0 -26.358009693329223 -80.009444489925954 0 -80.009444489925954 3.9972506966078072 0 0 0 0 36.298895548563451 -54.762543882174214 0 -54.762543882174214 8.0578351494432354 0 0 0 0 35.041689395972071 -40.273622411239046 0 -40.273622411239046 -34.288095107460322 0 0 0 0 80.023998204476811 -81.359047818574254 0 -81.359047818574254 489.35379979925347 0 0 0 0 492.26903896559816 21.11124878371993 0 21.11124878371993 594.79088562575635 0 0 0 0 228.48632831152645 -301.82539434791215 0 -301.82539434791215 761.42759858790942 0 0 0 0 1.7787732921569841 -623.11176701957265 0 -623.11176701957265 911.93942362215603 0 0 0 0 156.09449012804544 -245.96560829646478 0 -245.96560829646478 179.19658837717725 0 0 0 0 54.257845123065636 -108.067322387491 0 -108.067322387491 11.976979840754211 0 0 0 0 -130.80796409715549 -567.66891135255537 0 -567.66891135255537 937.03584443345426 0 0 0 0 -232.72191403774195 -11.860458116962036 0 -11.860458116962036 132.51255874642084 0 0 0 0 -265.71239824473741 -235.45123688144122 0 -235.45123688144122 382.77919342459063 0 0 0 0 213.6294040876237 -10.52333205323157 0 -10.52333205323157 673.41480723070708 0 0 0 0 291.14186593148042 -230.68853524418955 0 -230.68853524418955 1228.4379726760999 0 0 0 0 -15.979286784546275 -40.62851089119431 0 -40.62851089119431 739.60296678772602 0 0 0 0 -33.985354462412943 -33.369181624120756 0 -33.369181624120756 -14.826427716893932 0 0 0 0 4.2378262154954172 -0.6043941952219285 0 -0.6043941952219285 0.1617811659472661 0 0 0 0 13.626100065670471 20.186157424368957 0 20.186157424368957 -47.959933478230596 0 0 0 0 10.417790412029717 10.827768637664121 0 10.827768637664121 -8.8278257248985028 0 0 0 0 37.145817770811846 -8.6709740751466597 0 -8.6709740751466597 -75.742788026235758 0 0 0 0 -18.416930709267035 -37.107509591016424 0 -37.107509591016424 735.80376773178068 0 0 0 0 -14.882919446168671 49.360883381978056 0 49.360883381978056 525.69824046745634 0 0 0 0 -16.178615409680788 76.487287207769441 0 76.487287207769441 265.03301386978274 0 0 0 0 -24.965080105328525 -79.187161261850633 0 -79.187161261850633 411.31525828879148 0 0 0 0 54.86829337238305 -145.52101285675781 0 -145.52101285675781 384.12637829117557 0 0 0 0 -30.239006571526261 -78.601832840389761 0 -78.601832840389761 421.76036303826913 0 0 0 0 51.597430392836031 -118.77979542538242 0 -118.77979542538242 371.69144633978067 0 0 0 0 106.12486877138144 -175.81160327713951 0 -175.81160327713951 404.91261737900641 0 0 0 0 7.1838683762180153 -154.0128020143602 0 -154.0128020143602 550.00045172722071 0 0 0 0 -11.558458959665586 -94.999495644580747 0 -94.999495644580747 346.86217932617183 0 0 0 0 19.470241661270848 -13.920447754855559 0 -13.920447754855559 701.67478720411964 0 0 0 0 80.726307804208773 4.5053264259331627 0 4.5053264259331627 124.24988511608262 0 0 0 0 244.88900213307716 -213.20417018049375 0 -213.20417018049375 429.86444450163981 0 0 0 0 299.13639867691381 -80.596221018544384 0 -80.596221018544384 256.95780422739153 0 0 0 0 93.351701896230225 -222.95566973858695 0 -222.95566973858695 574.74772746561939 0 0 0 0 113.84629799245886 -27.720931026480685 0 -27.720931026480685 193.56683930956569 0 0 0 0 143.08560207993651 -157.3283629382222 0 -157.3283629382222 292.84566344815539 0 0 0 0 8.5388036296062637 -24.143410000811855 0 -24.143410000811855 275.59712485247564 0 0 0 0 40.26212443276745 -79.709519214071406 0 -79.709519214071406 160.02256643462169 0 0 0 0 -41.941675042093266 -75.693180592379576 0 -75.693180592379576 238.42424867072623 0 0 0 0 4.1135041825109511 49.296858031348165 0 49.296858031348165 123.31939806741684 0 0 0 0 -205.67015276433449 -25.281120624882533 0 -25.281120624882533 207.55669062995003 0 0 0 0 58.74166953931126 -52.456809181990593 0 -52.456809181990593 233.79127382053775 0 0 0 0 37.171122414969432 54.860652431110793 0 54.860652431110793 191.56394345379249 0 0 0 0 25.242254833130573 -25.556032340136881 0 -25.556032340136881 168.50009122231677 0 0 0 0 27.259533856482449 -13.633223137604546 0 -13.633223137604546 280.5344340073425 0 0 0 0 43.427005063131219 7.0175863786689661 0 7.0175863786689661 295.8647837747767 0 0 0 0 77.586528569885559 -83.026477023458938 0 -83.026477023458938 330.6979912105744 0 0 0 0 71.464162151329219 -54.189111950834558 0 -54.189111950834558 223.03506629864933 0 0 0 0 -4.0740939678362338 -5.9892923847687598 0 -5.9892923847687598 382.17414951577302 0 0 0 0 -11.925128713187632 -82.814368378202261 0 -82.814368378202261 406.54601804979211 0 0 0 0 -44.600334141465282 -24.787296300284424 0 -24.787296300284424 296.10646289763827 0 0 0 0 -25.918300882440235 -108.35970519443708 0 -108.35970519443708 377.78756892060392 0 0 0 0 34.530735227715923 -168.83246216597036 0 -168.83246216597036 302.33461910489405 0 0 0 0 -3.0665993943948706 -39.498917076635962 0 -39.498917076635962 412.24377393206123 0 0 0 0 8.3015943879618135 -48.938134158947832 0 -48.938134158947832 529.09891833797951 0 0 0 0 126.06325738112173 -107.73731722872617 0 -107.73731722872617 439.68347265868852 0 0 0 0 6.1787223600268959 -6.2599984551907646 0 -6.2599984551907646 1.9260742610786217 0 0 0 0 111.45848808065239 -67.447934624617119 0 -67.447934624617119 -489.66597412409169 0 0 0 0 -121.90663294637034 330.60708494825917 0 330.60708494825917 597.20087021761901 0 0 0 0 201.01104256059807 -610.4797603294146 0 -610.4797603294146 926.53976836520724 0 0 0 0 -59.420184558133769 -330.06506959072794 0 -330.06506959072794 200.67207857580084 0 0 0 0 -61.777023344355257 -351.98201943093045 0 -351.98201943093045 316.71513064598912 0 0 0 0 0.25735338239412897 -8.370134187004254 0 -8.370134187004254 -2.4128270745365068 0 0 0 0 434.6765981988874 -645.9779296802667 0 -645.9779296802667 258.23583230358054 0 0 0 0 131.43292156838834 -106.51144109827328 0 -106.51144109827328 -437.85849672196628 0 0 0 0 -285.81374856145158 141.70710713286735 0 141.70710713286735 841.75565762473525 0 0 0 0 -132.29218542499439 -277.15518135994535 0 -277.15518135994535 454.71155272291071 0 0 0 0 -226.75296020335145 -40.85363588792984 0 -40.85363588792984 457.57123358284662 0 0 0 0 -170.11835518676344 98.874579503480163 0 98.874579503480163 349.91430936088182 0 0 0 0 -266.61633541054653 51.347766002480057 0 51.347766002480057 326.5537833668659 0 0 0 0 152.08723963066404 347.84581219925803 0 347.84581219925803 303.83581483893613 0 0 0 0 45.809578176557807 -0.40631818539213782 0 -0.40631818539213782 -44.061208534623802 0 0 0 0 -175.76667270969119 106.72077109946804 0 106.72077109946804 156.11528303555497 0 0 0 0 -112.68503858709664 215.0380011754728 0 215.0380011754728 85.633232003207922 0 0 0 0 -75.879979836185157 112.9763338436087 0 112.9763338436087 -93.035838251861605 0 0 0 0 -62.571816849501374 -183.97603974215281 0 -183.97603974215281 580.30154949145071 0 0 0 0 5.3194093510776739 5.2297886778534277 0 5.2297886778534277 7.1991113342932351 0 0 0 0 178.42684762801639 66.759608580506267 0 66.759608580506267 14.820283544693666 0 0 0 0 2.9204181271961716 -7.9014877085619446 0 -7.9014877085619446 36.871282213699715 0 0 0 0 9.6886046579932952 17.247066317133466 0 17.247066317133466 24.336303493643584 0 0 0 0 -14.793476837456183 10.070023020705776 0 10.070023020705776 38.423228801024379 0 0 0 0 19.362389529723259 50.437989476603434 0 50.437989476603434 38.804005261394195 0 0 0 0 -30.771142915906239 -27.476886180074871 0 -27.476886180074871 12.019499998575156 0 0 0 0 -28.157607612882181 -1.5265875031629008 0 -1.5265875031629008 36.445427064181253 0 0 0 0 -15.129512497486758 36.805324313449546 0 36.805324313449546 85.927256311597375 0 0 0 0 -27.110751250559357 -5.0668176463727193 0 -5.0668176463727193 37.893335865388408 0 0 0 0 -53.517751653125742 50.461801222639224 0 50.461801222639224 86.180486552518332 0 0 0 0 -34.731458055790426 -10.447142294774949 0 -10.447142294774949 7.2765993634384358 0 0 0 0 -49.748973979253151 -37.914538824099964 0 -37.914538824099964 35.807386191485421 0 0 0 0 -74.578529103696383 -13.382185504783138 0 -13.382185504783138 167.91368967703784 0 0 0 0 -4.3305430197527812 -1.8259090062519441 0 -1.8259090062519441 21.761987519910164 0 0 0 0 -195.25128289099484 107.48409253928003 0 107.48409253928003 196.73403961513577 0 0 0 0 -79.138862205159967 131.66830764525184 0 131.66830764525184 -54.455802242705374 0 0 0 0 -94.011743880015274 -49.437241264987279 0 -49.437241264987279 198.65599899008276 0 0 0 0 -89.020886711918138 -4.3966394348267386 0 -4.3966394348267386 91.173941533347715 0 0 0 0 -87.013073888056169 -39.38729511725046 0 -39.38729511725046 139.32357471557407 0 0 0 0 71.871147315800044 118.59099935653921 0 118.59099935653921 278.68919147356996 0 0 0 0 56.464349805513848 -211.47500478780694 0 -211.47500478780694 343.83442320800168 0 0 0 0 53.553383977226986 -131.1515516340778 0 -131.1515516340778 78.173837949983863 0 0 0 0 -26.234627929662565 -25.520418510041452 0 -25.520418510041452 -32.77122985304959 0 0 0 0 -26.335665319460965 -9.3853186034600427 0 -9.3853186034600427 38.248146793787164 0 0 0 0 -43.180511619950948 -83.754522504666397 0 -83.754522504666397 77.142768155801605 0 0 0 0 -71.724539613434899 20.293103444271765 0 20.293103444271765 50.380003175738238 0 0 0 0 -2.4531593025729528 1.8119496240833257 0 1.8119496240833257 12.30637144246867 0 0 0 0 -19.097475731282934 -11.900445113105256 0 -11.900445113105256 5.7065896644862306 0 0 0 0 -15.421825381925373 -11.530230965402552 0 -11.530230965402552 33.392315247223451 0 0 0 0 -10.707567105214359 -10.004161701768858 0 -10.004161701768858 20.916307543849193 0 0 0 0 -27.99447966430489 -41.191110641111663 0 -41.191110641111663 25.194587680634868 0 0 0 0 -25.383532672963383 -22.090582425144021 0 -22.090582425144021 29.122429372197075 0 0 0 0 -45.225075222313535 -34.492038624430279 0 -34.492038624430279 35.210168969228107 0 0 0 0 -73.110912244877909 -48.382298137383259 0 -48.382298137383259 36.825837647644221 0 0 0 0 -37.669748205651558 -54.741765631673843 0 -54.741765631673843 12.443002171981789 0 0 0 0 -19.143205622601272 -29.782550689057643 0 -29.782550689057643 25.561013432808977 0 0 0 0 12.782981217782435 -20.230125828738892 0 -20.230125828738892 21.3220460139637 0 0 0 0 -11.255854037497556 -36.007484128138458 0 -36.007484128138458 25.745415141052945 0 0 0 0 21.575649290824913 -21.346269448045859 0 -21.346269448045859 22.427357346292411 0 0 0 0 -24.301094090984407 -46.220445223092611 0 -46.220445223092611 57.417241081060638 0 0 0 0 -11.888353670567085 -31.810148082664455 0 -31.810148082664455 55.971048680639797 0 0 0 0 -55.53130365446259 -67.199213337225956 0 -67.199213337225956 217.70774643593541 0 0 0 0 11.117797574585893 -69.505607462160697 0 -69.505607462160697 107.31648438038974 0 0 0 0 5.4724262949339391 -37.969330946572882 0 -37.969330946572882 100.74791180649845 0 0 0 0 -102.87590930626357 3.8681725748319877 0 3.8681725748319877 112.8604678040947 0 0 0 0 -94.155679748926559 8.8772745409441995 0 8.8772745409441995 56.239373178039386 0 0 0 0 -78.002316014666576 -55.006592260489924 0 -55.006592260489924 120.30501408631267 0 0 0 0 -92.323562469343869 -27.837172450226717 0 -27.837172450226717 73.467444006790174 0 0 0 0 -117.46494605351654 -38.575661715021852 0 -38.575661715021852 75.967648396675941 0 0 0 0 -51.432981460811789 -10.659047316992655 0 -10.659047316992655 12.942005945944715 0 0 0 0 -53.246769767175465 -49.883524989425496 0 -49.883524989425496 24.573289033594847 0 0 0 0 -28.6060003861312 -9.8677345189826156 0 -9.8677345189826156 33.111768632158601 0 0 0 0 -24.778070605273342 4.7025008902464833 0 4.7025008902464833 41.560227640569792 0 0 0 0 6.3033267176977645 8.6480407169611837 0 8.6480407169611837 13.214865957711858 0 0 0 0 -16.463190956455492 22.040425103622511 0 22.040425103622511 32.758544541906303 0 0 0 0 -98.188657473741841 -21.940427806905063 0 -21.940427806905063 84.850489889868186 0 0 0 0 -76.377338873396184 28.663276864910586 0 28.663276864910586 25.907840186646354 0 0 0 0 4.6980214976113039 5.7311362210425756 0 5.7311362210425756 5.8833341637021306 0 0 0 0 -133.25636150376977 89.508868302462361 0 89.508868302462361 2.1228466249967823 0 0 0 0 4.1732192978367095 -96.388534089205024 0 -96.388534089205024 336.29671347650583 0 0 0 0 4.5832149648049381 -127.89741256722755 0 -127.89741256722755 447.2194483255771 0 0 0 0 14.705121520560169 -115.93812344540856 0 -115.93812344540856 401.45509295661032 0 0 0 0 13.764905602971339 -105.83266098323475 0 -105.83266098323475 297.39926467098121 0 0 0 0 23.914362216191876 -48.079620742970292 0 -48.079620742970292 370.20298293911947 0 0 0 0 31.178796853670065 -312.36141686248084 0 -312.36141686248084 890.9248348208057 0 0 0 0 1.6039181384510002 1.8766486637949171 0 1.8766486637949171 2.3566473474851222 0 0 0 0 -149.32056819524041 200.55855217267708 0 200.55855217267708 485.35235550423022 0 0 0 0 -162.50147490973086 194.45470496774578 0 194.45470496774578 559.67604607046633 0 0 0 0 -53.84693224247485 153.0554637300138 0 153.0554637300138 144.98910272588182 0 0 0 0 -71.831816570601404 116.4952075903002 0 116.4952075903002 435.38980016799542 0 0 0 0 -104.77281603696701 282.5077164227132 0 282.5077164227132 -153.45009443681192 0 0 0 0 -147.47726730024726 14.668878360366989 0 14.668878360366989 79.47860287819276 0 0 0 0 -120.11231234653587 257.33948306010461 0 257.33948306010461 381.05474113935634 0 0 0 0 -37.616889366030591 -285.12601333613929 0 -285.12601333613929 980.85602768342142 0 0 0 0 132.14219694695203 -422.19194422910005 0 -422.19194422910005 624.20544294529282 0 0 0 0 169.82098524461981 -368.13554291398395 0 -368.13554291398395 622.03746964479069 0 0 0 0 -37.720841735241265 -298.79017521902642 0 -298.79017521902642 661.43605693303471 0 0 0 0 37.314235598045343 -175.04094458504551 0 -175.04094458504551 744.52070821564303 0 0 0 0 -17.022321784364976 -36.782661080867911 0 -36.782661080867911 447.34793336297662 0 0 0 0 87.583737156406642 -85.596152709645139 0 -85.596152709645139 465.20488321057564 0 0 0 0 77.509392901905812 -41.824239252394364 0 -41.824239252394364 401.96220533129599 0 0 0 0 -31.517977644656639 -33.201570114017159 0 -33.201570114017159 475.47655973024371 0 0 0 0 441.21074312822793 -256.28171052449989 0 -256.28171052449989 479.48924094796166 0 0 0 0 31.546374742760236 -190.22351073692334 0 -190.22351073692334 468.85747963264112 0 0 0 0 108.82558220428837 58.867986096202003 0 58.867986096202003 869.19113556336788 0 0 0 0 -72.491523993444389 -70.576646806518511 0 -70.576646806518511 592.28456378615738 0 0 0 0 -72.05953214949659 -77.891356761206225 0 -77.891356761206225 385.28833934284921 0 0 0 0 -9.293148970630682 37.39658589352257 0 37.39658589352257 363.56265353693016 0 0 0 0 -15.119798406287373 60.743576372732605 0 60.743576372732605 1137.2770254339721 0 0 0 0 3.1156163863234561 -2.4088754950830982 0 -2.4088754950830982 2.104072905530586 0 0 0 0 99.321058297489799 -217.89994721055155 0 -217.89994721055155 -0.21625358151868568 0 0 0 0 -16.100589918001788 102.65656830465196 0 102.65656830465196 65.115581292135175 0 0 0 0 -106.34837697006969 -0.5166219291490961 0 -0.5166219291490961 25.110267302534339 0 0 0 0 14.405930735551919 4.0238032270108306 0 4.0238032270108306 203.7345419229996 0 0 0 0 11.503384157987057 -24.577893478620354 0 -24.577893478620354 284.14473852949686 0 0 0 0 4.4247297869345541 -5.7906616591550062 0 -5.7906616591550062 10.189565275899639 0 0 0 0 -14.446626712256148 -12.559045270283605 0 -12.559045270283605 17.508456857862257 0 0 0 0 -10.576470171633282 -2.7049197499917383 0 -2.7049197499917383 22.075624528937311 0 0 0 0 -11.355458716213683 -0.78574922156703941 0 -0.78574922156703941 9.7912949323155019 0 0 0 0 -10.980640296320416 9.9336388012952739 0 9.9336388012952739 20.712196284111542 0 0 0 0 -12.152599202379861 -8.057850084380334 0 -8.057850084380334 16.771365323491409 0 0 0 0 -4.0229706357558825 17.02310567756831 0 17.02310567756831 -21.708077033421432 0 0 0 0 -1.0174162307326089 -0.31439278559644634 0 -0.31439278559644634 -0.27394287925423555 0 0 0 0 -117.07086939406599 10.146091775365676 0 10.146091775365676 15.421079834690318 0 0 0 0 32.352093519495611 37.009430595700906 0 37.009430595700906 223.05216199395727 0 0 0 0 1.0385663317842386 -1.1877990195758521 0 -1.1877990195758521 -0.59390026166107646 0 0 0 0 92.735951712789756 50.04864023519076 0 50.04864023519076 -13.914992515751692 0 0 0 0 15.821636499276792 -218.96660596882248 0 -218.96660596882248 91.57911653798692 0 0 0 0 -79.410248959223281 -177.16795717503737 0 -177.16795717503737 728.00679942875468 0 0 0 0 10.113478470699192 -3.5286850053316812 0 -3.5286850053316812 -0.92349458239186788 0 0 0 0 62.290970174452468 -44.333109993979861 0 -44.333109993979861 6.2603336466709152 0 0 0 0 -9.0777584004717937 87.993469822053157 0 87.993469822053157 41.533036817959783 0 0 0 0 -63.695422140068331 -40.14533830479013 0 -40.14533830479013 4.630271175330563 0 0 0 0 -25.023397490200296 19.872255477063845 0 19.872255477063845 -62.261988120041678 0 0 0 0 -71.540814226920702 61.04882391801948 0 61.04882391801948 -11.525921177532837 0 0 0 0 2.009423436958059 -3.9015049578874823 0 -3.9015049578874823 2.8624339384296036 0 0 0 0 0.61432980386416602 -9.3792370959208711 0 -9.3792370959208711 -18.193747315688597 0 0 0 0 -1.1831724665722518 -0.72069670162262423 0 -0.72069670162262423 1.6077528568954449 0 0 0 0 40.459751141550441 11.974608652953066 0 11.974608652953066 -65.140064423255808 0 0 0 0 -20.040889096620958 -38.509903555596793 0 -38.509903555596793 -6.1075254854144987 0 0 0 0 -14.18814362694593 -23.618186886164949 0 -23.618186886164949 22.747412747570706 0 0 0 0 -8.0279581910248474 -3.3381104592352742 0 -3.3381104592352742 0.71294557387986579 0 0 0 0 102.03687065169288 -0.86073430303804344 0 -0.86073430303804344 -177.29939186503907 0 0 0 0 -2.7485824762165336 -0.45886657899871253 0 -0.45886657899871253 -0.31036504650762886 0 0 0 0 -56.038037400201574 68.082113911110355 0 68.082113911110355 -11.553405472726809 0 0 0 0 -92.266572545986492 53.555395232815499 0 53.555395232815499 11.233544624983551 0 0 0 0 -12.371094784832167 -11.966761569773553 0 -11.966761569773553 24.001838723452238 0 0 0 0 -11.353134527673319 -10.485059713339979 0 -10.485059713339979 18.641282557949125 0 0 0 0 -8.0405586090528232 -11.140097597698514 0 -11.140097597698514 17.479504970464632 0 0 0 0 -0.29668177271390839 -6.8404406905435913 0 -6.8404406905435913 9.2932340977680781 0 0 0 0 -70.013102415487083 -53.812933418683315 0 -53.812933418683315 69.979909045674503 0 0 0 0 -2.3230954357381854 -0.59280238478655889 0 -0.59280238478655889 -0.92947117625963926 0 0 0 0 -35.303474408365219 -2.5356419605682277 0 -2.5356419605682277 59.603822608836708 0 0 0 0 -7.7939883772479774 -10.588442532921999 0 -10.588442532921999 -4.8543109585293998 0 0 0 0 34.494614381801512 57.845134258145663 0 57.845134258145663 -89.560332310744343 0 0 0 0 223.79341732147805 -56.807894067595043 0 -56.807894067595043 70.869940268622486 0 0 0 0 -6.8869382171469624 81.481458812230358 0 81.481458812230358 359.91250483694603 0 0 0 0 138.23408331677638 -217.03315911054142 0 -217.03315911054142 344.77491149067322 0 0 0 0 -27.037705416697463 11.420816992715118 0 11.420816992715118 160.61875138166215 0 0 0 0 9.1095210710936954 -92.709255270177891 0 -92.709255270177891 243.75103015478999 0 0 0 0 22.504779057295309 -148.85979240695269 0 -148.85979240695269 14.983499412386664 0 0 0 0 -44.955071784841493 -67.600343485993108 0 -67.600343485993108 271.55490808825743 0 0 0 0 12.422997862521608 -63.322886692158207 0 -63.322886692158207 32.829885500720401 0 0 0 0 2.271984517971438 -16.15483939259995 0 -16.15483939259995 12.19466488610442 0 0 0 0 0.14565701838956358 -60.541048516766651 0 -60.541048516766651 17.205823616669988 0 0 0 0 -75.912464487926627 23.056173165314249 0 23.056173165314249 396.55962360995636 0 0 0 0 15.706744558381615 17.962865284935106 0 17.962865284935106 393.61015244819282 0 0 0 0 0.42291334280070458 1.098129170221295 0 1.098129170221295 21.058516188101496 0 0 0 0 -29.001448357645131 -183.16294059709071 0 -183.16294059709071 24.33305816111988 0 0 0 0 154.74433110898281 -6.0538888566316018 0 -6.0538888566316018 130.33537680413065 0 0 0 0 -65.250601633875704 63.648710033393399 0 63.648710033393399 106.00164195354591 0 0 0 0 28.278627178464376 -148.44119644028251 0 -148.44119644028251 212.53481146037848 0 0 0 0 -61.850528016453012 -65.201389086890515 0 -65.201389086890515 138.94073976679283 0 0 0 0 45.321243519265408 27.96984106727723 0 27.96984106727723 176.37407670150833 0 0 0 0 90.183393745626745 -301.68294969032286 0 -301.68294969032286 287.44964410251305 0 0 0 0 253.47580907345491 142.95116361430109 0 142.95116361430109 25.262568468839163 0 0 0 0 -13.472272943785356 10.602056415678817 0 10.602056415678817 93.275424819163163 0 0 0 0 161.54249114292179 -37.911065978019906 0 -37.911065978019906 -75.145892091004498 0 0 0 0 -99.913364471449313 -24.546829047460051 0 -24.546829047460051 159.86320351139148 0 0 0 0 9.3489723564998712 -39.21102910132322 0 -39.21102910132322 62.403231746684469 0 0 0 0 -73.633267510937003 -82.076510729799338 0 -82.076510729799338 88.234649897774943 0 0 0 0 -11.10494743684535 77.44251377393266 0 77.44251377393266 234.72343403912237 0 0 0 0 -47.974442930575606 -14.368665478268667 0 -14.368665478268667 151.53010095124046 0 0 0 0 -79.53463907976402 -6.6310923516939511 0 -6.6310923516939511 253.40455113933422 0 0 0 0 -82.43990390872932 23.461867969599552 0 23.461867969599552 222.53714193505584 0 0 0 0 -65.786327999638161 -17.983930021044216 0 -17.983930021044216 253.84385249252591 0 0 0 0 -79.011896576811978 4.3543219829123245 0 4.3543219829123245 225.84599713617354 0 0 0 0 -52.342623730932246 -13.500573611469008 0 -13.500573611469008 207.326943186672 0 0 0 0 -61.622971645942016 -5.1984293498535408 0 -5.1984293498535408 202.07860212063679 0 0 0 0 -31.333840552360925 -13.104908519111632 0 -13.104908519111632 164.74628827143169 0 0 0 0 -54.855497910853956 -7.3703452682657371 0 -7.3703452682657371 169.37590533343609 0 0 0 0 -51.692934237053123 -22.946026734476618 0 -22.946026734476618 135.97924306096684 0 0 0 0 -38.335524848509522 -10.31974259737035 0 -10.31974259737035 130.67685202477151 0 0 0 0 -32.120639953704085 -29.175351588397461 0 -29.175351588397461 168.27862144948449 0 0 0 0 -11.194180998412776 -33.289968495635549 0 -33.289968495635549 148.24722559071961 0 0 0 0 -63.872614176638308 -39.35048868067679 0 -39.35048868067679 143.53959260549891 0 0 0 0 -88.441643847509113 10.875652418239042 0 10.875652418239042 160.41962032886659 0 0 0 0 -146.10225763967901 -28.48850272152049 0 -28.48850272152049 144.4117933038433 0 0 0 0 72.428674180235248 -134.03245251603948 0 -134.03245251603948 587.60236807495266 0 0 0 0 116.03477669230415 -19.214930785308297 0 -19.214930785308297 55.420734392233499 0 0 0 0 -33.632545427812147 118.65108654501819 0 118.65108654501819 400.93006094176781 0 0 0 0 -87.191917477066454 15.187419455556665 0 15.187419455556665 109.42361983150113 0 0 0 0 -109.43254575050287 96.725674833021458 0 96.725674833021458 299.23156827065395 0 0 0 0 -39.049611024587648 -5.6288088831715868 0 -5.6288088831715868 75.116137267446902 0 0 0 0 -4.1672407064761501 -55.03760394458368 0 -55.03760394458368 57.239776995607826 0 0 0 0 -8.9574856398635205 -57.069186643582327 0 -57.069186643582327 7.2346081141699123 0 0 0 0 -128.62063242477052 104.49725539608244 0 104.49725539608244 304.92151831217416 0 0 0 0 -20.8535031494539 -48.715102478978224 0 -48.715102478978224 109.63543290902453 0 0 0 0 -21.444829116680012 -46.734622464141466 0 -46.734622464141466 157.78470844231197 0 0 0 0 -11.309667055931641 -62.760331546451198 0 -62.760331546451198 133.48170484068396 0 0 0 0 -206.63063198136297 2.2459924540908105 0 2.2459924540908105 260.98948019105819 0 0 0 0 -18.765807621122804 14.512755445444782 0 14.512755445444782 260.77030882272447 0 0 0 0 33.851446481770836 -50.145983119810381 0 -50.145983119810381 31.687654044256995 0 0 0 0 -4.1368494414051256 -35.303230881699321 0 -35.303230881699321 13.410832969007217 0 0 0 0 -3.8387788742256816 -144.67425857298076 0 -144.67425857298076 138.63907094710157 0 0 0 0 -18.230321110517252 -171.08815229687752 0 -171.08815229687752 244.23927678883774 0 0 0 0 -6.7776614120120193 -21.240485092929944 0 -21.240485092929944 8.5624627424933379 0 0 0 0 -14.081780241773231 -59.968974340517889 0 -59.968974340517889 242.66003062676737 0 0 0 0 -13.587991220450931 -62.917069129385709 0 -62.917069129385709 222.52472174778813 0 0 0 0 -17.189002070881543 -49.385836662560905 0 -49.385836662560905 275.54251675639534 0 0 0 0 14.249083300142956 -38.264721911793458 0 -38.264721911793458 173.71606400349992 0 0 0 0 -8.1953437946285703 -46.265897055804089 0 -46.265897055804089 181.87375382045866 0 0 0 0 -8.9207966214744374 -32.7192052139726 0 -32.7192052139726 174.12599167579174 0 0 0 0 11.609090008299063 -62.509841053229138 0 -62.509841053229138 187.2288641314517 0 0 0 0 -27.690259501876426 -37.881840351663413 0 -37.881840351663413 204.05872889379134 0 0 0 0 -11.465433106335695 -50.749716568912845 0 -50.749716568912845 206.81154847964353 0 0 0 0 -24.650258359230065 -27.807892611788702 0 -27.807892611788702 197.02840671646845 0 0 0 0 -26.22361505493609 -26.819962657715223 0 -26.819962657715223 196.52835488770506 0 0 0 0 -20.685314494970953 -48.851712991530803 0 -48.851712991530803 221.03841550462676 0 0 0 0 -49.409149913748479 -20.533304060068986 0 -20.533304060068986 223.64086632120598 0 0 0 0 -48.656471783162488 -39.218787864472688 0 -39.218787864472688 235.30654023622628 0 0 0 0 -46.658446570254455 -33.792939780621964 0 -33.792939780621964 244.55727419978211 0 0 0 0 -60.314204748625343 -16.601301180644441 0 -16.601301180644441 222.95332301543385 0 0 0 0 -26.122150636323568 -55.122266786494038 0 -55.122266786494038 223.65007198326202 0 0 0 0 -19.443419742372498 -69.089707742903556 0 -69.089707742903556 240.31880797551639 0 0 0 0 -8.3420914598755189 -69.522310800321065 0 -69.522310800321065 225.02026351830136 0 0 0 0 -21.757176810271631 -61.958758694865537 0 -61.958758694865537 232.12652025052012 0 0 0 0 14.582510012991406 -90.632406903887386 0 -90.632406903887386 117.2021751245411 0 0 0 0 -5.5336690043168346 -56.777600239516687 0 -56.777600239516687 181.34296151360468 0 0 0 0 -14.780178422766767 -112.30033608534723 0 -112.30033608534723 246.56530540409585 0 0 0 0 2.9921717635560583 -34.50747339383588 0 -34.50747339383588 -1.3806096099540401 0 0 0 0 -6.2560767864033551 -61.584003753471052 0 -61.584003753471052 97.277588787292643 0 0 0 0 -12.211210594388831 -64.993841842933762 0 -64.993841842933762 219.95008865217096 0 0 0 0 2.8069116594256229 -51.095149662244637 0 -51.095149662244637 65.261946005626783 0 0 0 0 -1.3863695365653257 -73.34762206808827 0 -73.34762206808827 120.22122016403569 0 0 0 0 -27.429424716951871 -50.097834372677085 0 -50.097834372677085 145.23752279835617 0 0 0 0 -40.09508223353987 -68.006875761804622 0 -68.006875761804622 124.26633923260601 0 0 0 0 16.009257696894565 -93.009319559016603 0 -93.009319559016603 137.11893428585518 0 0 0 0 0.32611977640590339 -110.12445192726364 0 -110.12445192726364 168.1514008201666 0 0 0 0 71.018020860710749 -112.52571452997245 0 -112.52571452997245 143.68949188874376 0 0 0 0 216.48890742764343 -136.72947662992829 0 -136.72947662992829 95.070419936834242 0 0 0 0 0.05260360581505541 0.94643952653059671 0 0.94643952653059671 20.836637044142453 0 0 0 0 -5.3380261179261197 -55.736087307210482 0 -55.736087307210482 76.494712381370846 0 0 0 0 102.65461343187962 -62.208844237701669 0 -62.208844237701669 -20.590986763247201 0 0 0 0 67.648549128318336 106.03062347655759 0 106.03062347655759 -241.29112494691799 0 0 0 0 -92.591914478245599 56.557159230944308 0 56.557159230944308 91.260616089067867 0 0 0 0 -3.2839665808348713 -4.6249645899053036 0 -4.6249645899053036 38.9549150625324 0 0 0 0 62.925747644723742 -46.009493596184825 0 -46.009493596184825 47.320452094351481 0 0 0 0 46.648222413483381 -100.74769949379333 0 -100.74769949379333 117.6899004050469 0 0 0 0 20.294742576727003 -48.659577359178485 0 -48.659577359178485 61.573428865129131 0 0 0 0 -16.356430280085078 -62.280138872289172 0 -62.280138872289172 14.311468656094803 0 0 0 0 -45.452789934629152 -60.6525804175294 0 -60.6525804175294 21.005017028991823 0 0 0 0 -45.674467800122784 -95.086763364703074 0 -95.086763364703074 100.58193630084133 0 0 0 0 -12.203971105999535 -15.33240227711924 0 -15.33240227711924 -2.6117143204886162 0 0 0 0 -16.230953245694511 -21.644058679837702 0 -21.644058679837702 128.3079971338741 0 0 0 0 -199.60695390712408 -37.902738307755499 0 -37.902738307755499 232.2082372699515 0 0 0 0 -159.04187350085704 11.96477935783696 0 11.96477935783696 255.66412548297376 0 0 0 0 -5.1380705829651561 26.834716357458092 0 26.834716357458092 168.96881712289178 0 0 0 0 -268.54091149806436 95.369082838132272 0 95.369082838132272 145.11913367721718 0 0 0 0 -6.6721839432515679 -5.4614316933852294 0 -5.4614316933852294 12.087367561211082 0 0 0 0 -78.906557301957946 0.81856840383807139 0 0.81856840383807139 52.183308554540417 0 0 0 0 -78.465672770287711 -14.933577154137311 0 -14.933577154137311 75.261465693278296 0 0 0 0 -69.48099234083918 -0.14772745001987886 0 -0.14772745001987886 36.273631874343565 0 0 0 0 -72.021916366301411 17.063837242367299 0 17.063837242367299 134.80035017398768 0 0 0 0 3.0650992834816861 -45.958224005132649 0 -45.958224005132649 125.24438209643293 0 0 0 0 -38.182665312850872 -16.387468110960402 0 -16.387468110960402 99.190527819248373 0 0 0 0 9.2466485040808521 -38.725528160097042 0 -38.725528160097042 8.9193618525297182 0 0 0 0 2.1064014765433967 57.329292131857073 0 57.329292131857073 -16.853555142183723 0 0 0 0 77.273955919168657 -142.53333503803333 0 -142.53333503803333 119.49331763417285 0 0 0 0 -31.808638203779992 -89.121140910596296 0 -89.121140910596296 190.32445367432956 0 0 0 0 62.808158015479421 -58.864591840412686 0 -58.864591840412686 -19.48384207226627 0 0 0 0 -2.6327720531553496 -79.274159863365185 0 -79.274159863365185 192.74111881973295 0 0 0 0 3.0664544826222482 -44.643894273748131 0 -44.643894273748131 121.36871133987847 0 0 0 0 -36.938657020909886 -34.89687935427628 0 -34.89687935427628 120.93902934097645 0 0 0 0 -27.809764782100896 -10.739647860202538 0 -10.739647860202538 108.72577429292403 0 0 0 0 -72.463012610228816 -3.7849046378760249 0 -3.7849046378760249 138.32873733848101 0 0 0 0 -31.864982497337223 -54.039596280501428 0 -54.039596280501428 128.10654418069316 0 0 0 0 -106.36535532451717 7.7159307202782657 0 7.7159307202782657 118.93709835704794 0 0 0 0 -69.857054314828019 -7.4154913738275354 0 -7.4154913738275354 95.024057236247245 0 0 0 0 -53.711202114723619 -47.702407852702436 0 -47.702407852702436 124.40917767427163 0 0 0 0 -81.753437608585955 -38.978610239317277 0 -38.978610239317277 153.52730304111003 0 0 0 0 -77.1226579349036 -51.716314333716582 0 -51.716314333716582 174.94605208867142 0 0 0 0 -18.631548936005856 -22.107458021915591 0 -22.107458021915591 106.52316281789535 0 0 0 0 -28.584837429830259 -18.901571468104521 0 -18.901571468104521 154.93813325913311 0 0 0 0 128.07585957952688 -153.44577092093095 0 -153.44577092093095 76.756974440279009 0 0 0 0 39.594133607098229 -81.414562236121128 0 -81.414562236121128 25.529236931713967 0 0 0 0 -13.67323701383657 -152.82079042075748 0 -152.82079042075748 207.8543292202703 0 0 0 0 -44.62408257785728 14.449279324608142 0 14.449279324608142 230.07209811812208 0 0 0 0 -1.3697714019140399 0.66076420303591732 0 0.66076420303591732 -0.29539434882619986 0 0 0 0 -123.33882722067165 -62.963023266916935 0 -62.963023266916935 139.62840933997359 0 0 0 0 -94.345757336380871 9.7078376371464401 0 9.7078376371464401 58.570404804679129 0 0 0 0 0.94445602338328172 -18.935826157980046 0 -18.935826157980046 39.255159734085282 0 0 0 0 -4.8357873037004424 -33.977800101243702 0 -33.977800101243702 68.951414918945375 0 0 0 0 -3.8110113478314815 -137.53067763366198 0 -137.53067763366198 248.54950222264779 0 0 0 0 33.142048152345069 -44.850156537580006 0 -44.850156537580006 120.89553479584356 0 0 0 0 -17.678902364433725 -48.997200336995775 0 -48.997200336995775 198.27029559985021 0 0 0 0 -22.59058709959676 -10.192678219468768 0 -10.192678219468768 122.28406935567222 0 0 0 0 0.14082545074823116 -5.7535172591385617 0 -5.7535172591385617 16.857492767398199 0 0 0 0 33.883125787724566 -92.74362314712198 0 -92.74362314712198 168.22702061122982 0 0 0 0 -5.8061529923967079 -15.866841455796568 0 -15.866841455796568 92.788985147241135 0 0 0 0 -22.983125505670614 -19.331197159801377 0 -19.331197159801377 68.167876453549979 0 0 0 0 -14.139066768618036 -29.445269200797433 0 -29.445269200797433 112.1759077743212 0 0 0 0 20.768427741668802 33.896345574303268 0 33.896345574303268 108.41059925976151 0 0 0 0 -12.925257588391105 -16.864384408749174 0 -16.864384408749174 65.63669079864485 0 0 0 0 1.6307186820276911 68.736311869814926 0 68.736311869814926 108.68855590207386 0 0 0 0 4.3910721216500797 -3.6463547725693779 0 -3.6463547725693779 18.640327275093043 0 0 0 0 17.922829506768721 34.919500592616714 0 34.919500592616714 68.003913207372534 0 0 0 0 -3.8210730399096065 71.753920054250102 0 71.753920054250102 99.009800735042518 0 0 0 0 47.439493141575895 82.716090418717158 0 82.716090418717158 143.73886764929921 0 0 0 0 68.341294587959055 82.575198269876637 0 82.575198269876637 141.20662343908589 0 0 0 0 -8.2453152001826311 -1.2966076622651599 0 -1.2966076622651599 35.796202376746805 0 0 0 0 5.7012943305586621 -3.9479959715265274 0 -3.9479959715265274 2.1752465357977258 0 0 0 0 4.6934560799808196 -47.837783146894708 0 -47.837783146894708 -58.176197690241679 0 0 0 0 8.507030214612314 -27.909136457941713 0 -27.909136457941713 4.5321385071929399 0 0 0 0 1.4399135468767508 -1.2703151386638005 0 -1.2703151386638005 1.5674899664085444 0 0 0 0 71.746123560497836 28.356872634158208 0 28.356872634158208 -2.5427664391354483 0 0 0 0 63.486494377392773 114.81868056447274 0 114.81868056447274 326.14556800722494 0 0 0 0 82.883728513345091 -124.0900907209359 0 -124.0900907209359 -215.67210638379765 0 0 0 0 -156.60583678341345 -107.03609622215663 0 -107.03609622215663 3.7309326878603315 0 0 0 0 -51.877827093576343 -46.432706793286343 0 -46.432706793286343 21.303312783507863 0 0 0 0 51.345701331030796 -305.91851136346804 0 -305.91851136346804 320.01452440566027 0 0 0 0 12.256483521239716 20.989947131801273 0 20.989947131801273 149.86627859372311 0 0 0 0 -0.53596253656959902 -2.2520845592409184 0 -2.2520845592409184 7.8563467081321789 0 0 0 0 643.51876554776754 -535.75520758839184 0 -535.75520758839184 298.37363758347419 0 0 0 0 77.746400367761453 -157.5025853272532 0 -157.5025853272532 174.50251198026854 0 0 0 0 197.84357715372244 -128.53397361165844 0 -128.53397361165844 169.39028399032122 0 0 0 0 -10.643971838140715 -136.35066539903119 0 -136.35066539903119 236.32137031753609 0 0 0 0 -191.55729241005611 -70.816288516022723 0 -70.816288516022723 223.15932371282611 0 0 0 0 -78.077106559299864 -71.529747904935448 0 -71.529747904935448 178.98166661194284 0 0 0 0 -63.949422956293347 52.007583439939481 0 52.007583439939481 200.42664364589473 0 0 0 0 -61.870652105564659 -30.855935927221708 0 -30.855935927221708 136.06243213633843 0 0 0 0 -7.8096059306503918 5.2224039570967022 0 5.2224039570967022 24.81076048651272 0 0 0 0 -141.12947947443172 -73.529335357847231 0 -73.529335357847231 82.320588192927971 0 0 0 0 -143.1306022566605 26.416558469174561 0 26.416558469174561 93.444057197607435 0 0 0 0 -9.110031450385577 -4.5514398622144654 0 -4.5514398622144654 96.334767826542702 0 0 0 0 -21.479592796268395 -2.089212896615475 0 -2.089212896615475 74.719915180397152 0 0 0 0 -153.10385735350064 -60.391497014911465 0 -60.391497014911465 191.13626787868998 0 0 0 0 -150.34460048628898 36.758977951358247 0 36.758977951358247 192.7777639206364 0 0 0 0 -344.58666652059037 261.31821495608438 0 261.31821495608438 -65.038047570757044 0 0 0 0 3.0042797448450074 -249.08416683428413 0 -249.08416683428413 -114.3830006969074 0 0 0 0 -48.118406561192387 -284.45328009356672 0 -284.45328009356672 -33.255995836490911 0 0 0 0 -5.0683838662782321 -1.3095216258924722 0 -1.3095216258924722 0.98178891531916079 0 0 0 0 -16.05724660514948 13.239927899622327 0 13.239927899622327 125.2653835016052 0 0 0 0 -68.794903994602009 64.772799675060924 0 64.772799675060924 120.70447689204593 0 0 0 0 -173.66645693172177 -31.295084994676472 0 -31.295084994676472 212.05184291872592 0 0 0 0 -9.4622945470266089 -15.203409744076311 0 -15.203409744076311 31.862555412367087 0 0 0 0 -76.038138572863318 34.781958962728822 0 34.781958962728822 130.37052235857846 0 0 0 0 -595.19890257567022 -58.892037002737197 0 -58.892037002737197 215.84878652950101 0 0 0 0 -51.679485551609105 -60.434954811536954 0 -60.434954811536954 -111.68784029844954 0 0 0 0 80.10461960475368 368.22706392124019 0 368.22706392124019 420.05238193424793 0 0 0 0 -33.654747321273135 426.58177669256202 0 426.58177669256202 -4.9867535040575603 0 0 0 0 127.98158572121247 167.98898252508843 0 167.98898252508843 396.74757165043047 0 0 0 0 25.183686099109764 -258.38181924752098 0 -258.38181924752098 -25.857341199374787 0 0 0 0 -504.96928944209139 -48.498367489432894 0 -48.498367489432894 372.01569783998752 0 0 0 0 421.27441877585625 77.911019376061631 0 77.911019376061631 215.91169896805877 0 0 0 0 441.07072646439883 -236.93518794936517 0 -236.93518794936517 504.9369264345296 0 0 0 0 84.957506742971418 -47.54029472587672 0 -47.54029472587672 693.44530126080826 0 0 0 0 48.042057028744239 194.72531769769648 0 194.72531769769648 447.76055957973404 0 0 0 0 133.71294033689992 183.57446606690064 0 183.57446606690064 380.37103109943928 0 0 0 0 -16.849440253870853 154.56495415019708 0 154.56495415019708 -96.676820427761413 0 0 0 0 -1.3456407421191905 0.56961409956259956 0 0.56961409956259956 1.1722452065651154 0 0 0 0 -195.76222164489991 -54.060054058856622 0 -54.060054058856622 237.78488775791266 0 0 0 0 -57.718776888086722 7.8608932950228336 0 7.8608932950228336 47.426387509010965 0 0 0 0 -21.959565337142532 -4.6725045114860393 0 -4.6725045114860393 2.6297066506840991 0 0 0 0 -71.052054244853935 -7.3232701851802631 0 -7.3232701851802631 43.376788041347027 0 0 0 0 -4.6836228897703451 21.676256242583701 0 21.676256242583701 25.761643919710451 0 0 0 0 -114.59864254862259 225.74020927680158 0 225.74020927680158 56.288212769883103 0 0 0 0 100.87092656370623 125.15765604080934 0 125.15765604080934 -45.950033782193714 0 0 0 0 -305.64221877236378 80.736026475652579 0 80.736026475652579 115.53275421564285 0 0 0 0 -138.51194603931071 157.86407447444162 0 157.86407447444162 820.42167228270227 0 0 0 0 6.0041557883467291 6.6747935935332823 0 6.6747935935332823 3.386881085183294 0 0 0 0 -10.658056685322663 -342.92758152108217 0 -342.92758152108217 24.431173933504397 0 0 0 0 161.40669049666394 306.25817553440902 0 306.25817553440902 458.84412159710155 0 0 0 0 -803.1047967607883 378.02013163143783 0 378.02013163143783 1222.0006554047322 0 0 0 0 268.18152087728959 -224.18900599004792 0 -224.18900599004792 -398.16349058131527 0 0 0 0 -116.7164347351586 83.675054035052199 0 83.675054035052199 123.7247510756788 0 0 0 0 -11.107257370040708 14.268044657039136 0 14.268044657039136 128.87507292906724 0 0 0 0 -53.643164879572396 68.449245328971301 0 68.449245328971301 98.295250973633301 0 0 0 0 -93.549031630504942 27.855763892020605 0 27.855763892020605 126.88081314176816 0 0 0 0 -8.6123033986756745 18.624710772405717 0 18.624710772405717 1.5817234189409533 0 0 0 0 -10.933137399099705 10.817168173586682 0 10.817168173586682 124.24657611108032 0 0 0 0 -132.97245707214461 81.997262219806544 0 81.997262219806544 126.0332608767385 0 0 0 0 -52.164341136285657 347.89414146774834 0 347.89414146774834 -413.17103721000956 0 0 0 0 -131.2977993180557 28.36655762074588 0 28.36655762074588 101.30343062893735 0 0 0 0 -263.76680447195668 64.481198127290554 0 64.481198127290554 127.18595506554993 0 0 0 0 -9.2861976055595807 15.467709434238225 0 15.467709434238225 45.632515088653307 0 0 0 0 42.772382034278962 48.351458403882134 0 48.351458403882134 85.551408224240731 0 0 0 0 -78.392934331405286 101.60037485189787 0 101.60037485189787 131.25916002740269 0 0 0 0 -26.183237640934749 -29.958103679966371 0 -29.958103679966371 67.234486022593046 0 0 0 0 68.799345144014751 107.96080795191938 0 107.96080795191938 246.98513486764205 0 0 0 0 -100.67823914258406 20.169737733907823 0 20.169737733907823 145.66273042808825 0 0 0 0 -52.559350065223043 23.345492925629515 0 23.345492925629515 3.8311449886432456 0 0 0 0 -132.27929646907751 94.437778558657556 0 94.437778558657556 27.587566001522646 0 0 0 0 -244.6131180334105 65.944272959648515 0 65.944272959648515 131.30941308297406 0 0 0 0 -15.387656522908499 -5.4697403422380013 0 -5.4697403422380013 76.753999220387271 0 0 0 0 -75.511321999934808 56.75249459575366 0 56.75249459575366 26.67808734105347 0 0 0 0 -5.8313033112411041 28.768740941344205 0 28.768740941344205 39.940903261954873 0 0 0 0 -86.42490922755087 34.707616133287047 0 34.707616133287047 40.600129067770467 0 0 0 0 -106.77445787203487 17.927166936719914 0 17.927166936719914 76.018613156884385 0 0 0 0 -78.752160793711937 11.007812621107405 0 11.007812621107405 71.724724107942166 0 0 0 0 -71.945137319994956 7.1652323336184054 0 7.1652323336184054 71.645471309624554 0 0 0 0 -52.715205298325259 -0.79470397637055612 0 -0.79470397637055612 52.374074130151712 0 0 0 0 -52.134619651978625 11.05630539995758 0 11.05630539995758 8.6079232020274503 0 0 0 0 -52.977775055518578 -23.142484648059508 0 -23.142484648059508 27.356376734655896 0 0 0 0 -24.541273649897903 125.52512139872397 0 125.52512139872397 1.7524964722033474 0 0 0 0 -9.4369983006800506 0.023458117450687155 0 0.023458117450687155 68.655450984075344 0 0 0 0 -149.83421735062984 73.539532959987355 0 73.539532959987355 95.951906532369321 0 0 0 0 238.54771442894344 -68.36051083952043 0 -68.36051083952043 155.47594604086771 0 0 0 0 72.891989733759146 -75.744380257587181 0 -75.744380257587181 265.99421598396657 0 0 0 0 12.885550704230809 -44.566284829941651 0 -44.566284829941651 251.14941047958564 0 0 0 0 -0.33917199736079584 -0.82384805122353377 0 -0.82384805122353377 3.1548047835242414 0 0 0 0 -278.27438907610895 201.46152116440589 0 201.46152116440589 430.34376751115269 0 0 0 0 60.266799798830107 -4.7131900320855493 0 -4.7131900320855493 235.12955928712836 0 0 0 0 60.632213364949109 -9.1318594989430721 0 -9.1318594989430721 160.34189980063093 0 0 0 0 27.43417082733049 -15.392629086421039 0 -15.392629086421039 287.42443757260116 0 0 0 0 65.794585346387066 -53.945766489647212 0 -53.945766489647212 192.41874928013567 0 0 0 0 67.206076687497443 -52.666418808006711 0 -52.666418808006711 154.11728260143173 0 0 0 0 59.384079525272682 -42.546653649201289 0 -42.546653649201289 185.27303224436037 0 0 0 0 61.620803997890107 -28.410313278091053 0 -28.410313278091053 179.4962974678856 0 0 0 0 36.012569339825859 6.8233631388739013 0 6.8233631388739013 193.85743766164887 0 0 0 0 -6.5177457450845395 19.717143630270584 0 19.717143630270584 105.84245476842443 0 0 0 0 10.077210006386849 45.59857083150564 0 45.59857083150564 143.51992772803715 0 0 0 0 66.137447493502577 -7.2119505932123502 0 -7.2119505932123502 119.21482606968493 0 0 0 0 91.337915936006539 -13.955275323360183 0 -13.955275323360183 114.20341353539152 0 0 0 0 20.443716193265573 -11.75035866154758 0 -11.75035866154758 144.43325032631037 0 0 0 0 249.36683581674151 -123.85613674372325 0 -123.85613674372325 159.19935511600943 0 0 0 0 109.36879156543876 -87.136273275966232 0 -87.136273275966232 176.66918323150458 0 0 0 0 4.4409979285346708 -12.600446048900267 0 -12.600446048900267 209.88089873464378 0 0 0 0 27.180414177244529 -58.933802048497455 0 -58.933802048497455 241.86082428572081 0 0 0 0 -50.563880192613397 15.62411938139121 0 15.62411938139121 201.77292094206223 0 0 0 0 24.88270444698361 -20.505728854717347 0 -20.505728854717347 176.92544810798063 0 0 0 0 -44.851888211531673 46.163904724986423 0 46.163904724986423 166.51678279904809 0 0 0 0 8.8310150341108056 22.323429267907613 0 22.323429267907613 145.19904749230045 0 0 0 0 87.330805925013919 -52.528381174826791 0 -52.528381174826791 167.38808155609149 0 0 0 0 -1.4810160784281834 -4.137700507624686 0 -4.137700507624686 168.92387710838739 0 0 0 0 14.76610354686818 18.698851721996107 0 18.698851721996107 132.45442732154333 0 0 0 0 -43.493076187726729 88.423566961793767 0 88.423566961793767 106.59190735646189 0 0 0 0 -113.0667377766265 29.301343908172385 0 29.301343908172385 223.9072035771278 0 0 0 0 1.4565074832726168 -14.771453506456965 0 -14.771453506456965 211.29036990461827 0 0 0 0 57.514641611129264 75.885348304162108 0 75.885348304162108 36.379881459211902 0 0 0 0 176.26905026454324 175.56033134947484 0 175.56033134947484 266.54703092342424 0 0 0 0 64.99818887787842 31.569056993801496 0 31.569056993801496 80.389580767998268 0 0 0 0 30.067929722125882 -86.389358166996317 0 -86.389358166996317 418.10368200728044 0 0 0 0 -27.709630098842354 -281.17979715958427 0 -281.17979715958427 34.341500860537053 0 0 0 0 0.0096358264266847016 -0.88814569788997488 0 -0.88814569788997488 4.5404669279575529 0 0 0 0 -45.002123282041794 100.84495080141278 0 100.84495080141278 -99.608270489392453 0 0 0 0 -21.743645047736209 33.946733468948878 0 33.946733468948878 42.98303005233538 0 0 0 0 -37.692096703493917 151.61972730248272 0 151.61972730248272 113.56272915138106 0 0 0 0 -17.579182279092493 6.1070241579072899 0 6.1070241579072899 235.9815871460803 0 0 0 0 -106.22143077851888 128.71436963010092 0 128.71436963010092 232.60767125146958 0 0 0 0 9.3052061503758523 273.53289276709438 0 273.53289276709438 7.176095721859781 0 0 0 0 200.99047443458221 -285.1819252891346 0 -285.1819252891346 21.619676618076483 0 0 0 0 0.1722224319097343 -2.7240510096877344 0 -2.7240510096877344 10.069551591985388 0 0 0 0 191.92366632177254 56.983448279026561 0 56.983448279026561 23.446528911284986 0 0 0 0 58.123239233025743 93.058011162265757 0 93.058011162265757 71.277313654383306 0 0 0 0 -360.04780859482435 -177.85063779754546 0 -177.85063779754546 137.80837800151494 0 0 0 0 27.226082737898196 -15.090376978600034 0 -15.090376978600034 73.335226570423401 0 0 0 0 -87.9149630597949 92.450676938942706 0 92.450676938942706 93.00702012569127 0 0 0 0 -29.150983950704358 61.918732532372815 0 61.918732532372815 29.814975152512488 0 0 0 0 83.389147338596558 -85.701276669209619 0 -85.701276669209619 134.11672786121198 0 0 0 0 -232.39096769420212 77.098442796836025 0 77.098442796836025 268.42104033255237 0 0 0 0 -73.903768759072591 163.91636632842165 0 163.91636632842165 -37.682388560373511 0 0 0 0 -58.425462313054595 61.918440502442536 0 61.918440502442536 65.145104512903345 0 0 0 0 -49.031464474480345 48.541019439693628 0 48.541019439693628 9.2202219811080113 0 0 0 0 -59.047764619292138 62.264974201868426 0 62.264974201868426 67.066757933993358 0 0 0 0 -0.18723795723535908 0.058591728456727665 0 0.058591728456727665 -1.1782806114530615 0 0 0 0 63.104459488180055 87.333313073124373 0 87.333313073124373 99.096674330685346 0 0 0 0 -155.0332319031595 -47.283445404086706 0 -47.283445404086706 20.166130401110422 0 0 0 0 -161.73806885178669 -26.858842528799414 0 -26.858842528799414 166.83613904939557 0 0 0 0 -422.62378049645758 38.512207621498419 0 38.512207621498419 275.37382939497365 0 0 0 0 -6.9361234010153741 5.6970237371877008 0 5.6970237371877008 129.41500881259287 0 0 0 0 -123.4329458275879 -54.591220040784719 0 -54.591220040784719 165.51776050485023 0 0 0 0 -26.924731824999071 -9.7641438309892692 0 -9.7641438309892692 128.44855023417767 0 0 0 0 -111.2921774620645 -0.98275692622337374 0 -0.98275692622337374 127.54714428173975 0 0 0 0 -124.2077338037966 19.245750962867533 0 19.245750962867533 116.33858211937695 0 0 0 0 -76.6461876136309 -3.029936166934931 0 -3.029936166934931 106.95261230959659 0 0 0 0 -60.585156027461835 22.612884326955282 0 22.612884326955282 104.45411632342439 0 0 0 0 -89.092275076307487 1.2471193055234835 0 1.2471193055234835 92.907503279806406 0 0 0 0 -93.666946774405005 10.066471966047175 0 10.066471966047175 79.912245962070301 0 0 0 0 -102.51405413151542 14.787934815303743 0 14.787934815303743 99.716078163735801 0 0 0 0 -103.26664408665056 13.226507306841086 0 13.226507306841086 99.16853193174029 0 0 0 0 130.8209498903434 137.66483887258619 0 137.66483887258619 4.5914521132744994 0 0 0 0 -168.42765646336829 -1.0615020536879456 0 -1.0615020536879456 133.42689038548269 0 0 0 0 -131.44452074902074 39.040761335018033 0 39.040761335018033 87.869506834122149 0 0 0 0 -17.091871863514903 -17.221263065674837 0 -17.221263065674837 17.30991763241579 0 0 0 0 -305.9034446655894 -45.354770431973179 0 -45.354770431973179 194.5055223065574 0 0 0 0 41.945914594718488 -124.06279064962291 0 -124.06279064962291 -58.120763740851544 0 0 0 0 0.36272561318805385 -1.492926751421999 0 -1.492926751421999 26.369193151623776 0 0 0 0 -39.306051298140119 -248.74196551172099 0 -248.74196551172099 324.74466218578482 0 0 0 0 -32.781032421690725 -236.67300688376417 0 -236.67300688376417 234.39421746821608 0 0 0 0 -13.872328496913724 -104.03552830292574 0 -104.03552830292574 137.60147178103034 0 0 0 0 417.04369929364111 629.44346658999223 0 629.44346658999223 166.72294702105137 0 0 0 0 0.057079614028609171 1.4761304116841618 0 1.4761304116841618 9.1119802864943864 0 0 0 0 -26.643930678072138 -89.702792781181415 0 -89.702792781181415 876.44597286518547 0 0 0 0 93.643121624360901 -293.67599363747286 0 -293.67599363747286 214.11020020059732 0 0 0 0 399.19388297800469 -741.68845153090979 0 -741.68845153090979 266.05284909227703 0 0 0 0 23.566631131430768 -34.518161467532991 0 -34.518161467532991 53.403113751359342 0 0 0 0 566.94913886634811 303.14177066059915 0 303.14177066059915 255.60443328840483 0 0 0 0 -23.876305414170929 26.674120232879432 0 26.674120232879432 355.79896257945802 0 0 0 0 63.076347549553248 171.01310914767055 0 171.01310914767055 56.402338899079041 0 0 0 0 2.1354988849307119 38.74461622500894 0 38.74461622500894 -64.633639456100354 0 0 0 0 24.081757392961663 105.49703902166584 0 105.49703902166584 136.79037618357688 0 0 0 0 127.27882890008232 -32.720363213089513 0 -32.720363213089513 -91.154595029151096 0 0 0 0 -86.791288153615369 20.645942737575865 0 20.645942737575865 204.23515132424654 0 0 0 0 -2.9979539117958396 8.9719105290150338 0 8.9719105290150338 28.129696835842871 0 0 0 0 -480.79595003065424 -344.5659995463393 0 -344.5659995463393 284.39174299223669 0 0 0 0 -2.6817373300599714 -3.3804655935851411 0 -3.3804655935851411 131.60709191088662 0 0 0 0 -44.685237993201099 118.83585825428781 0 118.83585825428781 407.5200767502829 0 0 0 0 2.5553389295250781 74.081778747021417 0 74.081778747021417 111.72887334084089 0 0 0 0 1.1117918815935131 0.20313325365258095 0 0.20313325365258095 -0.22304922761556156 0 0 0 0 -108.49430270452285 -140.16826276587017 0 -140.16826276587017 17.166676295637217 0 0 0 0 -73.10974972826034 -27.563063543243516 0 -27.563063543243516 125.53796284744203 0 0 0 0 12.152642588776871 -15.094393850677989 0 -15.094393850677989 24.384053138273714 0 0 0 0 -33.345919823867007 58.41472135073036 0 58.41472135073036 236.46100116795697 0 0 0 0 -11.483239421031225 0.53554779704256461 0 0.53554779704256461 -0.52295588716500063 0 0 0 0 7.3974014172608804 74.245339901303851 0 74.245339901303851 120.19759132441595 0 0 0 0 36.95358198385884 53.84120027865356 0 53.84120027865356 154.26671942477697 0 0 0 0 -49.375593429363562 69.33636410469262 0 69.33636410469262 154.95704543081411 0 0 0 0 -22.624045229779767 40.26094881973404 0 40.26094881973404 161.96142561535453 0 0 0 0 -12.770231639427948 55.878023221833246 0 55.878023221833246 147.81192651301535 0 0 0 0 -91.853118868759339 -25.887568624619234 0 -25.887568624619234 190.8522821265251 0 0 0 0 -48.554594704137344 27.300631042680834 0 27.300631042680834 227.42564258300627 0 0 0 0 -33.198392706357481 33.439019719109638 0 33.439019719109638 128.53521353925316 0 0 0 0 -59.259677734967227 21.988365287935267 0 21.988365287935267 138.9138934635339 0 0 0 0 -59.507293567781744 57.561882466765383 0 57.561882466765383 152.14411909527939 0 0 0 0 -60.80035485957751 59.487350660596348 0 59.487350660596348 160.05926726173857 0 0 0 0 -80.131311272933999 73.02822098747356 0 73.02822098747356 164.05697070306451 0 0 0 0 -94.17301444673285 30.793294184045408 0 30.793294184045408 147.22985596480976 0 0 0 0 -80.84346411527531 41.632526203151428 0 41.632526203151428 155.28750849862786 0 0 0 0 -69.835307679474681 13.712125819560242 0 13.712125819560242 114.12909740552732 0 0 0 0 -70.034748573960314 20.405382962613658 0 20.405382962613658 128.27759777191841 0 0 0 0 -74.89006000077552 -0.77709212201079936 0 -0.77709212201079936 96.287721253735981 0 0 0 0 -63.267055848491054 16.976813862786457 0 16.976813862786457 111.45418390216582 0 0 0 0 -101.85884658618852 120.67548953530331 0 120.67548953530331 216.94635707762609 0 0 0 0 -132.23521722957503 56.291025307083146 0 56.291025307083146 180.28771722938473 0 0 0 0 -68.003166872741531 94.503715925688994 0 94.503715925688994 192.70851862825339 0 0 0 0 -64.079862905948175 99.181404167762594 0 99.181404167762594 184.38484940415947 0 0 0 0 -66.190564308151806 95.956580480262346 0 95.956580480262346 179.72346343149911 0 0 0 0 -19.049310848129608 79.600906119038882 0 79.600906119038882 183.91665576767264 0 0 0 0 -91.658801168898663 -26.103816986603761 0 -26.103816986603761 94.994785467271868 0 0 0 0 -157.37060201672284 99.834999986574985 0 99.834999986574985 181.17880971894374 0 0 0 0 -41.4716084136885 128.26951164142793 0 128.26951164142793 158.45541664756274 0 0 0 0 92.901775355458085 -64.702735016373481 0 -64.702735016373481 -39.294434836209348 0 0 0 0 -4.1012602648843064 -0.38302710949885821 0 -0.38302710949885821 1.0100208027903221 0 0 0 0 -192.58746599382721 218.69833914822539 0 218.69833914822539 302.73737726530089 0 0 0 0 138.51365958743554 19.523529896325272 0 19.523529896325272 0.59376698641608527 0 0 0 0 168.36934932641543 124.83685347608389 0 124.83685347608389 71.283116005906777 0 0 0 0 -8.7583855536286137 -10.359118013479019 0 -10.359118013479019 120.81235708567328 0 0 0 0 -1.0403502640977074 -0.12525960884616438 0 -0.12525960884616438 -0.19983715815595104 0 0 0 0 -81.963061405785993 13.610999980708584 0 13.610999980708584 127.97439405041405 0 0 0 0 1.3992917006235075 -10.042762635574036 0 -10.042762635574036 11.045115417829038 0 0 0 0 -15.294320107608655 68.43643972053178 0 68.43643972053178 121.51863787641923 0 0 0 0 -60.904297699518793 2.3180479406000813 0 2.3180479406000813 134.02930690720314 0 0 0 0 115.7918494370997 151.64261623116136 0 151.64261623116136 143.61051383829181 0 0 0 0 67.375207844528632 117.49296536598195 0 117.49296536598195 129.13147110571936 0 0 0 0 95.193255786684858 97.876263732038751 0 97.876263732038751 137.4497214048497 0 0 0 0 72.220075080764218 63.149439986524158 0 63.149439986524158 85.769662287972096 0 0 0 0 61.50056510660761 59.532739080417741 0 59.532739080417741 134.55145024441481 0 0 0 0 -6.7175811697470991 -0.76231838000471441 0 -0.76231838000471441 16.653246409417765 0 0 0 0 -9.188164625448735 1.4437369044972002 0 1.4437369044972002 44.955457327505428 0 0 0 0 -7.5995758457465854 5.1576485572059028 0 5.1576485572059028 43.061631414078875 0 0 0 0 15.502404633461992 -27.549577164239963 0 -27.549577164239963 58.600147308428859 0 0 0 0 -6.3425348588613133 -5.3708171638652047 0 -5.3708171638652047 24.477881225957184 0 0 0 0 -21.79452494472207 -26.616182053674493 0 -26.616182053674493 65.829857803069899 0 0 0 0 8.1322828726370062 36.955335546892456 0 36.955335546892456 42.67757934707879 0 0 0 0 73.831000359270547 29.954973390942541 0 29.954973390942541 38.348271437569565 0 0 0 0 26.496348252257121 50.302129809294456 0 50.302129809294456 131.61904516212599 0 0 0 0 1.3169669624985545 35.13836321191593 0 35.13836321191593 69.767030542401471 0 0 0 0 115.13433597412586 8.5194557210761559 0 8.5194557210761559 26.160572953462179 0 0 0 0 5.0005662808838167 -2.0579341012832586 0 -2.0579341012832586 8.6780849069623258 0 0 0 0 -8.3865907450090162 -11.28671143700376 0 -11.28671143700376 30.236157184113836 0 0 0 0 -5.2139185965611787 -3.8008863442055869 0 -3.8008863442055869 25.627525070436285 0 0 0 0 167.24293892649621 90.70569047639583 0 90.70569047639583 52.20244748155892 0 0 0 0 5.6517287055287122 -4.7807145093988428 0 -4.7807145093988428 4.0413695628869419 0 0 0 0 204.85301485066611 131.7772677679086 0 131.7772677679086 122.98207089615971 0 0 0 0 -128.73929179369588 -92.587478989407828 0 -92.587478989407828 -17.502468589831551 0 0 0 0 111.16853171099865 53.564480906015888 0 53.564480906015888 107.24562064916609 0 0 0 0 75.195187446424825 69.264044421553081 0 69.264044421553081 250.56460788116783 0 0 0 0 123.71001824353107 114.23370064960432 0 114.23370064960432 142.48384143463409 0 0 0 0 48.620028638295025 111.07266448940868 0 111.07266448940868 310.19688477143791 0 0 0 0 52.338082412563381 -44.398947242902068 0 -44.398947242902068 432.74046898678807 0 0 0 0 55.207567772115908 70.809060720666139 0 70.809060720666139 546.47230016648609 0 0 0 0 144.59506479313586 196.18535014651934 0 196.18535014651934 300.33345588129305 0 0 0 0 8.3285080970072158 46.818783478776822 0 46.818783478776822 139.59803154601468 0 0 0 0 54.14068587453221 55.642796667711082 0 55.642796667711082 173.24131653384848 0 0 0 0 58.595525628257747 87.838189094096379 0 87.838189094096379 169.47960039924874 0 0 0 0 77.907318778052286 96.44865392209249 0 96.44865392209249 179.7848711315728 0 0 0 0 77.063497192248178 73.253909495364496 0 73.253909495364496 146.38806246348486 0 0 0 0 107.9404013618132 4.8312210164840508 0 4.8312210164840508 243.11934013539269 0 0 0 0 47.984468437875876 77.874857418892134 0 77.874857418892134 249.41412272340858 0 0 0 0 -0.56271231488699414 99.589903002941355 0 99.589903002941355 202.28309245714627 0 0 0 0 57.096424995158486 43.740113943855249 0 43.740113943855249 199.28056069919143 0 0 0 0 44.207252666697968 44.50698285229646 0 44.50698285229646 251.80858214136242 0 0 0 0 137.15320587023416 -34.355257041026562 0 -34.355257041026562 198.49008828199112 0 0 0 0 169.35293097329918 -168.04988008689384 0 -168.04988008689384 402.45868571875326 0 0 0 0 45.467472515963891 -13.555854489824014 0 -13.555854489824014 323.84247736174802 0 0 0 0 26.562316453737367 -82.744868515317648 0 -82.744868515317648 475.58914026778712 0 0 0 0 294.25694406366802 -298.60358077796172 0 -298.60358077796172 426.68487296287731 0 0 0 0 -31.166247671935707 -128.55267499162801 0 -128.55267499162801 515.7571747854015 0 0 0 0 54.600890321027691 -34.965715655127497 0 -34.965715655127497 520.00195412493349 0 0 0 0 34.760582374181467 -25.747908449772694 0 -25.747908449772694 523.33732250482899 0 0 0 0 19.492303144445032 -153.01677514543735 0 -153.01677514543735 512.54594397626715 0 0 0 0 14.690663065084209 -118.24398469989137 0 -118.24398469989137 464.0948604988007 0 0 0 0 -20.723196070466656 -130.36404099632091 0 -130.36404099632091 460.20094620108284 0 0 0 0 -13.918048040106441 -103.96882929104322 0 -103.96882929104322 321.3672678316143 0 0 0 0 -133.66508223154597 -116.32191158605565 0 -116.32191158605565 520.00444870077627 0 0 0 0 38.008795569220638 -34.747720935779398 0 -34.747720935779398 536.02857344239237 0 0 0 0 -153.32222749346238 -138.35550028328635 0 -138.35550028328635 332.08209481324593 0 0 0 0 -114.95497805758168 -3.3229884730735648 0 -3.3229884730735648 247.18782191537321 0 0 0 0 0.11148597771428825 -0.69545482703734507 0 -0.69545482703734507 -2.4491058345347625 0 0 0 0 33.386762394922698 -105.68602198821827 0 -105.68602198821827 376.5043702814346 0 0 0 0 8.3889502840162358 -7.0546448550423904 0 -7.0546448550423904 1.0809401133254601 0 0 0 0 14.748750422437297 -68.481856011612763 0 -68.481856011612763 387.77090148452771 0 0 0 0 191.86603105755148 -89.310617704499236 0 -89.310617704499236 -460.99083235781109 0 0 0 0 78.519217131789787 235.06144056231938 0 235.06144056231938 416.9587633211122 0 0 0 0 -99.76997925449632 -160.76302360113277 0 -160.76302360113277 32.513285207769513 0 0 0 0 128.81393778318875 -121.90523345171039 0 -121.90523345171039 46.885219447507552 0 0 0 0 -72.746586498212309 30.051184478036703 0 30.051184478036703 -51.450089008427312 0 0 0 0 221.84930017253828 -139.64721319448108 0 -139.64721319448108 -411.70801881901662 0 0 0 0 10.975785800287667 -165.25354040967977 0 -165.25354040967977 869.16689911355934 0 0 0 0 3.8217987332660996 -2.0177127521127289 0 -2.0177127521127289 0.50874828412173301 0 0 0 0 8.8078956946887956 160.38807125896619 0 160.38807125896619 71.175951967839865 0 0 0 0 12.737258527438826 -252.48434174515023 0 -252.48434174515023 203.45040683788829 0 0 0 0 271.22414988627838 -322.9494259097296 0 -322.9494259097296 222.5320361779668 0 0 0 0 -125.58530151619379 -294.62165164059934 0 -294.62165164059934 330.28540741901634 0 0 0 0 -26.370147257737699 -190.90302875302314 0 -190.90302875302314 208.42436366286256 0 0 0 0 -302.69270132445308 155.89280304434033 0 155.89280304434033 -101.18703013741106 0 0 0 0 74.932989654564608 -141.36604296284713 0 -141.36604296284713 231.37301469686281 0 0 0 0 -26.933212262695633 -281.04095121191313 0 -281.04095121191313 470.43775283157174 0 0 0 0 -145.60679910184081 29.664464081619371 0 29.664464081619371 181.88109808157458 0 0 0 0 201.19570123575068 -85.751015089834254 0 -85.751015089834254 165.57896450177941 0 0 0 0 -117.22233109655099 37.637112730963054 0 37.637112730963054 218.91897867211992 0 0 0 0 55.450889543919402 41.032400156866061 0 41.032400156866061 206.59656587110658 0 0 0 0 -10.056469134111534 -4.0339152959305586 0 -4.0339152959305586 -1.9608165867684271 0 0 0 0 -20.639258268192862 -4.4147414457402192 0 -4.4147414457402192 27.990635532518354 0 0 0 0 14.538044484811508 106.63424252317145 0 106.63424252317145 -255.7402616112031 0 0 0 0 -23.764888898224854 -31.877968782455355 0 -31.877968782455355 76.38679520189271 0 0 0 0 -19.323136344999511 -7.9145662045948484 0 -7.9145662045948484 46.176007247084272 0 0 0 0 -15.440306741750874 -92.099118494505348 0 -92.099118494505348 5.4226417660029256 0 0 0 0 -44.16794681186218 -11.279843030386701 0 -11.279843030386701 49.722895389473706 0 0 0 0 -48.266476438504469 12.560933776479942 0 12.560933776479942 35.997376334029468 0 0 0 0 -87.185264745105997 -25.094546502151388 0 -25.094546502151388 74.183541067661281 0 0 0 0 -96.831623049596146 -4.6423553293484474 0 -4.6423553293484474 167.53615356524824 0 0 0 0 -250.28565207439806 -104.84520836370848 0 -104.84520836370848 102.24386749575933 0 0 0 0 -240.96222839895927 122.91731627152785 0 122.91731627152785 217.88223931068478 0 0 0 0 9.255504349187504 118.96777664303545 0 118.96777664303545 177.20627122051519 0 0 0 0 211.43864027938935 41.135707475992263 0 41.135707475992263 -67.021472373940924 0 0 0 0 -3.3898256163137539 -1.0940294382334059 0 -1.0940294382334059 -0.45019527510874724 0 0 0 0 -0.82636940243028789 0.58609141214765259 0 0.58609141214765259 -34.364753014742746 0 0 0 0 -0.91386917905388287 -6.4455169892753474 0 -6.4455169892753474 12.323265547889605 0 0 0 0 0.37335387187970259 -1.2890602463423306 0 -1.2890602463423306 1.569591151351716 0 0 0 0 13.527203407497392 9.6355773361574393 0 9.6355773361574393 -92.300144104476203 0 0 0 0 -9.2896489982446759 -18.662998339597834 0 -18.662998339597834 5.1642782550034099 0 0 0 0 2.3332644019038726 -6.0389275551860919 0 -6.0389275551860919 5.2831093894295691 0 0 0 0 4.8007530739191333 -3.5877131150409696 0 -3.5877131150409696 -0.9572748663922539 0 0 0 0 0.24526750594138338 -1.0620365544539681 0 -1.0620365544539681 2.2494895215657564 0 0 0 0 -1.5799626774444933 -6.2533651959638519 0 -6.2533651959638519 23.154569973718026 0 0 0 0 0.020207707248238702 -3.7444076612555364 0 -3.7444076612555364 11.811145205967478 0 0 0 0 3.3741992661443341 6.9485647395194974 0 6.9485647395194974 -2.2481764475160162 0 0 0 0 4.3043014601281815 -8.632062434542604 0 -8.632062434542604 8.2170978445792571 0 0 0 0 -5.6037565099114133 3.0149437440743441 0 3.0149437440743441 8.8602321397903836 0 0 0 0 21.061502064203523 -17.789876016271592 0 -17.789876016271592 35.940086126429378 0 0 0 0 14.21320079457837 -3.8008087058260571 0 -3.8008087058260571 10.642858130624518 0 0 0 0 -12.95742192214334 -26.867975281038525 0 -26.867975281038525 53.242328001462738 0 0 0 0 9.434663515653483 -19.029295593885763 0 -19.029295593885763 25.569453230363251 0 0 0 0 -6.6619125826871368 -17.951069194372394 0 -17.951069194372394 9.0557628725218819 0 0 0 0 -6.5344608419269612 3.9992312918683126 0 3.9992312918683126 6.9559552974602354 0 0 0 0 -0.47261767630962215 -1.3253761988318473 0 -1.3253761988318473 0.94429333125818715 0 0 0 0 18.191107236569337 -21.261518761763 0 -21.261518761763 22.70561274044303 0 0 0 0 6.0743167802509035 -8.9645955293259334 0 -8.9645955293259334 2.5642969757327592 0 0 0 0 -3.1902341822914195 -14.839679055912711 0 -14.839679055912711 46.446210513851838 0 0 0 0 -8.6895034065528307 -15.301089793669234 0 -15.301089793669234 30.230534648420871 0 0 0 0 -6.1028293157252893 -10.05213096243078 0 -10.05213096243078 22.898328137906816 0 0 0 0 26.244566795707385 -53.427694815058203 0 -53.427694815058203 -18.082069936062908 0 0 0 0 14.633309274246812 -57.64246612295392 0 -57.64246612295392 1.6716923536587274 0 0 0 0 4.886148254938746 -6.445212416103459 0 -6.445212416103459 13.636676028429065 0 0 0 0 -44.570987005201232 -27.026368323466158 0 -27.026368323466158 5.7984565207298147 0 0 0 0 -3.4558754498437771 -2.5569642873828116 0 -2.5569642873828116 5.7124367870501374 0 0 0 0 12.223993970699212 -14.986572553723818 0 -14.986572553723818 -15.782752122440797 0 0 0 0 6.2184638650742103 -7.2005042042883645 0 -7.2005042042883645 -0.64431020419506524 0 0 0 0 4.0901080893535209 -22.519921478837205 0 -22.519921478837205 31.25419214599242 0 0 0 0 4.2013470677925433 -19.590655172780316 0 -19.590655172780316 -14.863384946642327 0 0 0 0 29.133407995712929 -34.035038488713326 0 -34.035038488713326 -26.695830206386745 0 0 0 0 25.261860866878976 -33.786626463857829 0 -33.786626463857829 -26.196725045039784 0 0 0 0 25.935385294599428 -35.939356761831732 0 -35.939356761831732 -25.668372046326112 0 0 0 0 18.356093228908776 -40.244862466242921 0 -40.244862466242921 -27.597151944122743 0 0 0 0 25.852200932316293 -37.291269102643128 0 -37.291269102643128 -22.92368242261 0 0 0 0 7.4042451914305047 -79.582205533792148 0 -79.582205533792148 -19.319501212637988 0 0 0 0 2.4382353673660102 -3.5736519215761007 0 -3.5736519215761007 2.2061190345131934 0 0 0 0 19.898456927229972 -13.155416546549532 0 -13.155416546549532 -10.449413762136828 0 0 0 0 25.851114120696366 -42.734377520988346 0 -42.734377520988346 -55.729250233780476 0 0 0 0 -15.155731583778163 -66.069637103977584 0 -66.069637103977584 -21.931944690819364 0 0 0 0 -10.717201745343004 -56.396825849224115 0 -56.396825849224115 -47.824312840995844 0 0 0 0 0.5306201561789341 -0.044405603269240146 0 -0.044405603269240146 -0.22911799210058348 0 0 0 0 16.149108664156756 -61.779780983612 0 -61.779780983612 -2.7588549491429148 0 0 0 0 9.6916302207766876 -53.490546246481244 0 -53.490546246481244 -72.436259648762643 0 0 0 0 34.849196823266539 -26.075211041097646 0 -26.075211041097646 -42.978666908788909 0 0 0 0 15.043884832214758 -24.599404319589667 0 -24.599404319589667 41.519921593979234 0 0 0 0 20.062380638259356 -52.350465462026477 0 -52.350465462026477 45.511723444952622 0 0 0 0 34.974379236302639 -2.7720845312651363 0 -2.7720845312651363 -12.129003539444966 0 0 0 0 2.9717398300432123 -33.568952971279941 0 -33.568952971279941 25.669534015338286 0 0 0 0 24.592941933177471 -33.985468684910302 0 -33.985468684910302 -17.276283394792699 0 0 0 0 23.583621168413231 -21.382612768080435 0 -21.382612768080435 -18.268478230033907 0 0 0 0 20.452718979013056 -33.240156984629721 0 -33.240156984629721 -43.072266622577445 0 0 0 0 -12.938977709038365 -42.704183163095877 0 -42.704183163095877 -30.177912277547875 0 0 0 0 -0.055693540634473397 -16.199066476874577 0 -16.199066476874577 -88.876935620035511 0 0 0 0 10.672468508352139 -38.619067830368294 0 -38.619067830368294 -81.137769834353094 0 0 0 0 9.1265054395268628 -17.058169985270069 0 -17.058169985270069 -33.81505604260019 0 0 0 0 4.4876335098889086 -42.131153056543553 0 -42.131153056543553 -9.6453581942951132 0 0 0 0 0.098869386012592986 -42.492074147456151 0 -42.492074147456151 34.859025091725925 0 0 0 0 0.12466248437858571 -21.446635266548583 0 -21.446635266548583 -2.4621178924426204 0 0 0 0 -6.8479722797719518 -35.881090004932048 0 -35.881090004932048 67.640619562684151 0 0 0 0 27.087204151832452 -26.847759512900666 0 -26.847759512900666 27.522306099675916 0 0 0 0 -49.194761503069316 -33.76536201799172 0 -33.76536201799172 206.44314909813693 0 0 0 0 60.631820883033086 76.302127320148429 0 76.302127320148429 234.63265467021847 0 0 0 0 -7.8241988434003975 75.043394821453148 0 75.043394821453148 278.51890993464622 0 0 0 0 0.41927285355416732 0.30100060674766382 0 0.30100060674766382 0.39819960743250249 0 0 0 0 71.71805901671857 27.601377621351276 0 27.601377621351276 90.088505865332991 0 0 0 0 0.032657370669011858 37.102998522943381 0 37.102998522943381 376.96138518377848 0 0 0 0 45.283138768268927 84.616505732046789 0 84.616505732046789 274.746295638437 0 0 0 0 12.582523495856858 64.375827728150398 0 64.375827728150398 378.27326900999469 0 0 0 0 17.760886445646975 135.54919240472373 0 135.54919240472373 439.99811333767138 0 0 0 0 -5.9631903646502309 97.655262004060205 0 97.655262004060205 375.18474092430552 0 0 0 0 11.744604900535037 127.63193187298748 0 127.63193187298748 487.54940516442002 0 0 0 0 35.469050937825429 85.740916399183334 0 85.740916399183334 377.80453014561135 0 0 0 0 48.874749581600682 116.24655878134217 0 116.24655878134217 488.08998141570191 0 0 0 0 -28.545364425495492 114.32246416643466 0 114.32246416643466 654.0601226568433 0 0 0 0 0.038860089984816368 70.111318532947209 0 70.111318532947209 515.20762544454192 0 0 0 0 258.90213477683977 190.99418995407905 0 190.99418995407905 488.91222337759245 0 0 0 0 138.75141728762009 49.531146531523063 0 49.531146531523063 332.44766384267132 0 0 0 0 121.35982767262648 179.04137270293722 0 179.04137270293722 464.0633271659899 0 0 0 0 16.790069986788126 112.83200945895805 0 112.83200945895805 586.54163194874491 0 0 0 0 79.685927645387466 81.066409007233233 0 81.066409007233233 337.87055750282889 0 0 0 0 21.240472439478605 83.249308916143491 0 83.249308916143491 338.8291757943025 0 0 0 0 75.741214958034789 66.613930669416732 0 66.613930669416732 328.29144443025143 0 0 0 0 105.11674875124086 -22.335153688876744 0 -22.335153688876744 1.6294260784343351 0 0 0 0 109.29816549444514 48.260961935309751 0 48.260961935309751 142.33377889040275 0 0 0 0 39.68651939691614 16.311674596974626 0 16.311674596974626 145.14534427077979 0 0 0 0 0.87227672090227371 0.32225029492670387 0 0.32225029492670387 0.14671225874712945 0 0 0 0 86.479664486854048 -17.699508087891445 0 -17.699508087891445 -5.0828451950656017 0 0 0 0 29.111833467382752 39.156606056210876 0 39.156606056210876 -9.8618627846008167 0 0 0 0 13.078723718005676 -47.249081711059262 0 -47.249081711059262 9.3703689096873859 0 0 0 0 54.972434632521313 -35.428191510380202 0 -35.428191510380202 -8.2111990907724248 0 0 0 0 6.0261014410311304 -27.846969038531824 0 -27.846969038531824 -26.310572348767892 0 0 0 0 -118.03416200651793 -115.97522448716336 0 -115.97522448716336 -16.378766332422856 0 0 0 0 145.67135086486678 -63.861142864399881 0 -63.861142864399881 38.5721674821325 0 0 0 0 0.67641382115325976 -2.1442484286935262 0 -2.1442484286935262 4.0388912187959534 0 0 0 0 -246.58194853698501 -44.171671460560901 0 -44.171671460560901 183.90249285384198 0 0 0 0 0.50848318745146392 -0.89128253497912269 0 -0.89128253497912269 1.653001552845609 0 0 0 0 604.93744209517877 -165.30361481249929 0 -165.30361481249929 -2.5518958397442475 0 0 0 0 24.863951220203035 -18.061967487876245 0 -18.061967487876245 -30.100572044228102 0 0 0 0 6.5102307900996266 -27.503885023124894 0 -27.503885023124894 109.32231881633925 0 0 0 0 171.05112888239807 22.647788742127887 0 22.647788742127887 101.24079495093702 0 0 0 0 12.742373458162547 -159.0530601984392 0 -159.0530601984392 234.79256548197009 0 0 0 0 319.47954926656485 -39.364527437755896 0 -39.364527437755896 280.6742936142 0 0 0 0 248.38366702720168 -139.95010482966427 0 -139.95010482966427 281.31014051321836 0 0 0 0 302.8815219189139 -29.634410071164893 0 -29.634410071164893 280.02104941551806 0 0 0 0 210.36528374086186 -61.268873613821142 0 -61.268873613821142 369.00506941509957 0 0 0 0 -66.923611259403515 -100.35906364183393 0 -100.35906364183393 358.77609595437752 0 0 0 0 177.14762624516425 -30.621007851179456 0 -30.621007851179456 148.04067718713486 0 0 0 0 -394.35130336270413 -194.08384503543493 0 -194.08384503543493 251.43796704498527 0 0 0 0 47.624476070026049 -218.96982295259295 0 -218.96982295259295 188.69706717439112 0 0 0 0 -99.398471208022329 -275.62789305973274 0 -275.62789305973274 143.19991381552245 0 0 0 0 -68.612204131103482 -43.494238507466434 0 -43.494238507466434 -236.0954484114045 0 0 0 0 62.527278701244995 -106.64148384541477 0 -106.64148384541477 -63.024824612017255 0 0 0 0 119.93065250665995 -276.47617076984898 0 -276.47617076984898 284.707179242243 0 0 0 0 94.252494406693131 -97.071601790165005 0 -97.071601790165005 19.193812452722341 0 0 0 0 129.45277842848805 -209.29577431771577 0 -209.29577431771577 134.78940190550929 0 0 0 0 -89.501231010817207 -20.945510636939616 0 -20.945510636939616 529.35350643047423 0 0 0 0 -45.966261808334821 -124.50548778864322 0 -124.50548778864322 94.156874538683041 0 0 0 0 80.083774487835399 12.713158695907623 0 12.713158695907623 -99.78363378054928 0 0 0 0 55.633140657362674 -74.604680533648207 0 -74.604680533648207 56.788434305883129 0 0 0 0 -12.504514297644164 -11.764670865995868 0 -11.764670865995868 -0.061625966118299402 0 0 0 0 -5.6728824310450818 -99.184218195384801 0 -99.184218195384801 -65.921186967287213 0 0 0 0 17.805221538199476 2.4900136983414995 0 2.4900136983414995 32.399368550271902 0 0 0 0 18.026320660574278 -7.8454636854052779 0 -7.8454636854052779 3.4263795894838296 0 0 0 0 52.781512334721356 -88.850439329431538 0 -88.850439329431538 98.958952451757796 0 0 0 0 21.532594385855646 -10.501523989845737 0 -10.501523989845737 16.031901635404211 0 0 0 0 11.97355407315149 -74.680956961004995 0 -74.680956961004995 -42.508534954191418 0 0 0 0 37.124767403812257 8.3229808477044571 0 8.3229808477044571 -4.2778414008207619 0 0 0 0 -43.724591010831546 -49.365300521261815 0 -49.365300521261815 -28.002488629848813 0 0 0 0 5.3603576066713883 -4.8290361789714353 0 -4.8290361789714353 3.6913528067763934 0 0 0 0 15.839825194309014 -24.922647401399445 0 -24.922647401399445 28.885694610289647 0 0 0 0 3.0128833272937174 -4.7393684719586844 0 -4.7393684719586844 4.5049757278861193 0 0 0 0 30.362045171301816 -29.261153931554873 0 -29.261153931554873 -75.260550585138844 0 0 0 0 14.00621593079984 2.8902863567418535 0 2.8902863567418535 32.558177026585327 0 0 0 0 -1.9381803375563322 -15.745691032680043 0 -15.745691032680043 6.2691552224932821 0 0 0 0 1.2370275365465204 -14.586907915421762 0 -14.586907915421762 -3.6057992421556264 0 0 0 0 16.276092320666336 -14.922361686422622 0 -14.922361686422622 6.6693189793320187 0 0 0 0 -0.099334181581397729 -16.025362798887116 0 -16.025362798887116 8.2517741748987419 0 0 0 0 18.047665138676557 -24.931482516722099 0 -24.931482516722099 19.153177388049045 0 0 0 0 11.899496999710209 -54.779700202620006 0 -54.779700202620006 42.126734891309752 0 0 0 0 26.082911440039311 -14.311101216622149 0 -14.311101216622149 6.5828484240455936 0 0 0 0 48.150631014176952 -20.532911923197389 0 -20.532911923197389 -12.728797888034023 0 0 0 0 -11.875031881659197 -79.290978252091008 0 -79.290978252091008 39.056200081100542 0 0 0 0 5.3204057449065658 -14.829791966618359 0 -14.829791966618359 15.142743736418197 0 0 0 0 -12.225073168052042 -5.3876220814043734 0 -5.3876220814043734 5.6218299678127437 0 0 0 0 -3.617152376611557 -26.015029280781164 0 -26.015029280781164 30.65522346139187 0 0 0 0 -1.6863923495675408 -12.421826924626657 0 -12.421826924626657 32.017223110262421 0 0 0 0 42.656198518832753 -18.618994218908483 0 -18.618994218908483 7.7258158529439243 0 0 0 0 74.416302897903734 -34.294094084201788 0 -34.294094084201788 -9.5720046783098951 0 0 0 0 3.4313257320603405 -4.5054986021856465 0 -4.5054986021856465 3.0337242215342997 0 0 0 0 4.085663543283772 0.50599971681731404 0 0.50599971681731404 34.38521565584233 0 0 0 0 16.107015993801657 -13.608141702452102 0 -13.608141702452102 10.347542371916589 0 0 0 0 -100.87419509950996 15.381956060708035 0 15.381956060708035 133.94034811039455 0 0 0 0 -14.298996315177646 -22.491689668167965 0 -22.491689668167965 30.128632455500338 0 0 0 0 -129.18452721060385 -205.45919237073394 0 -205.45919237073394 189.32913560455199 0 0 0 0 -9.0504260480147423 -12.413150044623762 0 -12.413150044623762 15.952424752875231 0 0 0 0 1.9748606058661409 -4.6453924872585262 0 -4.6453924872585262 1.9434688150055024 0 0 0 0 18.003888852559612 -16.433614249668608 0 -16.433614249668608 34.046872599239578 0 0 0 0 10.573068071304533 -11.606281177872006 0 -11.606281177872006 12.780514430867697 0 0 0 0 0.080822208987910926 -9.0860649389687751 0 -9.0860649389687751 41.136069973319536 0 0 0 0 -8.7237897877032307 -9.6907830020750225 0 -9.6907830020750225 21.576751908928713 0 0 0 0 -1.2401740445086431 -6.3764509523647206 0 -6.3764509523647206 14.365980082149036 0 0 0 0 1.0664405001525168 -19.504641301254495 0 -19.504641301254495 34.468913590182865 0 0 0 0 1228.3482288993546 137.21305774227949 0 137.21305774227949 -741.64978575473651 0 0 0 0 22.644889095594586 -17.917817391350695 0 -17.917817391350695 11.950006800977967 0 0 0 0 8.0633685870961926 -21.38845864070754 0 -21.38845864070754 34.107943422592143 0 0 0 0 13.823298861800946 -9.0409259368576471 0 -9.0409259368576471 0.45827080091082983 0 0 0 0 49.351527544567944 -22.548281071474776 0 -22.548281071474776 30.043219087361649 0 0 0 0 29.48362609034848 -9.5536976705989218 0 -9.5536976705989218 26.175892814368126 0 0 0 0 0.52767279348510243 -1.7788267407867835 0 -1.7788267407867835 5.4977742039592883 0 0 0 0 -1.4281470441910642 -37.769986041959783 0 -37.769986041959783 47.944464080050238 0 0 0 0 44.779946433614896 -14.992321068537422 0 -14.992321068537422 24.556391250705929 0 0 0 0 44.945707950738893 -29.407518051573334 0 -29.407518051573334 21.920730953279417 0 0 0 0 -12.099073588084593 -15.97299905579348 0 -15.97299905579348 -1.8618185632803943 0 0 0 0 17.984101275860667 -19.098832971307274 0 -19.098832971307274 19.293866022169823 0 0 0 0 -11.383674631636495 -4.4981773220924879 0 -4.4981773220924879 31.836245085287374 0 0 0 0 -51.491760585372504 -16.484947587112401 0 -16.484947587112401 29.282661419485521 0 0 0 0 -50.201608386742009 -22.761634951832093 0 -22.761634951832093 49.418225491870544 0 0 0 0 -5.8010915997115262 -65.745723160038324 0 -65.745723160038324 117.34272270360088 0 0 0 0 29.918837985380378 -25.788929882755838 0 -25.788929882755838 97.232390256700455 0 0 0 0 -2.1300550134871727 3.8766150308118767 0 3.8766150308118767 5.5967551959194282 0 0 0 0 -4.2436622110217286 6.5821737891019438 0 6.5821737891019438 48.962730904506316 0 0 0 0 1.3060825642561014 -8.5092544014284215 0 -8.5092544014284215 1.4774664148108183 0 0 0 0 14.855243191406771 -26.201310609758366 0 -26.201310609758366 19.89517095926567 0 0 0 0 1.9098343737257293 2.4984525213409086 0 2.4984525213409086 -0.095973313729873055 0 0 0 0 45.578198145449278 -62.81317213850707 0 -62.81317213850707 -211.57606892872718 0 0 0 0 -112.06232519143668 -47.855375722971075 0 -47.855375722971075 523.43220514735731 0 0 0 0 60.219278314099483 -24.452427759802958 0 -24.452427759802958 207.44309539420647 0 0 0 0 -1.2878876850163579 -58.775488713974482 0 -58.775488713974482 245.59622795033283 0 0 0 0 6.0528548584821049 1.1288300581486226 0 1.1288300581486226 1.043346879652999 0 0 0 0 49.82500519217939 -95.790128731866389 0 -95.790128731866389 138.35261768310738 0 0 0 0 -23.025385313203515 -37.891790842106275 0 -37.891790842106275 6.7498626300739488 0 0 0 0 -63.100204680255956 -35.19701862995862 0 -35.19701862995862 63.525111697461398 0 0 0 0 370.68253464151167 -152.43803173069318 0 -152.43803173069318 -352.74376578873489 0 0 0 0 -5.1388139678913056 -0.46424963986773093 0 -0.46424963986773093 4.2319347324206689 0 0 0 0 -556.52467925936617 242.62959590605169 0 242.62959590605169 203.24713197223355 0 0 0 0 -116.45218427960435 -183.86169193305977 0 -183.86169193305977 247.26550484358677 0 0 0 0 -10.030249832170284 -71.030966851223639 0 -71.030966851223639 -249.72537274146453 0 0 0 0 -19.901465914304708 -66.638809092270094 0 -66.638809092270094 -195.28818665415747 0 0 0 0 4.6085228738284059 -0.30540184481651522 0 -0.30540184481651522 -315.15628949904931 0 0 0 0 1.3867089191446951 2.3606972473680798 0 2.3606972473680798 -214.1173430645722 0 0 0 0 -21.56659408044294 -62.593512926272524 0 -62.593512926272524 -36.258169117223588 0 0 0 0 -11.717574292784548 -110.03350539882376 0 -110.03350539882376 -118.11629035041915 0 0 0 0 -19.890147171727506 -38.825354861830419 0 -38.825354861830419 42.708133865337004 0 0 0 0 -37.221933101860486 -188.79517373709314 0 -188.79517373709314 118.69515623655752 0 0 0 0 10.17542477096754 -42.455766782318982 0 -42.455766782318982 93.333152739522859 0 0 0 0 -44.625237574179664 -116.6390412768078 0 -116.6390412768078 160.33882902426558 0 0 0 0 -2.5864000262667659 -21.830529583231762 0 -21.830529583231762 28.245981906111595 0 0 0 0 8.5784640743431737 -27.170688090338444 0 -27.170688090338444 118.50297393380606 0 0 0 0 -16.376478153885728 -30.842715724049413 0 -30.842715724049413 119.27650463856116 0 0 0 0 -15.567780591375458 -33.9509160776405 0 -33.9509160776405 0.22812171861869501 0 0 0 0 -34.821062253534137 85.705335696718976 0 85.705335696718976 45.262637925824492 0 0 0 0 -85.44044352272067 -188.07353043919647 0 -188.07353043919647 248.03773631066724 0 0 0 0 -0.88237856298535178 -25.960238444524858 0 -25.960238444524858 127.08532168966863 0 0 0 0 -67.296570933459861 -212.28376357115667 0 -212.28376357115667 140.00293223994231 0 0 0 0 -309.16767216584049 -128.52428653593233 0 -128.52428653593233 211.03743928481708 0 0 0 0 -43.049118678894956 -59.833359209005721 0 -59.833359209005721 70.35154395176869 0 0 0 0 178.75343857300413 -163.00018169288887 0 -163.00018169288887 36.498026797184139 0 0 0 0 225.90182197932245 -316.03212657741096 0 -316.03212657741096 175.27867145756318 0 0 0 0 -14.055646155707567 -11.168672583880159 0 -11.168672583880159 -6.4871899624273226 0 0 0 0 -519.72221150080782 30.803130280983169 0 30.803130280983169 73.595485842910421 0 0 0 0 -58.039735611333981 -470.4157974559821 0 -470.4157974559821 168.19922734770807 0 0 0 0 16.554536410465516 -41.645426574985322 0 -41.645426574985322 -97.00228685818729 0 0 0 0 -63.758839197893167 -131.40433974339612 0 -131.40433974339612 22.016847895545652 0 0 0 0 -22.606423647688644 -121.43247061403235 0 -121.43247061403235 203.00806147142293 0 0 0 0 47.030402406264784 -126.10249740034851 0 -126.10249740034851 21.224020306006423 0 0 0 0 30.605594846832901 -154.05802691247663 0 -154.05802691247663 -38.983000674968935 0 0 0 0 65.876515479875707 -87.162328994258132 0 -87.162328994258132 -30.152160490717506 0 0 0 0 36.446028129823389 -98.822831012876122 0 -98.822831012876122 138.84452859228713 0 0 0 0 78.858827955401921 -209.16689788031726 0 -209.16689788031726 -121.29240011096408 0 0 0 0 193.71068844669753 -81.335314342788479 0 -81.335314342788479 -33.582306776774203 0 0 0 0 262.97073365805454 -6.804041971307015 0 -6.804041971307015 -121.19666302666883 0 0 0 0 6.7600489256816623 -2.3017229951505982 0 -2.3017229951505982 0.90760865374649313 0 0 0 0 401.67323163626224 -208.90552783794556 0 -208.90552783794556 -122.72911021673008 0 0 0 0 -162.10219871322806 678.67543494098209 0 678.67543494098209 25.562430642953132 0 0 0 0 -98.096728741156767 -314.75510728048903 0 -314.75510728048903 158.36926862544351 0 0 0 0 -7.7697285209523663 -6.2462617879045581 0 -6.2462617879045581 1.1603499391800369 0 0 0 0 415.87361554384324 -191.0537111975791 0 -191.0537111975791 80.339016668935074 0 0 0 0 462.08237990874056 -366.91817230567358 0 -366.91817230567358 154.63134405414166 0 0 0 0 246.8151773012969 -189.91714322315602 0 -189.91714322315602 298.16202660720592 0 0 0 0 480.96077030720244 -531.69956786429248 0 -531.69956786429248 367.00948381624767 0 0 0 0 -651.41504844523263 297.95459275118628 0 297.95459275118628 -35.021055571829493 0 0 0 0 -1.6204573689764246 -1.3415300694139489 0 -1.3415300694139489 0.23327413596274482 0 0 0 0 142.51863863566541 -428.64732898971852 0 -428.64732898971852 463.23678717601797 0 0 0 0 138.38585611239341 -138.05493213559384 0 -138.05493213559384 314.91257919446616 0 0 0 0 443.76214870760055 -274.80662240532274 0 -274.80662240532274 282.63652281218674 0 0 0 0 96.064141475066208 -83.926029960071901 0 -83.926029960071901 489.06989584129042 0 0 0 0 202.14997797901742 425.10856784924545 0 425.10856784924545 603.51056481060368 0 0 0 0 -86.972538689690396 -219.92981810164747 0 -219.92981810164747 280.65875683710328 0 0 0 0 -319.58462908615638 269.03733398438271 0 269.03733398438271 283.53173357992637 0 0 0 0 -495.06875513666819 -69.546890398425603 0 -69.546890398425603 374.55419439003708 0 0 0 0 -6.8468971207075811 69.060609227628447 0 69.060609227628447 365.94933551076247 0 0 0 0 110.11141706330363 150.51937671009 0 150.51937671009 -65.384069467050722 0 0 0 0 -54.810298341129965 -323.10780311500275 0 -323.10780311500275 63.411040589837285 0 0 0 0 -178.76512397844999 -186.22646068003814 0 -186.22646068003814 204.14033264418686 0 0 0 0 -413.01086158145426 -87.202598381002645 0 -87.202598381002645 220.163206333571 0 0 0 0 241.30469257930059 -120.99736462373471 0 -120.99736462373471 83.901103599215276 0 0 0 0 181.04185575191332 -296.87435530216317 0 -296.87435530216317 153.08748125594866 0 0 0 0 221.58299251832705 -134.12450541882572 0 -134.12450541882572 151.83845032681711 0 0 0 0 -5.2652571147118294 -136.33944021202228 0 -136.33944021202228 104.90020742933848 0 0 0 0 -7.336076260138725 -198.15142872702563 0 -198.15142872702563 226.46352795619168 0 0 0 0 -366.46974642079749 -86.827832234237576 0 -86.827832234237576 220.93416786941816 0 0 0 0 -147.61252116344929 -141.1012528925221 0 -141.1012528925221 62.950116515479749 0 0 0 0 -149.78975323397026 -162.32474329293473 0 -162.32474329293473 233.5581017313234 0 0 0 0 -9.2894547502380682 6.0060285874364183 0 6.0060285874364183 30.260287705476415 0 0 0 0 -304.53247011987617 -54.395968222082729 0 -54.395968222082729 190.56130734790349 0 0 0 0 -379.17785529039577 -172.10500512236649 0 -172.10500512236649 40.998021871244418 0 0 0 0 -30.890393660049085 -30.931474573506421 0 -30.931474573506421 142.42500679443947 0 0 0 0 -50.846017037159982 -40.64164755296224 0 -40.64164755296224 138.76355717394108 0 0 0 0 -12.593756144340048 -22.965150181427155 0 -22.965150181427155 67.153684513754257 0 0 0 0 -30.305334010368824 -34.879289358563256 0 -34.879289358563256 31.971471980243223 0 0 0 0 -355.67079069677629 49.44333067525622 0 49.44333067525622 93.999818619973667 0 0 0 0 -161.83104220857695 -33.47170788173753 0 -33.47170788173753 129.37686984008906 0 0 0 0 4.8363745990687512 -22.588695924652114 0 -22.588695924652114 37.923950053774973 0 0 0 0 -69.916124517786557 52.11700713999744 0 52.11700713999744 -36.861938516994996 0 0 0 0 -7.5599850811317886 -2.9914073612804373 0 -2.9914073612804373 5.099274750103465 0 0 0 0 -69.171207215578761 -148.77063541781536 0 -148.77063541781536 -127.56714818442799 0 0 0 0 -15.481904369778931 -35.781265771736798 0 -35.781265771736798 31.983629366391199 0 0 0 0 -0.32901416110055237 -17.14526895574171 0 -17.14526895574171 40.771056456292825 0 0 0 0 1.5227332357312662 -67.186444977084648 0 -67.186444977084648 194.08432706731401 0 0 0 0 0.73307128434962543 -4.6386478878626356 0 -4.6386478878626356 -3.2856753717489084 0 0 0 0 -33.664625997408621 24.049483712668007 0 24.049483712668007 219.9718141489866 0 0 0 0 -29.216038635380301 -167.69204346820516 0 -167.69204346820516 71.755813578740344 0 0 0 0 -1.4540269235390042 -72.012690368435869 0 -72.012690368435869 214.37222095308971 0 0 0 0 -254.29524210367799 -269.27555435935938 0 -269.27555435935938 53.553886245586909 0 0 0 0 -163.439997463287 -136.83028036394535 0 -136.83028036394535 246.58879198712839 0 0 0 0 -42.66277572108811 19.287502411316382 0 19.287502411316382 430.74653322557424 0 0 0 0 -4.2116288665127257 -10.948759674113731 0 -10.948759674113731 -18.143799665016189 0 0 0 0 16.261414935970151 -100.69607238374647 0 -100.69607238374647 248.59596442909969 0 0 0 0 -68.220230637971326 -87.927942986589187 0 -87.927942986589187 253.2244726804056 0 0 0 0 -46.081305301298926 -49.2741965220157 0 -49.2741965220157 203.37683229230606 0 0 0 0 -27.132548756591859 -17.3868433430398 0 -17.3868433430398 255.83546892542654 0 0 0 0 -10.821976898794198 -22.915568807549278 0 -22.915568807549278 10.976613207209967 0 0 0 0 -12.580235440307661 -34.776444805729625 0 -34.776444805729625 27.022915482404642 0 0 0 0 -17.073647053782132 -36.953190518077442 0 -36.953190518077442 32.920875372452713 0 0 0 0 7.7322046176777803 -142.43900828463666 0 -142.43900828463666 16.474817543581594 0 0 0 0 -41.475459938822496 -35.813865465825074 0 -35.813865465825074 84.246674824491492 0 0 0 0 -37.704796036496646 -49.650214498412424 0 -49.650214498412424 105.55639468181835 0 0 0 0 -44.761090839489952 -85.758217278307711 0 -85.758217278307711 53.474171956251666 0 0 0 0 -44.423185916020884 -27.875497236296724 0 -27.875497236296724 98.477987249321814 0 0 0 0 -20.326936609699715 -74.501579583553394 0 -74.501579583553394 157.33314079141201 0 0 0 0 21.245615297619224 -13.662266937861204 0 -13.662266937861204 122.12066918497203 0 0 0 0 -0.22277909545732744 -0.95756405948161039 0 -0.95756405948161039 2.2116985368632527 0 0 0 0 -152.57436198800309 93.135653136406063 0 93.135653136406063 27.497899345682526 0 0 0 0 -69.351577550265574 36.553192237091935 0 36.553192237091935 90.70887517958181 0 0 0 0 -100.4781298446951 4.9898794439341145 0 4.9898794439341145 175.70327581322272 0 0 0 0 -76.212735578239517 -37.874204566807748 0 -37.874204566807748 203.51019520380396 0 0 0 0 -31.098254052750235 -9.776052069324578 0 -9.776052069324578 141.41112510240964 0 0 0 0 -71.260810678328426 -16.835552012781591 0 -16.835552012781591 144.74028789585282 0 0 0 0 -6.6134123584461122 -13.913492275409226 0 -13.913492275409226 127.41080970073745 0 0 0 0 -2.2000696489178218 -27.994242590856182 0 -27.994242590856182 123.64872483129454 0 0 0 0 -30.694759383917699 -9.8632756634051475 0 -9.8632756634051475 128.94812954285771 0 0 0 0 4.2511152246142956 -33.948520198127881 0 -33.948520198127881 102.67389195688702 0 0 0 0 -13.251219776368544 -23.954826306652649 0 -23.954826306652649 103.52672584877291 0 0 0 0 9.7333037651296763 -36.851074024198169 0 -36.851074024198169 85.459609656576504 0 0 0 0 -8.4282826704898071 -24.994819001888573 0 -24.994819001888573 37.147711147907103 0 0 0 0 8.1456290840405927 -30.304297672713801 0 -30.304297672713801 103.7149166294621 0 0 0 0 10.758627200111732 -50.515352370679466 0 -50.515352370679466 116.67776266284454 0 0 0 0 7.7705159197666944 -82.475710827266084 0 -82.475710827266084 151.39646432306472 0 0 0 0 -6.6469511222703659 -48.042244157446476 0 -48.042244157446476 141.25944763161533 0 0 0 0 0.75203335844616959 -80.296214836165746 0 -80.296214836165746 118.95722840658527 0 0 0 0 8.2503312777807878 -55.322821289413696 0 -55.322821289413696 145.51925521610247 0 0 0 0 -55.265852953089052 -52.544197889948919 0 -52.544197889948919 79.758702884580998 0 0 0 0 -2.3422063391436154 -45.827157432547097 0 -45.827157432547097 59.795016066495009 0 0 0 0 -29.852187373995548 -101.70415120581674 0 -101.70415120581674 135.51199659236954 0 0 0 0 -10.76902972021162 -27.505854063487277 0 -27.505854063487277 -25.724422440849594 0 0 0 0 -225.77576717427519 20.741367886143053 0 20.741367886143053 61.853328015553416 0 0 0 0 -81.175137250884291 -67.434776449408673 0 -67.434776449408673 34.594308074945729 0 0 0 0 -0.57566920745604655 -1.3870545365150235 0 -1.3870545365150235 5.3031053618343122 0 0 0 0 -57.066279871377446 -19.001906998291815 0 -19.001906998291815 76.579534256119587 0 0 0 0 -98.78809831117178 -123.42218190190033 0 -123.42218190190033 -56.387171303704463 0 0 0 0 -132.04380462073277 -50.391776633920017 0 -50.391776633920017 389.81899879793855 0 0 0 0 -3.1268017340089784 -0.44282360557305367 0 -0.44282360557305367 0.49574103615311249 0 0 0 0 -239.78761344653321 46.514843660976112 0 46.514843660976112 200.88702334626214 0 0 0 0 78.389858945800825 159.12999546602623 0 159.12999546602623 165.94230012962362 0 0 0 0 -207.90761190463763 -258.48111978169254 0 -258.48111978169254 425.67921307950382 0 0 0 0 -194.67648619090158 -97.148252995993289 0 -97.148252995993289 355.27228201633261 0 0 0 0 62.865741043811113 -235.32150156997523 0 -235.32150156997523 210.11213826621679 0 0 0 0 -19.572315736062592 -112.11496785838972 0 -112.11496785838972 26.559873562973735 0 0 0 0 -36.972590455803811 -154.72620606167357 0 -154.72620606167357 196.86067009401449 0 0 0 0 -72.891311166088144 -21.49726797121366 0 -21.49726797121366 345.340495805307 0 0 0 0 14.779583632078356 -20.560294239039649 0 -20.560294239039649 190.13583028624998 0 0 0 0 -90.193609019514042 -71.080810340507014 0 -71.080810340507014 282.30552123877351 0 0 0 0 19.462299015222925 -69.331395681607319 0 -69.331395681607319 154.76727326917262 0 0 0 0 -0.93048129837006854 -20.293175655853702 0 -20.293175655853702 121.23846033495647 0 0 0 0 17.749588767375826 -81.443080144244959 0 -81.443080144244959 145.39081957420058 0 0 0 0 -5.8675391016677167 -23.430626048276281 0 -23.430626048276281 37.88848855904871 0 0 0 0 -8.6723776002194661 -0.71735361210613036 0 -0.71735361210613036 -1.2551278274554101 0 0 0 0 -5.1292760049159369 -53.078119658054675 0 -53.078119658054675 233.90539105681819 0 0 0 0 -35.867455246561804 -17.322193921402686 0 -17.322193921402686 77.620703653225064 0 0 0 0 -16.059986898959323 -12.05297645416249 0 -12.05297645416249 71.117372122360393 0 0 0 0 -17.014130664922732 -30.692214567731526 0 -30.692214567731526 96.600798689771182 0 0 0 0 -24.527127280204695 -15.227756786136524 0 -15.227756786136524 105.07560202727836 0 0 0 0 -7.0473981813119053 -1.4443440346967691 0 -1.4443440346967691 85.009972877618566 0 0 0 0 -32.537125372127775 -11.905521517575835 0 -11.905521517575835 103.36266123563655 0 0 0 0 -36.11554615132809 36.99271440859593 0 36.99271440859593 154.89247565115147 0 0 0 0 -125.11806280075598 -22.409387809229884 0 -22.409387809229884 136.00295896529133 0 0 0 0 -26.908289883547695 -15.30151390028459 0 -15.30151390028459 44.346068485254364 0 0 0 0 13.990771762886197 19.213572824715811 0 19.213572824715811 138.83585280818079 0 0 0 0 -53.826889868738363 45.625755079170631 0 45.625755079170631 149.97532921155926 0 0 0 0 -58.283254142464102 39.455368323640869 0 39.455368323640869 175.40986111397069 0 0 0 0 -50.512686938616753 21.831111597992276 0 21.831111597992276 139.46758554654321 0 0 0 0 -47.197080364879184 44.654195201539551 0 44.654195201539551 165.54605330372942 0 0 0 0 -44.991649569149899 35.840696113297554 0 35.840696113297554 157.00918002393882 0 0 0 0 -34.357490314503025 50.074003189834457 0 50.074003189834457 180.22918479210057 0 0 0 0 -37.16603947456224 34.261837782794828 0 34.261837782794828 150.61330515579903 0 0 0 0 -31.11075537168017 21.598767910065362 0 21.598767910065362 162.06513353708215 0 0 0 0 -21.236087636736556 52.742196511289876 0 52.742196511289876 157.09847485495993 0 0 0 0 -29.658296483341474 27.203914626630649 0 27.203914626630649 98.942064315542666 0 0 0 0 25.751607924730251 24.533106694791968 0 24.533106694791968 27.949845699236903 0 0 0 0 2.4090453447715845 39.585511354960545 0 39.585511354960545 82.904627363554027 0 0 0 0 -20.766409812983056 2.8402016982126952 0 2.8402016982126952 61.221736624451296 0 0 0 0 -13.308455710957787 41.217998965739753 0 41.217998965739753 4.6114865013441886 0 0 0 0 -6.0219437897558237 16.25516835488088 0 16.25516835488088 29.630522512816242 0 0 0 0 -36.10903890952136 28.862506757632218 0 28.862506757632218 24.56342292350746 0 0 0 0 -9.2256754708898345 11.376897013915894 0 11.376897013915894 25.120975623957357 0 0 0 0 -12.920084335799402 11.921941022643296 0 11.921941022643296 44.049504739734402 0 0 0 0 0.16178612924721136 17.492902768997915 0 17.492902768997915 22.798685028403504 0 0 0 0 11.421072104156337 36.657251996901323 0 36.657251996901323 -18.672577444423951 0 0 0 0 -53.072873180209285 19.35763991228464 0 19.35763991228464 25.470594442565925 0 0 0 0 7.5724921435312353 29.400499866605969 0 29.400499866605969 26.860260450999704 0 0 0 0 -2.2778126334689173 6.5603604106930593 0 6.5603604106930593 3.348058220111227 0 0 0 0 -36.067599794167734 62.537658251516405 0 62.537658251516405 110.72348693189997 0 0 0 0 -44.57452492820471 6.4403742929171131 0 6.4403742929171131 85.581996124668876 0 0 0 0 -33.810790098100824 38.793181836976146 0 38.793181836976146 68.097692279163311 0 0 0 0 1.1362205697604164 20.892632252570692 0 20.892632252570692 34.888097379181573 0 0 0 0 80.474927078138535 80.859781753906645 0 80.859781753906645 -32.032155166967641 0 0 0 0 -36.701463502406114 53.774991846516059 0 53.774991846516059 47.431000965167186 0 0 0 0 -0.51721360103502567 7.2722050509327225 0 7.2722050509327225 -0.81762309391439203 0 0 0 0 -3.6076094411068595 27.223865576773655 0 27.223865576773655 43.034731735064263 0 0 0 0 -51.557481155482208 64.279772945816035 0 64.279772945816035 58.331532498370507 0 0 0 0 -58.114350986187219 27.131778059358112 0 27.131778059358112 205.80484862238882 0 0 0 0 -26.404821691568031 -4.4278383284881784 0 -4.4278383284881784 145.64232649490077 0 0 0 0 60.717780170220976 32.621131628638977 0 32.621131628638977 124.61877558945343 0 0 0 0 12.782016683509255 -51.823267893923912 0 -51.823267893923912 135.51131962397267 0 0 0 0 -25.702259000275262 -13.79851242370205 0 -13.79851242370205 115.43117355536742 0 0 0 0 -26.545676561905566 -9.4039510181128207 0 -9.4039510181128207 96.299962151755608 0 0 0 0 -19.077296406096139 0.49728543647870538 0 0.49728543647870538 97.601760659545107 0 0 0 0 -13.737687693682496 16.921466386834517 0 16.921466386834517 41.814587502279338 0 0 0 0 -18.40115314646971 16.764133141634375 0 16.764133141634375 12.046357300147065 0 0 0 0 -8.4334259596889751 32.20435787414317 0 32.20435787414317 -0.050756292635924183 0 0 0 0 -7.9829761779631685 25.033998203654626 0 25.033998203654626 34.486572325991752 0 0 0 0 0.2201433121097125 67.505247356973996 0 67.505247356973996 -7.2374771897011669 0 0 0 0 25.046330885692896 39.971581400244759 0 39.971581400244759 4.059259996014589 0 0 0 0 5.5713154961076725 16.697797972487024 0 16.697797972487024 37.381048512826965 0 0 0 0 31.01780423913965 33.719069566395774 0 33.719069566395774 14.877205393710028 0 0 0 0 0.77962018772403097 2.2356959538749503 0 2.2356959538749503 11.07775617248555 0 0 0 0 149.94176491132748 135.45618782666861 0 135.45618782666861 110.02782513013153 0 0 0 0 0.79830342741341065 1.9274624516184122 0 1.9274624516184122 3.4184415766910092 0 0 0 0 148.03664220982841 -157.88706437345172 0 -157.88706437345172 203.51160616986454 0 0 0 0 -52.17148925865996 2.9826257836921286 0 2.9826257836921286 340.99914221872314 0 0 0 0 48.788484302426014 -166.0831867966117 0 -166.0831867966117 242.67435483459849 0 0 0 0 0.19951184824868262 0.59634317489226163 0 0.59634317489226163 1.5536403197949937 0 0 0 0 -90.800380371817482 56.055858482592157 0 56.055858482592157 166.22246568528863 0 0 0 0 -91.835613021820791 -31.507974329062563 0 -31.507974329062563 244.89205051581848 0 0 0 0 41.904259167398777 -16.810533258190844 0 -16.810533258190844 16.023373765507131 0 0 0 0 -39.494947374967296 -37.630224353226367 0 -37.630224353226367 245.29593893289848 0 0 0 0 29.02798512515011 -7.9526123722262128 0 -7.9526123722262128 20.162812060407305 0 0 0 0 -102.45499736514284 83.065149318141266 0 83.065149318141266 22.016302802789141 0 0 0 0 -2.0363468142203374 -8.6981878169081028 0 -8.6981878169081028 -3.5730364993942203 0 0 0 0 -12.105480133881315 1.7952788513994165 0 1.7952788513994165 8.3306175918987719 0 0 0 0 8.9668185507987346 8.3277064818103099 0 8.3277064818103099 13.037221191589197 0 0 0 0 16.299953770829916 -8.7154067183546431 0 -8.7154067183546431 15.264711482098392 0 0 0 0 -1.2898633265938133 9.8205136853462367 0 9.8205136853462367 15.481619863104243 0 0 0 0 -18.700791477628172 -12.849028167707729 0 -12.849028167707729 45.694205908415825 0 0 0 0 -15.009760634409758 6.3212237367479247 0 6.3212237367479247 37.722725425410317 0 0 0 0 -13.1096175469598 -2.6491609204799715 0 -2.6491609204799715 16.226461407728095 0 0 0 0 32.553423990621923 -66.546522771372111 0 -66.546522771372111 71.286991152606788 0 0 0 0 -47.008885769756034 5.940079258140031 0 5.940079258140031 154.86743937702704 0 0 0 0 -6.0728599903523719 -3.6780573188317049 0 -3.6780573188317049 9.6886987125862163 0 0 0 0 27.014739018938599 -5.8412862773911911 0 -5.8412862773911911 281.85608771768602 0 0 0 0 41.735124336400986 -52.668968752455839 0 -52.668968752455839 141.16436202151817 0 0 0 0 -41.868313956548263 -2.0912719230946095 0 -2.0912719230946095 28.872707098824321 0 0 0 0 -33.745650493805442 42.650705485044455 0 42.650705485044455 121.45453241017458 0 0 0 0 29.090374440920641 10.158179780977662 0 10.158179780977662 110.11269346308836 0 0 0 0 -60.41583449290556 67.988932090716844 0 67.988932090716844 31.539312377972237 0 0 0 0 -27.603931021178141 -19.57942156142235 0 -19.57942156142235 152.196673705992 0 0 0 0 0.4265374329750049 -9.5074769959927359 0 -9.5074769959927359 48.075948509869363 0 0 0 0 -58.190115063418943 19.811971095456101 0 19.811971095456101 113.39348919599433 0 0 0 0 -10.025312511952734 -9.4614630840769678 0 -9.4614630840769678 39.942160274753405 0 0 0 0 -1.7336671595755084 -7.6676502747138571 0 -7.6676502747138571 38.603976280718996 0 0 0 0 -8.6313704560731459 4.8508199727323067 0 4.8508199727323067 68.988037519751089 0 0 0 0 5.3851304091858765 -0.12827623137582123 0 -0.12827623137582123 87.528522266591608 0 0 0 0 1.862541153589973 -9.192321450158488 0 -9.192321450158488 105.10895574581809 0 0 0 0 -18.32137764075469 -35.891158107013325 0 -35.891158107013325 89.415962317085359 0 0 0 0 -10.941159628647595 16.537064885025302 0 16.537064885025302 13.827922376117044 0 0 0 0 -45.317879083095249 -34.164199871884193 0 -34.164199871884193 10.080194495254545 0 0 0 0 -9.8879990455898223 -8.3814396667239635 0 -8.3814396667239635 83.079780891532209 0 0 0 0 -9.8165923822798504 -9.3150042357101484 0 -9.3150042357101484 94.392449117980505 0 0 0 0 -14.957971725605148 -17.854042491435393 0 -17.854042491435393 85.199777890820769 0 0 0 0 -0.56910697950070244 -9.383174184944437 0 -9.383174184944437 81.768423926689138 0 0 0 0 -4.7532966136086543 -15.773941136019857 0 -15.773941136019857 73.252262308938953 0 0 0 0 -13.600635606391361 -3.4829274697406802 0 -3.4829274697406802 12.695139282575289 0 0 0 0 -11.185005869485394 -39.104396707978594 0 -39.104396707978594 117.72782211056642 0 0 0 0 15.209046593740595 -63.317501330497635 0 -63.317501330497635 62.877999964584887 0 0 0 0 -54.657834074087077 -20.894738971484912 0 -20.894738971484912 113.89114830339167 0 0 0 0 9.5259172909067047 -65.053248489164616 0 -65.053248489164616 89.280372854453162 0 0 0 0 14.323690820552482 -36.144369254989513 0 -36.144369254989513 78.321329155169877 0 0 0 0 -19.435970346772137 -5.1944128269751673 0 -5.1944128269751673 51.332576300363144 0 0 0 0 152.99916989904636 -153.03711557672068 0 -153.03711557672068 69.209300695969432 0 0 0 0 -5.9119755817480382 -16.397718591761077 0 -16.397718591761077 30.045054362766678 0 0 0 0 -0.79591732617040467 -3.2379884674089148 0 -3.2379884674089148 7.5100230919840669 0 0 0 0 -62.160309972418645 -31.385196825916864 0 -31.385196825916864 10.986989344084577 0 0 0 0 -77.664056976317625 -25.199624009699619 0 -25.199624009699619 56.665608829032863 0 0 0 0 -72.395800851509193 -13.444374156963022 0 -13.444374156963022 46.319964055292075 0 0 0 0 -64.308951577606877 -48.207022504408087 0 -48.207022504408087 -23.837752716921386 0 0 0 0 -2.0197314715600783 1.8305464408029479 0 1.8305464408029479 5.4903013094961963 0 0 0 0 6.7793582892581981 30.900402212555491 0 30.900402212555491 -55.353926071205933 0 0 0 0 48.428132710579121 -23.788892742288226 0 -23.788892742288226 66.333202155728941 0 0 0 0 6.374807189004029 -14.552973932577842 0 -14.552973932577842 36.330142011347846 0 0 0 0 42.745839296427221 -23.472534779699345 0 -23.472534779699345 2.8679216693344642 0 0 0 0 41.737010875239321 -109.54405528897041 0 -109.54405528897041 137.89385588006553 0 0 0 0 68.218232000264834 -45.148312317964155 0 -45.148312317964155 -98.65945625981476 0 0 0 0 -98.870203920717358 -41.746132698106521 0 -41.746132698106521 23.803377419193566 0 0 0 0 -88.838405951240929 19.506823576597526 0 19.506823576597526 50.031679976091255 0 0 0 0 -4.7506748413480864 -8.6901695845645008 0 -8.6901695845645008 26.899259459285531 0 0 0 0 -6.8845913498457776 -20.340522948592479 0 -20.340522948592479 38.270094643259654 0 0 0 0 18.272777017093176 -26.379864220973104 0 -26.379864220973104 26.997443339809251 0 0 0 0 33.5593297200503 -17.660313163236424 0 -17.660313163236424 27.406222217963659 0 0 0 0 47.548478062418326 -54.745802379205998 0 -54.745802379205998 41.187289682107803 0 0 0 0 35.945955365834379 -19.786134895824944 0 -19.786134895824944 22.353194380488276 0 0 0 0 -4.0371039633880423 -0.62937967810533735 0 -0.62937967810533735 14.12348281705205 0 0 0 0 12.322119329302268 -23.077803067069908 0 -23.077803067069908 28.9022622697521 0 0 0 0 -13.116709170572463 14.380509278576938 0 14.380509278576938 25.737298435764387 0 0 0 0 25.63185964366312 -28.052571288109903 0 -28.052571288109903 41.002358218174777 0 0 0 0 17.658317177389108 -24.989871044657775 0 -24.989871044657775 40.794182119776451 0 0 0 0 -19.626601299351385 -0.040295210808857007 0 -0.040295210808857007 33.302827530404954 0 0 0 0 -37.649826189365712 11.099530846755442 0 11.099530846755442 35.049704670062056 0 0 0 0 -5.3795420821741367 -3.0818947397901333 0 -3.0818947397901333 26.349464553189961 0 0 0 0 -24.752596596694161 -2.6206766399445769 0 -2.6206766399445769 38.328581410722109 0 0 0 0 -20.257667751198809 -2.2918181728798288 0 -2.2918181728798288 24.20578081942287 0 0 0 0 -36.848878939454153 -4.3493988851405447 0 -4.3493988851405447 41.1905745453696 0 0 0 0 -0.18605510763298128 0.77825339117551096 0 0.77825339117551096 10.466259618394247 0 0 0 0 28.69852888261903 -60.199651561182691 0 -60.199651561182691 91.878042591892154 0 0 0 0 -56.032812531949276 31.158409278235922 0 31.158409278235922 6.8113724574068328 0 0 0 0 37.425668346485509 -23.166119354769762 0 -23.166119354769762 -6.672015194541018 0 0 0 0 4.6449293053801739 -3.6237801927090914 0 -3.6237801927090914 25.086059602850582 0 0 0 0 -1.0030241598474277 -1.940527715938515 0 -1.940527715938515 -6.2977734967425931 0 0 0 0 -41.412908228348897 34.407040546117059 0 34.407040546117059 -4.085264538472984 0 0 0 0 -4.9695451032366691 -12.527254469474428 0 -12.527254469474428 -7.5972648320530425 0 0 0 0 -13.208087713433599 -2.6988609609470586 0 -2.6988609609470586 138.0117529860072 0 0 0 0 -0.0358060671638043 -66.221909820011206 0 -66.221909820011206 54.407594058196992 0 0 0 0 -16.645016547134119 -20.067798701738866 0 -20.067798701738866 54.214295029465575 0 0 0 0 -26.359006307213065 6.1796478442829539 0 6.1796478442829539 142.22298793365189 0 0 0 0 -0.50475162081211122 0.20777822927168899 0 0.20777822927168899 3.6673955046475442 0 0 0 0 -4.6954548779173919 -5.38214245918439 0 -5.38214245918439 39.193735476803113 0 0 0 0 -22.687214425201091 -14.828352448690566 0 -14.828352448690566 113.42702825828019 0 0 0 0 -47.629040461913974 41.811720760757453 0 41.811720760757453 -332.04446247196756 0 0 0 0 -73.917780252065995 15.726679485254863 0 15.726679485254863 52.699835275998339 0 0 0 0 -2.266238099437146 -0.49039691167854471 0 -0.49039691167854471 33.539038125454681 0 0 0 0 -8.2642266318939619 -29.658462178609625 0 -29.658462178609625 61.965922883154917 0 0 0 0 -369.26178936851306 172.30394714889917 0 172.30394714889917 729.48051204737567 0 0 0 0 -7.2663392636941539 -4.1860081604465122 0 -4.1860081604465122 7.8610894733279224 0 0 0 0 -16.11766142601482 -1.0343238289460714 0 -1.0343238289460714 40.315073780788225 0 0 0 0 -15.172483754558016 -11.316196839085023 0 -11.316196839085023 38.640198357308691 0 0 0 0 -11.670037889950979 -8.7797859193024834 0 -8.7797859193024834 12.896425316795018 0 0 0 0 -47.934225771498859 -8.9152534639870282 0 -8.9152534639870282 61.610258001981947 0 0 0 0 -21.090665166260351 4.80774814774486 0 4.80774814774486 38.650496725109406 0 0 0 0 -28.198793931501314 -0.48296252168074716 0 -0.48296252168074716 38.555435399825683 0 0 0 0 -37.178136797328989 19.74797371205932 0 19.74797371205932 26.174064987106249 0 0 0 0 -25.302437653065908 1.582535108384036 0 1.582535108384036 44.713626424403628 0 0 0 0 -8.4605875306989162 -28.703489377365258 0 -28.703489377365258 39.068529212658177 0 0 0 0 -19.965990403439626 6.0199533132671235 0 6.0199533132671235 16.012878819721749 0 0 0 0 -17.350348685522476 2.7481490787031362 0 2.7481490787031362 28.023646767589526 0 0 0 0 -13.280975922045855 8.0801546003822295 0 8.0801546003822295 36.898123389553803 0 0 0 0 -19.160901136046277 -134.63101922113037 0 -134.63101922113037 220.86236817997997 0 0 0 0 -16.904148532431076 9.7075186126484994 0 9.7075186126484994 21.150084658858972 0 0 0 0 -156.94487608783902 -45.004150223870965 0 -45.004150223870965 238.62517729346291 0 0 0 0 -11.989490782639972 -12.876261528095512 0 -12.876261528095512 16.907735173116393 0 0 0 0 -4.7144575542238272 -6.9489482988865348 0 -6.9489482988865348 48.968088858120609 0 0 0 0 -17.43521036552039 -5.5928572322777654 0 -5.5928572322777654 32.660362905575312 0 0 0 0 -22.11351309652764 -10.14549383420308 0 -10.14549383420308 28.295537663077994 0 0 0 0 -1.7417285943078298 2.8993739770086648 0 2.8993739770086648 10.311964469783959 0 0 0 0 1.3378822980319001 -41.896966237659854 0 -41.896966237659854 42.621662853794987 0 0 0 0 -24.994456276008805 12.528410405553586 0 12.528410405553586 28.550157113655587 0 0 0 0 -2.1219044874620607 -9.4150283927424425 0 -9.4150283927424425 36.481007695983863 0 0 0 0 -17.478978079288026 -9.8262826434729504 0 -9.8262826434729504 62.668306057010341 0 0 0 0 -15.079451573817664 -16.691233614170415 0 -16.691233614170415 12.549696120142471 0 0 0 0 -70.554054983493188 14.980434388824506 0 14.980434388824506 15.557474186907712 0 0 0 0 1.3952709618670522 2.2332845027922446 0 2.2332845027922446 3.9028844051327667 0 0 0 0 70.391757153269509 -81.88307756422364 0 -81.88307756422364 59.734482263564132 0 0 0 0 -44.100917420351379 -11.426588340407761 0 -11.426588340407761 112.37498397304807 0 0 0 0 -75.971814496730303 8.1487315641134046 0 8.1487315641134046 43.984493770905829 0 0 0 0 -6.0292430655106273 -10.23657051230839 0 -10.23657051230839 -21.183649950915424 0 0 0 0 -79.998277247264468 -101.42668842421699 0 -101.42668842421699 112.1080950092728 0 0 0 0 -15.604660742753367 75.437851361301 0 75.437851361301 -28.670736480834421 0 0 0 0 0.086507201193437133 -0.39704392793743182 0 -0.39704392793743182 1.7292756616348441 0 0 0 0 23.259360679300244 -54.003311568462777 0 -54.003311568462777 133.38750525198702 0 0 0 0 0.66147530598930238 -1.2902910527651805 0 -1.2902910527651805 0.77416263674393804 0 0 0 0 83.814671546106865 -63.633224957200582 0 -63.633224957200582 83.113314339308999 0 0 0 0 67.721644225447562 100.22413043601409 0 100.22413043601409 102.59060325534665 0 0 0 0 -53.50747581366295 63.415782101423247 0 63.415782101423247 53.57916653549546 0 0 0 0 -1.1046104259840714 0.45814098198665931 0 0.45814098198665931 36.521608941163493 0 0 0 0 -13.320847986468607 5.6744542756750889 0 5.6744542756750889 47.439948113242281 0 0 0 0 -8.7884939495361891 -3.7193727860721992 0 -3.7193727860721992 41.901178455795161 0 0 0 0 3.7091352330198788 8.1137388705537887 0 8.1137388705537887 24.233399841512437 0 0 0 0 2.1436200312164146 16.976095264551986 0 16.976095264551986 31.45867209322023 0 0 0 0 -1.0613218997131995 3.145299828095304 0 3.145299828095304 10.226724213150433 0 0 0 0 55.772011060924569 60.308096249063965 0 60.308096249063965 22.334720546088647 0 0 0 0 -11.406707464879219 -4.4493458501092391 0 -4.4493458501092391 8.6085932872083504 0 0 0 0 2.1704612277422086 16.241241117229492 0 16.241241117229492 36.470933275064453 0 0 0 0 -0.38793103960506414 -53.379047525173519 0 -53.379047525173519 23.469885730708484 0 0 0 0 52.445785216678814 -21.420380534596916 0 -21.420380534596916 26.700011426815763 0 0 0 0 5.2196767438836105 0.27584244939498603 0 0.27584244939498603 53.754710259556305 0 0 0 0 -41.90654409534136 -58.232053412313689 0 -58.232053412313689 41.685449373806478 0 0 0 0 -2.6081312176300937 0.32485892409428629 0 0.32485892409428629 5.6368926863935371 0 0 0 0 -15.909539726907042 1.2541718526845216 0 1.2541718526845216 31.100477614723786 0 0 0 0 -1.4430788976596065 -2.4708484998439282 0 -2.4708484998439282 15.600992158586479 0 0 0 0 -0.48558030089134263 -6.2793252415576717 0 -6.2793252415576717 20.172961441174266 0 0 0 0 -2.4022214813305709 -0.50511037468085185 0 -0.50511037468085185 29.461525252590235 0 0 0 0 -48.623447549943762 -48.601569328267942 0 -48.601569328267942 47.021152941568289 0 0 0 0 4.1759961269094674 -31.519047437075642 0 -31.519047437075642 39.772531528877153 0 0 0 0 -30.130309594735991 -37.493996302262531 0 -37.493996302262531 38.735352322171821 0 0 0 0 -0.54213693207886315 -5.7272224691229354 0 -5.7272224691229354 3.7795740162391382 0 0 0 0 -1.8553332310934763 1.3726673636249718 0 1.3726673636249718 30.91332751337319 0 0 0 0 2.2276580680054963 7.3829709839483257 0 7.3829709839483257 30.83878655875742 0 0 0 0 -23.72089251953912 0.037493976393307094 0 0.037493976393307094 28.191018460638588 0 0 0 0 -8.2399201359061571 -7.8380386439891652 0 -7.8380386439891652 32.56840647765992 0 0 0 0 -5.0102757219781395 4.6634115882466176 0 4.6634115882466176 35.704641972741229 0 0 0 0 -16.185687336323554 -9.9836297499423381 0 -9.9836297499423381 34.333613461883942 0 0 0 0 -11.845762741865968 -0.73749134062381927 0 -0.73749134062381927 15.771698192060285 0 0 0 0 12.422048135154796 -10.870690973890305 0 -10.870690973890305 7.4651766346323711 0 0 0 0 0.93871753413561976 0.65949209077280102 0 0.65949209077280102 11.993865592790826 0 0 0 0 0.98694464788201652 3.0861522057861919 0 3.0861522057861919 12.900436623622596 0 0 0 0 -3.7882472078365481e-05 -2.6280762260134907 0 -2.6280762260134907 14.869473981598276 0 0 0 0 1.1341363900813519 -0.78576405238528757 0 -0.78576405238528757 10.16957428952287 0 0 0 0 1.6873477136789683 -4.2031464784712398 0 -4.2031464784712398 9.0093711932673699 0 0 0 0 -1.8011711950700164 -4.954394454398674 0 -4.954394454398674 17.058783886336244 0 0 0 0 -4.3067952020319105 -3.1759264159581768 0 -3.1759264159581768 28.834662156360082 0 0 0 0 -0.18142284431473854 -7.0383233537013439 0 -7.0383233537013439 21.142816680003307 0 0 0 0 -41.900323459319907 -12.523691110232903 0 -12.523691110232903 51.075857341849769 0 0 0 0 -9.3365445564079437 -6.538059529637394 0 -6.538059529637394 26.90743949352327 0 0 0 0 27.907659204754424 -17.198913309061027 0 -17.198913309061027 -28.192320436559385 0 0 0 0 0.90170838263111364 -7.5835905508720316 0 -7.5835905508720316 23.75933551392518 0 0 0 0 0.15876553323630005 -8.3199592384627294 0 -8.3199592384627294 26.193531781535029 0 0 0 0 -10.977887018622308 0.025576655666185388 0 0.025576655666185388 21.54556531948765 0 0 0 0 16.662253021209835 -20.677326155557239 0 -20.677326155557239 -67.868593943290762 0 0 0 0 18.357336564473982 18.297990371489504 0 18.297990371489504 44.027963030122919 0 0 0 0 0.82441429489893325 -4.1396311639781374 0 -4.1396311639781374 -0.33339942114778864 0 0 0 0 19.141608959374707 8.6286125959741184 0 8.6286125959741184 11.031758840428665 0 0 0 0 19.141608959369592 8.6286125960177742 0 8.6286125960177742 11.031758840632392 0 0 0 0 19.141608959399719 8.6286125959013589 0 8.6286125959013589 11.031758840414113 0 0 0 0 0.55081642858087088 -17.197008321731957 0 -17.197008321731957 24.540739882138439 0 0 0 0 -0.73777047161871678 2.1956432206170575 0 2.1956432206170575 66.531566478006425 0 0 0 0 0.58582132289885713 -8.8269417138744757 0 -8.8269417138744757 34.451253218387137 0 0 0 0 7.6193980787613782 -9.3825830410642084 0 -9.3825830410642084 29.746234084464959 0 0 0 0 -0.15890835412611182 -6.8732002458054922 0 -6.8732002458054922 29.596247076930013 0 0 0 0 13.84019094438969 -6.8854893253446789 0 -6.8854893253446789 9.3712285828805761 0 0 0 0 -0.54989506178966963 4.0397784708693507 0 4.0397784708693507 12.988967667028191 0 0 0 0 3.914708115951683 2.4463702362918411 0 2.4463702362918411 8.3185164880030698 0 0 0 0 2.808366084274013 4.9731401291755901 0 4.9731401291755901 3.2959211337365559 0 0 0 0 1.0515532882572742 0.53225547464171541 0 0.53225547464171541 15.131246172706597 0 0 0 0 1.0594579510950364 0.5131419724867925 0 0.5131419724867925 0.63511600891243347 0 0 0 0 9.5914913223381291 4.8309672548348317 0 4.8309672548348317 8.3888499439030966 0 0 0 0 -3.6849043961144048 -3.9381026444316376 0 -3.9381026444316376 31.939123023257707 0 0 0 0 -0.32188312805384811 0.90092205976179685 0 0.90092205976179685 16.502284473041072 0 0 0 0 0.17866628196474246 -0.60558900724328169 0 -0.60558900724328169 1.5521548628557298 0 0 0 0 1.5645964898053535 8.8964475973289154 0 8.8964475973289154 35.003284851336502 0 0 0 0 1.3920931562512919 10.63028992870386 0 10.63028992870386 36.413327020414727 0 0 0 0 4.4082741120790274 18.719311433746043 0 18.719311433746043 56.836859670525882 0 0 0 0 -2.3554497492657447 -1.7166650287181255 0 -1.7166650287181255 44.553302943113522 0 0 0 0 -2.3830625465470234 5.916790828887315 0 5.916790828887315 47.432458774223051 0 0 0 0 -2.6949028763953038 3.8986466234055115 0 3.8986466234055115 34.371932444199047 0 0 0 0 -0.15655968776543738 2.352521104789048 0 2.352521104789048 117.33407906007051 0 0 0 0 -0.23351805793043487 0.40690912086156317 0 0.40690912086156317 0.48660946443681041 0 0 0 0 4.6751855476383408 -22.860948527988512 0 -22.860948527988512 105.05966055387034 0 0 0 0 -0.082987424149769409 0.076815027467986852 0 0.076815027467986852 0.77987162201824844 0 0 0 0 -11.614194994400989 -6.5998279246778111 0 -6.5998279246778111 57.141332898985866 0 0 0 0 -15.741644031753978 0.99957880259898957 0 0.99957880259898957 100.12737677600035 0 0 0 0 29.79383160941417 61.214427687693387 0 61.214427687693387 89.578112034954756 0 0 0 0 2.9050167667626874 21.514970851832913 0 21.514970851832913 51.68878136332205 0 0 0 0 -0.20933260898180817 1.0451804685178985 0 1.0451804685178985 -0.70308851653871329 0 0 0 0 -6.3035641761334489 4.2623019905622641 0 4.2623019905622641 6.4282608043213258 0 0 0 0 0.094313251292621289 -0.69266300750973642 0 -0.69266300750973642 2.9906754981664676 0 0 0 0 -2.6615773455055582 -4.3526148203818593 0 -4.3526148203818593 -0.46959498314390657 0 0 0 0 -0.013636845237169536 -2.0758109274756862 0 -2.0758109274756862 0.045610363311425317 0 0 0 0 -5.4244701689327224 -3.5271496487475815 0 -3.5271496487475815 -0.64515556743754132 0 0 0 0 0.53778623986922014 -2.857326973526142 0 -2.857326973526142 3.5006511263782158 0 0 0 0 0.17421218684207174 -0.65950395909241166 0 -0.65950395909241166 2.1311604963103719 0 0 0 0 -13.003541664440672 -7.4569995953170292 0 -7.4569995953170292 5.946446720881795 0 0 0 0 -16.183890354624623 -5.4104827609553467 0 -5.4104827609553467 12.844986444484675 0 0 0 0 0.019978276724579101 -7.7011657387010928 0 -7.7011657387010928 0.59594907645805506 0 0 0 0 -7.6860152390798451 -9.8968462609373091 0 -9.8968462609373091 6.2214041184124653 0 0 0 0 9.5178538259620353 14.942663043788343 0 14.942663043788343 9.3856055835276493 0 0 0 0 -7.1253207689878533 -10.949325720564957 0 -10.949325720564957 65.488433059072122 0 0 0 0 -0.021303746808504623 -6.5106341570863151 0 -6.5106341570863151 67.24739927353221 0 0 0 0 -2.0867112269067967 -30.405841753981804 0 -30.405841753981804 120.51856007747847 0 0 0 0 -6.7452237024037096 23.661324545460957 0 23.661324545460957 70.948372859118535 0 0 0 0 0.10555771158372748 -0.28442228048346863 0 -0.28442228048346863 0.84227965790182679 0 0 0 0 46.168006728222011 -36.73780565992638 0 -36.73780565992638 8.5699179169023409 0 0 0 0 14.329246137832087 -50.241857255812647 0 -50.241857255812647 68.768701928318478 0 0 0 0 -8.9254785330810762 -29.851923774433089 0 -29.851923774433089 62.750171595529082 0 0 0 0 5.2705247952646346 -30.955671775074734 0 -30.955671775074734 30.82637139266626 0 0 0 0 -7.4705465231667745 -30.35015075582487 0 -30.35015075582487 62.738625692072674 0 0 0 0 -4.4547404122861938 -30.88091170340374 0 -30.88091170340374 56.14918972318992 0 0 0 0 -13.733959453272064 1.6811721377307549 0 1.6811721377307549 30.725926827446528 0 0 0 0 -6.6685888075013793 -37.987368885274918 0 -37.987368885274918 91.759962077492673 0 0 0 0 -2.4932101208740534 4.9432740944248508 0 4.9432740944248508 93.665311876831311 0 0 0 0 22.205136137924857 18.96178879517538 0 18.96178879517538 63.134014862400363 0 0 0 0 18.52743496153316 7.0733613546399283 0 7.0733613546399283 34.009610168584913 0 0 0 0 -9.6198808150197976 -12.83628745200258 0 -12.83628745200258 63.850336175230041 0 0 0 0 -13.534478651012872 -0.49145169396530264 0 -0.49145169396530264 32.369746092277637 0 0 0 0 0.12435184214436035 17.423955492042296 0 17.423955492042296 6.3871870886723627 0 0 0 0 7.642547649114797 -11.084153478454937 0 -11.084153478454937 14.857656530846725 0 0 0 0 8.7648850211407439 -1.5174494970851811 0 -1.5174494970851811 32.628455149075307 0 0 0 0 15.31236076381764 -21.846392252467922 0 -21.846392252467922 29.646621159872666 0 0 0 0 -0.0068626843210629791 -12.244238099721059 0 -12.244238099721059 64.505633573688101 0 0 0 0 48.227442992073399 -25.880497432341144 0 -25.880497432341144 45.829128870638669 0 0 0 0 -6.6316571697939253 -6.192672487883101 0 -6.192672487883101 8.1000825688242912 0 0 0 0 -5.7080070897899731 6.0061469154643419 0 6.0061469154643419 16.472419765035738 0 0 0 0 -0.26690419025881118 0.35680325252545231 0 0.35680325252545231 1.8027496376270449 0 0 0 0 3.9453310446087126 -12.46030327565677 0 -12.46030327565677 -13.665921428375441 0 0 0 0 -4.9634740987501562 3.8498397244111402 0 3.8498397244111402 15.505940088507487 0 0 0 0 0.00383021439470919 -7.9568365398372407 0 -7.9568365398372407 -8.0545467243573512 0 0 0 0 3.9675494253551626 14.258407820721914 0 14.258407820721914 25.574122313104453 0 0 0 0 0.06016831343632776 -0.018993966913342319 0 -0.018993966913342319 -0.03957480743096653 0 0 0 0 -2.2127394207445796 1.8024713767445064 0 1.8024713767445064 12.34085716388654 0 0 0 0 4.7152503560323566 38.457702498642902 0 38.457702498642902 16.038447785904282 0 0 0 0 -23.177825249832949 14.920039062846627 0 14.920039062846627 272.29388505264069 0 0 0 0 82.134028976602622 -16.039145691174781 0 -16.039145691174781 -188.28903695268673 0 0 0 0 -1.3403889434966345 3.1051725923643971 0 3.1051725923643971 9.1085939084005076 0 0 0 0 -3.4738557999108677 -2.7087233819036989 0 -2.7087233819036989 19.27824233206735 0 0 0 0 -11.662280241231429 -7.8837747148718336 0 -7.8837747148718336 21.876041022798745 0 0 0 0 0.13941378467162296 -1.5018503189486021 0 -1.5018503189486021 0.70279275397203378 0 0 0 0 -25.389843726001573 -64.926175366541429 0 -64.926175366541429 136.75269243575895 0 0 0 0 -11.345992388039122 -23.933634106608224 0 -23.933634106608224 -17.097622195044096 0 0 0 0 -9.2024748581764584 45.629030143943965 0 45.629030143943965 30.476779519231059 0 0 0 0 -30.547258539652034 38.275946690722776 0 38.275946690722776 28.472796147107147 0 0 0 0 -47.873448223059768 -15.069928822267684 0 -15.069928822267684 29.748503673996311 0 0 0 0 -33.449043946492083 30.158873210983074 0 30.158873210983074 49.123967424631701 0 0 0 0 -34.998123555823724 -2.6458371383814665 0 -2.6458371383814665 60.082224603116629 0 0 0 0 -8.8859994452534465 24.355867244965339 0 24.355867244965339 10.980567506107036 0 0 0 0 -29.357642684525672 -5.3439687077843701 0 -5.3439687077843701 6.8465651541482657 0 0 0 0 -22.300124750121995 -22.733784916286822 0 -22.733784916286822 32.953483961122402 0 0 0 0 21.181415833932078 -17.337359533972631 0 -17.337359533972631 -3.5996558345068479 0 0 0 0 1.0157117325649405 -4.4219868659689912 0 -4.4219868659689912 2.2856317506472692 0 0 0 0 -3.9004832003804495 -4.1504076540804817 0 -4.1504076540804817 8.4665859562519472 0 0 0 0 0.079476364916168579 -1.6531105001350763 0 -1.6531105001350763 11.566665447581045 0 0 0 0 -8.185808968379888 2.1112662811901828 0 2.1112662811901828 73.682761876334553 0 0 0 0 -1.0607322862418107 -4.9765359195400833 0 -4.9765359195400833 16.253140293102973 0 0 0 0 -0.80331197661863296 -1.5672788401926141 0 -1.5672788401926141 13.020128563618812 0 0 0 0 10.643670641900655 -3.8276031284913188 0 -3.8276031284913188 -1.867679519149533 0 0 0 0 0.99315279241997123 -2.7560290733404571 0 -2.7560290733404571 0.75356108858139237 0 0 0 0 27.355695349296006 -22.240985795615416 0 -22.240985795615416 -1.3913812194005004 0 0 0 0 4.9560772807437168 -7.9278100871878223 0 -7.9278100871878223 14.99628927456277 0 0 0 0 -29.660878202763552 -30.618275798980335 0 -30.618275798980335 52.075974970372044 0 0 0 0 7.1791755498539942 -9.3286382202277309 0 -9.3286382202277309 15.346946684221621 0 0 0 0 -29.55578820923688 -33.297761893547431 0 -33.297761893547431 -10.316571878320246 0 0 0 0 -0.17946154868830577 1.0914600407161572 0 1.0914600407161572 2.7748377567025955 0 0 0 0 45.476688880170741 -48.354049171175575 0 -48.354049171175575 -18.491087663984217 0 0 0 0 -12.394791823620835 4.0420633572684892 0 4.0420633572684892 31.791350085564773 0 0 0 0 57.401338013368672 12.705062609624292 0 12.705062609624292 -1.1425033235937008 0 0 0 0 1.8159456632871624 0.69995365977983681 0 0.69995365977983681 2.8347691495688849 0 0 0 0 -1.8318806188870269 -49.98693212156013 0 -49.98693212156013 6.7820670724322554 0 0 0 0 158.79904563699756 -42.523037648534228 0 -42.523037648534228 -8.1209828639257466 0 0 0 0 -22.78555471821937 -21.440343480741603 0 -21.440343480741603 56.270004864098155 0 0 0 0 53.511436234432935 12.582312076745438 0 12.582312076745438 -26.031812216515391 0 0 0 0 0.71809144544327985 -4.5841064034549301 0 -4.5841064034549301 15.927581568710309 0 0 0 0 61.198314388781526 18.437720985566557 0 18.437720985566557 8.8225379335381149 0 0 0 0 -0.36861968223715269 0.11664999581775248 0 0.11664999581775248 2.3088348991095131 0 0 0 0 -29.84899165346188 -18.886885521038494 0 -18.886885521038494 85.240795652469387 0 0 0 0 -25.232796232589223 -14.778424854939658 0 -14.778424854939658 79.939017500990303 0 0 0 0 3.3842339541341353 15.702811836839828 0 15.702811836839828 11.357746982917888 0 0 0 0 -31.531817720436322 -12.619062023761217 0 -12.619062023761217 147.12736129082623 0 0 0 0 176.2718283341278 -168.27373311197152 0 -168.27373311197152 57.687157760607079 0 0 0 0 9.8118734547231927 19.639436184083024 0 19.639436184083024 39.198779888392892 0 0 0 0 -12.838884895656122 -21.038807300748886 0 -21.038807300748886 138.97249391197693 0 0 0 0 -14.532151637745187 23.369548732545809 0 23.369548732545809 111.42780484366813 0 0 0 0 0.14871662667764393 -0.81245257454462561 0 -0.81245257454462561 1.4117922163524668 0 0 0 0 -14.7363777272774 15.835089871994569 0 15.835089871994569 83.09595384340173 0 0 0 0 -18.424407802725117 0.20475136769528035 0 0.20475136769528035 46.380474396733916 0 0 0 0 1.1695247252471805 16.236061207227976 0 16.236061207227976 32.895057938527316 0 0 0 0 5.5091268264329329 5.3339673907903489 0 5.3339673907903489 1.902017314445402 0 0 0 0 -13.490961765064819 -8.1132773101780913 0 -8.1132773101780913 58.42288442003337 0 0 0 0 -0.012475761672875152 -11.295604125338286 0 -11.295604125338286 29.825776581888931 0 0 0 0 -7.039270168579586 34.785131087272021 0 34.785131087272021 80.966041377896545 0 0 0 0 -21.804895819680187 -22.700592599056108 0 -22.700592599056108 49.810911617001693 0 0 0 0 0.16432678209233281 0.080314445014238345 0 0.080314445014238345 -0.083739140882755692 0 0 0 0 -30.992941735323143 20.156955385151377 0 20.156955385151377 146.40230790534406 0 0 0 0 0.0056049099107672289 6.7267602347054662 0 6.7267602347054662 137.47849615449377 0 0 0 0 -18.037291885985461 44.542706517881015 0 44.542706517881015 166.99042561391252 0 0 0 0 -29.265853053182525 13.694605670309102 0 13.694605670309102 170.20408409917127 0 0 0 0 -0.076122854471554077 -6.2624883493772359 0 -6.2624883493772359 166.59596993855303 0 0 0 0 -0.0079619696237158838 -19.018860158925236 0 -19.018860158925236 52.21061412437848 0 0 0 0 -26.799655879753622 -73.333986338198883 0 -73.333986338198883 103.81576297975698 0 0 0 0 -41.63446477262854 -57.817924025523098 0 -57.817924025523098 76.840076196356677 0 0 0 0 -6.0095927605523238 -33.830556130036712 0 -33.830556130036712 79.524146550102159 0 0 0 0 -0.053374793141461846 0.069745211078767966 0 0.069745211078767966 0.032879805815630103 0 0 0 0 47.177332915459729 4.895123226546275 0 4.895123226546275 32.82174014498014 0 0 0 0 4.6313043199155368 -70.035116015340463 0 -70.035116015340463 -50.391060650006693 0 0 0 0 -4.2988077272970404 1.3134270989908288 0 1.3134270989908288 8.5300059860111066 0 0 0 0 32.635100873945703 21.853185389772989 0 21.853185389772989 -101.83457212565281 0 0 0 0 -14.050618556214658 94.775204106146703 0 94.775204106146703 -92.889187608132488 0 0 0 0 -5.4860145155940927 -0.27769046984030865 0 -0.27769046984030865 45.449231418846466 0 0 0 0 -1.1996411894193924 0.52673377689161782 0 0.52673377689161782 -0.90653724398364566 0 0 0 0 115.68729353746919 -14.665846604795661 0 -14.665846604795661 -185.1641048035909 0 0 0 0 -2.6065408183375212 -2.2636585213003855 0 -2.2636585213003855 43.473390174673114 0 0 0 0 332.59919714638977 -41.251793968738639 0 -41.251793968738639 -21.34809301169912 0 0 0 0 -0.51285262678538857 -10.925909319528728 0 -10.925909319528728 -20.075127688221983 0 0 0 0 78.082680692500219 134.43289654995897 0 134.43289654995897 -79.677926721022232 0 0 0 0 -59.191140746577275 122.17460656318872 0 122.17460656318872 24.190685905399732 0 0 0 0 -94.133263051950735 54.267622174498683 0 54.267622174498683 33.636340798948368 0 0 0 0 116.37298572909896 207.45829473634876 0 207.45829473634876 145.10585319298843 0 0 0 0 -59.477717577907697 -28.619165276628337 0 -28.619165276628337 365.84472556066976 0 0 0 0 40.873612404889087 -160.16433777795464 0 -160.16433777795464 310.06307540541457 0 0 0 0 -28.438127705316724 72.440256049725576 0 72.440256049725576 331.0560434426443 0 0 0 0 95.004358816243681 115.27227247980045 0 115.27227247980045 142.40580869115365 0 0 0 0 0.38141037878330519 -0.80749204749782821 0 -0.80749204749782821 4.9043242317856084 0 0 0 0 228.54957790946514 -185.45705804132444 0 -185.45705804132444 160.94995248055784 0 0 0 0 109.46224539447508 -245.76049335598509 0 -245.76049335598509 193.97578700407757 0 0 0 0 -282.54069550526924 -28.346579991575709 0 -28.346579991575709 186.1251671251739 0 0 0 0 -17.081452487992465 62.388917517572736 0 62.388917517572736 129.57474913401529 0 0 0 0 -1.6367843717467498 3.2288842731364653 0 3.2288842731364653 37.99778781065794 0 0 0 0 -105.54915110836987 260.40999566838218 0 260.40999566838218 121.31595785935815 0 0 0 0 70.328491418612998 -76.212901671007785 0 -76.212901671007785 63.017072533184546 0 0 0 0 -91.383635342555863 -292.88919616011117 0 -292.88919616011117 147.53800579745507 0 0 0 0 -40.224558779284962 82.00591476947011 0 82.00591476947011 -74.085302594336099 0 0 0 0 -307.04579830383636 111.38970453370712 0 111.38970453370712 8.5372731353854761 0 0 0 0 -101.91676387942721 32.13459723939377 0 32.13459723939377 -26.168880529410671 0 0 0 0 -1.3740557006838412 2.5789375024631944 0 2.5789375024631944 43.135260164690237 0 0 0 0 -257.69972198751429 198.26403253205353 0 198.26403253205353 112.99031508091866 0 0 0 0 -207.81288450949273 8.8451906071168196 0 8.8451906071168196 158.67982491872681 0 0 0 0 -190.6654476235517 145.79081611750007 0 145.79081611750007 -40.021696701951441 0 0 0 0 -59.249157860075272 100.01903893510773 0 100.01903893510773 -97.006140225887066 0 0 0 0 -1.1936748567992912 8.2034092891371664 0 8.2034092891371664 1.4113485109131716 0 0 0 0 -10.048224590655536 33.610998568634386 0 33.610998568634386 -5.1153288483328652 0 0 0 0 0.10748540990907274 -0.083394166835724093 0 -0.083394166835724093 4.3112298450421633 0 0 0 0 233.5464696890906 -126.30078495231646 0 -126.30078495231646 -3.7112171380867949 0 0 0 0 41.798720017614755 44.561204605635794 0 44.561204605635794 55.988318456016714 0 0 0 0 39.645826185019359 14.578031358447333 0 14.578031358447333 -13.475552948274526 0 0 0 0 -2.2457883338743159 61.499686656861741 0 61.499686656861741 60.542659473838285 0 0 0 0 -43.52919523524497 -35.503295557260572 0 -35.503295557260572 89.842596475820756 0 0 0 0 -18.172072260203322 -9.0225977366953884 0 -9.0225977366953884 11.092128199496074 0 0 0 0 36.252494567640156 -23.15495116621787 0 -23.15495116621787 17.623071006513783 0 0 0 0 0.028418164946921065 2.1542684487935766 0 2.1542684487935766 12.729392327314116 0 0 0 0 -2.5265619882627561 -18.745277763588092 0 -18.745277763588092 -7.8833394279208733 0 0 0 0 -8.5582836124094683 -62.829503693123115 0 -62.829503693123115 19.014212833135389 0 0 0 0 -5.1707683715867319 1.2602964351683568 0 1.2602964351683568 46.496061665267916 0 0 0 0 -0.13365139438784501 1.2409317926719723 0 1.2409317926719723 11.759403027426858 0 0 0 0 -2.5341004808326981 -7.8747635488358014 0 -7.8747635488358014 4.8669502690771367 0 0 0 0 -84.940870117354734 -106.73951756638417 0 -106.73951756638417 69.903865474916529 0 0 0 0 -58.38198257540671 88.723557877950952 0 88.723557877950952 -25.25063158175908 0 0 0 0 -56.537882251824954 -67.900518848664433 0 -67.900518848664433 -16.023977021541214 0 0 0 0 -44.539562624532209 -56.509959506096493 0 -56.509959506096493 -5.4767437144915334 0 0 0 0 -2.8435590180994219 -0.14792409681754037 0 -0.14792409681754037 42.33893210508748 0 0 0 0 -87.209028336229494 141.82033164290624 0 141.82033164290624 57.862582393038792 0 0 0 0 -1.0702443709432785 0.6242151212998408 0 0.6242151212998408 3.596107094591531 0 0 0 0 12.355324488778024 22.752730943597271 0 22.752730943597271 0.47270685117109679 0 0 0 0 -66.394931164032016 -15.928830968859984 0 -15.928830968859984 -55.29259521185304 0 0 0 0 1.7345982072549324 6.5445390148066167 0 6.5445390148066167 5.9043963224571314 0 0 0 0 10.50862160543511 12.175706735521089 0 12.175706735521089 14.472585528332274 0 0 0 0 12.946446752705469 9.9735706023202511 0 9.9735706023202511 8.6501005962927593 0 0 0 0 16.83927742470496 -2.1682535719592124 0 -2.1682535719592124 0.49099081772146747 0 0 0 0 21.532136117565187 7.0380966443772195 0 7.0380966443772195 9.3940480581950396 0 0 0 0 8.050321321376714 27.826249638324953 0 27.826249638324953 65.775440476470976 0 0 0 0 21.45971060401007 23.589087945096253 0 23.589087945096253 19.912876117014093 0 0 0 0 20.44311727795116 27.065535605099285 0 27.065535605099285 47.10006549404352 0 0 0 0 28.109911047510423 42.353095458089228 0 42.353095458089228 50.26397053943947 0 0 0 0 -3.8315061724779298 35.399760694454017 0 35.399760694454017 135.55172407819191 0 0 0 0 -4.2463614113810308 13.956346105849661 0 13.956346105849661 75.257569520050311 0 0 0 0 -4.6042505949344559 28.641482297607581 0 28.641482297607581 98.272145072551211 0 0 0 0 -9.3728473334446107 18.276886436327914 0 18.276886436327914 93.067200236604549 0 0 0 0 8.6013057159148048 0.5508428626562818 0 0.5508428626562818 16.352620459561876 0 0 0 0 -6.2109216443082005 8.2954017006995855 0 8.2954017006995855 63.164745914928517 0 0 0 0 -4.580599543016433 -2.6213765685097314 0 -2.6213765685097314 63.469901738659246 0 0 0 0 -6.0094238753017635 1.1373225849820301 0 1.1373225849820301 87.996572586795082 0 0 0 0 -13.994762120616542 -2.7017441556672566 0 -2.7017441556672566 89.272820400976343 0 0 0 0 -22.695694140752039 -2.9154874331288738 0 -2.9154874331288738 111.12491559002956 0 0 0 0 -19.714937367504035 4.2727571482464555 0 4.2727571482464555 106.8324716296338 0 0 0 0 -20.742138837248604 7.0702972616345505 0 7.0702972616345505 99.576248730190855 0 0 0 0 -24.269243139204264 -13.622852982447512 0 -13.622852982447512 136.82525092006836 0 0 0 0 -23.070579252447601 -8.3323822242236929 0 -8.3323822242236929 101.57684941150364 0 0 0 0 30.465514360662155 62.744141665501957 0 62.744141665501957 129.18797647551401 0 0 0 0 -3.2636281637005595 59.749789041248732 0 59.749789041248732 186.49924987691338 0 0 0 0 -20.716342148166405 21.797221160071786 0 21.797221160071786 133.78475743910531 0 0 0 0 -14.151633643974492 -19.955957487087289 0 -19.955957487087289 107.32178278609354 0 0 0 0 -8.119910121441535 -49.544116797194874 0 -49.544116797194874 229.5704239731167 0 0 0 0 63.833119269149165 -42.216499822154219 0 -42.216499822154219 -1.2905082979268627 0 0 0 0 -1.6761106572794233 -37.455175744638836 0 -37.455175744638836 114.1496161193536 0 0 0 0 -19.917012229822149 -4.8640005158667918 0 -4.8640005158667918 99.658687310951791 0 0 0 0 -3.3480501966321299 -20.898742587420202 0 -20.898742587420202 49.344450166448951 0 0 0 0 -5.6724610950033139 -9.654294546937308 0 -9.654294546937308 47.826049857572343 0 0 0 0 -6.5051665011544628 38.508701657958227 0 38.508701657958227 108.06570772775012 0 0 0 0 -11.437808643976464 25.797538647837428 0 25.797538647837428 75.313951317599276 0 0 0 0 9.1192144419583201 40.659911272858153 0 40.659911272858153 46.867752823272895 0 0 0 0 -7.438472791315256 3.5533903295544462 0 3.5533903295544462 2.2714709669318722 0 0 0 0 -25.78558442518738 32.580012396556413 0 32.580012396556413 -8.7194747161775013 0 0 0 0 33.970637575827823 15.665088981304507 0 15.665088981304507 -34.582535734400153 0 0 0 0 -13.600767044805252 -147.03958146167497 0 -147.03958146167497 63.171398296130064 0 0 0 0 -2.9552910155586298 0.10501781465646332 0 0.10501781465646332 27.750215275753249 0 0 0 0 51.874693125213071 -174.82978482888575 0 -174.82978482888575 65.980817893092535 0 0 0 0 41.287984587995197 -115.797756598462 0 -115.797756598462 3.2204897785304638 0 0 0 0 143.57267752531311 -150.15320253504615 0 -150.15320253504615 13.987701772522996 0 0 0 0 41.180062892881324 -98.009563926905685 0 -98.009563926905685 33.06758446515596 0 0 0 0 39.722638639911906 -113.72496272035096 0 -113.72496272035096 40.58553543020389 0 0 0 0 29.994381135355525 -104.73668635134527 0 -104.73668635134527 45.455021938956634 0 0 0 0 30.409993642533664 -103.41007087833714 0 -103.41007087833714 49.682076809171122 0 0 0 0 -44.635266282929024 -51.719154038761189 0 -51.719154038761189 54.069259245676221 0 0 0 0 38.027078053484615 -132.54345337247651 0 -132.54345337247651 112.63492707361002 0 0 0 0 53.908629001530926 -88.768212183029391 0 -88.768212183029391 92.215791002119659 0 0 0 0 223.89930153941168 -105.96881830645725 0 -105.96881830645725 93.486265015999379 0 0 0 0 223.260661261309 -105.24474618380191 0 -105.24474618380191 112.94217495532939 0 0 0 0 201.55697227542623 -70.866413271345664 0 -70.866413271345664 -17.478081430686871 0 0 0 0 -1.8280768217720009 -0.80636161077667623 0 -0.80636161077667623 4.9238137161386391 0 0 0 0 317.38015644653888 -241.84946528255023 0 -241.84946528255023 185.33669349882985 0 0 0 0 -1.3143429107026767 2.8600650711768232 0 2.8600650711768232 6.7985999818686764 0 0 0 0 283.99861327214467 -139.61577854650386 0 -139.61577854650386 100.77545401256066 0 0 0 0 227.89496173147199 -187.79181694665749 0 -187.79181694665749 181.38208201795351 0 0 0 0 69.493812203110338 -113.38209187329994 0 -113.38209187329994 100.23258234289824 0 0 0 0 65.713186693779789 -116.83862137743563 0 -116.83862137743563 154.03515365364728 0 0 0 0 -12.376474419754459 -43.705625358264115 0 -43.705625358264115 186.2616440304846 0 0 0 0 8.9103897669456273 -144.21142317261547 0 -144.21142317261547 288.14199603979068 0 0 0 0 157.81078467533098 -234.78328788691579 0 -234.78328788691579 343.10123640223173 0 0 0 0 210.90122637259992 1046.4953538187547 0 1046.4953538187547 709.29084115409933 0 0 0 0 -1.5018600350150564 -59.686642857213883 0 -59.686642857213883 106.15737206541235 0 0 0 0 -25.05782595038113 -45.8375705364233 0 -45.8375705364233 101.48054144678099 0 0 0 0 -63.559659815767873 18.092549198809138 0 18.092549198809138 116.9423867962887 0 0 0 0 -40.17168642390493 43.139132966512989 0 43.139132966512989 28.741032872603682 0 0 0 0 164.26676350673824 -15.36974497263509 0 -15.36974497263509 -215.97948831837857 0 0 0 0 12.065232004264455 -19.796187854991786 0 -19.796187854991786 11.434870550005513 0 0 0 0 255.04346871370467 54.939403621807287 0 54.939403621807287 -203.81020506421191 0 0 0 0 -183.17042369872433 91.913635386114038 0 91.913635386114038 146.34954291265421 0 0 0 0 16.780246799366669 -23.218800075224934 0 -23.218800075224934 15.228838227129735 0 0 0 0 -98.841755110438498 -205.28750238223438 0 -205.28750238223438 13.742023649465409 0 0 0 0 169.81283634039846 118.65938060879125 0 118.65938060879125 83.491686198030948 0 0 0 0 -561.53653673527151 -200.00295992418251 0 -200.00295992418251 1576.9986377196619 0 0 0 0 -211.37356961527621 57.416204110953913 0 57.416204110953913 965.42391662049704 0 0 0 0 242.55903674254478 -337.99696801364735 0 -337.99696801364735 51.163978482618404 0 0 0 0 11.012741885179544 -21.375415500914627 0 -21.375415500914627 13.403477032145524 0 0 0 0 -56.172187516058329 -27.404805455942551 0 -27.404805455942551 1066.632982520875 0 0 0 0 85.936742292833515 -521.28531593632943 0 -521.28531593632943 1137.6531542818248 0 0 0 0 -164.26781060058602 -128.19605013328692 0 -128.19605013328692 665.60704148012155 0 0 0 0 -80.718333165204967 -224.00778076220013 0 -224.00778076220013 692.7218798056274 0 0 0 0 -117.35593779407282 -69.590482806961518 0 -69.590482806961518 650.77168155013715 0 0 0 0 -6.1995915771549335 21.546126018161885 0 21.546126018161885 320.14023611895391 0 0 0 0 -172.62237278654061 -82.51532700883763 0 -82.51532700883763 546.43673942779424 0 0 0 0 -80.518344155564591 -139.41397753055207 0 -139.41397753055207 295.13788184434816 0 0 0 0 -61.630482869646585 -33.761012630660844 0 -33.761012630660844 291.70086221725796 0 0 0 0 52.998991408591792 -6.0606177904119249 0 -6.0606177904119249 26.374146714922972 0 0 0 0 -44.272193639998264 247.7948646066526 0 247.7948646066526 -66.446975520360866 0 0 0 0 39.53165389328251 164.10141336257584 0 164.10141336257584 -198.29216430825181 0 0 0 0 -7.7824203892341757 -126.64962347857363 0 -126.64962347857363 -157.78305923107837 0 0 0 0 -75.701696555658145 115.47721720994195 0 115.47721720994195 148.74334427942085 0 0 0 0 9.5894593966700086 -100.47165902506094 0 -100.47165902506094 184.62635793228401 0 0 0 0 285.9070006290317 77.25772471486016 0 77.25772471486016 -167.97966189709769 0 0 0 0 184.21420389956074 315.93844297170108 0 315.93844297170108 318.00950010231463 0 0 0 0 10.558875465351093 23.695992916746036 0 23.695992916746036 69.772841012065328 0 0 0 0 -24.630289215401717 -70.510019919103854 0 -70.510019919103854 -212.65661336756602 0 0 0 0 2.3348015495926475 -13.769875605712173 0 -13.769875605712173 16.072707085366574 0 0 0 0 2.9614312883713487 4.1462517643594623 0 4.1462517643594623 11.498522346066892 0 0 0 0 103.65917417640094 37.174189752477105 0 37.174189752477105 35.663473471306133 0 0 0 0 56.372413763060194 9.4065701869694749 0 9.4065701869694749 26.196097634303442 0 0 0 0 0.89324269479701979 2.9332393283894191 0 2.9332393283894191 8.0050701649491671 0 0 0 0 5.4736589966187239 20.054021383035433 0 20.054021383035433 36.319975417223759 0 0 0 0 11.49553613122265 12.682243217936048 0 12.682243217936048 32.032155415276065 0 0 0 0 5.4105115244897375 13.791498195499358 0 13.791498195499358 34.764460744191837 0 0 0 0 2.4416776745999869 1.550303514874031 0 1.550303514874031 56.768486855158699 0 0 0 0 6.7073924191336118 21.541810202124907 0 21.541810202124907 38.811914760703075 0 0 0 0 20.864673274390498 3.8378332555221277 0 3.8378332555221277 33.708501919703849 0 0 0 0 4.0388459850710206 19.560109045240097 0 19.560109045240097 52.605917289944045 0 0 0 0 27.84927614623922 -6.6522370466846041 0 -6.6522370466846041 71.156009146601718 0 0 0 0 -9.4809238101523192 18.531761939622811 0 18.531761939622811 95.614310067019687 0 0 0 0 2.8281952425474799 -18.318203016784537 0 -18.318203016784537 3.9450276603747625 0 0 0 0 -0.11019618070589199 -0.81545078918550473 0 -0.81545078918550473 -0.24330217451343117 0 0 0 0 8.7151159158465816 11.064145735628699 0 11.064145735628699 62.069058387180121 0 0 0 0 -7.9011924122943356 21.01461210945854 0 21.01461210945854 49.61234591210814 0 0 0 0 -17.293788689651961 17.719153685518904 0 17.719153685518904 98.474096347228624 0 0 0 0 -18.218554219402534 -10.465951246347686 0 -10.465951246347686 86.324828660537605 0 0 0 0 6.2125229641574107 -2.9735505597894729 0 -2.9735505597894729 6.91862537048587 0 0 0 0 19.329686819207765 -19.218288085688982 0 -19.218288085688982 42.796273049832962 0 0 0 0 75.244885713086774 44.861217377678258 0 44.861217377678258 76.346820128557738 0 0 0 0 25.032455871719428 -6.844196339006885 0 -6.844196339006885 149.47673758062592 0 0 0 0 11.484449083946409 -24.500569990152144 0 -24.500569990152144 128.81435481584049 0 0 0 0 -2.0835940731550977 -2.9808020270120323 0 -2.9808020270120323 116.18506469775457 0 0 0 0 -6.1934510622752441 -18.764264486595494 0 -18.764264486595494 159.14189013594296 0 0 0 0 0.34307950023174527 -7.6475697604764719 0 -7.6475697604764719 175.32204271088995 0 0 0 0 -12.591557797931841 2.4867727524833754 0 2.4867727524833754 101.22569619707792 0 0 0 0 -11.669887875774293 -14.846947924124834 0 -14.846947924124834 102.42844473881905 0 0 0 0 0.42304641445957714 -33.303377095311589 0 -33.303377095311589 138.55847282402101 0 0 0 0 -13.328444566698636 -12.727798671279743 0 -12.727798671279743 113.09136804175796 0 0 0 0 -21.904285961913928 -5.786165561836242 0 -5.786165561836242 111.76327836855489 0 0 0 0 -11.631144161770862 -10.002369283334701 0 -10.002369283334701 105.00485497273621 0 0 0 0 13.95957857044209 -23.673527109764109 0 -23.673527109764109 68.395467732865654 0 0 0 0 4.5617732762548959 4.0209874717743617 0 4.0209874717743617 2.1482210541432352 0 0 0 0 -47.060360193512679 0.025707740685902536 0 0.025707740685902536 30.969773532211548 0 0 0 0 0.20589155997973307 4.2206649683357682 0 4.2206649683357682 59.308586027531419 0 0 0 0 -0.30525982360111215 2.5889563898438013 0 2.5889563898438013 3.6558465542919123 0 0 0 0 6.1298387367253326 -2.2580090773517441 0 -2.2580090773517441 57.332013687599101 0 0 0 0 -13.255140140862295 -5.8612815505621256 0 -5.8612815505621256 101.43582223514386 0 0 0 0 26.72704758338773 -42.662705477814598 0 -42.662705477814598 95.422156109623756 0 0 0 0 29.774518944590227 -57.754032046766952 0 -57.754032046766952 115.51401596276264 0 0 0 0 122.91886661863833 228.55848489298296 0 228.55848489298296 -365.65968592398349 0 0 0 0 -69.448253147845548 -5.3641065929623437 0 -5.3641065929623437 51.318341904581757 0 0 0 0 6.9785014485762993 -62.452641549782129 0 -62.452641549782129 167.17145020897442 0 0 0 0 2.5505291084631301 1.771117914729345 0 1.771117914729345 0.34661355091780877 0 0 0 0 3.0021985901687835 2.2696399296427074 0 2.2696399296427074 2.0096789077832682 0 0 0 0 69.441295725588418 23.557983142458397 0 23.557983142458397 -31.949271568846598 0 0 0 0 -27.686216909104019 -50.334141698413077 0 -50.334141698413077 -171.48746016212681 0 0 0 0 -51.101436747037781 -111.25943349598492 0 -111.25943349598492 358.58416887644853 0 0 0 0 -196.5122729164043 144.01084915157844 0 144.01084915157844 10.990077098045731 0 0 0 0 2.3734203102635547 200.98901542231033 0 200.98901542231033 -230.76581535367586 0 0 0 0 64.081781396974066 -14.92113485039954 0 -14.92113485039954 36.42333407226397 0 0 0 0 -14.242946889397899 138.79494546478236 0 138.79494546478236 -27.651333852219977 0 0 0 0 18.307738806737689 -9.6452269077344681 0 -9.6452269077344681 -148.40528642413847 0 0 0 0 -44.759913121319528 21.77367196301384 0 21.77367196301384 205.36222733462637 0 0 0 0 35.551215069251612 -111.24463869357169 0 -111.24463869357169 39.245769967208616 0 0 0 0 38.534097249023432 -165.55861476866266 0 -165.55861476866266 269.06898740201541 0 0 0 0 76.024823919188748 211.50711055581633 0 211.50711055581633 168.22902287132092 0 0 0 0 334.77371660280596 -20.126982712850804 0 -20.126982712850804 -82.222218827620964 0 0 0 0 -124.00959222069922 76.794459150656621 0 76.794459150656621 -77.622354697596165 0 0 0 0 52.697932844801358 -107.4620500942201 0 -107.4620500942201 -182.3763653159258 0 0 0 0 -6.5800939366340572 -38.773973092076631 0 -38.773973092076631 -4.4212119708317914 0 0 0 0 1.9825609334903214 -0.013174701363752206 0 -0.013174701363752206 -0.41317053203091803 0 0 0 0 76.378763650597421 60.447023275781248 0 60.447023275781248 -297.43818817087595 0 0 0 0 -243.06563717296194 75.957868462646729 0 75.957868462646729 333.12526656029513 0 0 0 0 150.98554211104624 125.31235893254052 0 125.31235893254052 121.99578178912634 0 0 0 0 100.9926012556308 33.63382751473182 0 33.63382751473182 -45.851967097663874 0 0 0 0 1.5703711335499144 0.44205831252996575 0 0.44205831252996575 0.29411729417758181 0 0 0 0 45.882563056505283 -182.35422867343505 0 -182.35422867343505 342.03833709643368 0 0 0 0 -188.49761471513648 3.802662277710624 0 3.802662277710624 363.80384701894945 0 0 0 0 6.5946635410005392 10.561023364768822 0 10.561023364768822 29.261227603092806 0 0 0 0 411.83927868938554 -30.367619810276665 0 -30.367619810276665 189.78742425027303 0 0 0 0 0.0054529097299109708 5.1996337542059337 0 5.1996337542059337 49.624621172573825 0 0 0 0 1.4458256383962453 -14.014692044591868 0 -14.014692044591868 16.140800204303076 0 0 0 0 -1.5784148586017182 2.1049185521696927 0 2.1049185521696927 47.747992051885376 0 0 0 0 16.909323343721553 20.420385833160253 0 20.420385833160253 66.053084621526068 0 0 0 0 0.38415343746156339 13.929587521021858 0 13.929587521021858 65.194877573492704 0 0 0 0 23.057519972676232 23.209285548411572 0 23.209285548411572 52.986782074876828 0 0 0 0 36.106560468501584 46.621060620840581 0 46.621060620840581 78.836887919290803 0 0 0 0 0.62898535372983133 21.967622288771963 0 21.967622288771963 76.763009604753279 0 0 0 0 34.707946318128961 53.4770043897297 0 53.4770043897297 90.352086299855728 0 0 0 0 5.8117762774511448 -32.302711023534357 0 -32.302711023534357 20.183511870303846 0 0 0 0 5.804192371571105 34.158320579532301 0 34.158320579532301 101.02341310658085 0 0 0 0 -11.157731308648863 -7.33086921551876 0 -7.33086921551876 15.634642297467508 0 0 0 0 -24.013241810005411 -13.587166988763784 0 -13.587166988763784 59.798602121385557 0 0 0 0 249.35994322869919 -11.552771950431634 0 -11.552771950431634 105.3566743566189 0 0 0 0 -5.9486796570928231 -12.454786732802674 0 -12.454786732802674 12.956213264086855 0 0 0 0 3.7099796169209185 74.850393150140007 0 74.850393150140007 75.782994958473864 0 0 0 0 25.159215787283756 78.025171739045618 0 78.025171739045618 -66.762201274177642 0 0 0 0 11.960680781608517 -50.391918764544243 0 -50.391918764544243 -57.681479612400381 0 0 0 0 -22.801603465636163 3.5653810329495172 0 3.5653810329495172 37.099480423872592 0 0 0 0 -12.872712910603253 -6.5644694482229795 0 -6.5644694482229795 14.336070908972133 0 0 0 0 -23.920874384150011 12.63923133791468 0 12.63923133791468 41.432515086606145 0 0 0 0 -31.630645494582495 27.487524070449581 0 27.487524070449581 12.944879146416497 0 0 0 0 -18.037961793463182 -2.1941075439681299 0 -2.1941075439681299 20.788317168367939 0 0 0 0 -24.638417689662219 1.7231893725693226 0 1.7231893725693226 49.44578886571253 0 0 0 0 -27.784628446911029 12.741393216804681 0 12.741393216804681 41.139184361250955 0 0 0 0 -4.6242693617305122 -25.824776078206924 0 -25.824776078206924 62.397245305022807 0 0 0 0 -30.423707565064319 6.4758290204636069 0 6.4758290204636069 66.25297231348668 0 0 0 0 -6.4775672337964352 20.465096051168075 0 20.465096051168075 26.010657126324077 0 0 0 0 -12.50774257640569 25.889085205399169 0 25.889085205399169 34.756365704135533 0 0 0 0 -12.610709561740089 10.461016510107953 0 10.461016510107953 21.285395418158018 0 0 0 0 -3.4813978733533943 15.45720469832645 0 15.45720469832645 12.877418302010156 0 0 0 0 -0.87471542133036051 9.5850911046402096 0 9.5850911046402096 30.87595386885323 0 0 0 0 -12.323493982313266 27.708255485780683 0 27.708255485780683 26.958322066782102 0 0 0 0 -12.42376477082081 12.671022491205804 0 12.671022491205804 25.717373254490667 0 0 0 0 -28.013255397795092 16.396456036713062 0 16.396456036713062 28.378702160931425 0 0 0 0 -5.6334271219210716 -2.6816587259000464 0 -2.6816587259000464 1.3899608911925441 0 0 0 0 -40.586802171140704 -12.610269876113307 0 -12.610269876113307 29.092658853565808 0 0 0 0 -3.3031525840092399 1.4151606489685946 0 1.4151606489685946 7.2516469723414048 0 0 0 0 -1.2671193160874306 2.3847622300789482 0 2.3847622300789482 1.7941979979734413 0 0 0 0 -6.2084992050785583 8.7928734551644681 0 8.7928734551644681 7.2222703385284888 0 0 0 0 -16.315989539040231 62.221486431946687 0 62.221486431946687 42.856106474304397 0 0 0 0 -10.972482936709879 15.46022940796049 0 15.46022940796049 0.90487979733026691 0 0 0 0 30.429636276970768 10.862852216392639 0 10.862852216392639 -11.508977325520391 0 0 0 0 40.323813823868505 62.299450559952675 0 62.299450559952675 46.448481750776409 0 0 0 0 16.323497009110028 47.279837527861673 0 47.279837527861673 111.07015372531896 0 0 0 0 2.0291238621034382 0.35812722469742653 0 0.35812722469742653 -1.001197933085308 0 0 0 0 42.70803133611912 29.331762824644102 0 29.331762824644102 110.56887945230119 0 0 0 0 58.631130181843218 131.49104862009699 0 131.49104862009699 165.65172362158773 0 0 0 0 37.002015744454638 76.775752381843631 0 76.775752381843631 163.08519311368582 0 0 0 0 27.78324762122358 89.214170045270293 0 89.214170045270293 146.68911508555175 0 0 0 0 19.991866685150171 72.922211950994097 0 72.922211950994097 133.37602301771403 0 0 0 0 29.143624338837185 66.684864842824027 0 66.684864842824027 99.461714126111474 0 0 0 0 24.001105666712476 81.247995204350445 0 81.247995204350445 122.64610024628928 0 0 0 0 18.844723667141281 89.13196928697289 0 89.13196928697289 156.79285357700428 0 0 0 0 28.02355405290578 41.4923038565139 0 41.4923038565139 51.671363233064767 0 0 0 0 5.3838513011849045 79.129545361807686 0 79.129545361807686 90.335051471352926 0 0 0 0 26.768950327824598 79.234997907886282 0 79.234997907886282 89.610889120114734 0 0 0 0 11.078902805902771 83.93059856967011 0 83.93059856967011 112.99118861340685 0 0 0 0 22.476509728651479 71.508795610439847 0 71.508795610439847 108.35462077718694 0 0 0 0 27.189761693153542 87.820143695600564 0 87.820143695600564 115.59375173650915 0 0 0 0 19.584388679591427 84.651326409788453 0 84.651326409788453 121.89980777923483 0 0 0 0 27.924561540686923 85.921410952157657 0 85.921410952157657 119.37300316634355 0 0 0 0 37.154401346199393 98.307699958182639 0 98.307699958182639 128.18932709790533 0 0 0 0 27.266381773267028 82.704342413519043 0 82.704342413519043 130.19212416620576 0 0 0 0 27.873608297678174 98.302265453225118 0 98.302265453225118 138.7407567454793 0 0 0 0 23.340591248958372 77.346801515946936 0 77.346801515946936 116.2141142784385 0 0 0 0 23.553458889463968 89.420849150061258 0 89.420849150061258 119.92083526267379 0 0 0 0 28.962819059331025 80.699214827327523 0 80.699214827327523 136.17849281571398 0 0 0 0 31.274994662087579 78.575040674739284 0 78.575040674739284 134.48298274257104 0 0 0 0 50.087852887916029 89.289567617946886 0 89.289567617946886 129.03153598628342 0 0 0 0 47.976755145949973 112.1896456169261 0 112.1896456169261 142.34447194467066 0 0 0 0 31.741883045218245 112.96528803781257 0 112.96528803781257 155.26960123406025 0 0 0 0 34.226734835885949 104.86330898474989 0 104.86330898474989 151.42997375602135 0 0 0 0 44.256167097942182 121.27035847744264 0 121.27035847744264 168.53696374126594 0 0 0 0 30.637046838573262 108.15068521644571 0 108.15068521644571 148.65108648620662 0 0 0 0 30.65725293605432 98.220140280376654 0 98.220140280376654 135.12951166897255 0 0 0 0 27.633414308559129 94.825421405732868 0 94.825421405732868 138.4097917972249 0 0 0 0 57.462597894330997 86.466748868362629 0 86.466748868362629 65.140431049134349 0 0 0 0 27.026633541266165 72.733188258338487 0 72.733188258338487 84.641179079131689 0 0 0 0 47.923768830184031 80.979351678721287 0 80.979351678721287 78.725777902232949 0 0 0 0 52.268712791897087 66.864398319332395 0 66.864398319332395 21.730324475443922 0 0 0 0 54.523282168921014 51.958991366554983 0 51.958991366554983 8.4212869022303494 0 0 0 0 -4.6115898915368803 54.4976762012775 0 54.4976762012775 89.271103202248923 0 0 0 0 24.095779694575867 39.797578542726114 0 39.797578542726114 31.083351211680565 0 0 0 0 17.663696699607044 82.663373695017071 0 82.663373695017071 116.08186850891798 0 0 0 0 18.652266602864756 70.114733206864912 0 70.114733206864912 83.137561160358018 0 0 0 0 16.102093415346872 82.741142123981263 0 82.741142123981263 133.38260302552953 0 0 0 0 23.868486652686272 71.626436606136849 0 71.626436606136849 122.00891787774162 0 0 0 0 23.232273640464769 77.398802918876754 0 77.398802918876754 137.66816417302471 0 0 0 0 23.914564185173504 69.099992000774364 0 69.099992000774364 149.48645275189483 0 0 0 0 28.126861507153762 69.329543378473318 0 69.329543378473318 136.41141317482106 0 0 0 0 32.317403550487825 89.76061041696812 0 89.76061041696812 130.05044481914956 0 0 0 0 60.635956567422568 103.61974065943559 0 103.61974065943559 128.10115464929549 0 0 0 0 29.020660816482291 77.548800528318679 0 77.548800528318679 173.63240445805422 0 0 0 0 -0.48894433081605759 -0.46495227013490137 0 -0.46495227013490137 0.18122688636103135 0 0 0 0 55.040605441289074 57.366159985354898 0 57.366159985354898 112.11463065819862 0 0 0 0 1.2083535813207047 0.24346181108741405 0 0.24346181108741405 -0.95065663570059655 0 0 0 0 38.029303514393064 43.450374444000772 0 43.450374444000772 168.99945761695471 0 0 0 0 52.522448683066756 28.627312623073522 0 28.627312623073522 113.89368644182105 0 0 0 0 50.106891188772977 66.014150349015836 0 66.014150349015836 113.00296486158913 0 0 0 0 33.633503428010073 55.765044331576064 0 55.765044331576064 138.58303042425541 0 0 0 0 51.376162726173447 67.065531496155018 0 67.065531496155018 90.05903414084969 0 0 0 0 6.9417733820831131 7.2694298106580391 0 7.2694298106580391 7.1057489569320751 0 0 0 0 3.6040372393026701 4.9509602068410459 0 4.9509602068410459 6.6129113433671591 0 0 0 0 76.877556517461215 129.41142171379033 0 129.41142171379033 142.72396142424259 0 0 0 0 74.080538562801081 85.966986478422768 0 85.966986478422768 128.86159475146269 0 0 0 0 -1.3737814317383958 0.14848275137595834 0 0.14848275137595834 4.895605014731359 0 0 0 0 -115.29775306805016 -43.072451841460861 0 -43.072451841460861 91.421676372483489 0 0 0 0 -0.8644808308496863 3.487864386768706 0 3.487864386768706 9.3196999260762823 0 0 0 0 -64.650952164442288 -52.979378757801896 0 -52.979378757801896 84.754497625603108 0 0 0 0 19.351627897024429 124.05452260419133 0 124.05452260419133 123.77300554049725 0 0 0 0 4.155127557272408 4.7198669959034305 0 4.7198669959034305 4.3190515002352186 0 0 0 0 56.70224827991774 62.578895816943259 0 62.578895816943259 68.785051871810651 0 0 0 0 0.84062417342697682 0.28580040175084775 0 0.28580040175084775 -0.78318301772358723 0 0 0 0 38.817856728931986 50.613621651120411 0 50.613621651120411 68.534623383573489 0 0 0 0 27.177619893483325 35.490896392802824 0 35.490896392802824 60.188861183163681 0 0 0 0 49.956507546516491 35.204689849888382 0 35.204689849888382 46.895888651968562 0 0 0 0 74.138438559494034 88.849075828511559 0 88.849075828511559 75.59647696299362 0 0 0 0 43.132198243635912 -49.174582625266339 0 -49.174582625266339 -69.35831707053876 0 0 0 0 0.38134352376120662 0.15927835619847741 0 0.15927835619847741 -0.38740609335886234 0 0 0 0 32.013842542917445 68.718970447755964 0 68.718970447755964 81.684501393181563 0 0 0 0 -5.295183609767264 26.181768926241602 0 26.181768926241602 -6.4473809255723609 0 0 0 0 4.6110255802709617 12.877670246562047 0 12.877670246562047 -32.87302141469263 0 0 0 0 81.638318227099205 52.813356379008837 0 52.813356379008837 -78.849284674768569 0 0 0 0 -12.516949226045028 74.839593003211121 0 74.839593003211121 -46.115941045805812 0 0 0 0 59.252264682505938 20.772178820709087 0 20.772178820709087 -40.259568913126714 0 0 0 0 58.649916581866819 12.292503334356297 0 12.292503334356297 -52.171805771111394 0 0 0 0 143.48413483149943 -29.570984522324579 0 -29.570984522324579 -44.634949755361959 0 0 0 0 75.267203993612839 6.4910637668945128 0 6.4910637668945128 -39.296964641165687 0 0 0 0 90.041442225142646 -20.901625432394212 0 -20.901625432394212 -73.740891036017274 0 0 0 0 71.491079200668537 -43.890426038808073 0 -43.890426038808073 -26.425309655445744 0 0 0 0 71.516051104189955 -60.090760317136301 0 -60.090760317136301 26.945642943654093 0 0 0 0 58.763236874543054 -6.223033814880182 0 -6.223033814880182 6.0837338429773808 0 0 0 0 -108.18425103559201 -87.973058062535529 0 -87.973058062535529 513.15719224665372 0 0 0 0 278.19927077470038 -21.281855056859058 0 -21.281855056859058 20.84856283732006 0 0 0 0 0.9276805182846064 2.0550749869781555 0 2.0550749869781555 4.4006520329531327 0 0 0 0 -131.08334284134708 -200.40840923962969 0 -200.40840923962969 283.74507731870108 0 0 0 0 -60.695251658994493 -7.1533787239313824 0 -7.1533787239313824 613.70948250926449 0 0 0 0 -71.294077332163397 -126.09600841494102 0 -126.09600841494102 549.4190013215175 0 0 0 0 -116.30859921770252 -110.0631456786723 0 -110.0631456786723 617.54620971958502 0 0 0 0 211.48449936821635 198.47193002029235 0 198.47193002029235 254.22149370502302 0 0 0 0 -315.63583474843381 -118.07071853138041 0 -118.07071853138041 317.96951291039295 0 0 0 0 -11.672668326067367 -57.817460462847521 0 -57.817460462847521 -35.693882009560184 0 0 0 0 -0.24429809864027507 0.15666375938046428 0 0.15666375938046428 1.9327881837438099 0 0 0 0 332.52191521545296 459.64662050510378 0 459.64662050510378 343.00413811711041 0 0 0 0 86.55163249479773 119.40578508193721 0 119.40578508193721 173.14457947638948 0 0 0 0 10.35118138129252 171.61911856242659 0 171.61911856242659 181.23778568957641 0 0 0 0 -2.0608694777822194 111.3973583646839 0 111.3973583646839 175.16771468561637 0 0 0 0 -68.779979972359342 28.599327693056694 0 28.599327693056694 -3.4860703105641733 0 0 0 0 -1.3091342582179568 0.39073804554664804 0 0.39073804554664804 4.7409580983284627 0 0 0 0 1.9781200098875966 -2.1711598133192496 0 -2.1711598133192496 2.3605482044180661 0 0 0 0 260.97718408422384 39.189744165181764 0 39.189744165181764 -158.26591557171196 0 0 0 0 226.83811200930199 -520.19903679347772 0 -520.19903679347772 -5.5205748873404445 0 0 0 0 35.49571813936808 100.253642071904 0 100.253642071904 241.7533780982194 0 0 0 0 -252.81164043856597 -139.05758368490069 0 -139.05758368490069 166.39373667342443 0 0 0 0 1.6247780486810601 -3.6799953692864591 0 -3.6799953692864591 5.9808632164659628 0 0 0 0 -5.9382737749993453 45.501695670263871 0 45.501695670263871 99.61434461988938 0 0 0 0 -160.43787869295164 251.24876523658895 0 251.24876523658895 265.48067545237427 0 0 0 0 -65.362322870122853 58.585332901086076 0 58.585332901086076 625.15904548244725 0 0 0 0 367.42234020582509 -98.67704168176715 0 -98.67704168176715 404.74994182191585 0 0 0 0 362.50602098623108 -153.32122514517323 0 -153.32122514517323 131.9117568197762 0 0 0 0 -235.82845336922156 147.17945563619833 0 147.17945563619833 775.95075586697203 0 0 0 0 400.25349786924608 -192.37209765187799 0 -192.37209765187799 538.05888302889434 0 0 0 0 -61.64066442612102 -161.90992646703307 0 -161.90992646703307 654.28616588945442 0 0 0 0 38.612009116119225 -106.44770115317806 0 -106.44770115317806 616.55775635177088 0 0 0 0 4.4419985228259975 -4.7348938675568206 0 -4.7348938675568206 612.28161348499634 0 0 0 0 349.21477072496145 -16.628007831743162 0 -16.628007831743162 554.03375166663682 0 0 0 0 42.793832351258061 -169.87456762518195 0 -169.87456762518195 654.27799103558937 0 0 0 0 97.215819386635303 -162.3730811232017 0 -162.3730811232017 524.84736360789248 0 0 0 0 151.6972229932353 -211.57887928933269 0 -211.57887928933269 530.09743853898544 0 0 0 0 392.71947907631699 -320.35529483405941 0 -320.35529483405941 491.40771522003342 0 0 0 0 40.269162122803209 -270.67770745318558 0 -270.67770745318558 569.42946796703836 0 0 0 0 75.312209028632424 -296.56956814206933 0 -296.56956814206933 587.21551548432763 0 0 0 0 -9.636442404112131 -146.88632605336534 0 -146.88632605336534 502.35472378582926 0 0 0 0 242.90590882342974 -419.62575707064389 0 -419.62575707064389 613.61113078451672 0 0 0 0 392.45556637629562 -218.12248451703161 0 -218.12248451703161 306.81389838384348 0 0 0 0 440.11315748262928 -332.32812083808676 0 -332.32812083808676 652.25492819781721 0 0 0 0 -0.87022538325964627 -0.66687618497407897 0 -0.66687618497407897 4.0840290860039374 0 0 0 0 607.24048069707032 -401.13298320965259 0 -401.13298320965259 168.66399531134812 0 0 0 0 20.789316338363605 79.204780759567996 0 79.204780759567996 24.497025554730499 0 0 0 0 -22.923221822292135 62.858179710679906 0 62.858179710679906 102.73914666649944 0 0 0 0 134.455345702057 14.396786676254123 0 14.396786676254123 -27.039149321164587 0 0 0 0 -9.6095585257526182 -39.485619844490429 0 -39.485619844490429 423.0044982308973 0 0 0 0 24.016028725305976 -36.236239473474711 0 -36.236239473474711 -9.6665538136803661 0 0 0 0 0.011706562369287354 2.3676316831574553 0 2.3676316831574553 6.2938856102293528 0 0 0 0 -48.393019812674538 2.2549057146370615 0 2.2549057146370615 -28.59993967700575 0 0 0 0 -16.585179733107452 0.57045228333299747 0 0.57045228333299747 3.0727830399555387 0 0 0 0 -4.3031832065739763 -27.983694377773645 0 -27.983694377773645 -11.948967098982394 0 0 0 0 -1.1762355575281251 -0.12391772453847949 0 -0.12391772453847949 7.5906244949936479 0 0 0 0 299.5243896451866 -170.50474773113092 0 -170.50474773113092 70.417203768816762 0 0 0 0 483.96001923705717 -218.55692127523798 0 -218.55692127523798 35.870434078377002 0 0 0 0 202.8072642538788 -308.41925694110796 0 -308.41925694110796 400.8793791044518 0 0 0 0 34.528908137772191 31.484476152621937 0 31.484476152621937 790.3142934759162 0 0 0 0 339.87158396752511 -501.66974914708044 0 -501.66974914708044 562.62860985945736 0 0 0 0 25.171583527961104 -154.4071445360787 0 -154.4071445360787 394.46883746175081 0 0 0 0 152.01102614726904 -219.56217517382174 0 -219.56217517382174 209.01450214561555 0 0 0 0 164.31626997283183 -215.90413130491288 0 -215.90413130491288 205.35488595837523 0 0 0 0 257.37665042282174 -256.33731080807047 0 -256.33731080807047 131.7699083895277 0 0 0 0 110.68201810404867 -162.61484262832892 0 -162.61484262832892 141.77990515453712 0 0 0 0 -253.81065701605604 -443.29462325238819 0 -443.29462325238819 2497.6939637202067 0 0 0 0 181.20472853301328 -225.61166476557628 0 -225.61166476557628 113.57689990341896 0 0 0 0 188.31872980794665 -209.77278277730693 0 -209.77278277730693 105.52450314861198 0 0 0 0 210.54864662451428 -211.21966981112928 0 -211.21966981112928 96.226849492712063 0 0 0 0 307.7795664201202 -178.91799247728159 0 -178.91799247728159 72.201193982982659 0 0 0 0 213.04662440143431 -149.51590632072475 0 -149.51590632072475 63.08307861130379 0 0 0 0 98.146856068550733 -122.99810215644902 0 -122.99810215644902 133.21404615233769 0 0 0 0 -1.0134512744322137 -0.74352705587079981 0 -0.74352705587079981 13.089259858199512 0 0 0 0 -2.3432539682580473 -0.61201163312313156 0 -0.61201163312313156 9.3291701526348021 0 0 0 0 173.0241634782596 -250.39349110071998 0 -250.39349110071998 61.364297173859086 0 0 0 0 -0.89966674291866644 -0.049942085962953797 0 -0.049942085962953797 1.6616835204475322 0 0 0 0 116.11760075795728 -180.48384699731469 0 -180.48384699731469 283.31399429590965 0 0 0 0 173.59328560994385 -239.48781525887171 0 -239.48781525887171 145.06285473043317 0 0 0 0 99.182171897663679 -532.53686831107734 0 -532.53686831107734 639.04546302996459 0 0 0 0 -255.02023649804755 632.6343784452373 0 632.6343784452373 1007.0708632714595 0 0 0 0 -143.37916855947617 -107.2812633003341 0 -107.2812633003341 -71.712360156592695 0 0 0 0 -0.6311210789887427 1.5181390400286077 0 1.5181390400286077 7.5942178797572808 0 0 0 0 -1.0155736765774703 -2.7804444272374127 0 -2.7804444272374127 -0.065674320332618663 0 0 0 0 -200.08005143712995 10.465029593287909 0 10.465029593287909 82.071527992717165 0 0 0 0 -27.274787002975664 -506.56060563057736 0 -506.56060563057736 1754.6034151876447 0 0 0 0 -10.91777596560695 6.6791316619855934 0 6.6791316619855934 -25.794526813915581 0 0 0 0 -2.4041599071473891 -5.0034458082117652 0 -5.0034458082117652 7.4662370735013539 0 0 0 0 -248.82135910070954 -108.51955594543688 0 -108.51955594543688 2326.6851235279901 0 0 0 0 -46.460416112246435 -151.67119937402458 0 -151.67119937402458 2306.9138738505862 0 0 0 0 307.55607245931077 -406.8072175029356 0 -406.8072175029356 2905.3716624932786 0 0 0 0 752.66821062218241 -730.52524185867514 0 -730.52524185867514 2723.9442202475911 0 0 0 0 -149.6704578551572 516.38219182817556 0 516.38219182817556 2062.7991144779808 0 0 0 0 78.469933565327096 690.72743504481696 0 690.72743504481696 393.40919450046204 0 0 0 0 -8.5642235633227664 -4.0663589946709919 0 -4.0663589946709919 8.726828620151462 0 0 0 0 518.84624602156453 -203.81904544469944 0 -203.81904544469944 -255.76569736201782 0 0 0 0 -23.208484617842259 4.7513970116415294 0 4.7513970116415294 23.727847522673983 0 0 0 0 -104.30254361161751 125.98111257722849 0 125.98111257722849 998.79383696500736 0 0 0 0 15.473482415569269 -638.67726641260197 0 -638.67726641260197 742.38794156182848 0 0 0 0 258.19109275778754 -880.07478913957493 0 -880.07478913957493 2852.8553669393441 0 0 0 0 -0.46622030586757124 -0.9969845021947279 0 -0.9969845021947279 10.353495088293869 0 0 0 0 -16.166756979481761 -8.4516228205270636 0 -8.4516228205270636 18.433038975927047 0 0 0 0 -10.401895738983606 -6.8594837840547598 0 -6.8594837840547598 24.949658046150688 0 0 0 0 -18.878731333347673 3.7110602276752616 0 3.7110602276752616 21.829900076831109 0 0 0 0 -25.154132923067209 3.9034498065921071 0 3.9034498065921071 23.360148051186115 0 0 0 0 -0.069700587666365443 2.0783655001596912 0 2.0783655001596912 9.7277134228916111 0 0 0 0 -1.7745435975891013 -11.255065173633511 0 -11.255065173633511 22.817401375381451 0 0 0 0 -25.321977445743869 -0.13448876394613762 0 -0.13448876394613762 19.646991269968566 0 0 0 0 16.656507211565895 -20.962956426577875 0 -20.962956426577875 -10.087786779258749 0 0 0 0 13.045921119507511 13.37126998966778 0 13.37126998966778 7.0379748280138301 0 0 0 0 0.5674101838912291 3.06280534267853 0 3.06280534267853 6.8652667358399384 0 0 0 0 -58.559788767476221 40.102585422780976 0 40.102585422780976 18.663286811526632 0 0 0 0 -15.58117167811497 -9.1274574445706094 0 -9.1274574445706094 9.7202750354772434 0 0 0 0 -32.487363618038216 15.609981769561273 0 15.609981769561273 32.979949301323359 0 0 0 0 -21.813568575668796 15.149757000643149 0 15.149757000643149 -11.342019728668674 0 0 0 0 -12.59338061094533 -2.9336319491428071 0 -2.9336319491428071 28.709049941588063 0 0 0 0 -360.74928846537841 118.61798891549552 0 118.61798891549552 118.01212059540558 0 0 0 0 -278.66229412419625 184.95969417493325 0 184.95969417493325 171.61847129136731 0 0 0 0 -10.84212073974777 2.0741825620934833 0 2.0741825620934833 36.189511590637267 0 0 0 0 -45.75192935123323 33.080177143565379 0 33.080177143565379 63.687228316950495 0 0 0 0 -2.2761492094014777 -1.2506501099159237 0 -1.2506501099159237 5.2700065494414048 0 0 0 0 -218.19899760578704 47.684551813392318 0 47.684551813392318 -18.82779370676144 0 0 0 0 -212.89204783753939 18.189503148762014 0 18.189503148762014 -196.77266775097814 0 0 0 0 -11.668629707229854 118.65803969417902 0 118.65803969417902 -7.1877707140811253 0 0 0 0 -148.09168332502259 -29.252212570212578 0 -29.252212570212578 392.79775656119455 0 0 0 0 -251.2631527550443 142.22474431095179 0 142.22474431095179 94.638699922265914 0 0 0 0 -134.36459682977465 224.81865744604147 0 224.81865744604147 -156.68198345548444 0 0 0 0 -41.347982855135569 -124.98583324691572 0 -124.98583324691572 129.45653428223795 0 0 0 0 189.70433262068994 -749.57043201430542 0 -749.57043201430542 797.91721267312823 0 0 0 0 247.62989629204083 -247.63859682318071 0 -247.63859682318071 76.971102115984195 0 0 0 0 217.24788167837508 -700.31418037608091 0 -700.31418037608091 2500.7967805519238 0 0 0 0 92.623987870160818 -821.27139094348058 0 -821.27139094348058 2594.6761187633892 0 0 0 0 -20.908892794063995 -46.630475712740008 0 -46.630475712740008 -2.2929596824433247 0 0 0 0 208.90242967849076 -752.53046816524147 0 -752.53046816524147 2634.1908437968577 0 0 0 0 6.1417603114983965 -4.3426219585621624 0 -4.3426219585621624 6.0697663803897655 0 0 0 0 -347.56533527696473 -562.6025402997584 0 -562.6025402997584 1936.2809731509969 0 0 0 0 -429.19861424071735 -515.17497119557629 0 -515.17497119557629 1971.7977551001895 0 0 0 0 -354.32067531786851 -303.99751095626016 0 -303.99751095626016 2003.3946628226549 0 0 0 0 -482.51963369721341 -302.98235096081225 0 -302.98235096081225 1935.6570156147063 0 0 0 0 -322.17469090349556 -369.92134206034825 0 -369.92134206034825 868.12438117871352 0 0 0 0 -67.706091231550204 -228.6943065477144 0 -228.6943065477144 316.36833349421795 0 0 0 0 -342.49262256827251 -196.81252327078619 0 -196.81252327078619 894.50758150762431 0 0 0 0 -343.27073720005194 -156.18805543840153 0 -156.18805543840153 445.12829163849528 0 0 0 0 -282.67495125922233 -59.3859055558205 0 -59.3859055558205 596.99806105472089 0 0 0 0 -457.27874417093108 132.80162120120804 0 132.80162120120804 179.53648749554122 0 0 0 0 -234.44797736486146 -41.518436173115333 0 -41.518436173115333 132.74793310747918 0 0 0 0 -327.70205292555056 -14.698812106918922 0 -14.698812106918922 442.11880905976443 0 0 0 0 -598.5921248984655 208.70139614467507 0 208.70139614467507 124.59275497823546 0 0 0 0 -291.11224047344763 126.0078869862773 0 126.0078869862773 -26.362129707769782 0 0 0 0 -254.68172685191087 164.0016340864604 0 164.0016340864604 -297.45679227260553 0 0 0 0 -542.71894861594637 521.98952270105292 0 521.98952270105292 -227.73189447308141 0 0 0 0 -8.2892431042386825 -0.2188015902848548 0 -0.2188015902848548 4.4611556889556141 0 0 0 0 -399.43963927157802 69.061506472724432 0 69.061506472724432 11.666435030205321 0 0 0 0 -357.21312092150356 10.176888361369492 0 10.176888361369492 324.45966311513121 0 0 0 0 -159.96967993578903 48.127758241360425 0 48.127758241360425 -13.6584165480308 0 0 0 0 -83.641371595532291 -57.633709702917258 0 -57.633709702917258 92.227497294559726 0 0 0 0 -14.593668927442975 -6.186597497006403 0 -6.186597497006403 8.1149474300622302 0 0 0 0 -250.36535148764699 320.84005291764333 0 320.84005291764333 -179.15743818168994 0 0 0 0 -377.40510417448684 253.9784754697539 0 253.9784754697539 -28.556416391285893 0 0 0 0 -137.03105731312058 123.47042456233612 0 123.47042456233612 -84.259448594646528 0 0 0 0 -42.598583983230128 69.072178670456196 0 69.072178670456196 -20.186064039263329 0 0 0 0 -0.67850635903857182 9.1986054532910657 0 9.1986054532910657 22.522983557749654 0 0 0 0 -43.746534538992364 39.358349240364078 0 39.358349240364078 -29.379970337671693 0 0 0 0 -54.507438003564857 43.25668175982355 0 43.25668175982355 -26.038440126489149 0 0 0 0 -41.651794539828188 51.857362971586554 0 51.857362971586554 -25.422611801084713 0 0 0 0 -16.584209599384849 -3.6639250572043238 0 -3.6639250572043238 74.532527812349144 0 0 0 0 -119.49004840875114 168.65444806888263 0 168.65444806888263 -292.91916916136688 0 0 0 0 -93.437838219978403 42.399435763494694 0 42.399435763494694 -30.500095503957709 0 0 0 0 -52.873748246232822 35.003565293419342 0 35.003565293419342 -29.213268972569495 0 0 0 0 75.001064938717718 -226.33701440643927 0 -226.33701440643927 207.65811146911437 0 0 0 0 -68.759091617205286 136.91413051434938 0 136.91413051434938 20.408027417559424 0 0 0 0 -30.304064245697646 251.43665372910982 0 251.43665372910982 120.98042253784661 0 0 0 0 1.1360934915137655 5.643294358598169 0 5.643294358598169 19.417117213705382 0 0 0 0 461.59956539396626 -356.04214454640169 0 -356.04214454640169 60.599210907189445 0 0 0 0 399.42370887704237 -268.81746273493627 0 -268.81746273493627 463.91346458467888 0 0 0 0 67.378955340383072 -178.33357294891903 0 -178.33357294891903 466.27200739001273 0 0 0 0 44.470501466766564 -246.13750392089423 0 -246.13750392089423 437.94183763184992 0 0 0 0 -0.62415915383136689 0.69051680381096503 0 0.69051680381096503 3.5112413942552507 0 0 0 0 216.05311627759875 -204.40799220337067 0 -204.40799220337067 441.93269479574519 0 0 0 0 60.449587354391952 -225.86312566979905 0 -225.86312566979905 560.05494912480935 0 0 0 0 53.855039265335108 -246.698715487546 0 -246.698715487546 592.53260395433608 0 0 0 0 21.83868882276056 -188.23305081150465 0 -188.23305081150465 536.89501584293612 0 0 0 0 5.3841026243944725 -229.37531864699122 0 -229.37531864699122 617.7127672888455 0 0 0 0 50.974934505450165 -293.55889200441743 0 -293.55889200441743 687.93451413066941 0 0 0 0 179.89080783859936 -309.08048654130835 0 -309.08048654130835 597.50261204132403 0 0 0 0 38.136479549823889 -327.8654787596206 0 -327.8654787596206 597.76851556678594 0 0 0 0 -31.118946665119438 -217.06430343773172 0 -217.06430343773172 687.17375592743338 0 0 0 0 -82.484328159982397 -236.67343345555128 0 -236.67343345555128 733.04562974748842 0 0 0 0 -24.336666119774236 -189.38051159319002 0 -189.38051159319002 659.38560537976446 0 0 0 0 428.9288620020011 -730.19698411241916 0 -730.19698411241916 801.47079660420422 0 0 0 0 345.12588144903475 -524.63313681496948 0 -524.63313681496948 372.46607868941646 0 0 0 0 -72.098985090309952 -296.51066456223271 0 -296.51066456223271 819.01346304541221 0 0 0 0 178.71290942025917 -523.83584727668131 0 -523.83584727668131 851.36844440824643 0 0 0 0 0.31132738329293463 1.9259126908417841 0 1.9259126908417841 8.7663013871128044 0 0 0 0 -180.9123399911482 322.70402148354697 0 322.70402148354697 314.6714050990704 0 0 0 0 -139.86761994266055 153.4016842873616 0 153.4016842873616 927.83411246856849 0 0 0 0 139.10681509389008 -222.87337969142391 0 -222.87337969142391 681.37723665000522 0 0 0 0 -2.0987520207277797 0.53174372278726878 0 0.53174372278726878 2.1484843414436341 0 0 0 0 -395.73038377449575 671.45129502207055 0 671.45129502207055 -608.63017330633738 0 0 0 0 -61.847083469683746 -146.37011550240555 0 -146.37011550240555 23.456671621053829 0 0 0 0 63.958412383516588 32.313468866101175 0 32.313468866101175 -46.273818306424801 0 0 0 0 -230.45834168743045 316.44795654817244 0 316.44795654817244 326.34463191346003 0 0 0 0 163.76354265579266 368.35015113736154 0 368.35015113736154 191.77250830195408 0 0 0 0 -469.608896088508 595.68306806538385 0 595.68306806538385 320.43158755645709 0 0 0 0 90.545839442987244 288.93905779260422 0 288.93905779260422 287.40047076525661 0 0 0 0 -29.045174523165997 50.980107427252733 0 50.980107427252733 68.299326810425555 0 0 0 0 180.51991068127202 -359.08783204203405 0 -359.08783204203405 1223.8294374727266 0 0 0 0 1321.9535396317242 104.30051495969019 0 104.30051495969019 43.271651544368069 0 0 0 0 239.580645055785 666.33730477691643 0 666.33730477691643 1259.3865677298745 0 0 0 0 47.898316919520539 -322.84457130731971 0 -322.84457130731971 1146.3906714209984 0 0 0 0 956.96871901196437 1811.3114731212227 0 1811.3114731212227 1231.1510795358627 0 0 0 0 244.14944819660809 993.12954637569783 0 993.12954637569783 2064.4780438791822 0 0 0 0 0.70185248525261068 -2.8186235729725624 0 -2.8186235729725624 17.629741445943353 0 0 0 0 515.53009013985456 -395.75266795374955 0 -395.75266795374955 142.92627846204414 0 0 0 0 36.521449321767932 -224.2736282826786 0 -224.2736282826786 334.17602852699929 0 0 0 0 -195.13185380187792 36.214968324969959 0 36.214968324969959 891.45350725889148 0 0 0 0 -183.9355731264277 -8.7676857458609447 0 -8.7676857458609447 35.897617784152317 0 0 0 0 -387.12994085580556 54.779292332799741 0 54.779292332799741 309.77896123461687 0 0 0 0 -223.39701309355928 -174.36109893453886 0 -174.36109893453886 339.64955058664782 0 0 0 0 -12.49504051973372 -59.774826696684613 0 -59.774826696684613 375.67949939691607 0 0 0 0 -543.04842657962911 -208.62937211948338 0 -208.62937211948338 2499.5108980827627 0 0 0 0 -22.189892880852994 -236.39970750785506 0 -236.39970750785506 342.41011573947071 0 0 0 0 118.85741738241268 -189.71875914020711 0 -189.71875914020711 279.4208521506589 0 0 0 0 -138.64972015636835 96.558970665009838 0 96.558970665009838 1379.9652112465701 0 0 0 0 -4.7106670665064341 3.4997410258695538 0 3.4997410258695538 1.3161075901452683 0 0 0 0 -178.90380508359306 -299.81142251850906 0 -299.81142251850906 1469.9126061213401 0 0 0 0 -112.46951745371521 -145.31085362214435 0 -145.31085362214435 1828.2660814824194 0 0 0 0 -2.1508554650755021 0.99508961257842543 0 0.99508961257842543 2.0050090233650337 0 0 0 0 -282.40227576069594 128.38695364036903 0 128.38695364036903 1977.0976293259628 0 0 0 0 -350.94053637778114 322.26835452701016 0 322.26835452701016 2969.5146973734372 0 0 0 0 -256.37985192614775 116.4116917895426 0 116.4116917895426 1806.0627525447926 0 0 0 0 239.26930168854773 283.52961018212591 0 283.52961018212591 689.23207992665266 0 0 0 0 -211.69507449690872 127.65306307433639 0 127.65306307433639 1806.1430301213263 0 0 0 0 29.073017438186298 1.4491473241760104 0 1.4491473241760104 174.06184449630132 0 0 0 0 0.83495519299242327 -12.191263060553574 0 -12.191263060553574 40.611550150052238 0 0 0 0 -8.0124762416417781 2.9602721417599014 0 2.9602721417599014 10.689770141579203 0 0 0 0 8.8403407884632088 -41.191555218509166 0 -41.191555218509166 101.76317811312038 0 0 0 0 -374.87470039305344 -862.3665981809354 0 -862.3665981809354 1940.3787779343984 0 0 0 0 1003.1728310095559 958.8347936751743 0 958.8347936751743 -698.14937559507416 0 0 0 0 630.8838230289266 -4.5748238106025383 0 -4.5748238106025383 2499.3287123171485 0 0 0 0 -1.0232044701202065 -0.97143290309827535 0 -0.97143290309827535 14.164656122582457 0 0 0 0 364.02764330536502 -161.02782484016825 0 -161.02782484016825 -166.03437482970185 0 0 0 0 0.86520504015158872 2.1681788423250481 0 2.1681788423250481 1.0957096587206365 0 0 0 0 -299.19799840434575 598.8353416038226 0 598.8353416038226 1168.4031966408375 0 0 0 0 -401.59595979926542 444.3947055784065 0 444.3947055784065 1756.1378535349504 0 0 0 0 -36.74486241305749 223.34223085129452 0 223.34223085129452 470.21258613426471 0 0 0 0 0.8390311280881102 -8.7336364482160462 0 -8.7336364482160462 31.372199084101482 0 0 0 0 49.025790499122536 173.15174609143651 0 173.15174609143651 957.31596367504972 0 0 0 0 -117.27232577897439 35.319494090879743 0 35.319494090879743 37.048191245989983 0 0 0 0 2.3439494166409487 -3.5811789002503218 0 -3.5811789002503218 12.2379434843767 0 0 0 0 855.68822516873286 1561.4218807760299 0 1561.4218807760299 1654.5079598986413 0 0 0 0 916.97281640124504 -603.30595561201335 0 -603.30595561201335 11.891513088055945 0 0 0 0 347.31152605909205 -1113.8340495618122 0 -1113.8340495618122 1655.6963654854553 0 0 0 0 -0.65920411435406223 12.257476100003259 0 12.257476100003259 1724.3357066173994 0 0 0 0 -218.20342897912002 -212.84509567282294 0 -212.84509567282294 2790.2192892454514 0 0 0 0 180.84859861899076 -5.6411408259846212 0 -5.6411408259846212 756.23539242826882 0 0 0 0 319.83429680362957 -318.19503828216693 0 -318.19503828216693 1225.8537973128005 0 0 0 0 -51.404795898612917 81.261051949724788 0 81.261051949724788 984.32140646536573 0 0 0 0 0.34136316769083619 118.99470715240204 0 118.99470715240204 604.81687069236068 0 0 0 0 68.371714049440214 60.236334234796232 0 60.236334234796232 84.080735558287415 0 0 0 0 -23.590519425396678 100.52330902730318 0 100.52330902730318 138.57006275530148 0 0 0 0 -2.2149677816109374 56.219456605083906 0 56.219456605083906 684.21599822261487 0 0 0 0 117.9277421417263 33.042885738952464 0 33.042885738952464 73.787358916044468 0 0 0 0 102.89680817067006 85.050453788353479 0 85.050453788353479 676.85503507619433 0 0 0 0 -45.896268821828016 -137.30722959577542 0 -137.30722959577542 734.58799122845812 0 0 0 0 95.396647631881024 344.53336003765878 0 344.53336003765878 1152.3717421736947 0 0 0 0 2.2681349014977177 6.7403178568065272 0 6.7403178568065272 22.662046390352458 0 0 0 0 453.90859184440706 1040.3904848976526 0 1040.3904848976526 214.15470111106697 0 0 0 0 -58.672622573806166 -283.18512380067841 0 -283.18512380067841 1213.7412935845423 0 0 0 0 206.58923977088989 1280.2330879168458 0 1280.2330879168458 739.79808439138287 0 0 0 0 283.99998515536998 745.34625969420404 0 745.34625969420404 -115.12269323918736 0 0 0 0 -14.952520407772226 -112.15533084467825 0 -112.15533084467825 179.9172744450334 0 0 0 0 -67.241483314837438 38.119872836909963 0 38.119872836909963 49.78013412731525 0 0 0 0 106.45337979733574 127.73380250325863 0 127.73380250325863 -80.606551014312572 0 0 0 0 -60.405866834566496 39.089667526466656 0 39.089667526466656 54.423260303898132 0 0 0 0 -1.8526951259666538 12.640003628396654 0 12.640003628396654 56.259853588273614 0 0 0 0 -0.070226792136624694 0.96987326938082496 0 0.96987326938082496 -0.79159647811371769 0 0 0 0 205.34859695109211 -639.00924970978235 0 -639.00924970978235 5.576088932575658 0 0 0 0 -793.85150627739131 -175.26577236613048 0 -175.26577236613048 213.29047523416739 0 0 0 0 210.13925969961895 -290.4715126815554 0 -290.4715126815554 -240.18168562081701 0 0 0 0 -6.584358103894882 -10.84140160517893 0 -10.84140160517893 17.766903229088797 0 0 0 0 -2.5873921617229558 1.2963173938763966 0 1.2963173938763966 15.878132724273854 0 0 0 0 -13.369810240255248 1.3275330440455946 0 1.3275330440455946 27.966560862827464 0 0 0 0 -5.5595524836735066 14.634302231468482 0 14.634302231468482 19.317346399917312 0 0 0 0 -11.876163276402361 1.7166070599805607 0 1.7166070599805607 16.166981574584497 0 0 0 0 -1.5569039451829521 2.2075590365129329 0 2.2075590365129329 1.7839875220631427 0 0 0 0 -3.2555563413674591 -1.9294922249537194 0 -1.9294922249537194 6.5057353068550583 0 0 0 0 0.032961011886960524 -3.3370675612860232 0 -3.3370675612860232 4.5411688233289169 0 0 0 0 -4.4376244848927859 0.49504617464845069 0 0.49504617464845069 20.334070568307652 0 0 0 0 28.268671098612003 -67.747266545367893 0 -67.747266545367893 -47.800885440898128 0 0 0 0 -0.48385605867481729 0.40789509591022011 0 0.40789509591022011 -0.38138431054113653 0 0 0 0 28.141913299360681 -4.3552502528909827 0 -4.3552502528909827 -100.64050258873613 0 0 0 0 75.646272125976338 56.423198639527982 0 56.423198639527982 -26.137931442644913 0 0 0 0 -7.0709648076294798 15.536967910822852 0 15.536967910822852 80.184456756604277 0 0 0 0 -9.7047921336552463 12.577749704990538 0 12.577749704990538 89.006264451845482 0 0 0 0 -17.057620366376796 18.719078082406156 0 18.719078082406156 94.626242479771008 0 0 0 0 -14.892108082406821 12.025581789989246 0 12.025581789989246 102.09388369849194 0 0 0 0 -4.7908608428351727 13.164720477016544 0 13.164720477016544 88.500931978742074 0 0 0 0 -5.4539636216377403 8.494699475284051 0 8.494699475284051 90.9710480316337 0 0 0 0 9.5433071609798503 19.467265541684355 0 19.467265541684355 56.835208788316777 0 0 0 0 7.3261289455067526 9.1165585290173112 0 9.1165585290173112 67.224055031704665 0 0 0 0 -9.4332681872062807 12.285345952700027 0 12.285345952700027 80.049230792647904 0 0 0 0 -10.201681263506494 -2.5244935991352619 0 -2.5244935991352619 74.979549109269556 0 0 0 0 5.3071445455250341 1.0264018455116002 0 1.0264018455116002 85.407282644034694 0 0 0 0 -4.0256301632155562 7.0883404514539308 0 7.0883404514539308 17.935802457727306 0 0 0 0 5.9195760091533316 39.992633952035362 0 39.992633952035362 114.06193236240256 0 0 0 0 7.752887669663699 30.318394985312416 0 30.318394985312416 40.548304614069551 0 0 0 0 4.977531436968647 30.109906145016325 0 30.109906145016325 53.313938987946131 0 0 0 0 -1.5335886246889459 2.4513324782319987 0 2.4513324782319987 84.392925535950312 0 0 0 0 -6.523051483981817 11.995299583484439 0 11.995299583484439 88.077628532822473 0 0 0 0 -5.4054032051167269 17.331775718070617 0 17.331775718070617 106.85364747870403 0 0 0 0 26.2930947662785 28.074809588875269 0 28.074809588875269 79.496553010146954 0 0 0 0 5.5703693790947 32.32677202932598 0 32.32677202932598 126.39697499492831 0 0 0 0 1.3008059361943651 3.5590322722381416 0 3.5590322722381416 66.729826135206054 0 0 0 0 7.3814638515686966 29.356195023108739 0 29.356195023108739 92.514206185885996 0 0 0 0 -1.0409126375745643 21.21808921436083 0 21.21808921436083 18.603176475980376 0 0 0 0 -0.3140578428996994 0.73122423825685701 0 0.73122423825685701 11.134607264549897 0 0 0 0 5.6058133051754879 11.693825186190566 0 11.693825186190566 54.905124972633303 0 0 0 0 -5.0274719729095523 11.763212997011578 0 11.763212997011578 95.085509869454654 0 0 0 0 -6.1153493542537261 1.7871943644628949 0 1.7871943644628949 13.169259772094964 0 0 0 0 -9.3324520033696103 -2.2445226524214981 0 -2.2445226524214981 38.533083360882948 0 0 0 0 1.7342817668448443 15.027628781273281 0 15.027628781273281 25.159852474266621 0 0 0 0 3.6070559619810183 16.61995391324308 0 16.61995391324308 35.423148065406622 0 0 0 0 -2.428369159651794 30.454372677695574 0 30.454372677695574 81.624336835253416 0 0 0 0 13.233219748793772 -8.9201563978058402 0 -8.9201563978058402 47.402351231106877 0 0 0 0 8.4735101303840565 13.948260853365355 0 13.948260853365355 90.461996110483597 0 0 0 0 33.943165995254276 57.456379057919548 0 57.456379057919548 92.739193474055355 0 0 0 0 31.422583989510258 7.6180469920327596 0 7.6180469920327596 -115.06915163171834 0 0 0 0 -0.62882177081265711 1.164728830103126 0 1.164728830103126 3.5481428109162962 0 0 0 0 13.120792775290511 76.412632725777257 0 76.412632725777257 -104.57865723981013 0 0 0 0 10.7803413167491 -19.572776756880614 0 -19.572776756880614 1.6979914661005751 0 0 0 0 -4.3520277144017783 19.115099036627839 0 19.115099036627839 27.321981246600998 0 0 0 0 -324.82595714408637 40.404733770037637 0 40.404733770037637 37.636715053135049 0 0 0 0 -1.702256560529122 10.959846511736941 0 10.959846511736941 63.066899063664323 0 0 0 0 -5.3661116464433816 -6.8193888867212706 0 -6.8193888867212706 16.117990108002548 0 0 0 0 -4.4066576248584512 4.5246988398289325 0 4.5246988398289325 9.188001970987667 0 0 0 0 -8.4272453557149838 -4.2897661489615491 0 -4.2897661489615491 4.8102840666734945 0 0 0 0 -5.7673653398559672 3.8038146700437663 0 3.8038146700437663 1.7714423200177389 0 0 0 0 -4.6226194488497185 19.842304818160756 0 19.842304818160756 69.514550551198454 0 0 0 0 11.76540563643357 23.541549824596586 0 23.541549824596586 185.71226822536119 0 0 0 0 -0.80014304201404229 16.756666495628508 0 16.756666495628508 39.360910638257224 0 0 0 0 -2.0353190524991476 8.4533664767373011 0 8.4533664767373011 49.135194253678037 0 0 0 0 239.33521787237328 237.74567776776894 0 237.74567776776894 -60.855756449927867 0 0 0 0 -5.5641904793715184 10.84149141817295 0 10.84149141817295 44.521857127137906 0 0 0 0 -5.959331057762256 13.752702171260069 0 13.752702171260069 32.982233919133478 0 0 0 0 -18.293043160339039 2.0690325559827443 0 2.0690325559827443 39.888939937308379 0 0 0 0 -4.3441082480849218 16.056908756710072 0 16.056908756710072 41.455181746551091 0 0 0 0 -13.303863079514485 11.584317914637836 0 11.584317914637836 55.862777885587548 0 0 0 0 -1.2557873665671195 17.264474230938504 0 17.264474230938504 45.177323117304113 0 0 0 0 -9.0418734302395478 17.591179072698878 0 17.591179072698878 66.517063653181822 0 0 0 0 -252.42095880546503 -208.15987616298116 0 -208.15987616298116 93.497193746472362 0 0 0 0 -3.5891507384676311 -0.32843407004568625 0 -0.32843407004568625 3.9851592835818508 0 0 0 0 94.008800805508031 104.8354289275735 0 104.8354289275735 8.1427537100043992 0 0 0 0 -90.202148048997515 -0.013981787411466939 0 -0.013981787411466939 135.78880159600885 0 0 0 0 -7.6347923923554086 6.4955949366665306 0 6.4955949366665306 41.103100271644536 0 0 0 0 -30.892028652283898 -27.719884314208684 0 -27.719884314208684 109.50066070460343 0 0 0 0 -1.5272509087947106 0.030041285513734195 0 0.030041285513734195 2.4593065446618425 0 0 0 0 99.499721889583753 240.80973046308338 0 240.80973046308338 200.96495626030446 0 0 0 0 120.27447297025014 64.772521499351569 0 64.772521499351569 69.681134901449695 0 0 0 0 -44.364015188760618 -9.7823321891009982 0 -9.7823321891009982 241.19207013645791 0 0 0 0 -12.948303381689811 -35.667051295275087 0 -35.667051295275087 -63.300484704453993 0 0 0 0 -101.84358682464153 60.529577793195131 0 60.529577793195131 192.76539591855362 0 0 0 0 -0.27306284517226231 29.485024784951577 0 29.485024784951577 97.309733630555456 0 0 0 0 21.876619714383196 36.485847041360103 0 36.485847041360103 48.284711647000222 0 0 0 0 2.9289665589309148 8.1866105923738459 0 8.1866105923738459 11.74681126040192 0 0 0 0 -26.279956278037332 8.8069283884394522 0 8.8069283884394522 37.861407080940836 0 0 0 0 -76.264406597836796 -64.828311285623613 0 -64.828311285623613 -94.129091439157492 0 0 0 0 -1.5400778120874747 23.652051299189225 0 23.652051299189225 40.193429618376285 0 0 0 0 -12.676419831469291 7.7617119860121733 0 7.7617119860121733 31.121439105214922 0 0 0 0 -107.04639427597385 -46.677656111727629 0 -46.677656111727629 6.9327533324749311 0 0 0 0 -20.192998182936662 18.807591922914071 0 18.807591922914071 49.554784937356089 0 0 0 0 -16.116864491485991 5.4760256860264676 0 5.4760256860264676 11.082633459456201 0 0 0 0 -3.3605135879201953 6.2314410954886625 0 6.2314410954886625 24.248607179038117 0 0 0 0 6.2274637677619467 15.308732181390951 0 15.308732181390951 153.096359107225 0 0 0 0 -6.5867665348346236 68.812573573139105 0 68.812573573139105 134.79102414057343 0 0 0 0 -2.5385015649412708 30.651651051914939 0 30.651651051914939 88.734153097394938 0 0 0 0 -13.431838382860661 -3.1003842933687267 0 -3.1003842933687267 2.8223286862051151 0 0 0 0 -7.5475011612642797 2.3497299734235071 0 2.3497299734235071 -1.1980656574152428 0 0 0 0 -15.972869668326322 3.8655179660190626 0 3.8655179660190626 11.53168489206297 0 0 0 0 -6.7719573443059033 6.6448597079615119 0 6.6448597079615119 8.1772699492117162 0 0 0 0 -9.7248337083037768 56.609417210060201 0 56.609417210060201 92.120564259859293 0 0 0 0 2.8048505245883462 42.403623673217794 0 42.403623673217794 29.445341304544854 0 0 0 0 -4.2058401779831911 44.936975450388218 0 44.936975450388218 71.194983652847441 0 0 0 0 -43.09736084780252 32.936856309227096 0 32.936856309227096 95.201417544461719 0 0 0 0 -15.444747605761222 7.3446827211901109 0 7.3446827211901109 20.149101827823415 0 0 0 0 11.013450606685183 35.475207550034384 0 35.475207550034384 25.649303659908583 0 0 0 0 -13.566919180236368 23.961495146799138 0 23.961495146799138 39.640942958731102 0 0 0 0 -1.7501270626398764 20.024799269824143 0 20.024799269824143 13.830884469379725 0 0 0 0 9.0102385056543426 28.210774470398974 0 28.210774470398974 39.392377898317136 0 0 0 0 -31.968211873378095 21.119518313509616 0 21.119518313509616 52.64008530422052 0 0 0 0 -31.716170942038843 6.8028398752048815 0 6.8028398752048815 37.637897082010568 0 0 0 0 -31.211100144875672 0.49266475534204801 0 0.49266475534204801 26.93373986165534 0 0 0 0 -24.527712992408908 10.025980799140598 0 10.025980799140598 23.995259966224694 0 0 0 0 -6.3426297992409673 8.2305570178905327 0 8.2305570178905327 22.590606797237342 0 0 0 0 -11.841973757455772 8.5836955894404436 0 8.5836955894404436 21.600022625988597 0 0 0 0 19.624233985090541 33.407149897309409 0 33.407149897309409 33.442992693750057 0 0 0 0 14.251658051764025 30.090040330980628 0 30.090040330980628 33.850068771680526 0 0 0 0 -4.9960955051562266 14.671178937965784 0 14.671178937965784 20.519565236569367 0 0 0 0 39.834557098525693 37.566487071759184 0 37.566487071759184 29.105353428170929 0 0 0 0 8.9794631018844484 24.536185239078392 0 24.536185239078392 54.365109158265113 0 0 0 0 4.7344681848699111 16.377333609246307 0 16.377333609246307 29.921299325925247 0 0 0 0 11.33759810166157 33.510274588184984 0 33.510274588184984 60.291180178837294 0 0 0 0 0.5040956191035022 3.3235649782913086 0 3.3235649782913086 11.013886650696337 0 0 0 0 11.142467479850893 24.019265557004474 0 24.019265557004474 50.217541780097235 0 0 0 0 11.494292589180986 27.795888574895798 0 27.795888574895798 52.682161069340509 0 0 0 0 8.7186129477777286 26.532546667938732 0 26.532546667938732 59.124147735216411 0 0 0 0 -4.3458026777186483 12.362020954751499 0 12.362020954751499 32.756972241516252 0 0 0 0 -12.838877768918564 17.072197533218969 0 17.072197533218969 26.656107109090954 0 0 0 0 -21.653819644126088 -14.963504577342974 0 -14.963504577342974 70.904461915877619 0 0 0 0 -5.3854930506671703 14.901757696694084 0 14.901757696694084 30.917773020288962 0 0 0 0 9.8645171013940853 25.620567839812338 0 25.620567839812338 53.280501495934004 0 0 0 0 -4.6091814729443286 36.974165328078016 0 36.974165328078016 65.207751818417819 0 0 0 0 -9.638765014853341 3.596070318937068 0 3.596070318937068 9.9453229853567287 0 0 0 0 16.182086028573394 31.105708470473473 0 31.105708470473473 47.253126356359644 0 0 0 0 -11.58792594982242 6.8800271239215363 0 6.8800271239215363 19.61934445938823 0 0 0 0 -0.97506693192283933 14.265635000747093 0 14.265635000747093 31.333261488631653 0 0 0 0 -8.8762879307920102 5.9054686631388549 0 5.9054686631388549 34.007364196630562 0 0 0 0 1.0805223519246283 18.676575605191829 0 18.676575605191829 49.95900370597883 0 0 0 0 -10.514690925672832 -0.33727917406782382 0 -0.33727917406782382 19.892756104288122 0 0 0 0 -6.3995575850985915 -23.322046389970637 0 -23.322046389970637 40.517660606623394 0 0 0 0 -1.1376678404058111 13.567516822175094 0 13.567516822175094 51.711355667353928 0 0 0 0 2.0538713167989044 13.742981976709416 0 13.742981976709416 42.347287051044987 0 0 0 0 -31.296712368774706 14.441888080921672 0 14.441888080921672 39.361253166884126 0 0 0 0 5.0044934770849068 15.342343836360669 0 15.342343836360669 39.046269022786873 0 0 0 0 5.0924881976752658 17.844108987967047 0 17.844108987967047 41.489868097240105 0 0 0 0 0.11450689577212358 14.6125314625207 0 14.6125314625207 19.458015210334807 0 0 0 0 3.2935545616528543 13.191186493917485 0 13.191186493917485 36.368877002430963 0 0 0 0 1.9042686157354183 11.054858858112311 0 11.054858858112311 36.525516555491777 0 0 0 0 -0.028555451222928241 13.492940802032535 0 13.492940802032535 42.104865678767965 0 0 0 0 1.4870207128478796 15.866336837556446 0 15.866336837556446 43.937655215144332 0 0 0 0 2.7607892530564975 11.690509843563191 0 11.690509843563191 21.842578895042394 0 0 0 0 0.96296446583801298 7.7261929538317418 0 7.7261929538317418 32.094722353631369 0 0 0 0 3.4988447047853697 17.007362358482169 0 17.007362358482169 30.295325991685331 0 0 0 0 3.5335275310053476 12.575857718679799 0 12.575857718679799 37.945334315409127 0 0 0 0 2.5719721466921328 29.680380224464898 0 29.680380224464898 78.918906410446652 0 0 0 0 -1.3315432275094281 2.6598713549601598 0 2.6598713549601598 29.218672156173852 0 0 0 0 -1.4348432480571667 -1.0997232472482423 0 -1.0997232472482423 23.246763891084406 0 0 0 0 11.941225918813871 8.3286847832378044 0 8.3286847832378044 38.169544996628247 0 0 0 0 11.360965459942236 21.254176301117695 0 21.254176301117695 86.119116311921971 0 0 0 0 -2.0176216935994091 1.6303067740570274 0 1.6303067740570274 5.5868967285030671 0 0 0 0 -0.59792385581658891 5.1048669234469344 0 5.1048669234469344 45.284153926135332 0 0 0 0 -2.267416952999401 8.6377193490048931 0 8.6377193490048931 13.076446190802642 0 0 0 0 -5.6284389029624045 -10.900804423564232 0 -10.900804423564232 29.342644595790958 0 0 0 0 0.13401838607614991 4.6794120649387878 0 4.6794120649387878 28.525264152060117 0 0 0 0 -2.28660995969949 2.4372547320035665 0 2.4372547320035665 34.32998334470858 0 0 0 0 -4.73791934944893 7.964337880619496 0 7.964337880619496 46.079514736002238 0 0 0 0 -7.4829854547470127 8.2632357341475924 0 8.2632357341475924 16.746961358457526 0 0 0 0 -1.1895304680292611 11.267623362866289 0 11.267623362866289 48.710388291550771 0 0 0 0 -21.749090921381139 16.457431530387112 0 16.457431530387112 20.153950128969882 0 0 0 0 -5.555820446569669 -3.8929314259594321 0 -3.8929314259594321 45.666068398191783 0 0 0 0 -72.143996846186383 -21.184476259866187 0 -21.184476259866187 37.316754056259015 0 0 0 0 4.097884223703204 15.109596866441279 0 15.109596866441279 31.293578162605627 0 0 0 0 -2.0918520416138691 2.8927676905355817 0 2.8927676905355817 4.8811828755776716 0 0 0 0 2.9043592665384494 15.861959466693406 0 15.861959466693406 31.259522553306226 0 0 0 0 -40.280822749009531 10.548144787149795 0 10.548144787149795 20.5105348968209 0 0 0 0 -49.44197788978795 -3.2563381752111127 0 -3.2563381752111127 45.817319751080504 0 0 0 0 -1.2063696360357596 0.53911890761565218 0 0.53911890761565218 8.8549287124335958 0 0 0 0 -50.602716273591795 -0.25402897599633434 0 -0.25402897599633434 72.404579811547592 0 0 0 0 -0.70813868820914649 11.423957469195557 0 11.423957469195557 79.709011451439437 0 0 0 0 -64.060004000246408 36.047525164511171 0 36.047525164511171 37.21688380431624 0 0 0 0 -1.0935573431649743 -1.3099716162699062 0 -1.3099716162699062 3.8184621114637807 0 0 0 0 -39.252670625646715 14.868650986776629 0 14.868650986776629 88.099249231319845 0 0 0 0 -72.025302993278274 34.758166146935764 0 34.758166146935764 88.639996510326455 0 0 0 0 13.198368767460124 26.353323944505973 0 26.353323944505973 29.231371575553567 0 0 0 0 47.638559881348556 -9.9208313209655898 0 -9.9208313209655898 61.988162059245951 0 0 0 0 62.880732755070994 49.25888534589285 0 49.25888534589285 38.974529926017567 0 0 0 0 -27.342770735001977 -5.7727668603465645 0 -5.7727668603465645 41.026077093367348 0 0 0 0 0.077115903139656439 43.189084971951615 0 43.189084971951615 71.407178667126573 0 0 0 0 -5.8703128885551301 1.712657245403193 0 1.712657245403193 0.57310757834481763 0 0 0 0 14.667808914433408 78.927104740937466 0 78.927104740937466 130.8820232279777 0 0 0 0 -81.604992145715187 32.55514407627561 0 32.55514407627561 215.28437329327244 0 0 0 0 -53.902635459707199 43.284949328754919 0 43.284949328754919 69.040964652760522 0 0 0 0 42.080446316223799 89.312699873610541 0 89.312699873610541 86.887862640207459 0 0 0 0 -32.025798208915148 86.091485647782974 0 86.091485647782974 138.22675299689945 0 0 0 0 -6.0852855406202941 1.1275497303842315 0 1.1275497303842315 0.88394447078274752 0 0 0 0 8.0483299700741782 34.986903745970949 0 34.986903745970949 50.598765906395784 0 0 0 0 22.153175856090456 4.2334583616475356 0 4.2334583616475356 87.392111881261826 0 0 0 0 -33.19987370349422 41.58930894812633 0 41.58930894812633 2.0128652848179627 0 0 0 0 -6.0631601511195186 8.1828958747273646 0 8.1828958747273646 35.555176661170208 0 0 0 0 3.5596787382114599 48.328426976629089 0 48.328426976629089 6.857247206464308 0 0 0 0 -12.865216656466146 26.14420947055919 0 26.14420947055919 -7.3787099149149071 0 0 0 0 1.8600583358079348 34.327794184005825 0 34.327794184005825 -56.316891062301693 0 0 0 0 -0.78961073308011365 -1.8235244225031977 0 -1.8235244225031977 -0.47525254041287535 0 0 0 0 39.365771345065667 64.427282172321156 0 64.427282172321156 48.422188360656037 0 0 0 0 -1.9051849825435561 3.4043956789930405 0 3.4043956789930405 4.9512195615091841 0 0 0 0 -2.0919830684930858 -0.69555891647464385 0 -0.69555891647464385 3.8453803535030597 0 0 0 0 -14.115074646949566 9.7310722548872377 0 9.7310722548872377 8.6912039567196189 0 0 0 0 -9.1583675688043513 13.452064009790774 0 13.452064009790774 10.747171535529191 0 0 0 0 -1.5152920657917335 0.66980617987430513 0 0.66980617987430513 1.3083355250855639 0 0 0 0 -74.288195451642878 -2.994685784991816 0 -2.994685784991816 18.618381260900605 0 0 0 0 57.338414937511757 71.920364294371666 0 71.920364294371666 33.793735280842156 0 0 0 0 24.864378502392185 61.032497180894097 0 61.032497180894097 53.304817565170652 0 0 0 0 104.33596386847876 45.318209245881917 0 45.318209245881917 28.115614259962513 0 0 0 0 -56.326512754498069 -13.797581992426331 0 -13.797581992426331 84.797561009346737 0 0 0 0 7.8557422998601396 -10.518758565867756 0 -10.518758565867756 83.435416647406328 0 0 0 0 -3.3066992007698497 -0.39610096582022258 0 -0.39610096582022258 1.405216758342041 0 0 0 0 97.011978178506979 109.20271770651107 0 109.20271770651107 131.07339976781441 0 0 0 0 -37.882995444046173 98.744474788687512 0 98.744474788687512 215.30952523066844 0 0 0 0 48.727282496038242 54.331234945071628 0 54.331234945071628 109.43748125128332 0 0 0 0 -74.445888408790495 -36.182522544703431 0 -36.182522544703431 121.32435281925791 0 0 0 0 -3.5023830889936107 -40.582063109077353 0 -40.582063109077353 34.164712497113214 0 0 0 0 -37.171669997997924 6.505466624958899 0 6.505466624958899 81.287893117127169 0 0 0 0 -17.723792701123692 4.7179566467517304 0 4.7179566467517304 10.787226103376213 0 0 0 0 -33.286432568573616 26.411021152569219 0 26.411021152569219 101.60027944745707 0 0 0 0 -44.144005365711791 31.200024640337688 0 31.200024640337688 108.61102166150704 0 0 0 0 -109.11352669940675 29.257277934979356 0 29.257277934979356 103.25614245853967 0 0 0 0 -44.717971514952751 89.013518523052426 0 89.013518523052426 10.556678310171264 0 0 0 0 34.49494414249466 39.955492539653278 0 39.955492539653278 82.276988664124474 0 0 0 0 -19.287647208848433 9.5108057008011428 0 9.5108057008011428 40.863569554475362 0 0 0 0 -4.8391482418345806 12.683189064244377 0 12.683189064244377 50.282694655557364 0 0 0 0 -16.610892527708074 33.788492084958307 0 33.788492084958307 96.78089369684858 0 0 0 0 -1.1757544512011142 9.1908260136538509 0 9.1908260136538509 45.832685566155497 0 0 0 0 -34.226062115962122 27.251803111646041 0 27.251803111646041 147.94297817824054 0 0 0 0 -9.3860280911045741 4.3655597039142933 0 4.3655597039142933 58.66691256654461 0 0 0 0 -8.6082302824506769 -1.7765504475928537 0 -1.7765504475928537 63.234396440886485 0 0 0 0 -8.7527919616991312 -0.83336363583566708 0 -0.83336363583566708 64.706466619718412 0 0 0 0 -5.9831884275042579 -8.2013475324694536 0 -8.2013475324694536 62.772891635878757 0 0 0 0 -8.3621998689841348 -1.0291687918297612 0 -1.0291687918297612 64.226833176224318 0 0 0 0 -5.7298054383247745 -0.34027066858197941 0 -0.34027066858197941 35.451712034426237 0 0 0 0 -61.717747992174736 -9.1992993964358902 0 -9.1992993964358902 42.210657425908721 0 0 0 0 0.48313004679675942 -49.665785975519611 0 -49.665785975519611 -92.955586543577738 0 0 0 0 -6.4809071626395571 -11.086280930744188 0 -11.086280930744188 69.014261598407117 0 0 0 0 -4.3407921425995131 -6.670199212162558 0 -6.670199212162558 7.0820081902351575 0 0 0 0 -8.6861936866925298 -7.8281763456553044 0 -7.8281763456553044 20.374025080923488 0 0 0 0 -6.7221934111343646 -4.1574771017559407 0 -4.1574771017559407 44.940877316598637 0 0 0 0 -9.1519601582863288 -1.8292763463714437 0 -1.8292763463714437 64.848628656374785 0 0 0 0 -34.059447764140714 -15.418385057742853 0 -15.418385057742853 29.812011396232265 0 0 0 0 -31.902977324181848 -23.34188976371297 0 -23.34188976371297 33.086369872951764 0 0 0 0 -12.752696147779716 -0.39337748672915041 0 -0.39337748672915041 34.793556333414017 0 0 0 0 -34.621024746074909 -16.520511006372544 0 -16.520511006372544 64.333430973652867 0 0 0 0 12.143412762148728 -36.532899877882301 0 -36.532899877882301 30.46049479969588 0 0 0 0 -2.4615458444559408 -17.863452687031895 0 -17.863452687031895 1.2204412435658014 0 0 0 0 -28.609721601254932 -11.996267120975972 0 -11.996267120975972 14.069248472054824 0 0 0 0 -15.100839948948803 -0.22037539108238136 0 -0.22037539108238136 17.575846200648769 0 0 0 0 0.61223835189178999 26.2207518723053 0 26.2207518723053 49.192788377746183 0 0 0 0 -38.471459629929086 -10.862329695431981 0 -10.862329695431981 17.446519807217555 0 0 0 0 -35.391557563115612 -36.949339818684621 0 -36.949339818684621 -11.923833099179319 0 0 0 0 1.9866161816410219 3.842751332238187 0 3.842751332238187 3.719731670894479 0 0 0 0 0.69981822720637865 25.240915152056004 0 25.240915152056004 55.661689483000373 0 0 0 0 -5.9739955991491236 4.043219189429859 0 4.043219189429859 18.956427229513249 0 0 0 0 -7.5999827716245818 20.783498598313599 0 20.783498598313599 60.709257720563983 0 0 0 0 -5.6675226878594458 17.323507563995918 0 17.323507563995918 66.863454399997863 0 0 0 0 -2.1506491386617199 22.871404637614432 0 22.871404637614432 61.378413782127609 0 0 0 0 -4.0996664427598262 27.708589827907417 0 27.708589827907417 58.036113567915891 0 0 0 0 -16.989618078057902 26.596004775845358 0 26.596004775845358 71.594095483073943 0 0 0 0 -10.267497573936339 35.910675966606505 0 35.910675966606505 52.608053583979199 0 0 0 0 1.4795984292327375 31.040781368541502 0 31.040781368541502 49.333242544755194 0 0 0 0 0.39718374850690452 30.092505980665919 0 30.092505980665919 51.684980659149005 0 0 0 0 -11.580804681731024 37.366013590108196 0 37.366013590108196 55.420315048249904 0 0 0 0 -11.55942619772409 32.357018734506312 0 32.357018734506312 23.210354311828269 0 0 0 0 1.4313745130943403 29.873103564259054 0 29.873103564259054 48.073524920968339 0 0 0 0 0.84639206485041996 30.993206470342557 0 30.993206470342557 50.845130085301207 0 0 0 0 -1.9767024280486112 30.539279019365495 0 30.539279019365495 51.461885917178734 0 0 0 0 2.4050373384459363 27.26708682772005 0 27.26708682772005 52.689627263833245 0 0 0 0 -3.8862137299676647 28.690791200353488 0 28.690791200353488 67.050417553171428 0 0 0 0 -5.4677571007584902 34.355268433466335 0 34.355268433466335 54.840288881234301 0 0 0 0 -3.5918554640814979 13.554225748337485 0 13.554225748337485 10.395697837571987 0 0 0 0 -5.6535805732296467 35.624177701134613 0 35.624177701134613 65.660985042596167 0 0 0 0 -14.046756771313177 24.919733562327366 0 24.919733562327366 47.693933458146873 0 0 0 0 10.901834493473416 74.784540679807833 0 74.784540679807833 -33.900640776060754 0 0 0 0 -83.799354583265085 -7.3418241360232059 0 -7.3418241360232059 101.47827203490306 0 0 0 0 -60.14925147818883 -11.462641276256818 0 -11.462641276256818 62.253103935981926 0 0 0 0 -55.813383507774233 35.669725218675012 0 35.669725218675012 151.06242243930319 0 0 0 0 18.996262270795796 21.835160484817607 0 21.835160484817607 54.513125970308465 0 0 0 0 -19.809810124507749 31.627643562915182 0 31.627643562915182 115.43617113225628 0 0 0 0 17.644509004278461 44.144826112100418 0 44.144826112100418 50.886179956960405 0 0 0 0 41.654398265101463 -20.568354627369899 0 -20.568354627369899 100.00182184810546 0 0 0 0 -6.1734159939355644 19.32994203692914 0 19.32994203692914 3.4139267118130761 0 0 0 0 -72.067792094474498 34.900721677080583 0 34.900721677080583 84.543536940283957 0 0 0 0 -70.002950337852781 -45.407402942506451 0 -45.407402942506451 -28.232432075790712 0 0 0 0 -7.5435061531210437 12.474641745823419 0 12.474641745823419 44.275947660145903 0 0 0 0 -3.4555427282261917 13.631677503041828 0 13.631677503041828 44.261053370113586 0 0 0 0 3.0682429381586189 12.04470213950799 0 12.04470213950799 40.12841922737789 0 0 0 0 -2.3965377736131757 4.7585536437160156 0 4.7585536437160156 44.364696930478985 0 0 0 0 -1.825168121558022 7.979269668514462 0 7.979269668514462 38.602165974112722 0 0 0 0 4.7108035911285242 0.89891791736636151 0 0.89891791736636151 80.845586552572513 0 0 0 0 3.0845427017954643 16.099983728561689 0 16.099983728561689 35.333209822417331 0 0 0 0 -12.650797233356286 24.143909634892452 0 24.143909634892452 53.898490039554417 0 0 0 0 -112.06142463179685 -3.50962568675277 0 -3.50962568675277 86.146158843966077 0 0 0 0 -32.853120312072178 103.5562466517913 0 103.5562466517913 43.540773829336104 0 0 0 0 54.34867939110427 2.6590781575614528 0 2.6590781575614528 -48.76415446410374 0 0 0 0 66.514728064762039 -41.037860933429329 0 -41.037860933429329 23.015537359330665 0 0 0 0 -23.205435337860109 21.564546484077368 0 21.564546484077368 37.879001294237241 0 0 0 0 0.44384642611170833 15.377882781524573 0 15.377882781524573 44.487946130146753 0 0 0 0 -0.12118000785681193 9.5853516195417754 0 9.5853516195417754 47.637403600478777 0 0 0 0 -30.297773880505247 40.129193746517558 0 40.129193746517558 58.043674757078406 0 0 0 0 -44.863965019788225 88.261152256614878 0 88.261152256614878 43.372068542121269 0 0 0 0 -16.224661345345879 19.941017352492253 0 19.941017352492253 36.850564857781222 0 0 0 0 -20.411838787868874 103.33247713594392 0 103.33247713594392 1.2233115437265951 0 0 0 0 -4.8313860728119948 7.9594484691442631 0 7.9594484691442631 47.13405319501652 0 0 0 0 44.53970221305417 47.883322691115609 0 47.883322691115609 61.156487311665842 0 0 0 0 61.267182422519909 75.818113879286102 0 75.818113879286102 80.321467073401436 0 0 0 0 5.8729352876302983 59.518673944083275 0 59.518673944083275 101.71010527524777 0 0 0 0 -57.964352821688749 99.672330208155472 0 99.672330208155472 154.71187176764943 0 0 0 0 -35.47755372303709 90.162405833732919 0 90.162405833732919 87.616427932887746 0 0 0 0 -18.789976611376915 -3.1097583976588794 0 -3.1097583976588794 36.320520408175071 0 0 0 0 -6.7283073958933528 29.4335784668001 0 29.4335784668001 9.8844357798018336 0 0 0 0 25.537407985822028 2.7701065963919973 0 2.7701065963919973 47.297218858031556 0 0 0 0 -53.901599323431583 154.1751977395943 0 154.1751977395943 -81.931887499013101 0 0 0 0 -3.8789003102768493 1.2372400445688285 0 1.2372400445688285 11.352305208286367 0 0 0 0 -4.6516763146982552 2.6224800695506012 0 2.6224800695506012 17.905494399894934 0 0 0 0 -205.67625164731544 3.495957682516746 0 3.495957682516746 57.007440612411301 0 0 0 0 -8.1209838580934957 55.168724092131015 0 55.168724092131015 -67.964992674935274 0 0 0 0 -68.434037886281885 47.183426092917216 0 47.183426092917216 9.9469415420171572 0 0 0 0 -142.59702898733485 63.706513684359379 0 63.706513684359379 20.592224505133345 0 0 0 0 -13.38126322226818 14.115756935620169 0 14.115756935620169 14.364770211114944 0 0 0 0 -96.541279982640845 50.432655502976559 0 50.432655502976559 81.760300811118213 0 0 0 0 -32.688125890342803 79.436318253057834 0 79.436318253057834 21.519492059655022 0 0 0 0 -83.447006308767641 141.08505171367142 0 141.08505171367142 -0.39517824110225774 0 0 0 0 -89.473992152095889 46.368326982890721 0 46.368326982890721 73.461912838829448 0 0 0 0 -80.772548766985892 54.254125687904889 0 54.254125687904889 75.006478723465989 0 0 0 0 -91.966306731323584 57.272894477813679 0 57.272894477813679 91.253796035482083 0 0 0 0 -75.746481177446128 43.368025428263536 0 43.368025428263536 57.648416618292686 0 0 0 0 -63.360630009531633 35.051683371646504 0 35.051683371646504 30.738349713548814 0 0 0 0 -21.146498071703689 25.18543007435774 0 25.18543007435774 36.295661604751253 0 0 0 0 -38.168187709174163 60.467253663780866 0 60.467253663780866 21.622435977256828 0 0 0 0 -2.4480314273023396 58.559473992336279 0 58.559473992336279 7.0634098632108362 0 0 0 0 -191.47628094338233 116.50543707767747 0 116.50543707767747 76.153036914947734 0 0 0 0 151.61174643846471 47.890283496489246 0 47.890283496489246 -52.811028904168779 0 0 0 0 0.62850013321198528 1.8547019726921121 0 1.8547019726921121 3.9255432779247599 0 0 0 0 48.533498638118544 -54.7047922477268 0 -54.7047922477268 72.678239347547787 0 0 0 0 24.456751550396348 -10.127010746105043 0 -10.127010746105043 3.7758178791264072 0 0 0 0 -12.376493137015132 -0.32838666892530455 0 -0.32838666892530455 5.2848707877456036 0 0 0 0 -41.366560664284862 52.287573929654172 0 52.287573929654172 2.7918488921641256 0 0 0 0 -6.986052167945445 26.232671429748052 0 26.232671429748052 26.459022464448935 0 0 0 0 -35.996507855024902 39.574785243850783 0 39.574785243850783 23.772705909673277 0 0 0 0 -5.1644939461847619 -0.99635545803045389 0 -0.99635545803045389 13.391319387164174 0 0 0 0 -28.124427294155794 52.983624474691169 0 52.983624474691169 12.6257142200011 0 0 0 0 -29.727043634395535 19.318291582924303 0 19.318291582924303 41.993971609483864 0 0 0 0 -69.007506138563713 54.82266834406164 0 54.82266834406164 2.5861538858844142 0 0 0 0 -1.9984287992188667 32.639044534728669 0 32.639044534728669 23.329432907307961 0 0 0 0 -50.945215689007455 44.279516302416596 0 44.279516302416596 22.252341065923247 0 0 0 0 -86.39888744122527 77.85027642161549 0 77.85027642161549 40.013689605017134 0 0 0 0 5.9191976296219764 32.204185437469278 0 32.204185437469278 30.352729984722828 0 0 0 0 -16.171850629453502 51.005039365521952 0 51.005039365521952 18.700550445752015 0 0 0 0 -32.768002431913828 35.028461665577197 0 35.028461665577197 5.8339906686087488 0 0 0 0 -36.877594773676492 34.739923015593376 0 34.739923015593376 12.018486085755285 0 0 0 0 -96.771148166169496 16.301383209167398 0 16.301383209167398 24.757679549642489 0 0 0 0 -67.738310166766496 1.118286303957575 0 1.118286303957575 29.062463061745802 0 0 0 0 -116.74942300128487 11.256443679507356 0 11.256443679507356 110.80402823834811 0 0 0 0 -102.13341008960333 29.797827251255512 0 29.797827251255512 120.33057459446718 0 0 0 0 -52.444999147545275 -0.23257310735061765 0 -0.23257310735061765 -14.544734817900462 0 0 0 0 -87.540733815279509 -26.269792693383351 0 -26.269792693383351 -8.5700753700948553 0 0 0 0 -61.60251734507483 4.6219133567319659 0 4.6219133567319659 1.3169668619229924 0 0 0 0 0.88028247342089117 13.792166301984253 0 13.792166301984253 -8.867004196086782 0 0 0 0 -56.175831496881074 8.7475484755195794 0 8.7475484755195794 3.8166818515455816 0 0 0 0 -44.60019633465572 -8.8238262672821293 0 -8.8238262672821293 12.669225046527572 0 0 0 0 -55.266729540435335 3.0878051004692679 0 3.0878051004692679 -0.63134546624951327 0 0 0 0 -98.482501180715644 -20.951862288078701 0 -20.951862288078701 -2.3618670229634517 0 0 0 0 -1.1727915212848985 0.27312020887921307 0 0.27312020887921307 3.4477823338226017 0 0 0 0 -92.464388387236795 -31.672400666102476 0 -31.672400666102476 -13.476431213071919 0 0 0 0 -135.25013135072868 -89.33188897974469 0 -89.33188897974469 -9.1823427131894277 0 0 0 0 -77.032473186884772 -47.092294370086165 0 -47.092294370086165 -11.367280515216407 0 0 0 0 -139.95549271512687 -51.91566960545606 0 -51.91566960545606 -1.4602587338522426 0 0 0 0 -76.187352438780408 -39.834281003088108 0 -39.834281003088108 -2.8525532740095514 0 0 0 0 -76.838326491764974 -97.940422552615928 0 -97.940422552615928 -49.419392604657332 0 0 0 0 88.938701471174227 116.69075496110599 0 116.69075496110599 172.72457589762053 0 0 0 0 46.297833191041605 114.0006140244659 0 114.0006140244659 190.42993935121922 0 0 0 0 167.17952859652041 131.98841066754539 0 131.98841066754539 164.45368015223357 0 0 0 0 -143.71335152625795 -45.640966239050613 0 -45.640966239050613 -9.7691768523363862 0 0 0 0 -156.23026595846886 -27.643242921330966 0 -27.643242921330966 -5.4406003399344627 0 0 0 0 -155.57704371897125 -58.212778618661105 0 -58.212778618661105 -28.638143937743735 0 0 0 0 -104.8502331461591 -9.3964356114374823 0 -9.3964356114374823 -9.2879622198815923 0 0 0 0 -137.05878010691379 -34.82722830302373 0 -34.82722830302373 -53.626427289098501 0 0 0 0 -134.09495562550296 -57.206600659446849 0 -57.206600659446849 -93.00094307094696 0 0 0 0 -199.92336574969249 -161.85639863534016 0 -161.85639863534016 -105.60353187187138 0 0 0 0 112.29123023880902 213.57151053172129 0 213.57151053172129 411.64800199016463 0 0 0 0 0.15305309289043434 0.1037649269066776 0 0.1037649269066776 0.16104980879524078 0 0 0 0 0.62517006742581016 0.46146590773257401 0 0.46146590773257401 0.2186309360332217 0 0 0 0 69.67805391722095 239.39767603983637 0 239.39767603983637 396.36142866892624 0 0 0 0 164.8642280252111 154.27500827293989 0 154.27500827293989 255.18375303631183 0 0 0 0 -194.77677876157395 -76.514591112325434 0 -76.514591112325434 65.538912021467695 0 0 0 0 -109.1879632441478 15.698955473868409 0 15.698955473868409 158.47435225525987 0 0 0 0 59.73384692457671 109.03593926267058 0 109.03593926267058 147.2134750232799 0 0 0 0 72.725078818944894 58.035150943527697 0 58.035150943527697 189.47347512154374 0 0 0 0 -43.362929071109647 137.87131073247292 0 137.87131073247292 349.48012453543197 0 0 0 0 72.419069647553215 35.041039077201276 0 35.041039077201276 148.75098365574377 0 0 0 0 29.585322702816512 49.425161638857389 0 49.425161638857389 158.21993225955521 0 0 0 0 65.12949133114796 88.716337244433817 0 88.716337244433817 208.37690908979857 0 0 0 0 69.789998101568926 43.618874627165496 0 43.618874627165496 149.7304124408256 0 0 0 0 41.418058511136678 94.159511711397499 0 94.159511711397499 209.7264684685797 0 0 0 0 73.230612190914826 108.92088798221084 0 108.92088798221084 180.49937885531108 0 0 0 0 72.457426622578396 132.32395453262143 0 132.32395453262143 268.40431718778564 0 0 0 0 323.69431603544626 292.80101194576127 0 292.80101194576127 318.74060065782396 0 0 0 0 128.22595449450915 60.295990921084012 0 60.295990921084012 207.27461873402353 0 0 0 0 107.65028234353497 89.641224988052272 0 89.641224988052272 329.11568696208997 0 0 0 0 41.106298654918305 0.032145421217137482 0 0.032145421217137482 43.727767540185596 0 0 0 0 -72.405216468984122 19.736573203868829 0 19.736573203868829 -45.812032968970016 0 0 0 0 -76.737663840840241 -2.5971978353773011 0 -2.5971978353773011 82.882523962791311 0 0 0 0 -7.9831051783619387 -26.777758363859903 0 -26.777758363859903 -36.054538480078918 0 0 0 0 -2.3477253595307275 92.947096325573511 0 92.947096325573511 163.18009052061097 0 0 0 0 -26.254981278538253 31.484026669895684 0 31.484026669895684 29.762302439188716 0 0 0 0 33.036928902747832 -2.2405232157543651 0 -2.2405232157543651 48.823739053943427 0 0 0 0 -26.265326828938441 7.0221937318274286 0 7.0221937318274286 305.54076977869772 0 0 0 0 -5.7912521069931699 79.307566174516978 0 79.307566174516978 175.28708991338499 0 0 0 0 56.235924135559117 19.053339224579759 0 19.053339224579759 117.97941986453225 0 0 0 0 -3.2703895320101992 68.12343374298689 0 68.12343374298689 95.604762123635737 0 0 0 0 -13.917123451331577 75.236312726591677 0 75.236312726591677 42.228350543242414 0 0 0 0 -35.682913563148759 16.856552614615794 0 16.856552614615794 96.605737851565209 0 0 0 0 -39.178558488283784 40.148501040584051 0 40.148501040584051 4.8247166191067663 0 0 0 0 -111.68417854247809 30.808568096486852 0 30.808568096486852 244.47266936161759 0 0 0 0 -118.61889629688324 -2.710752036177837 0 -2.710752036177837 244.0936692882533 0 0 0 0 -145.25234796864515 29.444030528495205 0 29.444030528495205 208.38533818777796 0 0 0 0 -38.955433964521035 93.395612405060092 0 93.395612405060092 222.97919898078544 0 0 0 0 -67.240977818421925 19.214055065811408 0 19.214055065811408 48.643520082790928 0 0 0 0 -5.6011448473964265 -85.378098493096331 0 -85.378098493096331 83.806049290287774 0 0 0 0 -83.032952037390714 -71.32652824739489 0 -71.32652824739489 96.467980832087051 0 0 0 0 -47.900767955035008 -38.553352579474449 0 -38.553352579474449 37.405788894415309 0 0 0 0 -57.707144696275009 -37.362207763935658 0 -37.362207763935658 66.846739821994561 0 0 0 0 -103.49601518622694 -3.49006453473703 0 -3.49006453473703 83.320149191175005 0 0 0 0 -148.27777694777978 -57.236206484016293 0 -57.236206484016293 131.67587073401955 0 0 0 0 -123.46053182687683 -5.8284368419881503 0 -5.8284368419881503 222.37472734898984 0 0 0 0 159.80225966783473 299.11863466777868 0 299.11863466777868 350.21457166333994 0 0 0 0 -157.80253412527787 -130.20172197444072 0 -130.20172197444072 -30.303436704198248 0 0 0 0 0.36335889701862056 -0.62666148155373946 0 -0.62666148155373946 1.4495633368104563 0 0 0 0 -93.857233004446243 5.3430694288726954 0 5.3430694288726954 62.247643748323753 0 0 0 0 0.38990335134127307 -2.1724457659059553 0 -2.1724457659059553 4.6889499918046624 0 0 0 0 -102.90394729768582 -29.524502863489033 0 -29.524502863489033 42.07978188386187 0 0 0 0 -3.8785534346965278 152.23102696824208 0 152.23102696824208 227.70562403170788 0 0 0 0 16.258614859711429 89.956962068741632 0 89.956962068741632 218.99450607624021 0 0 0 0 -15.915191576072175 2.5059560692097875 0 2.5059560692097875 63.617977891928149 0 0 0 0 -33.965023659734925 -10.915416957194793 0 -10.915416957194793 76.360668069904932 0 0 0 0 6.4480952651117605 34.429652318369335 0 34.429652318369335 92.792040206786623 0 0 0 0 29.47548960054587 -32.336138168953767 0 -32.336138168953767 80.445236908524748 0 0 0 0 -9.3599540049900387 12.296118862789992 0 12.296118862789992 18.146274086149234 0 0 0 0 -2.372627090344281 -16.761126478615552 0 -16.761126478615552 71.784159152221036 0 0 0 0 -6.8645868560822088 25.834114530500869 0 25.834114530500869 73.913216263942559 0 0 0 0 6.5751061174638323 -10.754276333341295 0 -10.754276333341295 75.285082069067357 0 0 0 0 -5.1814010009586333 -1.6583189166028784 0 -1.6583189166028784 41.367818908430522 0 0 0 0 22.40019351681417 35.939627499939888 0 35.939627499939888 18.602960293706928 0 0 0 0 2.0387781851644036 18.780000014893417 0 18.780000014893417 14.044820106418111 0 0 0 0 5.4562374287389037 4.2782248305953017 0 4.2782248305953017 -5.9817577878634545 0 0 0 0 1.964795301396415 -0.22747207031886596 0 -0.22747207031886596 15.19405024155834 0 0 0 0 -6.6839056402550341 -5.1752050097984466 0 -5.1752050097984466 73.301881283173657 0 0 0 0 -4.316483880223327 6.8330506243903368 0 6.8330506243903368 27.162248259745834 0 0 0 0 -12.520486184370007 21.48330800064571 0 21.48330800064571 50.849167722848129 0 0 0 0 -8.476806188293267 21.57363878749311 0 21.57363878749311 36.944591592726283 0 0 0 0 -78.294379148177541 -36.241466405961546 0 -36.241466405961546 28.709816360002151 0 0 0 0 0.097622707122692276 4.5303258955011501 0 4.5303258955011501 11.39523601307536 0 0 0 0 -5.0614058162864541 6.3178854457776588 0 6.3178854457776588 45.021391396054653 0 0 0 0 -13.984012321155431 0.48444863783238645 0 0.48444863783238645 38.029715850566376 0 0 0 0 19.845305813286814 22.235578404509397 0 22.235578404509397 48.64936589403078 0 0 0 0 -206.33882038784668 20.903758943997673 0 20.903758943997673 215.18904715043755 0 0 0 0 -30.244212932542723 -134.68486261695944 0 -134.68486261695944 273.25875864746922 0 0 0 0 -55.897602885052493 -71.746831391978048 0 -71.746831391978048 127.08739187321407 0 0 0 0 77.650250820652218 -133.30513270618758 0 -133.30513270618758 -582.1432851191712 0 0 0 0 0.53795398636171576 -0.43728093983932581 0 -0.43728093983932581 5.9098833225797875 0 0 0 0 -64.425248127259465 30.949320878000435 0 30.949320878000435 101.65730398695086 0 0 0 0 -2.9434654326059633 8.6978149223885044 0 8.6978149223885044 53.750882808017657 0 0 0 0 0.022220048083269495 0.29585780919104465 0 0.29585780919104465 29.584818513753149 0 0 0 0 107.83474862592357 37.627592652966996 0 37.627592652966996 -88.629164740774286 0 0 0 0 -232.72254163750767 24.704784012690652 0 24.704784012690652 1112.5505061828298 0 0 0 0 -0.68196155795976665 171.79064179548732 0 171.79064179548732 -214.80166014829933 0 0 0 0 -179.90748869840104 -15.220855877989379 0 -15.220855877989379 473.49991909715754 0 0 0 0 -118.89156629620356 390.79849166150234 0 390.79849166150234 272.38701747236337 0 0 0 0 11.069001047928396 -135.1625691862173 0 -135.1625691862173 -226.56173322446898 0 0 0 0 -118.01580471972147 -206.77673630991194 0 -206.77673630991194 133.41236495944031 0 0 0 0 -0.089586523872988488 0.93682335952522777 0 0.93682335952522777 10.765074567467735 0 0 0 0 -179.39441292311585 6.4570142295633559 0 6.4570142295633559 254.12557396068587 0 0 0 0 388.73948127242511 295.29096201052016 0 295.29096201052016 -241.15352398830146 0 0 0 0 -2.1466396131166094 3.8627347737165927 0 3.8627347737165927 56.418470771388883 0 0 0 0 8.863991319994966 15.968033395085513 0 15.968033395085513 45.455413920179126 0 0 0 0 -1.0253393675790221 11.352175452695519 0 11.352175452695519 59.883195120000892 0 0 0 0 0.83959432578454241 3.0935845464047489 0 3.0935845464047489 16.164919508527767 0 0 0 0 -6.9822017444097089 -3.0614007008714843 0 -3.0614007008714843 23.532696144440749 0 0 0 0 -22.022130178919241 23.003123219425788 0 23.003123219425788 64.584285583823657 0 0 0 0 -1.5567011735984124 26.918323284562575 0 26.918323284562575 89.851116039609678 0 0 0 0 -1.7733954701648145 8.4025014258877491 0 8.4025014258877491 42.068038884324778 0 0 0 0 18.298191278463719 13.884237882590241 0 13.884237882590241 80.714768110601653 0 0 0 0 11.884047398972143 29.27288206934827 0 29.27288206934827 60.167491947955114 0 0 0 0 25.455085875540476 19.684219653270702 0 19.684219653270702 57.651537784546235 0 0 0 0 -5.9872964560556152 -8.1613876665688139 0 -8.1613876665688139 19.811072878533771 0 0 0 0 18.783512408699153 30.487781100424399 0 30.487781100424399 47.522403631533962 0 0 0 0 -1.9044416510000701 28.920677038086978 0 28.920677038086978 82.4122717114642 0 0 0 0 10.680179994767695 5.9726424146182637 0 5.9726424146182637 6.0778113075243247 0 0 0 0 -7.0957619390533901 -6.0965273641773763 0 -6.0965273641773763 28.511547388374325 0 0 0 0 24.491747112407438 -119.07191173980482 0 -119.07191173980482 -98.493182856614112 0 0 0 0 -152.35532122459395 219.81071722717229 0 219.81071722717229 95.918123022083819 0 0 0 0 0.71536208791050404 -1.3295806802279451 0 -1.3295806802279451 1.1335913405837559 0 0 0 0 -287.6025595472745 -250.70248857563729 0 -250.70248857563729 727.03204776136226 0 0 0 0 206.69847254918722 -311.51966015204198 0 -311.51966015204198 205.04794253462023 0 0 0 0 706.80380983643045 -310.62793238295126 0 -310.62793238295126 401.27083110309513 0 0 0 0 -0.036915298115245188 0.10316825099838667 0 0.10316825099838667 4.3466611308269663 0 0 0 0 143.89342990849423 -587.72212684247893 0 -587.72212684247893 154.32460264202746 0 0 0 0 17.193592804724631 59.812688132621588 0 59.812688132621588 168.94751593971159 0 0 0 0 449.55139620597652 482.27298166697619 0 482.27298166697619 301.05210876143201 0 0 0 0 -35.5912846654237 16.817760061065201 0 16.817760061065201 85.60507775991573 0 0 0 0 1.169358155295571 -13.846438630432267 0 -13.846438630432267 38.635625731443938 0 0 0 0 62.84459809443797 -15.326910961795875 0 -15.326910961795875 15.561116095857869 0 0 0 0 3.1914909874303703 9.3223592569374887 0 9.3223592569374887 40.219758430630463 0 0 0 0 13.854926768384757 20.928567757960991 0 20.928567757960991 67.451976053169346 0 0 0 0 -2.3242149172028381 6.6505180162138089 0 6.6505180162138089 43.436819699448606 0 0 0 0 -736.9246265605866 -87.627566268663941 0 -87.627566268663941 834.42202992492821 0 0 0 0 280.40585522224683 -438.94130727423908 0 -438.94130727423908 -360.66437212728488 0 0 0 0 -5.6552539723352044 -0.86523264708584691 0 -0.86523264708584691 33.107244853173576 0 0 0 0 -128.16083798178079 -98.338269315813704 0 -98.338269315813704 220.05985808154219 0 0 0 0 -111.26691169904916 5.1297693702144898 0 5.1297693702144898 601.97692988399649 0 0 0 0 332.60426843863524 407.09590302402103 0 407.09590302402103 362.71100605209358 0 0 0 0 63.765851938174819 102.12089610761905 0 102.12089610761905 26.096190139243845 0 0 0 0 565.68559152475018 50.507827825538698 0 50.507827825538698 -191.8149022689031 0 0 0 0 -109.34023042894023 44.410179683189199 0 44.410179683189199 396.62449183703575 0 0 0 0 73.33372603904354 144.7775726712789 0 144.7775726712789 129.36930184515222 0 0 0 0 -20.346533180469123 -112.47253318473668 0 -112.47253318473668 -88.559623709566949 0 0 0 0 -30.678784266123557 16.395493192530921 0 16.395493192530921 14.681174668949097 0 0 0 0 95.801613332832858 17.819089091877686 0 17.819089091877686 -41.356221017253119 0 0 0 0 27.758073214363321 -72.006610468917643 0 -72.006610468917643 -142.42013122929711 0 0 0 0 277.5759108196271 103.76986018293246 0 103.76986018293246 -97.016282611133647 0 0 0 0 177.99893898208256 -201.23812948765044 0 -201.23812948765044 -313.71303006849485 0 0 0 0 39.767465178353632 -90.486313977300597 0 -90.486313977300597 -114.06761273193115 0 0 0 0 24.176424100295662 -84.370720408573106 0 -84.370720408573106 -98.605730138871877 0 0 0 0 -98.874180074879405 -117.50087847582472 0 -117.50087847582472 -106.44626292766407 0 0 0 0 -48.731181465922418 -71.688714157084178 0 -71.688714157084178 -60.32216700410936 0 0 0 0 -366.77150692038413 108.2902734472882 0 108.2902734472882 52.130803851959172 0 0 0 0 40.579497639092551 57.031909456742142 0 57.031909456742142 45.712442290822764 0 0 0 0 -3.6234704701601084 -18.64809273577 0 -18.64809273577 54.951495074638885 0 0 0 0 -2.6400286510870234 6.640964501229135 0 6.640964501229135 15.508994777707244 0 0 0 0 -343.43095418517078 -715.18557726153085 0 -715.18557726153085 -271.57387369921707 0 0 0 0 -264.86789364363176 -207.43204611781402 0 -207.43204611781402 -118.01710826235649 0 0 0 0 -13.010900598775379 119.94799290064293 0 119.94799290064293 156.07181771261094 0 0 0 0 -1.0576259478729142 -34.620678961465238 0 -34.620678961465238 66.824748607510287 0 0 0 0 -210.68984171666671 -260.40993283496937 0 -260.40993283496937 283.62982293801542 0 0 0 0 52.233153335857423 73.216251726333212 0 73.216251726333212 117.92312966712097 0 0 0 0 -75.287037754839844 109.15305724839482 0 109.15305724839482 152.42096248290909 0 0 0 0 -79.692589309405776 -124.47498650478519 0 -124.47498650478519 -61.865658132897806 0 0 0 0 -8.7907271069964672 -26.876378226369123 0 -26.876378226369123 65.696950223671905 0 0 0 0 -84.584123377458297 -18.400502995394163 0 -18.400502995394163 112.22716477435097 0 0 0 0 2.6497269354686068 19.710122155758654 0 19.710122155758654 112.43841193932167 0 0 0 0 -19.095520570534063 6.4717642741979944 0 6.4717642741979944 105.24737768367413 0 0 0 0 36.375475621020087 19.30701357748876 0 19.30701357748876 87.381333304525469 0 0 0 0 40.658191334568983 104.73789835410207 0 104.73789835410207 127.04452714040463 0 0 0 0 9.7015046487316567 -2.7944748439552747 0 -2.7944748439552747 0.51719419211336515 0 0 0 0 -1.6736215177792557 2.7405270714214591 0 2.7405270714214591 22.769439586588952 0 0 0 0 -53.244304542881309 7.1865135135312812 0 7.1865135135312812 43.149728720803978 0 0 0 0 21.03471225138037 19.715161856725899 0 19.715161856725899 30.451795733242761 0 0 0 0 20.400245965758046 23.323013506642383 0 23.323013506642383 19.255106032222102 0 0 0 0 -35.516686189772116 18.243825215445213 0 18.243825215445213 98.926281034438944 0 0 0 0 64.470439419780803 62.224016047254736 0 62.224016047254736 32.044571373930012 0 0 0 0 -19.85562436072064 2.4784032084353385 0 2.4784032084353385 13.666849731183902 0 0 0 0 -35.701108495326139 -11.220289547452012 0 -11.220289547452012 60.100438207206025 0 0 0 0 -23.926746467968769 -23.152485500530929 0 -23.152485500530929 69.604219319064214 0 0 0 0 -76.503600994937415 -35.685588670139623 0 -35.685588670139623 61.891494307785251 0 0 0 0 1.2658333550045302 1.286261739205985 0 1.286261739205985 13.174939292265648 0 0 0 0 194.02462912725514 203.23925256877374 0 203.23925256877374 161.12781252800414 0 0 0 0 -52.776340244261633 69.77661022567554 0 69.77661022567554 131.09673086243492 0 0 0 0 6.1578019112062066 1.8921444292536762 0 1.8921444292536762 108.61936060465996 0 0 0 0 -36.719302883281898 2.307215617138354 0 2.307215617138354 39.089679952616279 0 0 0 0 -88.270085807327632 39.831266102575682 0 39.831266102575682 113.64080090665811 0 0 0 0 -117.28241601724972 4.1329833545059955 0 4.1329833545059955 73.947935661977681 0 0 0 0 -125.97721419717573 31.186213742101245 0 31.186213742101245 120.61414041515127 0 0 0 0 -124.11164300305859 23.158630200507105 0 23.158630200507105 112.57310063205296 0 0 0 0 -139.775805673723 32.236103689104084 0 32.236103689104084 107.89830222576711 0 0 0 0 -118.3215619310069 3.7557255104984506 0 3.7557255104984506 126.50697058103833 0 0 0 0 -134.06255375321598 24.049621326103079 0 24.049621326103079 119.48119645802944 0 0 0 0 -83.169142687823751 -47.955494900263147 0 -47.955494900263147 172.984354667351 0 0 0 0 -118.12726862315321 -2.7471546846645651 0 -2.7471546846645651 151.88083231489873 0 0 0 0 -116.34526509607258 26.426116431422997 0 26.426116431422997 181.08463708970521 0 0 0 0 -19.447111883560524 59.935820168095233 0 59.935820168095233 80.314955017442117 0 0 0 0 -120.39864149781693 5.8366617088104249 0 5.8366617088104249 109.7723466828902 0 0 0 0 -136.51315015849787 -14.854874918117275 0 -14.854874918117275 58.687085585792374 0 0 0 0 -98.987290857092376 28.851399758525076 0 28.851399758525076 107.87193157486763 0 0 0 0 -104.54660085380783 -16.946032085666957 0 -16.946032085666957 40.873489305078692 0 0 0 0 -15.254677874796926 -27.784317215357078 0 -27.784317215357078 -18.200429235832416 0 0 0 0 -135.72979367817197 -56.111193231961806 0 -56.111193231961806 -23.376809693319956 0 0 0 0 -96.917834263336772 -65.37417942826869 0 -65.37417942826869 -11.03793661576492 0 0 0 0 -115.8050669102613 -71.345405036816373 0 -71.345405036816373 -5.9193843900120555 0 0 0 0 -139.91361996806381 -26.988168925512582 0 -26.988168925512582 63.048833535067388 0 0 0 0 -150.40515565197529 -69.44592594151618 0 -69.44592594151618 -4.6761217542880331 0 0 0 0 -78.526533165642832 -123.64151476825646 0 -123.64151476825646 -79.955320426321123 0 0 0 0 -224.21578118596153 -102.17614341541776 0 -102.17614341541776 -17.316445041418774 0 0 0 0 -2.4070204543899285 -14.092136208050821 0 -14.092136208050821 1.6070425249134246 0 0 0 0 -15.783857236972381 73.407398843155534 0 73.407398843155534 98.220318042091094 0 0 0 0 -3.8129768742369885 5.9219189326649975 0 5.9219189326649975 75.494016329317162 0 0 0 0 -0.87376387695350211 5.2234798387339083 0 5.2234798387339083 8.2443693668508047 0 0 0 0 -310.57445856251798 -66.080320068969741 0 -66.080320068969741 125.90817113552839 0 0 0 0 -251.52095837394927 -194.2649312151807 0 -194.2649312151807 -58.167042843003401 0 0 0 0 -149.61497113957444 -46.411195202588715 0 -46.411195202588715 24.100140863836714 0 0 0 0 -185.66300713388807 -22.7145239091451 0 -22.7145239091451 105.17306580804143 0 0 0 0 -165.29165671621013 -72.104211388104886 0 -72.104211388104886 2.9590396295316168 0 0 0 0 -53.95970990445079 -52.500783741941632 0 -52.500783741941632 153.65453847091703 0 0 0 0 -138.65417115206222 31.878359297001907 0 31.878359297001907 81.563882279726386 0 0 0 0 -80.562102044437324 -124.03067963304784 0 -124.03067963304784 99.845671931820107 0 0 0 0 100.66658570005211 -179.8528589604939 0 -179.8528589604939 138.69362654179713 0 0 0 0 16.322691880430966 -138.01021028650575 0 -138.01021028650575 124.9037499808037 0 0 0 0 -43.913406762086765 -33.816306288397755 0 -33.816306288397755 188.40281565778787 0 0 0 0 212.53784862178065 -257.61705259593145 0 -257.61705259593145 38.168705156327633 0 0 0 0 238.36041518007482 -122.97343762929449 0 -122.97343762929449 34.440703228861821 0 0 0 0 140.07345918576522 -194.84753975466811 0 -194.84753975466811 104.8677281918026 0 0 0 0 138.81066484674761 -202.5442533822752 0 -202.5442533822752 79.355336237626034 0 0 0 0 -2.0337580970407316 -65.53490309711151 0 -65.53490309711151 73.197618126221641 0 0 0 0 93.367223634269521 -123.26168524788773 0 -123.26168524788773 18.531620056433894 0 0 0 0 61.828386901445356 -153.43165890673845 0 -153.43165890673845 51.293021941106417 0 0 0 0 1.0260156078593354 -36.477926740068142 0 -36.477926740068142 87.500558332889341 0 0 0 0 -131.25750318177825 -18.892671323494142 0 -18.892671323494142 123.3721787620525 0 0 0 0 -126.96443236520508 -84.486126758107275 0 -84.486126758107275 198.26442365147523 0 0 0 0 -135.71166367579917 -50.445876543708437 0 -50.445876543708437 131.17502544025774 0 0 0 0 -224.71449493836917 -33.117316754087369 0 -33.117316754087369 137.02748285811413 0 0 0 0 -179.27792345198668 22.977764723455039 0 22.977764723455039 106.30176969472086 0 0 0 0 -149.37749412045264 25.107630565580621 0 25.107630565580621 -70.142967821477214 0 0 0 0 -157.46660265209266 -116.32753595656322 0 -116.32753595656322 96.146016458485974 0 0 0 0 -115.64964558775864 38.258642221804621 0 38.258642221804621 95.12680976021511 0 0 0 0 5.5627191126384066 8.0036029709395251 0 8.0036029709395251 58.156860698795342 0 0 0 0 -49.067818325783264 15.59011880730759 0 15.59011880730759 65.03915575613064 0 0 0 0 -90.630762439165665 -0.13407530957192648 0 -0.13407530957192648 83.017366560350638 0 0 0 0 -0.18079365918792334 4.2837036955521626 0 4.2837036955521626 12.582291269720074 0 0 0 0 -125.11127036311245 -67.914825680658396 0 -67.914825680658396 52.404510385915273 0 0 0 0 -53.847936868549397 -60.142637850552092 0 -60.142637850552092 -145.28623661665188 0 0 0 0 18.379265649423168 -12.245733802965672 0 -12.245733802965672 55.812400333536004 0 0 0 0 545.65021071807473 -217.94294445086416 0 -217.94294445086416 73.142744263655914 0 0 0 0 -150.79444874789988 -213.57845055728103 0 -213.57845055728103 97.031057889544172 0 0 0 0 11.159207727760069 -12.754649060293517 0 -12.754649060293517 22.502995977398243 0 0 0 0 19.435663903901382 -4.2020042083574936 0 -4.2020042083574936 73.142744263670465 0 0 0 0 4.4163129250289037 -1.272123748000858 0 -1.272123748000858 22.294763248838649 0 0 0 0 -374.00727239739786 -286.86027867267694 0 -286.86027867267694 2496.9093396568642 0 0 0 0 299.96747529035326 -855.36781251000139 0 -855.36781251000139 1275.5038922981003 0 0 0 0 -128.32453696970228 350.56458938650576 0 350.56458938650576 1294.5481916223725 0 0 0 0 -390.83992885712405 -122.15475127930949 0 -122.15475127930949 218.48751009919215 0 0 0 0 232.78195981306723 -176.29129067757231 0 -176.29129067757231 102.6669405693101 0 0 0 0 180.91703359317398 27.552248377363867 0 27.552248377363867 81.596370401934109 0 0 0 0 -189.30143267657934 166.7636677171713 0 166.7636677171713 70.146008494019043 0 0 0 0 5.7177618841929787 -6.3972041831944395 0 -6.3972041831944395 8.0695658441757701 0 0 0 0 489.46246532794561 -348.19244153480031 0 -348.19244153480031 -164.03398692916107 0 0 0 0 -117.04897403116598 483.06375369452553 0 483.06375369452553 2497.1444402944435 0 0 0 0 690.76550198793836 -894.92969680745409 0 -894.92969680745409 693.47036167481565 0 0 0 0 -113.59475617467329 -947.04636489146287 0 -947.04636489146287 2110.5859341998985 0 0 0 0 276.30178805936396 -93.462414085730416 0 -93.462414085730416 212.60648923808549 0 0 0 0 405.99972613298655 -186.84659610004928 0 -186.84659610004928 61.543309364707966 0 0 0 0 -13.710668140837811 73.469948918790578 0 73.469948918790578 -32.011363375109795 0 0 0 0 72.1367737239799 -24.141564030825975 0 -24.141564030825975 -69.178114979737074 0 0 0 0 16.929358398105734 -39.223562081586806 0 -39.223562081586806 33.664466725336752 0 0 0 0 -87.184406323670913 7.2448984601824122 0 7.2448984601824122 47.801545486465329 0 0 0 0 102.62409765057345 -1.9910301742293086 0 -1.9910301742293086 -3.1863638722061296 0 0 0 0 3.2609597238330252 16.789837792933326 0 16.789837792933326 -1.3694457390956813 0 0 0 0 0.29171257481445645 7.199402077217691 0 7.199402077217691 27.822913770230045 0 0 0 0 0.46485440400590505 4.3023718104961972 0 4.3023718104961972 24.181556046441983 0 0 0 0 -0.35102378716457128 5.4536068323850806 0 5.4536068323850806 -3.1040377543875763 0 0 0 0 -51.49936863058565 8.0450233666415443 0 8.0450233666415443 36.834671426000568 0 0 0 0 -2.5126591481060059 -2.5618638609383826 0 -2.5618638609383826 2.0965644726423278 0 0 0 0 19.625956988506815 39.348252226902332 0 39.348252226902332 8.4390876110883255 0 0 0 0 -0.38131384279984104 29.837699805255397 0 29.837699805255397 10.046038070361647 0 0 0 0 -42.833427049167767 27.152020190853364 0 27.152020190853364 40.631849295135908 0 0 0 0 4.035792785782462 45.971189261194922 0 45.971189261194922 62.139598784149712 0 0 0 0 22.969059924692345 43.447075465987837 0 43.447075465987837 84.842988939748466 0 0 0 0 15.307025239282494 -5.4722207213657086 0 -5.4722207213657086 11.41464701199741 0 0 0 0 93.381541235882423 -22.234852177833091 0 -22.234852177833091 100.79313726394321 0 0 0 0 16.445359700138397 5.6843984909264691 0 5.6843984909264691 79.58016977967236 0 0 0 0 114.28238472943907 -39.509933284491581 0 -39.509933284491581 10.035454075004964 0 0 0 0 112.07421758036165 -60.208525313622886 0 -60.208525313622886 1.87166871725276 0 0 0 0 -5.2498206944842369 1.9105208358054782 0 1.9105208358054782 13.454846669887445 0 0 0 0 7.3812246683153653 52.515824728236566 0 52.515824728236566 42.465964511400671 0 0 0 0 53.226057501670837 29.619761020414444 0 29.619761020414444 236.46017920556915 0 0 0 0 -0.057347695112093144 0.37200004117393703 0 0.37200004117393703 -1.8543484439785374 0 0 0 0 13.768826555640203 -62.51884343711572 0 -62.51884343711572 15.672248402683636 0 0 0 0 33.646727623388756 -16.13641108518641 0 -16.13641108518641 84.840390451659914 0 0 0 0 2.1959645115597368 40.944678859259511 0 40.944678859259511 6.5121878172285506 0 0 0 0 44.415031912892971 -19.864911525259231 0 -19.864911525259231 81.087652623449685 0 0 0 0 -245.19023173548698 172.23124007307251 0 172.23124007307251 1132.9696536014926 0 0 0 0 270.28559548311017 163.15069437040984 0 163.15069437040984 215.50222077400758 0 0 0 0 -30.775007872834522 23.61932626658097 0 23.61932626658097 110.61649046426101 0 0 0 0 141.71811402340907 -108.58913102318911 0 -108.58913102318911 197.01669788892468 0 0 0 0 0.91770424372185866 1.5265332879807949 0 1.5265332879807949 9.6030693733288786 0 0 0 0 746.08267171871319 938.69070559093097 0 938.69070559093097 793.11444286940969 0 0 0 0 -392.72242070844567 512.87706314856314 0 512.87706314856314 2496.7245555383543 0 0 0 0 -371.22880006645124 -81.161405300825209 0 -81.161405300825209 1163.5233638002719 0 0 0 0 614.64478140711878 -1054.8863755703196 0 -1054.8863755703196 1061.4002838106353 0 0 0 0 -364.03458899572507 -387.15832836501022 0 -387.15832836501022 2496.791806834186 0 0 0 0 -125.47524097090528 46.560998001965345 0 46.560998001965345 299.47141896207177 0 0 0 0 1.3208725895706752 5.6674249947281634 0 5.6674249947281634 22.737612610633633 0 0 0 0 131.22558403012496 -150.72376013549911 0 -150.72376013549911 345.65023640023719 0 0 0 0 89.062345370936526 127.40015726215324 0 127.40015726215324 313.96568092962843 0 0 0 0 107.4628037991494 -137.167424279437 0 -137.167424279437 129.87236895225942 0 0 0 0 567.33887377347935 638.42885067955876 0 638.42885067955876 335.43894901137355 0 0 0 0 1.2739651148177309 1.600603963185538 0 1.600603963185538 10.286018181100985 0 0 0 0 -108.78983212644249 412.06469567104978 0 412.06469567104978 2496.7359946195947 0 0 0 0 -185.27633057752399 -99.488497116927647 0 -99.488497116927647 469.83779861247422 0 0 0 0 -322.79688525086192 -717.72935040619359 0 -717.72935040619359 2493.0576140339335 0 0 0 0 -0.045581633108728585 1.3705577168172303 0 1.3705577168172303 9.1312106731186802 0 0 0 0 234.41095904578054 262.71125312080494 0 262.71125312080494 264.07486665473334 0 0 0 0 -309.33814491764281 476.24554890792751 0 476.24554890792751 2496.1576188785843 0 0 0 0 -172.60736117372431 -124.49109762890248 0 -124.49109762890248 2441.7622999167925 0 0 0 0 722.73452693474951 1220.423020093689 0 1220.423020093689 2808.9947517288074 0 0 0 0 137.04398968844529 930.6259242844344 0 930.6259242844344 799.93990554707125 0 0 0 0 -225.56682363008014 614.83969694868938 0 614.83969694868938 2349.3103677168219 0 0 0 0 254.85050936764804 -307.14006401539064 0 -307.14006401539064 -12.845370323678708 0 0 0 0 235.85841091142942 124.81067962504858 0 124.81067962504858 501.17993810497046 0 0 0 0 186.26920329460359 -4.3565311217589624 0 -4.3565311217589624 594.80355197647259 0 0 0 0 94.393872919500055 -22.592083811215161 0 -22.592083811215161 -103.5640326540306 0 0 0 0 282.70257802025941 -166.782045149677 0 -166.782045149677 1.5211384708163678 0 0 0 0 123.61042413148388 -115.28736234422604 0 -115.28736234422604 -57.359270885976002 0 0 0 0 -434.01342979995673 -152.12674972482318 0 -152.12674972482318 119.51900970931547 0 0 0 0 22.018494055276363 -109.11347950300296 0 -109.11347950300296 -48.260282798207299 0 0 0 0 9.4960979147523972 -41.226969011255278 0 -41.226969011255278 -0.93354013789121382 0 0 0 0 5.891413870897054 -11.159967065929777 0 -11.159967065929777 -23.605165706707339 0 0 0 0 96.549874465495463 80.632238828369736 0 80.632238828369736 4.2276858932937103 0 0 0 0 -135.24513602162131 6.0155468785924313 0 6.0155468785924313 98.287864387864829 0 0 0 0 -0.26485401567092992 1.7545274359727658 0 1.7545274359727658 16.504946701514463 0 0 0 0 -71.309756296917087 -54.523851522348423 0 -54.523851522348423 18.17954427607765 0 0 0 0 -0.06421922459597379 0.91260667062910805 0 0.91260667062910805 11.487940248558253 0 0 0 0 -65.352234705388526 49.597915636823927 0 49.597915636823927 16.140954451722791 0 0 0 0 71.02278992164085 27.194489759364501 0 27.194489759364501 2.8959906065811083 0 0 0 0 -25.062901166265476 16.971207694547957 0 16.971207694547957 425.27653853850825 0 0 0 0 0.19487168748159611 0.33169769006697392 0 0.33169769006697392 4.1336698100482749 0 0 0 0 97.156557862974296 145.16131285738356 0 145.16131285738356 95.722096834209879 0 0 0 0 186.92239466359669 -178.25585906238223 0 -178.25585906238223 160.98601425803099 0 0 0 0 30.162259729385113 -75.252945297147562 0 -75.252945297147562 37.607836118037085 0 0 0 0 26.079937956775488 -138.7285122367075 0 -138.7285122367075 154.35662884545309 0 0 0 0 82.280329631412329 -53.789318350496615 0 -53.789318350496615 15.965056101287701 0 0 0 0 -15.580406923403586 -57.079863067165888 0 -57.079863067165888 65.876435214900994 0 0 0 0 -23.187347092360596 -38.111427019077382 0 -38.111427019077382 51.486700543609913 0 0 0 0 -17.252239553085076 -64.221390847938892 0 -64.221390847938892 36.385044841744502 0 0 0 0 -83.635359507808516 -31.208693875765675 0 -31.208693875765675 107.5633787597817 0 0 0 0 -93.948810926066528 20.235292705827305 0 20.235292705827305 80.679556542228966 0 0 0 0 -51.024864912755838 -32.640493034202336 0 -32.640493034202336 141.85399953727574 0 0 0 0 -4.4095840226691365 -102.92394665854317 0 -102.92394665854317 394.69500822881855 0 0 0 0 -31.171917875729463 -12.160635387084767 0 -12.160635387084767 152.47112473318589 0 0 0 0 -42.742424625921032 70.193180098302719 0 70.193180098302719 192.04450369174447 0 0 0 0 -24.271592885706532 122.77267213162941 0 122.77267213162941 341.69624298757185 0 0 0 0 -22.081365681461875 -3.4081108189111546 0 -3.4081108189111546 159.47259687628139 0 0 0 0 -126.7983769557797 93.905607871771281 0 93.905607871771281 193.67189141438212 0 0 0 0 -140.10211664365161 160.24071482726072 0 160.24071482726072 3.1542851000285737 0 0 0 0 30.136686842056889 132.83792955191257 0 132.83792955191257 -110.8946007027007 0 0 0 0 -5.2831908362166917 18.199462315137811 0 18.199462315137811 25.833563643037493 0 0 0 0 11.597005523811902 -29.909600361997036 0 -29.909600361997036 -64.582039448147043 0 0 0 0 -8.0324226075607612 104.11434274774228 0 104.11434274774228 44.011154534797242 0 0 0 0 72.504317734077731 57.341346473099293 0 57.341346473099293 39.291701059111801 0 0 0 0 0.72273280656945793 -0.16877950495216965 0 -0.16877950495216965 0.11171953285179193 0 0 0 0 42.623220629799576 70.992333273266013 0 70.992333273266013 43.132024682976407 0 0 0 0 51.066254391146188 94.710227332374416 0 94.710227332374416 38.294606774747081 0 0 0 0 -36.04254169621521 50.969798924756105 0 50.969798924756105 109.40345074348261 0 0 0 0 1.8855553504467857 -0.93904470718703337 0 -0.93904470718703337 0.52431974980690121 0 0 0 0 136.189991603132 -41.924902230068255 0 -41.924902230068255 -26.68624510380323 0 0 0 0 -16.304414449607066 47.540527602845032 0 47.540527602845032 45.431496865774534 0 0 0 0 16.086975375451388 37.898176409899293 0 37.898176409899293 12.099786335667886 0 0 0 0 -280.69671781897716 96.55767657150318 0 96.55767657150318 168.9963660856456 0 0 0 0 -8.4581244743614548 -145.40592447109293 0 -145.40592447109293 378.59310215887126 0 0 0 0 264.54473437751102 102.56160601440752 0 102.56160601440752 94.242894113833245 0 0 0 0 -24.764005269885274 13.83145779381266 0 13.83145779381266 110.59776915063776 0 0 0 0 -34.336707342587943 44.458037947768389 0 44.458037947768389 41.590185839602782 0 0 0 0 59.314324921347179 65.220920354982809 0 65.220920354982809 69.553832104802495 0 0 0 0 199.99035615713728 230.37327543368156 0 230.37327543368156 22.939888938232798 0 0 0 0 214.2227959561269 195.46372572420478 0 195.46372572420478 94.54032802436268 0 0 0 0 16.75148107019686 160.44757346846018 0 160.44757346846018 144.54137315018579 0 0 0 0 -49.119238802523796 87.701536982023754 0 87.701536982023754 108.41483911832256 0 0 0 0 -45.079253955048443 129.95673307015022 0 129.95673307015022 70.039687989748472 0 0 0 0 -1.6815721416886618 111.69555358771436 0 111.69555358771436 67.811541607261461 0 0 0 0 -0.68441439848681895 6.5986596314486343 0 6.5986596314486343 10.630689138421388 0 0 0 0 -30.847229593499151 40.85631084955503 0 40.85631084955503 88.823460941828671 0 0 0 0 -124.55421716306603 -28.692935581309371 0 -28.692935581309371 73.665251348360471 0 0 0 0 -111.52135306838773 115.96654803052024 0 115.96654803052024 103.20932740533135 0 0 0 0 -27.519573037222926 7.219712745072286 0 7.219712745072286 40.431385437972267 0 0 0 0 -6.7322232240871189 8.6095367358336894 0 8.6095367358336894 35.923052874572441 0 0 0 0 -22.206202504669818 7.9562349546966971 0 7.9562349546966971 23.570366520067182 0 0 0 0 -20.216878380821527 13.302520591180723 0 13.302520591180723 33.658589172204188 0 0 0 0 -11.649654150424658 16.156070987851063 0 16.156070987851063 29.680653784476547 0 0 0 0 -63.13637271244761 134.89145379524598 0 134.89145379524598 51.291565485460524 0 0 0 0 -170.68107114391535 75.9938171617232 0 75.9938171617232 311.85434573262319 0 0 0 0 -80.914653194430684 -108.9098667565213 0 -108.9098667565213 348.99172326750659 0 0 0 0 -7.3195283140888705 -31.596721981953579 0 -31.596721981953579 26.027224759929595 0 0 0 0 -5.6704046637581769 -57.433803973722206 0 -57.433803973722206 136.18655271759053 0 0 0 0 89.51142070641572 -220.36579502208224 0 -220.36579502208224 247.84446953830957 0 0 0 0 1.2744298438345556 0.56072619968122694 0 0.56072619968122694 0.14436134962016922 0 0 0 0 -35.264004517652211 44.408575068282516 0 44.408575068282516 43.584587665496656 0 0 0 0 -14.939165342363967 17.362425583268791 0 17.362425583268791 42.836491179458868 0 0 0 0 -22.276274424655185 16.337355903237949 0 16.337355903237949 30.351032606860826 0 0 0 0 -15.883935174380492 14.671650396987447 0 14.671650396987447 70.791965810988586 0 0 0 0 -8.1964421026227008 32.229131426172998 0 32.229131426172998 38.212978852928195 0 0 0 0 -4.3422315525327333 8.0670910507808937 0 8.0670910507808937 15.693609546483508 0 0 0 0 -75.769068970653279 -111.58943733746855 0 -111.58943733746855 99.507852615970478 0 0 0 0 23.858390671245616 50.650774958202419 0 50.650774958202419 1.9278172538779472 0 0 0 0 -14.806636005076143 20.926227387002655 0 20.926227387002655 104.08487926722228 0 0 0 0 -8.9671917461333983 -0.70568577282935152 0 -0.70568577282935152 22.153620099732443 0 0 0 0 -3.4883503737571591 3.1723076783305011 0 3.1723076783305011 69.873286462973169 0 0 0 0 -29.015713262482677 -8.4436035669448302 0 -8.4436035669448302 93.084867310062691 0 0 0 0 -34.229624295430426 -12.755064206604402 0 -12.755064206604402 171.12192861986478 0 0 0 0 0.35166879587995936 -15.054486974579959 0 -15.054486974579959 71.273495812267356 0 0 0 0 -85.00351372823161 12.902581038590142 0 12.902581038590142 53.634141812817688 0 0 0 0 -70.186941821192477 3.3862268488664995 0 3.3862268488664995 10.982953891965167 0 0 0 0 -101.0432174676136 -1.6521678361568775 0 -1.6521678361568775 55.340501253635011 0 0 0 0 -11.79974698525757 10.849905151315397 0 10.849905151315397 102.46153371850596 0 0 0 0 -3.9444287513857246 -3.2808607639405061 0 -3.2808607639405061 16.944741409506744 0 0 0 0 -97.916176563063573 16.55279428891663 0 16.55279428891663 55.716176908379566 0 0 0 0 -67.246148958643971 -1.3075276285890141 0 -1.3075276285890141 52.582400477322153 0 0 0 0 -51.775242372506113 3.2025706238737257 0 3.2025706238737257 56.070346791880183 0 0 0 0 10.370459212534517 7.4293614950966713 0 7.4293614950966713 19.278831078043766 0 0 0 0 -9.4561078762178568 -48.581994084592793 0 -48.581994084592793 2.6182091883068779 0 0 0 0 1.581230934764462 -1.8940466927880695 0 -1.8940466927880695 45.552004480426874 0 0 0 0 70.918869127584912 69.734854931295104 0 69.734854931295104 59.639156605101562 0 0 0 0 87.510027272613314 -24.500772243235446 0 -24.500772243235446 94.828806357038957 0 0 0 0 76.73612429886407 100.36160308852527 0 100.36160308852527 90.59429800529324 0 0 0 0 311.78318357436353 -5.5683504145440565 0 -5.5683504145440565 24.256948713807105 0 0 0 0 19.552675326848203 -5.8606131296405692 0 -5.8606131296405692 70.859498771578728 0 0 0 0 520.48684629623085 331.56504534745386 0 331.56504534745386 51.015398702421408 0 0 0 0 712.16572617366546 840.55677299015383 0 840.55677299015383 1170.090228972716 0 0 0 0 984.64828389928584 67.113374277987305 0 67.113374277987305 -41.503839855696242 0 0 0 0 -51.787406128639077 184.30536724037128 0 184.30536724037128 1180.529816692434 0 0 0 0 7.25756357309952 4.692161422404876 0 4.692161422404876 1.6895692918120728 0 0 0 0 693.37354982026056 977.70562155290395 0 977.70562155290395 1010.3624897001511 0 0 0 0 782.71500871920944 702.50472993287872 0 702.50472993287872 1563.900623862567 0 0 0 0 369.591519268436 111.9767712935618 0 111.9767712935618 1198.7963928420472 0 0 0 0 4.1960158533245959 2.763129693100268 0 2.763129693100268 23.180864815642053 0 0 0 0 -46.091320666005061 -2.3791070772417697 0 -2.3791070772417697 23.032899960089708 0 0 0 0 266.08724867160959 -76.492015313104218 0 -76.492015313104218 -11.965955398378981 0 0 0 0 325.24425441619758 289.73730028287412 0 289.73730028287412 575.99113494299161 0 0 0 0 0.56665666481239896 305.39541966658044 0 305.39541966658044 682.08941297710987 0 0 0 0 -1.0181197440185334 -2.246665306255065 0 -2.246665306255065 37.000476369010272 0 0 0 0 -182.16476080481198 74.617081208038144 0 74.617081208038144 15.763100547663271 0 0 0 0 243.55511612429552 162.52533027505007 0 162.52533027505007 -257.27508665218738 0 0 0 0 -84.036273623873171 -430.57118245828997 0 -430.57118245828997 729.08787897688671 0 0 0 0 1278.0347869368588 1753.5406524682021 0 1753.5406524682021 1898.3618300378912 0 0 0 0 0.23623183554810034 0.41935638678949383 0 0.41935638678949383 16.329539261140745 0 0 0 0 1128.0298584513523 1340.587320438713 0 1340.587320438713 1013.2599999819655 0 0 0 0 359.97410890164241 764.618726460988 0 764.618726460988 1903.5286862146681 0 0 0 0 468.38012434534801 1104.8759371050642 0 1104.8759371050642 2880.3902426641521 0 0 0 0 1617.3978253143232 719.63158294270215 0 719.63158294270215 2501.547481283696 0 0 0 0 72.017453715574561 550.80827620533898 0 550.80827620533898 1562.7378361665078 0 0 0 0 153.12334937850753 974.6685498394902 0 974.6685498394902 2498.8437911926117 0 0 0 0 123.59436263756349 380.86987192384908 0 380.86987192384908 1917.7602149486625 0 0 0 0 -355.06768183994876 197.35157286628237 0 197.35157286628237 2499.7901673988526 0 0 0 0 -145.66484825072212 22.500071008279065 0 22.500071008279065 1563.2066919562849 0 0 0 0 -407.15917859247958 -281.70437178732419 0 -281.70437178732419 1275.0882715752819 0 0 0 0 -197.89359467529937 85.847512705297504 0 85.847512705297504 1803.5645474946939 0 0 0 0 -538.54864159019803 -143.92994842178359 0 -143.92994842178359 1868.432892942865 0 0 0 0 -593.98761435537733 -406.36156970338777 0 -406.36156970338777 1867.9207033038838 0 0 0 0 -742.56331652395329 -189.50824339342807 0 -189.50824339342807 2499.4503527089219 0 0 0 0 -586.83885200407326 -330.09601331603142 0 -330.09601331603142 1911.301483400659 0 0 0 0 114.27935023190494 -283.68389665455834 0 -283.68389665455834 1188.7891105073131 0 0 0 0 -669.98641654680875 -377.39091669150014 0 -377.39091669150014 1910.099452342226 0 0 0 0 -662.6004331554085 -454.36287705276072 0 -454.36287705276072 1858.8863998112674 0 0 0 0 -431.37516057035464 -5.8016100358236713 0 -5.8016100358236713 1005.0171028823097 0 0 0 0 -729.80034566863719 45.259727491297326 0 45.259727491297326 1117.7202288944359 0 0 0 0 -541.86519479902131 176.62641445812471 0 176.62641445812471 -19.244124574568559 0 0 0 0 -8.4712610979817846 -3.7150579307833835 0 -3.7150579307833835 6.6859975888976741 0 0 0 0 0.19172769076935525 3.831121150005564 0 3.831121150005564 11.550627458046581 0 0 0 0 -189.97684267988097 -41.59986591117422 0 -41.59986591117422 314.60146423871015 0 0 0 0 -53.104509117350972 -133.44854196996425 0 -133.44854196996425 329.77780229911923 0 0 0 0 -210.48517313560984 -76.397162859536365 0 -76.397162859536365 203.57570096949121 0 0 0 0 19.655672901272226 216.02654043945495 0 216.02654043945495 1234.5276606837688 0 0 0 0 533.5315979432122 419.18108326595166 0 419.18108326595166 264.29276166976251 0 0 0 0 206.85963912955367 319.40732851888447 0 319.40732851888447 1240.1861440184189 0 0 0 0 14.096245436090612 324.32391407894693 0 324.32391407894693 866.45938624728342 0 0 0 0 1143.6348075737912 2054.2749473037097 0 2054.2749473037097 2493.2037365472861 0 0 0 0 13.513568373766685 9.3993419394540112 0 9.3993419394540112 12.220385607125436 0 0 0 0 2147.8801385580532 961.61496266746144 0 961.61496266746144 126.10345338904153 0 0 0 0 1554.2895485200784 -25.379932694144372 0 -25.379932694144372 -88.917472607423406 0 0 0 0 757.05212252082583 344.8479322895364 0 344.8479322895364 67.23041375251978 0 0 0 0 71.251328691332674 -276.50316302723513 0 -276.50316302723513 164.59252852861209 0 0 0 0 -242.02743785659914 177.5830236383481 0 177.5830236383481 123.54783693550053 0 0 0 0 -297.38820288637817 86.620636308790381 0 86.620636308790381 282.36384559140424 0 0 0 0 652.39203625921073 -1378.5101233500945 0 -1378.5101233500945 2498.216988429409 0 0 0 0 363.57018399553465 -809.30647754151755 0 -809.30647754151755 1499.7633623364336 0 0 0 0 -323.5758282272044 -735.68496680044427 0 -735.68496680044427 2499.7908158392338 0 0 0 0 112.3668728514711 -472.10880068021515 0 -472.10880068021515 1443.6670159825489 0 0 0 0 22.804122170896633 30.941923275411341 0 30.941923275411341 38.164011146083169 0 0 0 0 -34.699487653060714 5.5812306728921612 0 5.5812306728921612 170.00362032443445 0 0 0 0 -16.738813417579877 -21.694088310220081 0 -21.694088310220081 211.35061189951557 0 0 0 0 -71.297799293727621 28.734435770884375 0 28.734435770884375 242.03012406339485 0 0 0 0 -37.661181416474392 31.04860841891832 0 31.04860841891832 191.60183740696857 0 0 0 0 -66.860925690628392 54.687273782952616 0 54.687273782952616 173.63158891097828 0 0 0 0 -33.633922008573791 30.894515799842566 0 30.894515799842566 155.05301375828822 0 0 0 0 -49.49733216837086 -26.11018626108326 0 -26.11018626108326 29.063514779359195 0 0 0 0 -125.13430745890946 32.187788381637802 0 32.187788381637802 66.950978427767041 0 0 0 0 -0.66396729943335231 -111.41046531342909 0 -111.41046531342909 211.21051727423037 0 0 0 0 835.31184219307261 45.444615106389392 0 45.444615106389392 -18.430718854862789 0 0 0 0 92.769159472768138 183.85953540286619 0 183.85953540286619 242.17266446429858 0 0 0 0 -4.3485677958494762 -84.421428051551629 0 -84.421428051551629 51.129267692045687 0 0 0 0 -40.64808921311932 -26.762613135489438 0 -26.762613135489438 34.771763279045885 0 0 0 0 -27.164812140607864 26.389856927955407 0 26.389856927955407 153.42437639975378 0 0 0 0 -6.0535920395746627 -4.199013527304075 0 -4.199013527304075 -2.7408381235362782 0 0 0 0 -26.47187522664899 13.510472819305505 0 13.510472819305505 146.16866020857378 0 0 0 0 -32.770733337546062 1.4569678289824424 0 1.4569678289824424 125.09524661718388 0 0 0 0 4.6636394867539082 4.319844418597981 0 4.319844418597981 12.927138767438365 0 0 0 0 -29.455704525528699 -9.0658205743875371 0 -9.0658205743875371 64.845271584886845 0 0 0 0 85.110884591276772 2.7281091672193725 0 2.7281091672193725 90.855355629042606 0 0 0 0 26.030575859374949 28.39054243179271 0 28.39054243179271 94.555997207760811 0 0 0 0 -30.560920111236101 -3.8447394778418129 0 -3.8447394778418129 104.68919314197046 0 0 0 0 668.17212632346218 1008.7951728026674 0 1008.7951728026674 1173.9723674532434 0 0 0 0 688.54607906306887 867.79963109975347 0 867.79963109975347 972.00006848529301 0 0 0 0 1109.148380396733 718.42437785186485 0 718.42437785186485 372.20485190249383 0 0 0 0 837.63478443768599 1077.8646206817684 0 1077.8646206817684 376.41712373787959 0 0 0 0 1077.0969826708508 938.22066876398185 0 938.22066876398185 264.85244024152053 0 0 0 0 666.92970324502903 612.96357891749722 0 612.96357891749722 386.90587788278208 0 0 0 0 -2.0576010055108327 26.51506442443997 0 26.51506442443997 78.903439180323403 0 0 0 0 -2.4883765786016738 42.422404108138835 0 42.422404108138835 132.02597109927592 0 0 0 0 -3.8120464892076598 40.643486622047362 0 40.643486622047362 125.50512033923587 0 0 0 0 -5.486387541051954 26.373344409206766 0 26.373344409206766 107.14845988812431 0 0 0 0 -0.79713772758805135 45.697472088711947 0 45.697472088711947 117.64824492406115 0 0 0 0 -28.426881530619994 10.756837993325462 0 10.756837993325462 107.44581952545377 0 0 0 0 -22.077614902051209 29.940523121882279 0 29.940523121882279 117.03361973054416 0 0 0 0 -25.717543838872189 22.351634358881938 0 22.351634358881938 97.444393951951497 0 0 0 0 -26.778836276464972 22.028055711376965 0 22.028055711376965 120.58299996970527 0 0 0 0 -17.857110423330596 20.408855392837722 0 20.408855392837722 122.81562688855411 0 0 0 0 -16.988465129426913 21.984701459081407 0 21.984701459081407 116.01820347468583 0 0 0 0 -13.293626759533254 30.821417511068603 0 30.821417511068603 124.09871165018558 0 0 0 0 -15.706174243074202 20.641699495525245 0 20.641699495525245 112.9386674358866 0 0 0 0 -4.4131926352529263 28.583841678261706 0 28.583841678261706 118.09178076765329 0 0 0 0 -2.5227841048692881 38.988335343247741 0 38.988335343247741 131.89837409174652 0 0 0 0 -10.780628971629994 33.050489011134232 0 33.050489011134232 127.87808478560146 0 0 0 0 -11.744036297179264 30.016550732674659 0 30.016550732674659 136.34265904014137 0 0 0 0 -10.06412981690687 47.917744109393169 0 47.917744109393169 132.96850921788064 0 0 0 0 4.548025040572611 39.50616458818422 0 39.50616458818422 124.61368059778033 0 0 0 0 13.29348797414832 56.342976630390694 0 56.342976630390694 132.70072980806981 0 0 0 0 7.1955708629684523 52.533771795735447 0 52.533771795735447 136.45500058330435 0 0 0 0 9.4101401086718397 41.098063731861657 0 41.098063731861657 115.85948772331176 0 0 0 0 37.244077493920486 45.160775322975496 0 45.160775322975496 129.73134565280088 0 0 0 0 13.399059963812306 100.62562118003143 0 100.62562118003143 214.76005094166248 0 0 0 0 55.787480989278265 92.64388167256493 0 92.64388167256493 148.09236402972329 0 0 0 0 15.902996363055081 93.530135718242491 0 93.530135718242491 145.22803831620695 0 0 0 0 8.1890596917910443 57.576659520973408 0 57.576659520973408 162.07021234037984 0 0 0 0 8.2307110489139177 91.471161248107592 0 91.471161248107592 139.66942396536433 0 0 0 0 -20.512598020712176 89.267866563852294 0 89.267866563852294 151.53093364529559 0 0 0 0 0.19580264862815966 64.116270723161506 0 64.116270723161506 134.55050331515895 0 0 0 0 -24.328201340005762 49.837379093338313 0 49.837379093338313 153.15525732910476 0 0 0 0 -28.579581514522715 59.233840305013814 0 59.233840305013814 170.80848241123385 0 0 0 0 -68.771751352947831 84.311209105168018 0 84.311209105168018 155.67096034244605 0 0 0 0 -68.187182000343739 78.801314211944316 0 78.801314211944316 186.24208537645427 0 0 0 0 -139.80595754290607 77.592512341363999 0 77.592512341363999 207.47767896372625 0 0 0 0 -151.64912525188129 98.456209367007432 0 98.456209367007432 182.71260745068594 0 0 0 0 55.697151276601289 119.58630866969906 0 119.58630866969906 122.50399281138425 0 0 0 0 -33.135170989208518 148.20485325505479 0 148.20485325505479 113.85262763020364 0 0 0 0 -168.75274331228957 61.071321122943118 0 61.071321122943118 54.211562742799288 0 0 0 0 17.894605708358561 8.8204452611718853 0 8.8204452611718853 10.264008097873203 0 0 0 0 2.3554544728489759 9.4198649718114389 0 9.4198649718114389 10.965864247623426 0 0 0 0 344.49188725377815 478.65653987681071 0 478.65653987681071 -20.574821410018558 0 0 0 0 294.73078938356031 588.40550667472326 0 588.40550667472326 374.67025531389299 0 0 0 0 4.4212665376004221 -14.421646058647276 0 -14.421646058647276 54.602957801625394 0 0 0 0 264.01757270436025 -688.51434241124798 0 -688.51434241124798 298.76006059542851 0 0 0 0 -104.19287917941529 35.678488624362217 0 35.678488624362217 97.398443045582098 0 0 0 0 83.002770255133328 8.2064424168383994 0 8.2064424168383994 84.700319724623114 0 0 0 0 27.95691322604398 18.229957446594199 0 18.229957446594199 41.087601798000833 0 0 0 0 48.287911915280347 51.710875567936455 0 51.710875567936455 81.370756098069251 0 0 0 0 14.899618972683523 32.755502139538834 0 32.755502139538834 15.744941090069036 0 0 0 0 0.23930766661117175 1.3390073479569082 0 1.3390073479569082 6.6338122865860711 0 0 0 0 2.5844777180459459 36.621925585111967 0 36.621925585111967 110.56432999692333 0 0 0 0 2.3242135799223433 30.635956092167021 0 30.635956092167021 262.09498342775987 0 0 0 0 3.3937187886670195 -2.5160144541227432 0 -2.5160144541227432 -12.275409453514069 0 0 0 0 8.6521292659729667 31.831465047476268 0 31.831465047476268 -8.8637562751307399 0 0 0 0 -92.590658474193333 84.934261088448693 0 84.934261088448693 163.7333446421253 0 0 0 0 59.716960619127349 100.3460667720874 0 100.3460667720874 94.102711142997578 0 0 0 0 9.167975195670806 62.381936051461707 0 62.381936051461707 153.18362392507242 0 0 0 0 -86.14518379032188 136.30465612133048 0 136.30465612133048 13.739433461847511 0 0 0 0 2.0413429894351793 17.227719221653388 0 17.227719221653388 113.23376378593821 0 0 0 0 43.986290942796586 85.833813351811841 0 85.833813351811841 -157.50307367135974 0 0 0 0 65.130374172924348 86.675571485586261 0 86.675571485586261 -13.920180979788711 0 0 0 0 23.14514201032307 99.836196410010416 0 99.836196410010416 62.335288755388319 0 0 0 0 31.017333087140287 83.584578841459006 0 83.584578841459006 -7.7333104602585081 0 0 0 0 -0.38558016994193167 63.928059520558236 0 63.928059520558236 136.12593677933728 0 0 0 0 9.6894184861986687 38.482920497484841 0 38.482920497484841 -7.3676505276050328 0 0 0 0 9.9102385020851216 63.882343278162807 0 63.882343278162807 118.90073553169941 0 0 0 0 110.28345238181771 347.15738047599007 0 347.15738047599007 140.86929254014831 0 0 0 0 262.34247253041923 365.21461091546507 0 365.21461091546507 258.74340977195425 0 0 0 0 281.25406555839641 351.70527502863115 0 351.70527502863115 133.04013295647655 0 0 0 0 -443.56264435404842 124.49387211241356 0 124.49387211241356 300.49493559701386 0 0 0 0 -168.86340741795766 461.15683855545149 0 461.15683855545149 463.42195965080782 0 0 0 0 -186.64544532198897 149.21761263192457 0 149.21761263192457 111.18022243485939 0 0 0 0 -194.50736707809892 169.54664571239846 0 169.54664571239846 308.62542664506282 0 0 0 0 37.96346521779958 223.74151233609882 0 223.74151233609882 31.872516301816177 0 0 0 0 -150.81915021835871 85.815347162912758 0 85.815347162912758 -15.380353076033316 0 0 0 0 -102.66842341740266 207.85323945734672 0 207.85323945734672 -49.05989446296735 0 0 0 0 -239.99706585336259 90.842459944747588 0 90.842459944747588 869.17244708266662 0 0 0 0 -81.677732416422486 88.263835177367582 0 88.263835177367582 297.43505258202913 0 0 0 0 289.40813928577109 327.37769791170467 0 327.37769791170467 -403.0432387282176 0 0 0 0 -227.56952227233239 175.8658557781846 0 175.8658557781846 1320.7998201286746 0 0 0 0 7.5208874359256068 4.0321786827574542 0 4.0321786827574542 1.1581271618681068 0 0 0 0 364.85647287708201 548.12108025416182 0 548.12108025416182 106.90439119278108 0 0 0 0 328.35215730479331 343.04971119363654 0 343.04971119363654 14.895301376922362 0 0 0 0 -57.388720222910223 254.53145930802555 0 254.53145930802555 541.4801615137203 0 0 0 0 -71.594373617658562 96.178483914237177 0 96.178483914237177 7.86948751061027 0 0 0 0 157.62267164745128 -166.01256289676712 0 -166.01256289676712 307.76223259300559 0 0 0 0 497.62415311067326 185.62269159635935 0 185.62269159635935 103.5305666909735 0 0 0 0 261.25439392243811 467.0627165919359 0 467.0627165919359 710.52830636843828 0 0 0 0 226.39457567108684 116.91839902573929 0 116.91839902573929 38.893819298507879 0 0 0 0 69.161669340540016 -93.935608899089857 0 -93.935608899089857 128.16207454566961 0 0 0 0 -132.24182074060946 -336.33924620056405 0 -336.33924620056405 -59.545434525044129 0 0 0 0 15.547958938750611 -14.326307770009862 0 -14.326307770009862 10.023959034875588 0 0 0 0 7.8258762451647499 0.8641763919058576 0 0.8641763919058576 16.758794527748705 0 0 0 0 51.463887648400316 57.258374604467917 0 57.258374604467917 -135.32167894181111 0 0 0 0 4.5797432029742184 14.402489634939059 0 14.402489634939059 18.723062238024539 0 0 0 0 -8.2436442668313248 16.234970683275606 0 16.234970683275606 4.2440074801988885 0 0 0 0 11.157128306412346 19.524207023212618 0 19.524207023212618 15.49187439787476 0 0 0 0 0.49311813005719696 20.021342391160005 0 20.021342391160005 43.856660841081876 0 0 0 0 -9.2744787027077038 -1.3047105350505817 0 -1.3047105350505817 8.7679276745701298 0 0 0 0 61.08074979973054 -35.859993359716555 0 -35.859993359716555 -81.429106255309307 0 0 0 0 -9.8256623279576161 17.133921014307816 0 17.133921014307816 49.56422456420114 0 0 0 0 -110.91995137559206 -19.40479995482201 0 -19.40479995482201 122.54991299961875 0 0 0 0 -100.81815110443222 40.91478177643512 0 40.91478177643512 55.738964611395204 0 0 0 0 -53.240073769256014 77.861852202278897 0 77.861852202278897 74.62556390375903 0 0 0 0 -18.917704944670731 37.271776306553875 0 37.271776306553875 10.070977451483486 0 0 0 0 -34.872807797484427 16.157533101703848 0 16.157533101703848 7.1947143142951973 0 0 0 0 -160.21137033124796 130.35970026203722 0 130.35970026203722 -29.684805288188727 0 0 0 0 24.258944179931696 23.229604006472066 0 23.229604006472066 20.273590470959398 0 0 0 0 -5.2463868931037752 -1.1440071124794002 0 -1.1440071124794002 4.610701753662255 0 0 0 0 80.33212954674309 76.67527650421107 0 76.67527650421107 51.222063491775771 0 0 0 0 8.4535625434904205 242.80703714331412 0 242.80703714331412 34.251081504962713 0 0 0 0 -76.748923657928572 151.8180321488835 0 151.8180321488835 -133.84044216387701 0 0 0 0 -128.69915001826655 11.193816301629795 0 11.193816301629795 33.772667422657833 0 0 0 0 2.9500492209868021 -1.8238258490451287 0 -1.8238258490451287 -4.1423566828856551 0 0 0 0 -357.98920236244976 315.17805772646898 0 315.17805772646898 -95.076062204530899 0 0 0 0 -439.69934600926172 -338.90398111742797 0 -338.90398111742797 71.572467087731638 0 0 0 0 4.1824357159475767 219.66200335881149 0 219.66200335881149 1.7517024676672008 0 0 0 0 111.94527457327706 99.224000324233202 0 99.224000324233202 10.423188012411174 0 0 0 0 60.172090618963921 64.379823360466617 0 64.379823360466617 284.2352231345958 0 0 0 0 -137.41526885118583 -78.035454549952192 0 -78.035454549952192 742.15251285466547 0 0 0 0 -161.86716779549266 -141.15023716458836 0 -141.15023716458836 1243.829216672395 0 0 0 0 1.8339252986860402 425.85604863960816 0 425.85604863960816 1205.4975744083804 0 0 0 0 9.4410320238470486 8.4187320517401574 0 8.4187320517401574 8.4799173108406123 0 0 0 0 662.64794308454816 587.15006197152434 0 587.15006197152434 47.666252218587033 0 0 0 0 624.76995754598875 910.95715282677884 0 910.95715282677884 370.64576270265388 0 0 0 0 61.456410287733092 952.23530982714692 0 952.23530982714692 853.88605728395942 0 0 0 0 -142.26388758846088 689.27864586564647 0 689.27864586564647 615.95735461098229 0 0 0 0 248.25885693561094 595.35208831339889 0 595.35208831339889 120.83044358441839 0 0 0 0 250.8085447630562 649.66186462663416 0 649.66186462663416 449.11416834783449 0 0 0 0 187.0555334929918 560.15705757655087 0 560.15705757655087 348.22232915136556 0 0 0 0 318.14099467250344 471.54102676525508 0 471.54102676525508 259.9701627021459 0 0 0 0 396.67218672592571 311.5552908842692 0 311.5552908842692 18.316558193677338 0 0 0 0 231.99377392859151 241.02962775819105 0 241.02962775819105 -122.56441226330207 0 0 0 0 -128.40343169635344 -50.60272817844816 0 -50.60272817844816 -200.20406544959405 0 0 0 0 117.03593650220728 252.60630248997404 0 252.60630248997404 92.520801836632018 0 0 0 0 328.67132316655807 228.30518499588652 0 228.30518499588652 -305.33868463206272 0 0 0 0 247.93586263661837 369.13324168333293 0 369.13324168333293 64.640534424092039 0 0 0 0 41.161099364588154 2.2952270243113162 0 2.2952270243113162 -90.784010696232144 0 0 0 0 41.447925975551357 37.204197623639175 0 37.204197623639175 -84.456970655817713 0 0 0 0 31.47730671285899 18.049701167150488 0 18.049701167150488 -61.718781495092117 0 0 0 0 0.95536367542839162 -16.184372351684075 0 -16.184372351684075 45.019982569354511 0 0 0 0 35.283070309557843 -6.2011471287332824 0 -6.2011471287332824 -152.13877464518396 0 0 0 0 -744.7463171787731 -352.61976908361612 0 -352.61976908361612 793.15792881452944 0 0 0 0 -103.4831839496722 399.10751401698133 0 399.10751401698133 535.25243020088601 0 0 0 0 288.40990104210687 334.28249199985294 0 334.28249199985294 516.04606522153699 0 0 0 0 273.09093510233743 -252.65078829687627 0 -252.65078829687627 -386.72347628776333 0 0 0 0 -282.29990904786348 1093.8088070797685 0 1093.8088070797685 1035.7475162192204 0 0 0 0 4.2985269006213791 -1.001339880224549 0 -1.001339880224549 1.0982622378942821 0 0 0 0 1090.5921919737109 1284.3441005269028 0 1284.3441005269028 907.14963810748668 0 0 0 0 -368.33389030287981 -783.76132281922946 0 -783.76132281922946 260.01591809991805 0 0 0 0 1.5637884414326155 -5.9877418101234454 0 -5.9877418101234454 18.673894517527003 0 0 0 0 333.96108284879301 245.89528214245729 0 245.89528214245729 709.87570491766564 0 0 0 0 943.92735372199058 407.15768551136284 0 407.15768551136284 451.67288108544017 0 0 0 0 208.2126457935592 506.73123044763634 0 506.73123044763634 789.70214246877003 0 0 0 0 277.28626924518778 348.33996469743852 0 348.33996469743852 472.20472076800797 0 0 0 0 113.21618501310496 -15.80613750413977 0 -15.80613750413977 -85.032002570223995 0 0 0 0 132.46733349592205 348.9534430025642 0 348.9534430025642 695.55149123502633 0 0 0 0 -41.08254500826888 -250.97794747635271 0 -250.97794747635271 642.19264832293265 0 0 0 0 185.9056933672673 -287.89020065068144 0 -287.89020065068144 -224.54587979791904 0 0 0 0 168.36324862682022 1040.1475493825606 0 1040.1475493825606 1591.4308030303691 0 0 0 0 -455.7735137988343 -286.28163933120049 0 -286.28163933120049 1642.73220979705 0 0 0 0 53.168606829853161 105.48157403466394 0 105.48157403466394 103.63751131210302 0 0 0 0 -143.82451097500825 -8.432321406846313 0 -8.432321406846313 72.373352211296151 0 0 0 0 48.628932279545552 76.070680918950529 0 76.070680918950529 375.33466831417536 0 0 0 0 186.84696432863882 303.49460205216019 0 303.49460205216019 121.09843007836025 0 0 0 0 156.3646794374929 358.18293340457967 0 358.18293340457967 566.63026609630833 0 0 0 0 -72.119727704425486 97.6465939285481 0 97.6465939285481 648.57362278292567 0 0 0 0 71.03084846441709 38.900607020668758 0 38.900607020668758 284.61992988621932 0 0 0 0 -272.29129767082082 -90.923401562722574 0 -90.923401562722574 377.7389519611188 0 0 0 0 -1.887995510956501 0.92654958440067858 0 0.92654958440067858 2.7508971569086071 0 0 0 0 166.51614201193746 -100.11791261682629 0 -100.11791261682629 72.023842014463298 0 0 0 0 -85.060541457820364 -44.130376266719395 0 -44.130376266719395 238.47153370650994 0 0 0 0 -11.181937563658435 -15.011751472250808 0 -15.011751472250808 38.960911533482431 0 0 0 0 -0.48495225029665256 -11.08000398592192 0 -11.08000398592192 11.342926174302626 0 0 0 0 27.135991590040703 24.963963810408131 0 24.963963810408131 19.469595939583087 0 0 0 0 21.330064554666876 -16.006113701409049 0 -16.006113701409049 31.157107539847857 0 0 0 0 6.7347424033427643 7.0738710977664496 0 7.0738710977664496 6.8102126291742877 0 0 0 0 -10.208123590357189 13.43904365303024 0 13.43904365303024 25.371995963705558 0 0 0 0 9.326820003246409 7.5154149356843192 0 7.5154149356843192 16.258878555656722 0 0 0 0 -5.2503655221394734 8.2972233308989587 0 8.2972233308989587 12.341284424562303 0 0 0 0 -9.4456464130169024 -22.363435526944158 0 -22.363435526944158 68.135297615814125 0 0 0 0 -10.157354454435144 12.69589062561397 0 12.69589062561397 30.613379994283605 0 0 0 0 -10.745375613803745 14.039442656104029 0 14.039442656104029 14.646055464347469 0 0 0 0 -8.2830049287222209 42.379470868563658 0 42.379470868563658 15.093909886600159 0 0 0 0 44.123182447034196 103.87754496148409 0 103.87754496148409 6.7106018953636521 0 0 0 0 207.84179541955859 36.134915789723891 0 36.134915789723891 -468.96177445452849 0 0 0 0 51.407578200707441 27.752003343856629 0 27.752003343856629 13.440599081139261 0 0 0 0 -100.49868110222587 -149.50194807050138 0 -149.50194807050138 -87.090685701091957 0 0 0 0 25.438802573107751 17.720309577656735 0 17.720309577656735 44.26685984548385 0 0 0 0 -9.6957503746242502 11.882422617175934 0 11.882422617175934 24.958932740672765 0 0 0 0 4.5470886359244105 10.195015753080952 0 10.195015753080952 27.078905405352998 0 0 0 0 -10.733704801943308 0.91351659976903932 0 0.91351659976903932 14.707131679077321 0 0 0 0 -15.121897247952248 2.5583615112000189 0 2.5583615112000189 9.440785582337071 0 0 0 0 -9.6795386823687295 10.889814668789768 0 10.889814668789768 31.592101312111481 0 0 0 0 9.8873116552367719 123.18538371199611 0 123.18538371199611 126.06918405618853 0 0 0 0 77.529996671726622 101.01931966008488 0 101.01931966008488 40.510519922616368 0 0 0 0 -5.3100406457779172 2.2160506291120328 0 2.2160506291120328 18.333205180300865 0 0 0 0 -8.2805545400899945 4.6289907858994503 0 4.6289907858994503 20.355099629291104 0 0 0 0 -16.78053100800571 -1.4524170792392397 0 -1.4524170792392397 19.204956148862948 0 0 0 0 -10.865777054720056 14.645386118791976 0 14.645386118791976 29.557046638048632 0 0 0 0 -3.2426736467769501 14.044050114209313 0 14.044050114209313 29.095958830152085 0 0 0 0 2.4613184843440195 20.662528223800109 0 20.662528223800109 35.282727948957472 0 0 0 0 -10.171790650955472 10.291260995762059 0 10.291260995762059 34.470537408589735 0 0 0 0 -7.0950244097800805 14.651428498635141 0 14.651428498635141 37.311079560736289 0 0 0 0 -3.0756023374629624 15.606175610194974 0 15.606175610194974 22.076840606429805 0 0 0 0 5.4539231454336914 34.35816243946465 0 34.35816243946465 128.39931980110487 0 0 0 0 0.81868333743354782 2.7332622893731369 0 2.7332622893731369 1.8734751017015583 0 0 0 0 -14.009872577444185 13.18205162324557 0 13.18205162324557 31.128838432832708 0 0 0 0 -10.433698224196235 12.349862292456237 0 12.349862292456237 24.834763791150181 0 0 0 0 -12.076928445237172 14.72422110487787 0 14.72422110487787 25.522033197719793 0 0 0 0 -10.487806146367941 14.817610799226941 0 14.817610799226941 12.545637562271587 0 0 0 0 -12.24867394453463 8.0870516311988467 0 8.0870516311988467 39.485629411989066 0 0 0 0 -10.185206861443476 8.1030262841595686 0 8.1030262841595686 30.147614898080064 0 0 0 0 -10.847635982799147 8.2439151001126447 0 8.2439151001126447 28.687004107647226 0 0 0 0 -5.9285983226131975 10.816474904075221 0 10.816474904075221 29.979356058480334 0 0 0 0 -13.147955068777977 1.8040886412687698 0 1.8040886412687698 0.98666499296994914 0 0 0 0 -18.905910422830857 22.538586087019212 0 22.538586087019212 44.750013562221284 0 0 0 0 -11.64599731975828 0.41567921699106591 0 0.41567921699106591 9.3751613868701043 0 0 0 0 -5.9900047133258134 7.2492317339890668 0 7.2492317339890668 27.493212543045217 0 0 0 0 -17.197677641038354 10.110632325624465 0 10.110632325624465 36.657362724875384 0 0 0 0 -24.596924832651894 16.019045699467824 0 16.019045699467824 38.903045600967744 0 0 0 0 -13.529326167534236 9.9497220998309786 0 9.9497220998309786 27.903786756753107 0 0 0 0 5.4870886365229126 39.474997403376619 0 39.474997403376619 46.961696924809075 0 0 0 0 -10.137960185871634 -22.578319907308469 0 -22.578319907308469 46.385996204495314 0 0 0 0 -3.7454213082380363 -1.240981597672091 0 -1.240981597672091 0.86480266692953478 0 0 0 0 1.3781966532369552 9.0868189510947559 0 9.0868189510947559 49.570834171208844 0 0 0 0 -21.859240192768596 9.159342121474344 0 9.159342121474344 31.218356808419784 0 0 0 0 -24.169970351406391 -1.983327069432562 0 -1.983327069432562 -4.4190907168231206 0 0 0 0 -12.497046173978809 7.5865813588464306 0 7.5865813588464306 27.523516537114091 0 0 0 0 -13.672299714529345 4.9047968310633223 0 4.9047968310633223 23.064430660931976 0 0 0 0 -12.311536382333401 11.292606595366678 0 11.292606595366678 21.829201062449435 0 0 0 0 -10.8297713551641 16.409276724639369 0 16.409276724639369 13.832325464274245 0 0 0 0 -6.9351230613847292 31.449974468941946 0 31.449974468941946 55.596645984791394 0 0 0 0 -8.0753975250172516 7.2839025850430517 0 7.2839025850430517 46.074217442394001 0 0 0 0 -27.922704884871791 13.240821383828006 0 13.240821383828006 57.957337095392859 0 0 0 0 -21.0179969249848 30.501098661041397 0 30.501098661041397 97.650758815754671 0 0 0 0 -35.044653650179043 57.31261614237701 0 57.31261614237701 70.739729011055289 0 0 0 0 7.4152267119129647 -17.853296369059535 0 -17.853296369059535 36.03767291352051 0 0 0 0 -6.5831123936122822 15.788490560469654 0 15.788490560469654 16.961807317417879 0 0 0 0 -12.044934959111128 9.9833617308236029 0 9.9833617308236029 20.894372235276272 0 0 0 0 -12.593769531984435 13.768108194413799 0 13.768108194413799 23.689036656149256 0 0 0 0 -3.6977539981394951 13.177148872045013 0 13.177148872045013 20.235925750197307 0 0 0 0 -17.185043534958538 0.59861208974461988 0 0.59861208974461988 11.344499813614675 0 0 0 0 -29.888661548578966 29.570409101811492 0 29.570409101811492 10.177881025727402 0 0 0 0 -37.859679152158293 4.7757714149517838 0 4.7757714149517838 10.995887376823294 0 0 0 0 -32.239563507212793 14.981121951843306 0 14.981121951843306 47.502288098698045 0 0 0 0 -11.906944025688517 -15.703558218325497 0 -15.703558218325497 109.35347722982624 0 0 0 0 -19.717435790269395 -5.0979877740104271 0 -5.0979877740104271 4.2449114637243959 0 0 0 0 -17.73105930121163 -14.310443391108493 0 -14.310443391108493 25.444929671930367 0 0 0 0 -27.756911791189239 -9.2286058531790331 0 -9.2286058531790331 79.998136921525656 0 0 0 0 4.4839446209159988 14.429825817338951 0 14.429825817338951 47.507746991992462 0 0 0 0 -8.0557699402714107 0.041853451945826237 0 0.041853451945826237 48.678376757481601 0 0 0 0 393.35454249347811 96.618466639100347 0 96.618466639100347 400.21226712566568 0 0 0 0 616.18101347594575 108.14042419624093 0 108.14042419624093 360.27042155910021 0 0 0 0 388.06842243829033 216.16110553978069 0 216.16110553978069 221.56067309734499 0 0 0 0 262.13322587283255 193.85400471173853 0 193.85400471173853 389.00977695559413 0 0 0 0 359.59532724342534 332.17456875401695 0 332.17456875401695 313.30208919163488 0 0 0 0 337.77818362939229 127.27425838251656 0 127.27425838251656 383.33099979132385 0 0 0 0 453.78558242747204 -158.26016967957548 0 -158.26016967957548 747.74280981286483 0 0 0 0 800.68368176963895 -185.36998069136553 0 -185.36998069136553 237.53599870762264 0 0 0 0 593.32644762419795 75.573099392098811 0 75.573099392098811 237.0476600990981 0 0 0 0 579.61622431766773 32.644067384040682 0 32.644067384040682 356.57711478570127 0 0 0 0 432.79160265620362 326.54142154602232 0 326.54142154602232 363.08925296180547 0 0 0 0 633.79156305281685 109.03051051449984 0 109.03051051449984 26.743630638797185 0 0 0 0 322.35725297628164 694.34015209782592 0 694.34015209782592 429.04140730004474 0 0 0 0 498.87614890724973 387.31419909148644 0 387.31419909148644 338.12880490467069 0 0 0 0 479.87549278166716 142.85436631390985 0 142.85436631390985 932.32666267723107 0 0 0 0 629.54595559441714 678.63246283357148 0 678.63246283357148 633.63921342805406 0 0 0 0 83.451108156236387 -281.34211335978398 0 -281.34211335978398 518.9524745718154 0 0 0 0 648.18245691733091 68.370937864572625 0 68.370937864572625 391.96189254831188 0 0 0 0 208.26549090289154 92.043662457799655 0 92.043662457799655 393.50560289559144 0 0 0 0 504.35648454429702 333.44925222358052 0 333.44925222358052 576.27019171790744 0 0 0 0 65.675114546211262 -3.8148824484505894 0 -3.8148824484505894 542.52397535713681 0 0 0 0 -42.086145908991057 153.31854200493399 0 153.31854200493399 958.96080846410769 0 0 0 0 17.500041580549805 19.524151461999281 0 19.524151461999281 531.90117452612503 0 0 0 0 12.132086654512818 -16.037813072588051 0 -16.037813072588051 553.53840248586494 0 0 0 0 -3.7336933908318315 5.1940944881280302 0 5.1940944881280302 562.37170162735674 0 0 0 0 59.241659502169568 57.172805157919356 0 57.172805157919356 390.11464974145201 0 0 0 0 41.998689335268864 79.095842191141855 0 79.095842191141855 566.35233436428825 0 0 0 0 9.6860756674778941 -7.4313242619447166 0 -7.4313242619447166 5.7834780154372822 0 0 0 0 -180.35013038468333 228.48467970673664 0 228.48467970673664 1470.5079527607522 0 0 0 0 -14.333150953802033 -0.37157036591452197 0 -0.37157036591452197 681.95112211277592 0 0 0 0 27.279731941289356 -120.79770212627045 0 -120.79770212627045 614.50857667937089 0 0 0 0 -25.738455514157977 -111.19075820744183 0 -111.19075820744183 724.2608620228566 0 0 0 0 109.31531438334332 -149.76342140407905 0 -149.76342140407905 232.61278620819212 0 0 0 0 75.823575832092502 6.215780333015573 0 6.215780333015573 325.41506028976437 0 0 0 0 94.064858118254051 75.736285725830385 0 75.736285725830385 585.54474355442994 0 0 0 0 6.8994282118510455 -12.054872489232366 0 -12.054872489232366 589.83002863143338 0 0 0 0 -337.67020235778182 -320.11265284734327 0 -320.11265284734327 445.26525300812136 0 0 0 0 -333.77965469479841 -339.98054891323409 0 -339.98054891323409 117.51828457040938 0 0 0 0 -347.26308409895137 -658.07444743061205 0 -658.07444743061205 1040.0767344814813 0 0 0 0 171.00279626833071 209.85620030953578 0 209.85620030953578 -1077.4259142198425 0 0 0 0 3.4863622958637279 -376.67253287458152 0 -376.67253287458152 -314.86048202455277 0 0 0 0 -56.238599061460263 -11.507843671264709 0 -11.507843671264709 70.042623235931387 0 0 0 0 -79.699760992243682 245.74770846897445 0 245.74770846897445 -87.920008429602603 0 0 0 0 -361.76333629689179 496.42525289402693 0 496.42525289402693 -255.65585645019746 0 0 0 0 39.910441454645479 64.004999595228583 0 64.004999595228583 -426.79984042578144 0 0 0 0 -151.4060050090302 512.41745254419948 0 512.41745254419948 -1477.7977096028044 0 0 0 0 -590.38224842817363 289.13983894819103 0 289.13983894819103 191.80933847968117 0 0 0 0 -1305.137032335675 728.04198234566138 0 728.04198234566138 144.71224384080779 0 0 0 0 -552.68597967483947 290.5968145710649 0 290.5968145710649 129.37311291861624 0 0 0 0 -633.8590121137313 -264.69119255739497 0 -264.69119255739497 484.06131321807334 0 0 0 0 -1120.5419613316753 51.047241976681107 0 51.047241976681107 720.0763756952947 0 0 0 0 -2.4169542797219989 0.66989765639701204 0 0.66989765639701204 2.9535957119256508 0 0 0 0 52.588771918557541 -736.06263659507749 0 -736.06263659507749 -111.71430313246674 0 0 0 0 -147.59794744557075 -716.98431602261553 0 -716.98431602261553 815.22426088133943 0 0 0 0 -134.66717046179656 420.54691950144843 0 420.54691950144843 -207.77946431773125 0 0 0 0 -11.196276558420323 7.133125434050271 0 7.133125434050271 22.608592290067463 0 0 0 0 -7.9641394692075664 10.619994303563544 0 10.619994303563544 23.473933409681194 0 0 0 0 -5.5438859250055934 7.7916062576537115 0 7.7916062576537115 13.050276248787057 0 0 0 0 -10.062322486677342 -5.5315238802663629 0 -5.5315238802663629 5.5319522228873836 0 0 0 0 -107.74678039341052 680.87221251468509 0 680.87221251468509 737.49804270834375 0 0 0 0 -91.091612171796442 145.84607972197409 0 145.84607972197409 292.87682302223402 0 0 0 0 -23.725374434023252 25.927339535875944 0 25.927339535875944 174.84728330475627 0 0 0 0 -168.07619113563487 117.36053912474017 0 117.36053912474017 152.12229850321455 0 0 0 0 17.258550146176276 112.26904287401703 0 112.26904287401703 99.872820948658045 0 0 0 0 -127.34581803508263 73.81827018167678 0 73.81827018167678 113.023011686877 0 0 0 0 -53.409110676888304 109.65132993478619 0 109.65132993478619 -22.081911670495174 0 0 0 0 -240.7518648235 152.66033106180112 0 152.66033106180112 112.91888118894713 0 0 0 0 -174.96330113829026 96.338638695335248 0 96.338638695335248 148.63071108239819 0 0 0 0 -410.76921486843639 67.970260134228738 0 67.970260134228738 191.90032420484931 0 0 0 0 -46.889180064346874 -81.973584113111428 0 -81.973584113111428 166.49325219538878 0 0 0 0 -306.21521742207551 182.80253435528721 0 182.80253435528721 153.59287867220337 0 0 0 0 -345.05689905065265 244.06382027371365 0 244.06382027371365 116.86681393370964 0 0 0 0 -108.62320996903145 227.90260914377723 0 227.90260914377723 24.29165935787023 0 0 0 0 -183.76270434249227 162.46023528744627 0 162.46023528744627 152.02842103983858 0 0 0 0 -200.1306009594191 200.05135684295237 0 200.05135684295237 129.95643744377958 0 0 0 0 -157.99833901061766 220.59245781121717 0 220.59245781121717 91.803577378523187 0 0 0 0 -91.109025047837349 94.429537997846637 0 94.429537997846637 -153.78614156997355 0 0 0 0 -146.96056852882703 216.32768927928373 0 216.32768927928373 -26.012468730747059 0 0 0 0 -152.19323439535583 116.48582680518302 0 116.48582680518302 63.761484681315778 0 0 0 0 -87.523496017103753 121.54198900242409 0 121.54198900242409 -14.146391116551968 0 0 0 0 48.922489631069247 27.308833974027365 0 27.308833974027365 12.621883471349278 0 0 0 0 13.90731820280962 129.77449428657746 0 129.77449428657746 -158.72814917299911 0 0 0 0 158.2668102477769 41.235247906744917 0 41.235247906744917 178.75263265192189 0 0 0 0 45.54692291918218 182.10364056626713 0 182.10364056626713 157.43448844668092 0 0 0 0 70.635576420463622 -9.7376424489666533 0 -9.7376424489666533 313.66727061110214 0 0 0 0 -22.538926315266508 96.976658232342743 0 96.976658232342743 266.33632618876345 0 0 0 0 29.577473749307501 110.37691066667503 0 110.37691066667503 27.059081632556627 0 0 0 0 -205.14219797290389 292.0537080105496 0 292.0537080105496 -51.765030348302389 0 0 0 0 -35.583615131599345 89.29775989261725 0 89.29775989261725 53.190315965257469 0 0 0 0 372.43163071771323 284.22125549532575 0 284.22125549532575 -11.885542402182182 0 0 0 0 66.910615910774141 47.309965244268824 0 47.309965244268824 -192.56011016575212 0 0 0 0 665.34456341604346 592.88482965096773 0 592.88482965096773 -568.69136710152634 0 0 0 0 -83.457414526239518 232.18488260875711 0 232.18488260875711 883.2369145136181 0 0 0 0 -272.74386552200531 -153.94926558331827 0 -153.94926558331827 2192.8100072363577 0 0 0 0 -4.3484604819199664 0.84424185172401423 0 0.84424185172401423 0.15496223946360033 0 0 0 0 1593.683785475635 488.75998199499736 0 488.75998199499736 187.64679048075777 0 0 0 0 10.821334633953191 7.3170333580226981 0 7.3170333580226981 4.8836558519797251 0 0 0 0 -407.36849801602239 -238.18634712636413 0 -238.18634712636413 937.82934949415176 0 0 0 0 1059.4086991732611 911.92785469613227 0 911.92785469613227 -407.81231196245062 0 0 0 0 -397.64555184000301 157.95168323458711 0 157.95168323458711 933.26125801422495 0 0 0 0 31.474271667265196 21.177643099845319 0 21.177643099845319 11.640918546893253 0 0 0 0 -58.603226672930759 340.54974861134906 0 340.54974861134906 -380.70252140917728 0 0 0 0 -39.498952025680865 217.2622754001095 0 217.2622754001095 818.05666260151338 0 0 0 0 0.16886537826621861 276.27685986584765 0 276.27685986584765 852.72428325853798 0 0 0 0 -13.771016079743958 19.131624372370425 0 19.131624372370425 674.95713655809959 0 0 0 0 -355.93183298891927 -369.16843371912182 0 -369.16843371912182 729.12726826571088 0 0 0 0 210.33383960066476 -53.073143540161254 0 -53.073143540161254 359.0470506442216 0 0 0 0 313.42652914220753 235.29964923311627 0 235.29964923311627 602.99522887902276 0 0 0 0 59.873190765212485 256.66353304961376 0 256.66353304961376 1120.7876468816175 0 0 0 0 19.787529609492402 4.7775680215600573 0 4.7775680215600573 -2.9519740707688022 0 0 0 0 -63.719674447414036 275.64201664477696 0 275.64201664477696 931.02387437198922 0 0 0 0 -16.397828664009886 7.2606440285292777 0 7.2606440285292777 2.1890818499977271 0 0 0 0 29.302845882726615 63.14066593959069 0 63.14066593959069 53.571073318496929 0 0 0 0 -5.472607902125219 44.628946544326027 0 44.628946544326027 15.154565397235274 0 0 0 0 -1.1231940306606703 58.554549060301724 0 58.554549060301724 58.172755464940565 0 0 0 0 32.563467238480371 59.543148776236194 0 59.543148776236194 -3.3061389215945383 0 0 0 0 58.096274338317016 29.24127250690799 0 29.24127250690799 -29.662310112527848 0 0 0 0 -8.6996867887338496 25.014435747367298 0 25.014435747367298 3.5882875874248441 0 0 0 0 35.440021872561715 62.986856970374674 0 62.986856970374674 0.27558235270407749 0 0 0 0 19.477251910244377 7.7566351779305478 0 7.7566351779305478 -23.676279824932863 0 0 0 0 178.97811076664584 293.16743590517581 0 293.16743590517581 311.40746519435925 0 0 0 0 77.093494835870843 90.393033862619632 0 90.393033862619632 139.92563879900263 0 0 0 0 55.835434421580885 37.544250028216084 0 37.544250028216084 60.110277830972336 0 0 0 0 155.70042889104934 99.165699095061427 0 99.165699095061427 -51.403914142741996 0 0 0 0 35.117171127902111 73.958365466281975 0 73.958365466281975 72.911972520529162 0 0 0 0 158.17259588267007 154.9554938537658 0 154.9554938537658 97.398521315244579 0 0 0 0 169.92904054600967 115.46039266334265 0 115.46039266334265 41.992559562426322 0 0 0 0 266.48109629792657 192.06263952964582 0 192.06263952964582 185.92826877102198 0 0 0 0 369.69606442971053 306.88924180323374 0 306.88924180323374 146.17418922684374 0 0 0 0 14.871503776016194 -14.122715799055086 0 -14.122715799055086 13.89891159241904 0 0 0 0 168.33337184740171 -92.851559493197556 0 -92.851559493197556 -103.07955144700827 0 0 0 0 260.20972899134176 263.01069541028846 0 263.01069541028846 266.88526995033317 0 0 0 0 256.37385324079332 259.49126588886065 0 259.49126588886065 267.76890743616605 0 0 0 0 259.92076068414144 261.50339531054851 0 261.50339531054851 263.36815526717328 0 0 0 0 241.46598440123807 199.93113945530422 0 199.93113945530422 227.34825301473029 0 0 0 0 257.2069656526985 260.64452916380651 0 260.64452916380651 269.2817931443933 0 0 0 0 554.58877454351932 150.87741388153518 0 150.87741388153518 -186.4763241370174 0 0 0 0 -209.77091790041413 -69.788085908836365 0 -69.788085908836365 281.64569645744632 0 0 0 0 -102.07554531479695 179.96080722563966 0 179.96080722563966 858.61628957266657 0 0 0 0 -368.43973533650569 222.40458575061348 0 222.40458575061348 1639.971478910702 0 0 0 0 -58.937498279849734 -51.416305041781925 0 -51.416305041781925 119.10187174071325 0 0 0 0 10.334387920461626 -10.988491969562354 0 -10.988491969562354 12.780979587980084 0 0 0 0 220.58526645108304 292.43460855098601 0 292.43460855098601 548.69010689284914 0 0 0 0 131.96972716707069 389.24415403978128 0 389.24415403978128 451.31071364872696 0 0 0 0 185.22651918972952 530.97945846520815 0 530.97945846520815 263.21037166606038 0 0 0 0 491.52333810582786 1094.9084243573998 0 1094.9084243573998 1294.3290774928428 0 0 0 0 233.07094199111404 456.84286224708671 0 456.84286224708671 196.99574252389721 0 0 0 0 614.62195540669211 -205.15431948886453 0 -205.15431948886453 340.8262687793831 0 0 0 0 729.35614008418383 157.10963949761208 0 157.10963949761208 171.1633545196928 0 0 0 0 115.87808994657598 152.89257929838277 0 152.89257929838277 710.34581317656466 0 0 0 0 3.3604345713491823 -3.8350854851176734 0 -3.8350854851176734 6.2819093284664973 0 0 0 0 291.97988304560067 207.35384484170572 0 207.35384484170572 221.18811884002753 0 0 0 0 336.74619026572753 172.7838675950145 0 172.7838675950145 247.27538108233421 0 0 0 0 241.22970656892358 195.20214493267122 0 195.20214493267122 275.75580444819207 0 0 0 0 276.6057635479076 164.57616737702483 0 164.57616737702483 300.32707495438444 0 0 0 0 218.16349123555744 278.59195571098553 0 278.59195571098553 360.79603655768733 0 0 0 0 169.05291378175934 199.52422364490849 0 199.52422364490849 302.30851807755744 0 0 0 0 111.05940273304213 194.29697180438598 0 194.29697180438598 358.74915147139836 0 0 0 0 126.99262603896955 159.48020338465813 0 159.48020338465813 255.73241291521117 0 0 0 0 61.178846223415121 123.52412756580816 0 123.52412756580816 427.82704529563489 0 0 0 0 86.924352384359281 141.66275088310067 0 141.66275088310067 323.49934347816452 0 0 0 0 -14.9341911059621 11.571078541895986 0 11.571078541895986 263.16427791752358 0 0 0 0 -76.432284172042387 20.234283076298652 0 20.234283076298652 468.0928220014539 0 0 0 0 -85.724191049824185 14.050479383025959 0 14.050479383025959 464.03725747134013 0 0 0 0 -69.796332229964264 97.616463946262229 0 97.616463946262229 670.7863185325732 0 0 0 0 -45.725856784530379 75.408552109065567 0 75.408552109065567 542.04493193951203 0 0 0 0 148.22683495644355 293.08113767279065 0 293.08113767279065 500.76303749417639 0 0 0 0 113.14353610371973 210.6750725412212 0 210.6750725412212 402.72461065546668 0 0 0 0 263.86214956921731 314.382959308914 0 314.382959308914 361.90666522247921 0 0 0 0 371.46567077001146 412.06507350622633 0 412.06507350622633 348.19975583244741 0 0 0 0 399.31978794275085 226.36237692967916 0 226.36237692967916 406.21146036209393 0 0 0 0 211.09389213156146 342.08551163559241 0 342.08551163559241 681.73846260311439 0 0 0 0 213.09103510640148 600.27985780828021 0 600.27985780828021 1573.9889184915373 0 0 0 0 150.16618388572215 325.3519106408221 0 325.3519106408221 677.14837860732951 0 0 0 0 92.651642423867088 -232.56223074433728 0 -232.56223074433728 696.31686457522301 0 0 0 0 -9.3128476186511762 179.66899257597652 0 179.66899257597652 1072.3889210984271 0 0 0 0 58.256533488695084 -236.76126950238722 0 -236.76126950238722 1766.0349390616466 0 0 0 0 2.8548918007516004 5.6982877015502851 0 5.6982877015502851 5.4928730586251362 0 0 0 0 97.396179236870012 -137.23726731559509 0 -137.23726731559509 -349.32640059391269 0 0 0 0 396.25673532990004 1011.3755097539797 0 1011.3755097539797 -1060.794726852444 0 0 0 0 0.2984619202935832 11.049543364910434 0 11.049543364910434 13.074653430076424 0 0 0 0 3.4554714873665944 -84.800204827832204 0 -84.800204827832204 414.52260611129486 0 0 0 0 72.812298407467551 -62.895017044254928 0 -62.895017044254928 416.74500500915019 0 0 0 0 -7.0623191196323205 -115.50317588144753 0 -115.50317588144753 520.67664391778817 0 0 0 0 -69.97170453485387 -36.27500946065993 0 -36.27500946065993 434.94743718469545 0 0 0 0 -140.88876884993033 -46.647873337897181 0 -46.647873337897181 491.71914266908425 0 0 0 0 -90.577176396579034 -93.732918577972669 0 -93.732918577972669 359.82610422470316 0 0 0 0 -41.408207931885045 -156.62504133025504 0 -156.62504133025504 106.90684781825257 0 0 0 0 -47.224744217865918 -157.49469757014595 0 -157.49469757014595 319.25399500022468 0 0 0 0 -118.75354615005745 -55.776690603706811 0 -55.776690603706811 339.50750221997441 0 0 0 0 -102.48370955850714 36.343005610528053 0 36.343005610528053 173.28731448198596 0 0 0 0 -144.14981506740946 -28.13413687335742 0 -28.13413687335742 357.24468898914347 0 0 0 0 -105.04928847081737 -87.306758262209769 0 -87.306758262209769 212.21794425954431 0 0 0 0 -132.67630521863884 11.235633539519768 0 11.235633539519768 308.70622897139401 0 0 0 0 -146.35678356251901 35.55679390727164 0 35.55679390727164 280.64658294955007 0 0 0 0 -129.23331932441852 -47.206809774797875 0 -47.206809774797875 321.35028233880075 0 0 0 0 -141.53747092968911 -64.937252087842353 0 -64.937252087842353 418.54956247967493 0 0 0 0 -156.05212282684761 -30.206862793475011 0 -30.206862793475011 404.87782928920933 0 0 0 0 -159.43307413208686 -47.61028695814457 0 -47.61028695814457 472.2777137812227 0 0 0 0 -132.40658376116062 -74.279646279384906 0 -74.279646279384906 384.33756476362396 0 0 0 0 -120.93259905288414 -38.955791991924343 0 -38.955791991924343 469.75563186280488 0 0 0 0 -147.41884178308919 -46.315041718069551 0 -46.315041718069551 495.26097159927303 0 0 0 0 -97.785310906449013 1.8220482026481477 0 1.8220482026481477 503.7737959250735 0 0 0 0 -134.59416358764315 -28.580368875162094 0 -28.580368875162094 539.03156193348696 0 0 0 0 -42.650159985804976 52.172739588541845 0 52.172739588541845 602.43913646111469 0 0 0 0 -82.594339768481404 7.6645050543884281 0 7.6645050543884281 654.9792429490517 0 0 0 0 -86.612636759843099 -33.540244406864076 0 -33.540244406864076 483.2269468417162 0 0 0 0 -53.189984731585355 43.58986953747808 0 43.58986953747808 132.88955781082768 0 0 0 0 13.838594383725649 67.180573554042894 0 67.180573554042894 109.99337683505655 0 0 0 0 -12.28099379593746 29.148139878796602 0 29.148139878796602 84.678773510833551 0 0 0 0 36.233178669592235 57.752345855551539 0 57.752345855551539 5.0632409196587105 0 0 0 0 -6.0854513069372356 32.794997150078977 0 32.794997150078977 11.889224562411741 0 0 0 0 17.907677938615961 65.191221800640051 0 65.191221800640051 7.5921559075795813 0 0 0 0 3.9879511814346422 11.505488878871176 0 11.505488878871176 12.706847919634072 0 0 0 0 37.551560814451477 50.937617515197417 0 50.937617515197417 15.636051220473746 0 0 0 0 -4.1478516719726031 32.545254316642968 0 32.545254316642968 0.087694688147166744 0 0 0 0 114.33125667985405 186.4370482297345 0 186.4370482297345 152.43945955309391 0 0 0 0 -35.664578363645887 81.215838690821329 0 81.215838690821329 227.02385612420039 0 0 0 0 61.618457079752261 38.310242663443205 0 38.310242663443205 46.064046287670863 0 0 0 0 12.634671134392095 -12.095553921710199 0 -12.095553921710199 10.362519218892345 0 0 0 0 197.45745837143309 234.59942540037412 0 234.59942540037412 507.04507133013976 0 0 0 0 216.01057500517618 485.25689621087804 0 485.25689621087804 531.47797551384792 0 0 0 0 245.35322134379294 135.75927696197687 0 135.75927696197687 165.4510611023652 0 0 0 0 84.445306219088707 8.2707178779910464 0 8.2707178779910464 -140.75281624200579 0 0 0 0 -0.85822958229094226 -1.8664221609925633 0 -1.8664221609925633 0.43175675941782288 0 0 0 0 293.17820464703027 39.914233266143128 0 39.914233266143128 250.72768865913531 0 0 0 0 233.81815241695222 184.72148812696832 0 184.72148812696832 24.089661756384885 0 0 0 0 233.95359656824303 356.50085505758761 0 356.50085505758761 306.36489582560171 0 0 0 0 15.175417581426561 -13.743001802867035 0 -13.743001802867035 13.697723845470293 0 0 0 0 831.48098063248881 653.11508004082862 0 653.11508004082862 529.91247842960365 0 0 0 0 328.03707659727706 396.77416947706661 0 396.77416947706661 679.58229322300758 0 0 0 0 655.05641789710535 273.01100424946344 0 273.01100424946344 96.956703969270166 0 0 0 0 513.2569331980601 180.84516096124389 0 180.84516096124389 843.16421038433327 0 0 0 0 226.77926083699322 671.12891281157863 0 671.12891281157863 960.98381673871336 0 0 0 0 412.05500119976432 703.77184535863125 0 703.77184535863125 198.9642641002356 0 0 0 0 376.51180961419777 97.158836837668787 0 97.158836837668787 360.67167685623281 0 0 0 0 155.83187393882827 884.10838158349179 0 884.10838158349179 539.6060518516606 0 0 0 0 418.18822259703722 650.07866931640092 0 650.07866931640092 762.79600619283519 0 0 0 0 448.41866747229358 573.7899655895244 0 573.7899655895244 608.74884465838841 0 0 0 0 463.72480277446044 544.97948990824807 0 544.97948990824807 397.66998839545704 0 0 0 0 274.1625045805099 629.33425160557454 0 629.33425160557454 600.15187050840268 0 0 0 0 114.61222877506273 -4.2484681629105445 0 -4.2484681629105445 86.334770059715083 0 0 0 0 440.2798766060194 653.47067759677884 0 653.47067759677884 606.67753943791831 0 0 0 0 435.55803119167922 512.75568521837704 0 512.75568521837704 778.39285629454389 0 0 0 0 -42.707679700580229 18.000969054656252 0 18.000969054656252 116.98781941378456 0 0 0 0 521.46007943579957 377.75904919055074 0 377.75904919055074 551.34144708963868 0 0 0 0 868.06608926388981 767.51952343148878 0 767.51952343148878 428.15595776261762 0 0 0 0 13.214948082445236 -2.1908879304003328 0 -2.1908879304003328 13.316479876065273 0 0 0 0 -15.463842948461481 17.873837152845592 0 17.873837152845592 83.617991542219954 0 0 0 0 1.3197470907761311 -7.569454806489512 0 -7.569454806489512 -2.8529829485128602 0 0 0 0 -701.87493190381747 -161.63852708534614 0 -161.63852708534614 -42.153944715304533 0 0 0 0 247.98741326937034 550.00957506043778 0 550.00957506043778 351.98500515762134 0 0 0 0 33.37811656467602 97.015686205679231 0 97.015686205679231 112.17301785561722 0 0 0 0 772.88128396234686 1115.6375863940393 0 1115.6375863940393 931.895949362588 0 0 0 0 786.01100687330609 1053.4882555890676 0 1053.4882555890676 1080.5796244574958 0 0 0 0 791.19529240171505 894.83945277276143 0 894.83945277276143 1000.8931564000031 0 0 0 0 849.68976633874627 942.55921096992824 0 942.55921096992824 239.3084028801095 0 0 0 0 740.1360287282323 549.56309436095762 0 549.56309436095762 144.05013319936552 0 0 0 0 765.13558377975369 883.05080082947461 0 883.05080082947461 1248.541772329314 0 0 0 0 660.25849774854657 869.99740268493588 0 869.99740268493588 1249.6945341531609 0 0 0 0 668.09508694442729 492.27913611228723 0 492.27913611228723 652.86100731787519 0 0 0 0 298.98852477761193 403.30436797818402 0 403.30436797818402 1359.7338188358808 0 0 0 0 612.13703201794692 797.44048707512388 0 797.44048707512388 1051.1722424775289 0 0 0 0 -2.1019933058634885 3.9182425075317866 0 3.9182425075317866 -0.36417273545625051 0 0 0 0 355.21787597868774 403.10646567975164 0 403.10646567975164 -964.42525737078086 0 0 0 0 289.25216875011301 1003.0084909124143 0 1003.0084909124143 2305.1605636892273 0 0 0 0 320.96729069114508 464.83292262226951 0 464.83292262226951 1123.8584791885442 0 0 0 0 256.39497004730993 355.45367824222922 0 355.45367824222922 1058.0037608000093 0 0 0 0 53.73784402540241 325.62223851589442 0 325.62223851589442 1498.2234121977417 0 0 0 0 288.5184800527245 313.59445090162262 0 313.59445090162262 675.03932950859598 0 0 0 0 150.62096095476045 214.18147638792288 0 214.18147638792288 1204.5168567174696 0 0 0 0 111.94204512952638 56.995589035625017 0 56.995589035625017 745.37934545695316 0 0 0 0 275.80677764471602 178.39008480257689 0 178.39008480257689 798.00711324614531 0 0 0 0 43.462042726954678 443.27069940653746 0 443.27069940653746 1629.125549463497 0 0 0 0 153.88635753175367 -12.793282481616188 0 -12.793282481616188 1262.2719212188622 0 0 0 0 301.64814421171832 -14.596458959611482 0 -14.596458959611482 1049.8782686003033 0 0 0 0 -1.0840164165703339 2.2287489126618585 0 2.2287489126618585 -1.0325446027733847 0 0 0 0 33.291896262478531 150.91273467542851 0 150.91273467542851 -116.94953562746969 0 0 0 0 -139.69770883261475 54.397036728726562 0 54.397036728726562 612.46841663427404 0 0 0 0 -8.0576152220721156 13.628261418974695 0 13.628261418974695 1.1842983978893962 0 0 0 0 -263.34510417354738 -139.17851634755334 0 -139.17851634755334 604.87409908566769 0 0 0 0 -505.9154027010311 -71.822620100741915 0 -71.822620100741915 2499.8087603191034 0 0 0 0 -457.526998346006 395.32171520121392 0 395.32171520121392 863.97649069244108 0 0 0 0 -298.60755614365542 307.0419287308423 0 307.0419287308423 881.287392921422 0 0 0 0 -407.4132386067659 938.7838171576459 0 938.7838171576459 2501.0351129998398 0 0 0 0 236.29948348971183 812.75277088914936 0 812.75277088914936 800.60207584171735 0 0 0 0 291.62811916800217 1148.2308626847034 0 1148.2308626847034 820.62969978420006 0 0 0 0 -327.46978281137217 371.70308923491393 0 371.70308923491393 192.87097487928986 0 0 0 0 -233.65552172668981 487.49047265309491 0 487.49047265309491 -102.69713744441833 0 0 0 0 -613.33121800430717 266.96933587854073 0 266.96933587854073 165.65532667276057 0 0 0 0 -280.43578918566004 88.134581303187588 0 88.134581303187588 238.83789256765158 0 0 0 0 -230.49318588959295 93.633881094428943 0 93.633881094428943 -91.13614374367171 0 0 0 0 -258.25207210012809 382.61537703077192 0 382.61537703077192 389.04671624649927 0 0 0 0 -459.51068907754143 -40.348934613597521 0 -40.348934613597521 351.11125956827891 0 0 0 0 -192.20084982151957 126.47749917318743 0 126.47749917318743 -469.48096413606254 0 0 0 0 -159.73507307254135 392.71445870172829 0 392.71445870172829 -552.27591904397559 0 0 0 0 -264.17919679344914 483.15536948784575 0 483.15536948784575 -58.405444332794104 0 0 0 0 -115.01343580919911 296.55997263773315 0 296.55997263773315 25.683967211225536 0 0 0 0 556.76096979827162 -1456.2166102582487 0 -1456.2166102582487 3147.6880258640304 0 0 0 0 -285.62076430239551 746.44743443602056 0 746.44743443602056 -328.72945339803118 0 0 0 0 470.5480425988153 -975.36010411829193 0 -975.36010411829193 3664.895217647645 0 0 0 0 -1.4517864870381043 4.1328367804577866 0 4.1328367804577866 8.4822459943109862 0 0 0 0 -0.94897998428711228 3.875824916579333 0 3.875824916579333 9.8310641335117026 0 0 0 0 -18.449349529438678 141.26337430424974 0 141.26337430424974 -78.401150497054914 0 0 0 0 -192.23257843995452 225.72309180814773 0 225.72309180814773 226.97668651915592 0 0 0 0 -119.16328996726998 103.78585993476008 0 103.78585993476008 225.02223181143927 0 0 0 0 -151.15714184815101 152.52846541445251 0 152.52846541445251 256.39436861941067 0 0 0 0 -163.29755299163844 187.21501733085097 0 187.21501733085097 160.35519192417269 0 0 0 0 -96.121062561418512 17.158388175761502 0 17.158388175761502 200.30711767537287 0 0 0 0 -126.80629620013156 133.1897515557921 0 133.1897515557921 129.44355946482392 0 0 0 0 9.4125768145604525 -38.330292036953324 0 -38.330292036953324 -94.536810976293054 0 0 0 0 -535.65241349214284 212.55085281239008 0 212.55085281239008 -210.27802588853228 0 0 0 0 524.3030333503898 -1541.2216104861072 0 -1541.2216104861072 2623.5807408832043 0 0 0 0 -542.21730010595866 927.70360037696628 0 927.70360037696628 1026.6172749059187 0 0 0 0 -379.97983749818218 746.41462576140475 0 746.41462576140475 156.05660272936802 0 0 0 0 -1075.6702226576776 323.33407633581373 0 323.33407633581373 345.78434239577473 0 0 0 0 -362.38661847332151 786.73838476452693 0 786.73838476452693 728.33620327805329 0 0 0 0 -7.708400918924319 -0.21435819905380527 0 -0.21435819905380527 0.58246295795259329 0 0 0 0 -693.89948156526748 -415.85253253585734 0 -415.85253253585734 -256.63613483580411 0 0 0 0 -296.19882804607641 350.30315983115725 0 350.30315983115725 1490.3897112280101 0 0 0 0 -18.833228458810829 -0.11814678397057321 0 -0.11814678397057321 8.4254164093268002 0 0 0 0 -537.70160306638297 -173.65176467678248 0 -173.65176467678248 975.70864504591009 0 0 0 0 103.95160782773155 259.98268524951254 0 259.98268524951254 822.89889389346354 0 0 0 0 323.23439998758511 174.05307435312398 0 174.05307435312398 816.10165897049592 0 0 0 0 49.945476771851645 -78.264304868211184 0 -78.264304868211184 1866.0890893972391 0 0 0 0 -0.51102994346710862 12.454312272560394 0 12.454312272560394 30.862199395643643 0 0 0 0 -87.822654905199215 -57.180497191118775 0 -57.180497191118775 -23.051412673453342 0 0 0 0 -260.87972642705381 -36.186163625690824 0 -36.186163625690824 71.859514505180414 0 0 0 0 -137.63318533201988 -158.16581821400814 0 -158.16581821400814 -152.98059485996419 0 0 0 0 -87.425182746557653 -60.394325765289977 0 -60.394325765289977 2.1979959150776267 0 0 0 0 137.80212471756212 -26.519046949313633 0 -26.519046949313633 3.7805885050245251 0 0 0 0 -91.046340138457481 -193.82160228005705 0 -193.82160228005705 118.05188951851596 0 0 0 0 2.7321829670960089 3.7085256519983751 0 3.7085256519983751 13.47501031340623 0 0 0 0 118.75298204709277 -1036.6738079022771 0 -1036.6738079022771 2494.6347339734384 0 0 0 0 -468.51143469567904 868.0582520207281 0 868.0582520207281 2494.7830556100998 0 0 0 0 613.3067337538921 524.63091666801665 0 524.63091666801665 171.40304373064964 0 0 0 0 269.99123226950951 1050.9477834928512 0 1050.9477834928512 1639.1074483729826 0 0 0 0 -549.88285941225115 505.41072063747561 0 505.41072063747561 1935.321089609206 0 0 0 0 -594.26445857816407 316.91712951293584 0 316.91712951293584 1197.102846156653 0 0 0 0 112.86913240056236 610.02799573103221 0 610.02799573103221 513.90927975439263 0 0 0 0 -246.78835661933607 198.99871543692279 0 198.99871543692279 415.72766228597175 0 0 0 0 -132.86971423369789 310.91084528977626 0 310.91084528977626 404.2137368461772 0 0 0 0 -497.38250965891814 226.31762850388805 0 226.31762850388805 1181.5595026156261 0 0 0 0 -358.38673942460775 203.24319943079354 0 203.24319943079354 550.84326500874886 0 0 0 0 -399.93398482511861 -61.306355731230724 0 -61.306355731230724 558.31858890304102 0 0 0 0 -815.39030773287766 15.695434146728076 0 15.695434146728076 2500.9244618872035 0 0 0 0 -708.99693558133094 -187.1842040140582 0 -187.1842040140582 1340.8225631736204 0 0 0 0 1187.0907728143559 -1111.010570965278 0 -1111.010570965278 502.74593296369858 0 0 0 0 -525.03611668270935 -821.43709300022601 0 -821.43709300022601 2495.5441720210979 0 0 0 0 -4.5853609842392871 49.780882886647305 0 49.780882886647305 86.598512651508827 0 0 0 0 23.253247130538909 -159.8392271782368 0 -159.8392271782368 624.34426350819922 0 0 0 0 -8.3691946819582004 4.2588090352633827 0 4.2588090352633827 17.021373569585052 0 0 0 0 -248.93259634449782 304.54990136038396 0 304.54990136038396 227.17307034282157 0 0 0 0 -372.45538215730403 -324.85216144497099 0 -324.85216144497099 1199.702741615667 0 0 0 0 137.90100514174543 -362.14820535443414 0 -362.14820535443414 181.24261088662752 0 0 0 0 21.171885827471669 -27.206044043046859 0 -27.206044043046859 329.27361814410688 0 0 0 0 494.68676499120807 -651.01328751406618 0 -651.01328751406618 369.26176563318586 0 0 0 0 -3.696679320280166 8.2213385739913036 0 8.2213385739913036 16.738451150411365 0 0 0 0 -259.30428227607899 76.203464118822012 0 76.203464118822012 842.7909419911739 0 0 0 0 11.124363424981595 -95.409671140694627 0 -95.409671140694627 107.06385811856308 0 0 0 0 -20.201287551140922 73.54782056138356 0 73.54782056138356 405.70437518348808 0 0 0 0 -141.56703209870602 32.238453816029505 0 32.238453816029505 539.29130782952416 0 0 0 0 -134.13398943624611 30.309086619726259 0 30.309086619726259 443.2184273860039 0 0 0 0 -126.87767168342043 75.729452971612773 0 75.729452971612773 483.24448121776368 0 0 0 0 -145.63993881718852 63.567636346633662 0 63.567636346633662 477.89717327739345 0 0 0 0 -146.06536511446438 62.730760200873192 0 62.730760200873192 528.64124987319519 0 0 0 0 -130.70946675432515 39.039540836929518 0 39.039540836929518 497.93623180184659 0 0 0 0 -127.25825482635173 36.989632492197416 0 36.989632492197416 424.0685626945633 0 0 0 0 -124.81312606934625 107.27395874998183 0 107.27395874998183 429.46154769939039 0 0 0 0 -134.01588452415126 40.566819750078139 0 40.566819750078139 435.96490941306274 0 0 0 0 -133.91005061889337 44.323726504007936 0 44.323726504007936 354.20211980871682 0 0 0 0 -171.81028411822717 111.77853173148469 0 111.77853173148469 292.17421423523956 0 0 0 0 -165.41607536631477 69.63083603652467 0 69.63083603652467 395.69747385935625 0 0 0 0 -131.07638397968003 88.840916201974323 0 88.840916201974323 377.4631967406749 0 0 0 0 -275.50288024128804 340.43664504453773 0 340.43664504453773 321.25925432765507 0 0 0 0 -226.19807441876048 152.22032102774028 0 152.22032102774028 474.65783734730212 0 0 0 0 -299.49969430210649 270.87025074839312 0 270.87025074839312 480.68528734424035 0 0 0 0 -144.37091108176264 95.3941985044803 0 95.3941985044803 524.05243697101832 0 0 0 0 146.73495184571448 296.57706163423063 0 296.57706163423063 471.04391240580844 0 0 0 0 -86.890999469756423 203.81334447686459 0 203.81334447686459 977.04131875875464 0 0 0 0 -94.083583355350129 143.36820120833727 0 143.36820120833727 603.06431520284968 0 0 0 0 -119.54459380097114 101.53727963142956 0 101.53727963142956 562.65250898021895 0 0 0 0 -102.80018041302924 85.020209430877003 0 85.020209430877003 512.81689171987091 0 0 0 0 -22.942085397964092 18.050043703002302 0 18.050043703002302 109.05010238924297 0 0 0 0 25.489828415468992 183.04841205220509 0 183.04841205220509 395.61547233380043 0 0 0 0 16.404435562734704 109.14793432761326 0 109.14793432761326 367.51981216704007 0 0 0 0 -4.8143208200359409 -2.8325140920746108 0 -2.8325140920746108 14.313787279471256 0 0 0 0 -286.7709983234617 527.26637935471945 0 527.26637935471945 828.36197115348477 0 0 0 0 -8.9270827019147614 2.9908088052186557 0 2.9908088052186557 14.48415247366114 0 0 0 0 -201.22191032282308 -301.19783125707181 0 -301.19783125707181 211.61615133467421 0 0 0 0 -18.337171060185483 -13.838034629447066 0 -13.838034629447066 119.91444894419783 0 0 0 0 -2.1009696921141723 3.9908522058103699 0 3.9908522058103699 2492.3296009310216 0 0 0 0 884.91410111946982 412.91824423440994 0 412.91824423440994 -188.25018919371723 0 0 0 0 3.6403338345393967 4.0543646786457828 0 4.0543646786457828 6.49327947845984 0 0 0 0 1.2328988416805964 -0.75239892577373269 0 -0.75239892577373269 7.761372939950121 0 0 0 0 774.83619237398841 1341.9732830574926 0 1341.9732830574926 778.11319743919012 0 0 0 0 -461.97812069318024 1131.2280643718295 0 1131.2280643718295 2496.4162279482662 0 0 0 0 -594.25583154493916 450.09635833601533 0 450.09635833601533 1347.6344160844856 0 0 0 0 -588.26700328293862 525.06442642944057 0 525.06442642944057 1523.3362981968239 0 0 0 0 18.483074853588164 513.36008559836046 0 513.36008559836046 327.10630525671513 0 0 0 0 -299.39503456144308 -253.61944229549044 0 -253.61944229549044 2260.407828224008 0 0 0 0 -576.21535048541227 100.84280082042096 0 100.84280082042096 2499.6713598374317 0 0 0 0 -169.54607477280319 -211.47609306874801 0 -211.47609306874801 1675.3295226922419 0 0 0 0 -426.74035722832025 39.984445869824413 0 39.984445869824413 1584.3594589346103 0 0 0 0 185.77990708966615 -509.90004405629588 0 -509.90004405629588 1162.7382084052588 0 0 0 0 173.20208194664087 -430.55086704188398 0 -430.55086704188398 1039.9268281611585 0 0 0 0 41.515950428228152 -419.09775329073454 0 -419.09775329073454 1278.603968928408 0 0 0 0 43.223276223310023 -402.26488531120367 0 -402.26488531120367 1337.8820466795296 0 0 0 0 162.31091498962087 -451.27064035939111 0 -451.27064035939111 1055.3307974690906 0 0 0 0 80.25389415716495 -272.12774730740784 0 -272.12774730740784 1168.6551813119695 0 0 0 0 -130.29794374767312 -105.54297501367546 0 -105.54297501367546 1324.0549980566648 0 0 0 0 69.273574873494965 -212.82953797776645 0 -212.82953797776645 887.90115044572303 0 0 0 0 87.405341041438831 -467.12319280586962 0 -467.12319280586962 901.8262284869561 0 0 0 0 139.66507342871364 -544.44300873275643 0 -544.44300873275643 810.72390998603805 0 0 0 0 130.16695333625489 -443.43541596586874 0 -443.43541596586874 845.41656966141454 0 0 0 0 124.15597351799101 -489.98705366576905 0 -489.98705366576905 978.12011777693988 0 0 0 0 131.89364138268124 -421.43240407236044 0 -421.43240407236044 1026.1111726282397 0 0 0 0 130.46962851695238 -551.97828652709723 0 -551.97828652709723 1044.5338740798325 0 0 0 0 87.720841530746043 -557.15384517571511 0 -557.15384517571511 1055.209626958298 0 0 0 0 156.87746068825331 -419.03942644907875 0 -419.03942644907875 1105.2280075513845 0 0 0 0 -64.282165627429492 -509.57516388309887 0 -509.57516388309887 1156.8678329151589 0 0 0 0 200.87281919804758 -436.63795415943969 0 -436.63795415943969 1036.2028193408187 0 0 0 0 -213.48965406702644 -83.164736559861922 0 -83.164736559861922 -310.29304234348092 0 0 0 0 -791.94284650997065 -245.64609168226889 0 -245.64609168226889 413.97050824724147 0 0 0 0 -290.59093880761657 -68.454780550877331 0 -68.454780550877331 888.75197185085563 0 0 0 0 -129.93924852330952 -111.47485624584806 0 -111.47485624584806 865.84878648866288 0 0 0 0 98.022690726160675 -455.88109415849431 0 -455.88109415849431 373.63756244065007 0 0 0 0 -566.89257897328457 -715.09949427522588 0 -715.09949427522588 912.8795308656845 0 0 0 0 310.41015549578583 708.59391166543355 0 708.59391166543355 1411.5086591819054 0 0 0 0 -727.73121720923109 -1185.5093320608503 0 -1185.5093320608503 214.57519518307527 0 0 0 0 -1.3839269101930092 -1.7899262193304395 0 -1.7899262193304395 6.8724537019010938 0 0 0 0 -103.80622904863912 -138.31145562566962 0 -138.31145562566962 1592.4659245126095 0 0 0 0 239.87841336618885 -433.42266159809515 0 -433.42266159809515 965.34035685297567 0 0 0 0 328.5300791782218 -171.21170039087065 0 -171.21170039087065 790.04692984464054 0 0 0 0 65.578852690293274 -385.27810812822645 0 -385.27810812822645 1084.7968805882738 0 0 0 0 -4.5834690298604688 0.73111890984421279 0 0.73111890984421279 4.8883374438416638 0 0 0 0 182.70231141981668 -169.37935215854395 0 -169.37935215854395 794.028854143442 0 0 0 0 24.436558039669762 -281.2207108227667 0 -281.2207108227667 428.74483473948294 0 0 0 0 -190.96338140247826 -150.46317290824663 0 -150.46317290824663 456.24176975941555 0 0 0 0 229.47106353740855 -281.10911302001841 0 -281.10911302001841 235.05202079909213 0 0 0 0 122.12219671801085 -306.12394973320988 0 -306.12394973320988 533.30181160637585 0 0 0 0 42.266178164332814 -446.40002857667423 0 -446.40002857667423 634.15606137083523 0 0 0 0 49.087882062160588 -194.15715440980421 0 -194.15715440980421 908.32792338781292 0 0 0 0 -41.448385440574611 -138.73680524437987 0 -138.73680524437987 248.86666981401504 0 0 0 0 308.32869904301754 -472.3067581397554 0 -472.3067581397554 269.62793349387357 0 0 0 0 -49.049360613605415 -169.25444314557535 0 -169.25444314557535 161.08010717850993 0 0 0 0 -34.906775166355828 -83.635189140775765 0 -83.635189140775765 151.34892249608129 0 0 0 0 -2.8838040368315765 0.11574372144607992 0 0.11574372144607992 3.2921074871023848 0 0 0 0 -36.203501062107989 -80.438472891051788 0 -80.438472891051788 274.64142784395517 0 0 0 0 93.45810950818543 -742.04188854745735 0 -742.04188854745735 1067.5948372805256 0 0 0 0 147.05291722468007 -763.58362226433019 0 -763.58362226433019 881.33550732836375 0 0 0 0 -3.6083290957471945 -21.703883231595682 0 -21.703883231595682 253.77072410324035 0 0 0 0 158.75245549232108 -107.61794248409387 0 -107.61794248409387 239.7383097985221 0 0 0 0 -35.220742353245896 -30.660742110900173 0 -30.660742110900173 242.83271221687392 0 0 0 0 -61.969429525067483 -50.405558904392819 0 -50.405558904392819 202.91322532893537 0 0 0 0 -40.134793186753527 -66.185063032247854 0 -66.185063032247854 204.51850519444997 0 0 0 0 -50.543827219274533 4.4314604934406816 0 4.4314604934406816 111.85907984255755 0 0 0 0 -45.737650007199022 9.4227285792021576 0 9.4227285792021576 113.99154049871868 0 0 0 0 -61.409209835733463 20.00170091779728 0 20.00170091779728 187.26858182656451 0 0 0 0 -12.417570489518312 20.48533459808823 0 20.48533459808823 122.07814711440369 0 0 0 0 -20.460087294675304 -38.893878367660363 0 -38.893878367660363 198.67057437218318 0 0 0 0 -74.730508711351831 28.682081722457951 0 28.682081722457951 246.04672377551651 0 0 0 0 33.259589337545549 -52.499398572879727 0 -52.499398572879727 231.45782174136548 0 0 0 0 -83.00619116419648 46.44052364178242 0 46.44052364178242 136.00144826930045 0 0 0 0 -18.894491816198993 69.175520208786111 0 69.175520208786111 -30.766743441141443 0 0 0 0 -13.151977781935567 -0.69783506638550818 0 -0.69783506638550818 0.87841195408813633 0 0 0 0 -0.84373973340626307 -0.16150433525417895 0 -0.16150433525417895 1.1777830328863104 0 0 0 0 24.751732117763822 -365.58519685835199 0 -365.58519685835199 625.81176298391074 0 0 0 0 -3.0393310780311076 0.82758657200292873 0 0.82758657200292873 3.9678005406005212 0 0 0 0 384.22619388449812 -261.87066630530899 0 -261.87066630530899 373.25373651023256 0 0 0 0 -118.71330650254822 -199.12840280069031 0 -199.12840280069031 434.61067821927281 0 0 0 0 33.847818403711699 -69.189477617008379 0 -69.189477617008379 159.35864399225102 0 0 0 0 -68.531503951048307 -72.941410820472811 0 -72.941410820472811 317.17316300194761 0 0 0 0 25.890055590375596 -163.41873629794281 0 -163.41873629794281 343.98060557091958 0 0 0 0 -45.277022699475083 135.18890766486584 0 135.18890766486584 -229.32278820058491 0 0 0 0 -331.37207783816893 93.382978920006281 0 93.382978920006281 254.64714613677643 0 0 0 0 -289.2367978491875 -176.39874972866528 0 -176.39874972866528 278.07198638346017 0 0 0 0 21.52993132318079 -41.426844009245542 0 -41.426844009245542 320.64125589098694 0 0 0 0 61.323236539507889 -192.77399904419144 0 -192.77399904419144 296.11308093719163 0 0 0 0 -0.8201068245483043 -0.34479268323848089 0 -0.34479268323848089 1.5877055166956211 0 0 0 0 84.436511861014878 -107.24119255151163 0 -107.24119255151163 177.95808770855911 0 0 0 0 395.31539415716725 -377.33991623063048 0 -377.33991623063048 614.29382571929818 0 0 0 0 85.625581763717491 -281.85411267905511 0 -281.85411267905511 392.00951823494688 0 0 0 0 207.66852136470061 -216.6152028913566 0 -216.6152028913566 181.65105790896155 0 0 0 0 172.17402826772923 -290.67931285718078 0 -290.67931285718078 259.93949795071967 0 0 0 0 109.85269654314834 -120.2615453981125 0 -120.2615453981125 264.53864332856756 0 0 0 0 9.5939786429350988 -202.10874311474709 0 -202.10874311474709 257.44194102795154 0 0 0 0 -63.299378130785954 -118.26590699044755 0 -118.26590699044755 362.37759710793034 0 0 0 0 5.4129540530236682 -190.93886914283576 0 -190.93886914283576 351.17502702152706 0 0 0 0 -1.1964504258085071 -37.102980415111233 0 -37.102980415111233 85.676638075499795 0 0 0 0 -122.15567175720298 -84.959594611718785 0 -84.959594611718785 378.58060592887341 0 0 0 0 -68.890664504047891 -108.84489699873666 0 -108.84489699873666 281.28593626631482 0 0 0 0 -54.066211531364388 -154.20113798048988 0 -154.20113798048988 343.98265684934086 0 0 0 0 -86.979639464978391 -95.156769600565895 0 -95.156769600565895 319.051619831469 0 0 0 0 16.229929827813976 -144.58674476832675 0 -144.58674476832675 134.02719355701993 0 0 0 0 -98.20912225434904 -61.658884764423419 0 -61.658884764423419 296.45939724695927 0 0 0 0 -126.31401806757367 -25.103666758957843 0 -25.103666758957843 274.2574398668321 0 0 0 0 -1.1029694301475406 0.21867120622323455 0 0.21867120622323455 1.7947935488050035 0 0 0 0 212.61469783649227 -509.3030667882922 0 -509.3030667882922 530.88153813497047 0 0 0 0 -220.99873431129072 29.285311881860252 0 29.285311881860252 332.20457971692667 0 0 0 0 -106.22649656968042 88.704927419203159 0 88.704927419203159 141.65417631719902 0 0 0 0 100.76483098210429 -142.56170999965252 0 -142.56170999965252 352.87914262856248 0 0 0 0 -0.19919598571943808 0.46130986828673315 0 0.46130986828673315 1.6848426072293989 0 0 0 0 -150.62308351577576 59.837869619223056 0 59.837869619223056 719.39534880277461 0 0 0 0 -71.713560969488753 -112.86304827226559 0 -112.86304827226559 408.17344128944023 0 0 0 0 -84.226656871116575 -39.993735499352624 0 -39.993735499352624 366.88838495888922 0 0 0 0 -194.47733810196132 -34.791105354364845 0 -34.791105354364845 361.26511806320923 0 0 0 0 -123.66203440980644 -64.359561356541235 0 -64.359561356541235 336.61148568796489 0 0 0 0 -155.44090889990457 10.679689730837708 0 10.679689730837708 287.51081115614215 0 0 0 0 -84.08836348074874 -43.12262742780149 0 -43.12262742780149 335.75150229534484 0 0 0 0 -38.572410864368521 -63.652667453108734 0 -63.652667453108734 301.94798566914687 0 0 0 0 -65.457607348134843 -24.649839938414516 0 -24.649839938414516 332.06984874514455 0 0 0 0 -53.969608784377897 2.6187726368480071 0 2.6187726368480071 396.56450696353568 0 0 0 0 -87.076841234305903 -36.750684802085743 0 -36.750684802085743 386.24193377578376 0 0 0 0 -85.576412726613853 -41.163506675387907 0 -41.163506675387907 398.74058988651086 0 0 0 0 -109.3809724948951 -62.633818832531688 0 -62.633818832531688 439.0608593011566 0 0 0 0 -126.14651273133313 -73.093422320031095 0 -73.093422320031095 437.40761339534765 0 0 0 0 -69.65039246448589 -3.6227870914099185 0 -3.6227870914099185 447.06414627004415 0 0 0 0 -120.7060207586137 -42.339115518967446 0 -42.339115518967446 437.45947507294659 0 0 0 0 -131.72374959394756 -53.004444890590094 0 -53.004444890590094 348.38914353595464 0 0 0 0 -100.97891980057466 -79.725933153225924 0 -79.725933153225924 343.07104956096737 0 0 0 0 -89.851142466953206 -58.407357419971959 0 -58.407357419971959 366.26486931288446 0 0 0 0 -95.428180604865702 -63.431372206156084 0 -63.431372206156084 387.8567017520254 0 0 0 0 -111.65095608231718 -74.258366069423573 0 -74.258366069423573 385.88806779930019 0 0 0 0 -122.15623352115472 -93.370417685553548 0 -93.370417685553548 431.27619071122899 0 0 0 0 -104.38101378695319 -105.12671863833384 0 -105.12671863833384 362.26205614055289 0 0 0 0 -122.23814986220896 -85.58239655012585 0 -85.58239655012585 413.98452792070748 0 0 0 0 -127.01370049980278 -110.1327566057189 0 -110.1327566057189 429.7439172983868 0 0 0 0 -136.2241012815166 -97.749059627389215 0 -97.749059627389215 482.35116090445081 0 0 0 0 -129.16374966675903 -79.216430633454365 0 -79.216430633454365 455.44245128758484 0 0 0 0 -131.36790924169418 -86.46919162433187 0 -86.46919162433187 437.24642434677298 0 0 0 0 -146.83572061992936 -78.300231923818501 0 -78.300231923818501 495.96667191298911 0 0 0 0 -146.36821547625368 -83.742665239034977 0 -83.742665239034977 479.13731638038553 0 0 0 0 -150.32530286544807 -92.77424718677139 0 -92.77424718677139 548.53337699806434 0 0 0 0 -129.22633841285733 -53.554413537178334 0 -53.554413537178334 471.69976568104175 0 0 0 0 -133.1773765087155 -68.129598145591444 0 -68.129598145591444 453.01523740324774 0 0 0 0 -136.50083691506734 -72.310614662754233 0 -72.310614662754233 470.30983320507221 0 0 0 0 -145.82510599888565 -71.548560725575953 0 -71.548560725575953 470.25283414051228 0 0 0 0 -142.75545141382099 -69.133042379791732 0 -69.133042379791732 471.88015156229631 0 0 0 0 -141.35878435041195 -63.67252930480754 0 -63.67252930480754 465.86418083792523 0 0 0 0 -145.50182603673557 -60.631307739135082 0 -60.631307739135082 463.7017351645336 0 0 0 0 -148.03141117877476 -65.320340870115615 0 -65.320340870115615 458.70559121059341 0 0 0 0 -152.95140405131406 -51.689583789389872 0 -51.689583789389872 462.45913150462638 0 0 0 0 -130.76946930566601 -50.72881641010099 0 -50.72881641010099 462.22854362794897 0 0 0 0 -140.21061609486242 -49.765614350813848 0 -49.765614350813848 436.10866681368498 0 0 0 0 -148.12673480585636 -43.229680627409834 0 -43.229680627409834 441.66763431049912 0 0 0 0 -143.67295114637363 -48.062722495335038 0 -48.062722495335038 467.96317536522838 0 0 0 0 -140.6531604339234 -13.214220087214926 0 -13.214220087214926 444.86435970790626 0 0 0 0 -139.78165275453057 -1.8536141555014183 0 -1.8536141555014183 487.36829105210199 0 0 0 0 -140.56391733335113 -4.6260949865609291 0 -4.6260949865609291 408.38963246697676 0 0 0 0 -139.32549342885659 -6.7351035662904906 0 -6.7351035662904906 397.19915334123652 0 0 0 0 -147.49406882515859 12.111954240692285 0 12.111954240692285 358.28811898920685 0 0 0 0 -141.09920337272979 -40.611649866012158 0 -40.611649866012158 388.43854686367558 0 0 0 0 -160.05313802818364 -50.749956699921313 0 -50.749956699921313 534.76435624722217 0 0 0 0 -156.74369674387185 -44.660547059975215 0 -44.660547059975215 544.78985910027404 0 0 0 0 -148.81006590747802 -41.641073129714641 0 -41.641073129714641 498.72470219760817 0 0 0 0 -145.78868889607747 -46.686493661138229 0 -46.686493661138229 469.8243209504144 0 0 0 0 -145.79159294991405 15.539029125233355 0 15.539029125233355 521.93772118378365 0 0 0 0 -144.90484112039667 12.110449895058991 0 12.110449895058991 468.15229022211133 0 0 0 0 -151.07129406633203 18.873445268349315 0 18.873445268349315 536.59287654119544 0 0 0 0 -158.65981774213014 23.044327517953207 0 23.044327517953207 599.98458496024978 0 0 0 0 -153.1434116490309 15.273620778731129 0 15.273620778731129 577.2807973495992 0 0 0 0 -161.58218223406311 -66.397313558736641 0 -66.397313558736641 654.75806721957633 0 0 0 0 -131.69068895971759 -96.951374330827093 0 -96.951374330827093 699.76384895868614 0 0 0 0 -159.2539543357118 8.2142188076959428 0 8.2142188076959428 811.53905607371416 0 0 0 0 -93.595002133002254 -99.205783642624738 0 -99.205783642624738 869.43287848192995 0 0 0 0 -13.397996286548505 -56.980951510893647 0 -56.980951510893647 811.7192345249714 0 0 0 0 -95.933892517829008 -53.607968338303181 0 -53.607968338303181 665.30229625823995 0 0 0 0 -52.541577975589121 -173.93360865784393 0 -173.93360865784393 572.15464626208995 0 0 0 0 -28.535987449281492 -252.05684894188744 0 -252.05684894188744 826.87364625237205 0 0 0 0 -49.652285496566037 -134.67288025887683 0 -134.67288025887683 604.86688175088784 0 0 0 0 65.777704031601388 -200.36909697567171 0 -200.36909697567171 525.92780785094919 0 0 0 0 69.151852250863158 -248.15425552928173 0 -248.15425552928173 497.90143190452363 0 0 0 0 -13.709443397942664 -186.81009906667077 0 -186.81009906667077 426.9332676166523 0 0 0 0 -93.074239025209863 -126.18178699156124 0 -126.18178699156124 531.54348457483138 0 0 0 0 -5.5061329813979683 -139.88630987526994 0 -139.88630987526994 396.0719012550253 0 0 0 0 -83.948831372676068 -148.33960069531895 0 -148.33960069531895 468.77993186978711 0 0 0 0 -112.53059260372538 -115.8917835426837 0 -115.8917835426837 448.99239429122827 0 0 0 0 -99.554094205250294 -130.77645490239956 0 -130.77645490239956 399.40807463365854 0 0 0 0 -133.98456622600065 -107.84857632939384 0 -107.84857632939384 481.11781464709202 0 0 0 0 -130.31810462199883 -111.11560091861611 0 -111.11560091861611 482.28056788409594 0 0 0 0 -136.87563861741978 -111.60159578346429 0 -111.60159578346429 571.86276796659513 0 0 0 0 -124.13769181470252 -96.718342720625515 0 -96.718342720625515 562.31407794656843 0 0 0 0 0.062585482431745873 -39.490207569986524 0 -39.490207569986524 670.6037075715567 0 0 0 0 1.1547453050157184 1.4331459408048772 0 1.4331459408048772 2.2697784191647195 0 0 0 0 120.3484892294443 97.654917957583621 0 97.654917957583621 399.37573381377297 0 0 0 0 136.80405376376771 22.907437999507238 0 22.907437999507238 258.12106785400829 0 0 0 0 107.71169590322347 -69.197982875411071 0 -69.197982875411071 2274.3633298577042 0 0 0 0 -61.761348105144009 412.21067173456322 0 412.21067173456322 1738.5252919955483 0 0 0 0 -354.60240267302913 192.3297634741939 0 192.3297634741939 2497.5774196646962 0 0 0 0 -0.28831102394444702 200.61793304226126 0 200.61793304226126 2060.1670680418902 0 0 0 0 -252.12027356104485 1478.3214874844853 0 1478.3214874844853 3362.004978788369 0 0 0 0 -0.50521497630405554 -2.3167857408157317 0 -2.3167857408157317 6.8545294293270729 0 0 0 0 172.72411864598115 351.91039105401069 0 351.91039105401069 1241.7812876899698 0 0 0 0 276.95945678958202 860.71027998231875 0 860.71027998231875 2093.2961719682498 0 0 0 0 4.0676340462917757 -6.7652992349594427 0 -6.7652992349594427 10.46999100667847 0 0 0 0 73.757963383511168 544.61019065007895 0 544.61019065007895 1980.2319131117329 0 0 0 0 -207.29585500640451 -276.83606305853027 0 -276.83606305853027 1940.3958113621702 0 0 0 0 -83.482126005356349 666.85678769452352 0 666.85678769452352 2390.2317184874846 0 0 0 0 -385.58917619689782 921.8463093804894 0 921.8463093804894 2185.7739097350277 0 0 0 0 716.62003852181806 385.34856872409 0 385.34856872409 -347.6806052850734 0 0 0 0 208.52122727487495 851.25877006973315 0 851.25877006973315 696.73766959295608 0 0 0 0 335.14615880505244 960.2566216581472 0 960.2566216581472 616.19052561398712 0 0 0 0 -164.13802221288597 657.57606857083738 0 657.57606857083738 2053.4035157980506 0 0 0 0 -95.190130122205531 843.88116050079589 0 843.88116050079589 2158.9840791954484 0 0 0 0 146.90969488620365 601.1169179125136 0 601.1169179125136 1073.9811033771693 0 0 0 0 -132.84247512938521 -204.85169593661703 0 -204.85169593661703 1065.4480818573356 0 0 0 0 -159.88458677386484 212.18577486366848 0 212.18577486366848 881.74175123738178 0 0 0 0 2.5984650225795178 1.8032895932499144 0 1.8032895932499144 1.7481438480668849 0 0 0 0 159.24531007332564 -77.737378966314282 0 -77.737378966314282 287.48208848639479 0 0 0 0 1.3459580555679587 -0.65171521365537899 0 -0.65171521365537899 0.77216698001113571 0 0 0 0 -416.48652052377838 102.72336210879439 0 102.72336210879439 1026.5393664043295 0 0 0 0 -1.5300465791710043 0.0016557245276391797 0 0.0016557245276391797 63.675723282600046 0 0 0 0 -321.19936135456055 187.43860128562665 0 187.43860128562665 123.25441162160132 0 0 0 0 -154.85073692945798 46.80962845893373 0 46.80962845893373 44.477225382084725 0 0 0 0 -601.48159962434556 -661.28203123272033 0 -661.28203123272033 156.80204195820261 0 0 0 0 217.66190551408999 250.24278736982205 0 250.24278736982205 -244.27873568348878 0 0 0 0 236.71325418963011 106.57368330443205 0 106.57368330443205 -34.152580189427681 0 0 0 0 300.64769082697194 -287.89870369603887 0 -287.89870369603887 385.0975923251026 0 0 0 0 249.8037569122049 -228.82753758114995 0 -228.82753758114995 481.5144386107786 0 0 0 0 431.43773285314569 -861.32928129764719 0 -861.32928129764719 1148.4637680561718 0 0 0 0 0.59335615568697619 1.3707238084665487 0 1.3707238084665487 26.27003473919811 0 0 0 0 325.33016229762507 -789.59837919085112 0 -789.59837919085112 1333.129239441776 0 0 0 0 634.55491825846366 1240.8543515153178 0 1240.8543515153178 1144.2733341462008 0 0 0 0 501.05332422547389 -342.44731774831826 0 -342.44731774831826 -44.619952655790257 0 0 0 0 293.56472741032485 298.30314791599812 0 298.30314791599812 -604.72800711409946 0 0 0 0 304.49688163585751 1034.6188922429646 0 1034.6188922429646 2500.512119625655 0 0 0 0 -372.88191885200808 1085.0213448273435 0 1085.0213448273435 3559.2865450489189 0 0 0 0 223.1729093104309 1426.9626713412945 0 1426.9626713412945 2458.8583340809928 0 0 0 0 -392.02868121822485 -472.42980585769692 0 -472.42980585769692 3721.1519808545463 0 0 0 0 1978.1388066820709 732.50679519124787 0 732.50679519124787 174.66492509158707 0 0 0 0 5.9019376216836772 -2.5532577125360802 0 -2.5532577125360802 5.9752058193157183 0 0 0 0 1119.6619626669042 -571.79878623202239 0 -571.79878623202239 1995.5301009383475 0 0 0 0 1453.2809579585376 532.10052816091047 0 532.10052816091047 2491.7826833461659 0 0 0 0 130.36868169306717 -339.31047563294851 0 -339.31047563294851 2473.9453602924623 0 0 0 0 668.73817715315749 -577.26205449381996 0 -577.26205449381996 1240.6868583218602 0 0 0 0 156.24357430365603 -597.40672021466526 0 -597.40672021466526 2129.3167105035209 0 0 0 0 276.17668263200108 -692.94974094775898 0 -692.94974094775898 1495.9072681001344 0 0 0 0 226.36768621436693 -664.78359601487318 0 -664.78359601487318 2497.3702997371074 0 0 0 0 -23.076456028187447 -351.45262367152463 0 -351.45262367152463 2134.6140353277424 0 0 0 0 -280.46568461574469 -440.21671170342597 0 -440.21671170342597 2500.1014800529047 0 0 0 0 42.272716938928568 -522.24416068578284 0 -522.24416068578284 1557.1658340969589 0 0 0 0 -39.984769623164581 -503.95494454533764 0 -503.95494454533764 2178.662224838743 0 0 0 0 -22.328668307073187 -349.42133888490207 0 -349.42133888490207 1529.0757689970851 0 0 0 0 189.42976882835035 -482.95747231606219 0 -482.95747231606219 1090.0540199559255 0 0 0 0 174.77101955217205 -603.96670585300308 0 -603.96670585300308 1249.9287503697706 0 0 0 0 189.70526212261356 -475.41950606304295 0 -475.41950606304295 1324.5336088260447 0 0 0 0 187.84225049493489 -709.04463076463435 0 -709.04463076463435 1141.247108423333 0 0 0 0 452.04646218340741 -542.73445062493374 0 -542.73445062493374 679.61640390993853 0 0 0 0 -101.6895658531447 9.3723975650245848 0 9.3723975650245848 539.38123425412232 0 0 0 0 16.540848638745388 -391.32005769406169 0 -391.32005769406169 934.92631466996318 0 0 0 0 247.52306536203142 -428.87309623814144 0 -428.87309623814144 909.19647527657798 0 0 0 0 175.21037578116398 -442.06069815787851 0 -442.06069815787851 908.43113932697088 0 0 0 0 3.0630743382301384 -0.74432753884146052 0 -0.74432753884146052 -1.719805746915732 0 0 0 0 253.87364242746239 -532.91079337432166 0 -532.91079337432166 1003.3387021164381 0 0 0 0 223.48549294905405 -420.37235209022765 0 -420.37235209022765 867.0747343449766 0 0 0 0 51.558495122971408 -149.82135798281888 0 -149.82135798281888 -110.16139194354037 0 0 0 0 -43.553971711790837 -61.499095025286806 0 -61.499095025286806 112.33291751886645 0 0 0 0 -34.57788680026232 -164.21160246237741 0 -164.21160246237741 39.097820994909853 0 0 0 0 -48.247344136863205 -22.330532766882243 0 -22.330532766882243 84.260706116700021 0 0 0 0 -41.922784283201963 -3.4998397524395841 0 -3.4998397524395841 2.7969138717435271 0 0 0 0 -40.343666585455139 -47.593070785525924 0 -47.593070785525924 104.36389747362409 0 0 0 0 -55.700701401912852 -14.551249294872832 0 -14.551249294872832 96.134133452343121 0 0 0 0 -61.912954152714974 -54.30773043044519 0 -54.30773043044519 123.81548376104911 0 0 0 0 -55.483074140928352 -18.370040465906641 0 -18.370040465906641 162.91192592946027 0 0 0 0 -45.780824494565991 11.725403739600551 0 11.725403739600551 83.347735978037235 0 0 0 0 -21.238633437680512 -2.0872434960685951 0 -2.0872434960685951 -1.7014575029552006 0 0 0 0 -7.7337891714289526 -28.76330033161048 0 -28.76330033161048 109.61299948577653 0 0 0 0 -20.240860005887953 -25.193978014438471 0 -25.193978014438471 181.58160587537168 0 0 0 0 -34.11773622885903 -26.718856057062112 0 -26.718856057062112 94.969619273048011 0 0 0 0 -45.605947804969219 -5.7575113619986951 0 -5.7575113619986951 103.79194200287384 0 0 0 0 -31.741722022004524 -19.39028728906851 0 -19.39028728906851 112.43166763059162 0 0 0 0 -29.111981828789613 -6.0447928659059755 0 -6.0447928659059755 17.846571570146295 0 0 0 0 -27.585466021120737 -2.0195929422516201 0 -2.0195929422516201 116.72204920788499 0 0 0 0 -62.851546145920111 -16.130426192004961 0 -16.130426192004961 135.57127584954287 0 0 0 0 -3.714703784759565 7.3769910600013775 0 7.3769910600013775 86.603655375829504 0 0 0 0 -360.75320658204242 74.671079015966825 0 74.671079015966825 343.53202976984903 0 0 0 0 -409.22371663085164 33.324715032900713 0 33.324715032900713 453.56337704038015 0 0 0 0 -71.809060482013592 -26.628940891923776 0 -26.628940891923776 123.29581127766141 0 0 0 0 -83.991774621196399 -42.562978336781669 0 -42.562978336781669 97.322096175194019 0 0 0 0 -6.2193671500352634 -8.4292819890946138 0 -8.4292819890946138 85.70501656442994 0 0 0 0 -3.6975803202739925 0.84338944870806642 0 0.84338944870806642 28.731023590741003 0 0 0 0 -271.63521088683456 256.01827028137632 0 256.01827028137632 -492.71330890498939 0 0 0 0 -13.94190559660097 -13.159087202467163 0 -13.159087202467163 91.674868120549945 0 0 0 0 -1.8507428302846138 -7.0772713255066506 0 -7.0772713255066506 81.074571392722987 0 0 0 0 -44.935941190799973 -3.6065206818082061 0 -3.6065206818082061 86.980037345914752 0 0 0 0 -233.95117302369368 97.687568205918069 0 97.687568205918069 61.919913242192706 0 0 0 0 5.0046746919188081 -15.177636695087131 0 -15.177636695087131 72.53974977154212 0 0 0 0 -24.276978430550116 -17.04112455989889 0 -17.04112455989889 84.952068868275092 0 0 0 0 -23.865726127540256 -22.191686604754068 0 -22.191686604754068 85.694456610064663 0 0 0 0 -20.059802575402955 -30.010247958598484 0 -30.010247958598484 64.037072113846079 0 0 0 0 72.787300408894225 -7.0616577693726867 0 -7.0616577693726867 -103.00638227264062 0 0 0 0 3.8824601398395497 -0.88561357013718123 0 -0.88561357013718123 14.256179794048755 0 0 0 0 -6.8239336676898521 -0.038001605421143836 0 -0.038001605421143836 20.723261669658243 0 0 0 0 49.880715464765558 -297.00755115257925 0 -297.00755115257925 -441.80421769534587 0 0 0 0 -212.90855551163554 114.14550062282797 0 114.14550062282797 82.012958328215973 0 0 0 0 -744.21677056659291 -49.775291828165791 0 -49.775291828165791 294.31947668660723 0 0 0 0 158.1220975745594 -36.244790328219096 0 -36.244790328219096 -284.06869186268159 0 0 0 0 -200.24914308470761 -267.41001939963462 0 -267.41001939963462 1.1570923702092841 0 0 0 0 -356.85246017788006 -26.321304102331851 0 -26.321304102331851 89.143588866267237 0 0 0 0 -187.67396624514026 122.30245871363877 0 122.30245871363877 -100.94191898532154 0 0 0 0 -37.03415600332653 -68.413573107507546 0 -68.413573107507546 89.130024134625273 0 0 0 0 192.53185267028334 -110.33115743102098 0 -110.33115743102098 -106.793685695352 0 0 0 0 -335.11408775781734 257.75805411912006 0 257.75805411912006 600.5918980956194 0 0 0 0 -260.15907522313984 -253.4698007672614 0 -253.4698007672614 701.87382617671392 0 0 0 0 -213.58034146988877 96.985526676166046 0 96.985526676166046 289.44803698758551 0 0 0 0 -0.31771834714272762 -0.14009759170957636 0 -0.14009759170957636 0.51230290330778416 0 0 0 0 -11.157163333042604 -229.24689630284956 0 -229.24689630284956 154.20102974605834 0 0 0 0 -83.995795961434311 -106.78218444710728 0 -106.78218444710728 79.234394823986804 0 0 0 0 36.103958324340169 -151.78362638068575 0 -151.78362638068575 17.716311124473577 0 0 0 0 31.233328669237206 -49.468349402144668 0 -49.468349402144668 67.618761070592882 0 0 0 0 -0.51384374864053406 -0.32472402782259735 0 -0.32472402782259735 1.0197863104976079 0 0 0 0 11.167132049163264 -34.425573549833643 0 -34.425573549833643 82.243517549224634 0 0 0 0 7.7895621803281188 -33.72303450324398 0 -33.72303450324398 82.177395528975467 0 0 0 0 0.0064702826168065372 -24.636186426741915 0 -24.636186426741915 71.987984747953305 0 0 0 0 26.916049970934484 -32.823837393079884 0 -32.823837393079884 32.405782702910074 0 0 0 0 0.037111370556337696 -7.0456320093107934 0 -7.0456320093107934 17.267587415168236 0 0 0 0 162.45255709071967 -66.392496968786872 0 -66.392496968786872 -9.6687028047890635 0 0 0 0 32.049311694976552 -125.74905647827109 0 -125.74905647827109 48.626269152926398 0 0 0 0 63.252922975149431 -2.1284521759698691 0 -2.1284521759698691 278.98747641789669 0 0 0 0 -0.12012026625709943 -0.24739007115633171 0 -0.24739007115633171 0.5581594948293116 0 0 0 0 153.46570328147919 -98.333663119297853 0 -98.333663119297853 326.01302136620507 0 0 0 0 2.4891755506344171 -25.731379655153432 0 -25.731379655153432 74.656788042091648 0 0 0 0 2.4891755506331141 -25.731379655182536 0 -25.731379655182536 74.656788042073458 0 0 0 0 2.4891755506368156 -25.731379655189812 0 -25.731379655189812 74.6567880421062 0 0 0 0 -0.99007283675097035 -0.084560215987750098 0 -0.084560215987750098 0.20741704321854115 0 0 0 0 -3.5670219074105489 -3.1047642719495343 0 -3.1047642719495343 0.79156096632868866 0 0 0 0 -3.7788393214644458 -3.8882784363431711 0 -3.8882784363431711 -0.66783751855837181 0 0 0 0 -3.0575501770348126 -2.8708940366304887 0 -2.8708940366304887 -0.69772648796788417 0 0 0 0 -3.3136250632035171 -2.3398041266700602 0 -2.3398041266700602 0.69115703488023428 0 0 0 0 1.0130171564522312 -0.63698385603400709 0 -0.63698385603400709 0.27680317827950773 0 0 0 0 15.761182193082462 -55.956984207135974 0 -55.956984207135974 -27.454899002899765 0 0 0 0 -0.75573513334064446 -43.555932144823601 0 -43.555932144823601 -23.812868777356925 0 0 0 0 -10.463160225479353 -18.399955554015833 0 -18.399955554015833 76.657589952948911 0 0 0 0 0.0016230284753989924 -35.948884070078861 0 -35.948884070078861 89.351150774833513 0 0 0 0 49.485400194832032 -115.44678543177179 0 -115.44678543177179 171.78795094107772 0 0 0 0 -4.5956065189439101 3.6546762853322434 0 3.6546762853322434 -31.34785176143032 0 0 0 0 -28.792632806159169 -34.921964679326265 0 -34.921964679326265 84.879823672788916 0 0 0 0 0.35238746759669293 -0.34778171048225204 0 -0.34778171048225204 0.2495130283470246 0 0 0 0 -27.405132585017213 -16.203972215400427 0 -16.203972215400427 -7.9494743494433351 0 0 0 0 -3.438526458437309 -45.474901561734441 0 -45.474901561734441 45.445894867239986 0 0 0 0 -14.900448390095619 -2.8165997406977112 0 -2.8165997406977112 106.94701944876579 0 0 0 0 15.789879463667887 -8.7568099046911811 0 -8.7568099046911811 53.143128590032575 0 0 0 0 -74.06231100408894 87.513125647616107 0 87.513125647616107 96.078894355639932 0 0 0 0 0.10093016775838828 -1.2740251390612345 0 -1.2740251390612345 6.681373265697431 0 0 0 0 315.70848791122711 -207.67208302099971 0 -207.67208302099971 71.398172898392659 0 0 0 0 -6.4482326014771161 -57.013103706973197 0 -57.013103706973197 -50.144481398172502 0 0 0 0 -38.083323410445217 -38.180364143423844 0 -38.180364143423844 54.303136557049584 0 0 0 0 -0.16295092686938623 -2.0717894992703068 0 -2.0717894992703068 19.651361029019057 0 0 0 0 -108.32013551399513 -63.122257307080872 0 -63.122257307080872 113.03334104018722 0 0 0 0 -37.260947089714023 -7.4452423847797036 0 -7.4452423847797036 -1.7672033797716722 0 0 0 0 -19.324766558893998 -14.009312097296061 0 -14.009312097296061 -7.9976187508473231 0 0 0 0 -23.570603201736162 -3.8108400179844466 0 -3.8108400179844466 -1.2580248484227923 0 0 0 0 -25.618842570161689 2.1391389148266171 0 2.1391389148266171 2.6326698352495441 0 0 0 0 0.069997829230985839 -1.9165524783029517 0 -1.9165524783029517 31.740821329761843 0 0 0 0 -41.046401217474227 21.167284324495995 0 21.167284324495995 41.07537494763983 0 0 0 0 -17.086581352282906 -16.012909232573293 0 -16.012909232573293 13.117255960823968 0 0 0 0 -87.863645532167638 -4.0087243137727455 0 -4.0087243137727455 62.381120762089267 0 0 0 0 -36.286041721469559 -3.408683964444208 0 -3.408683964444208 39.76324979859055 0 0 0 0 -58.263472864643916 -32.791166290720867 0 -32.791166290720867 62.211630149231496 0 0 0 0 -21.031152242483415 41.700755271485832 0 41.700755271485832 40.780685537778481 0 0 0 0 -14.870146685692816 53.209466907239403 0 53.209466907239403 57.517786900600186 0 0 0 0 -46.448250631123301 14.934448351021274 0 14.934448351021274 47.105628055809575 0 0 0 0 -4.5291586949206248 29.500339327409165 0 29.500339327409165 43.37726385143651 0 0 0 0 -22.428286674313767 43.971558855642797 0 43.971558855642797 72.292728313128464 0 0 0 0 -50.887945090367339 32.806607476521094 0 32.806607476521094 63.017246743642318 0 0 0 0 -40.73887448789992 20.568789037561146 0 20.568789037561146 70.002094684961776 0 0 0 0 4.1352003538521105 -11.15277302349611 0 -11.15277302349611 19.784996365720872 0 0 0 0 -74.507003223080574 22.668900682248932 0 22.668900682248932 73.316503976660897 0 0 0 0 -0.088281972652500054 5.7562802303908809 0 5.7562802303908809 59.198826109078283 0 0 0 0 -32.968814432220142 26.389496766299999 0 26.389496766299999 12.318537372590072 0 0 0 0 -99.360555560063005 9.2041435390961084 0 9.2041435390961084 92.647117183667433 0 0 0 0 0.17038018323118365 6.1401185457001475 0 6.1401185457001475 74.274414038191338 0 0 0 0 -127.04580580275012 -92.205071225995198 0 -92.205071225995198 55.470243177827797 0 0 0 0 126.5575487800636 44.376393502381688 0 44.376393502381688 -143.32601853173401 0 0 0 0 -48.950076566027747 -26.738596451534249 0 -26.738596451534249 88.135131498107512 0 0 0 0 -46.072201530042548 17.531051788646437 0 17.531051788646437 76.675307272596001 0 0 0 0 -42.960449500730306 10.410606956711945 0 10.410606956711945 94.681959304805787 0 0 0 0 -42.388391414025136 9.3883671258699906 0 9.3883671258699906 59.261491899443172 0 0 0 0 -10.494521413771054 13.252176780850277 0 13.252176780850277 87.514716561428941 0 0 0 0 -40.353311496358742 -5.5001052856659953 0 -5.5001052856659953 122.81507257966587 0 0 0 0 -3.0968497711560303 -3.1148393659805151 0 -3.1148393659805151 126.77623456841684 0 0 0 0 15.305967329599298 35.857367736014567 0 35.857367736014567 101.67249730179174 0 0 0 0 -10.749259822840848 3.8857633150817037 0 3.8857633150817037 135.25153627688996 0 0 0 0 -2.1248647313523179 34.344119355668226 0 34.344119355668226 104.09145974484636 0 0 0 0 -24.744040015077189 36.778689207461866 0 36.778689207461866 82.966576880633511 0 0 0 0 -5.3530791150255936 25.118816066080399 0 25.118816066080399 77.900848071258224 0 0 0 0 -24.261580857705667 55.210752598930412 0 55.210752598930412 92.599814345301638 0 0 0 0 -21.015501837126976 49.06023512909087 0 49.06023512909087 54.849205723628984 0 0 0 0 0.63280289829299363 45.10288767705606 0 45.10288767705606 41.298757738099084 0 0 0 0 39.376039268376644 14.481970443979662 0 14.481970443979662 94.963404698712111 0 0 0 0 -0.45214418270484202 62.37834522430785 0 62.37834522430785 142.40380042207107 0 0 0 0 38.09063487367564 29.522112897637953 0 29.522112897637953 -45.972694279589632 0 0 0 0 30.857111194650315 90.254709931250545 0 90.254709931250545 47.906766362102644 0 0 0 0 0.58148572998463699 3.5426130643291742 0 3.5426130643291742 5.8468769966508489 0 0 0 0 -21.744761395872047 55.304556474877245 0 55.304556474877245 36.653404132681317 0 0 0 0 4.7824962263548514 13.591584778894685 0 13.591584778894685 35.886623186081124 0 0 0 0 13.808950130251242 24.199218264530117 0 24.199218264530117 -7.9066068184578455 0 0 0 0 48.52831788928512 -15.337620248363237 0 -15.337620248363237 -204.24579313519644 0 0 0 0 6.6022910638018857 -20.221989529542043 0 -20.221989529542043 -198.75420088091596 0 0 0 0 0.28041215143485676 -3.3319750698784105 0 -3.3319750698784105 -6.9174153263003504 0 0 0 0 8.2613471720683123 -58.380379450497685 0 -58.380379450497685 -78.703187884617364 0 0 0 0 -3.9107322641133351 -29.076054042800024 0 -29.076054042800024 -93.520693867714726 0 0 0 0 0.75804996346414555 -31.907124363773619 0 -31.907124363773619 -219.61381345397422 0 0 0 0 5.6047627649600145 -11.562714653235162 0 -11.562714653235162 -94.647863806771056 0 0 0 0 -22.060793003100002 -23.222252758914692 0 -23.222252758914692 -98.5496378865937 0 0 0 0 36.742227980313714 -44.207052864850994 0 -44.207052864850994 -122.10528285730106 0 0 0 0 26.098794488269913 47.475637280054116 0 47.475637280054116 -79.450996735940862 0 0 0 0 19.363570152102511 6.3015274550343747 0 6.3015274550343747 -30.117688365615322 0 0 0 0 85.29186682580945 -13.152797611950518 0 -13.152797611950518 -24.925597208246472 0 0 0 0 51.919455368099534 14.628567594116248 0 14.628567594116248 84.23354412172921 0 0 0 0 125.92588228798945 27.211152232550376 0 27.211152232550376 81.787025553196145 0 0 0 0 69.7228437897395 -15.030185870804416 0 -15.030185870804416 211.42965684420051 0 0 0 0 79.619580531281144 74.660274213863886 0 74.660274213863886 148.07831345257728 0 0 0 0 54.458209387901775 -42.69685897114141 0 -42.69685897114141 44.796246580968727 0 0 0 0 93.225875862691964 26.173717615252826 0 26.173717615252826 66.242548110283678 0 0 0 0 31.564787906817401 -30.949587715265807 0 -30.949587715265807 55.106304921207993 0 0 0 0 4.9428130608423544 -40.671933262721723 0 -40.671933262721723 50.01802256636438 0 0 0 0 0.080718880110453028 -37.275850916834315 0 -37.275850916834315 -13.12805317323182 0 0 0 0 53.42639853111109 -26.111285898346978 0 -26.111285898346978 -14.491384865876171 0 0 0 0 35.282597712942618 -44.502114205664839 0 -44.502114205664839 -64.771951644215733 0 0 0 0 19.728413683656754 -38.7474953492856 0 -38.7474953492856 -60.957544045842951 0 0 0 0 -1.7868658602392316 -61.315233374378295 0 -61.315233374378295 -23.264502020430882 0 0 0 0 -12.088875803271549 -44.655283958636574 0 -44.655283958636574 -49.244908709690208 0 0 0 0 -3.466093767384109 -66.151646397236618 0 -66.151646397236618 -18.644898632490367 0 0 0 0 -51.291114617420362 -52.729401367456376 0 -52.729401367456376 -7.2614917586906813 0 0 0 0 12.541307727641197 -29.905232483346481 0 -29.905232483346481 -15.508979352269307 0 0 0 0 -23.431066799056225 25.893092745973263 0 25.893092745973263 -15.107811017774111 0 0 0 0 -62.770147098458438 -78.414397679785907 0 -78.414397679785907 4.5731330226262799 0 0 0 0 -38.401139734676235 -13.215678860695334 0 -13.215678860695334 83.327803566571674 0 0 0 0 4.6797787904733923 -23.530511676544847 0 -23.530511676544847 34.666632318811025 0 0 0 0 0.50624697607656977 1.3248009652624821 0 1.3248009652624821 6.7606966485713826 0 0 0 0 6.3587314223973408 5.9183918096750858 0 5.9183918096750858 11.616967160487548 0 0 0 0 18.374517464726978 -7.2343431455919927 0 -7.2343431455919927 14.034662641613977 0 0 0 0 -113.76384472666655 -50.359874145895446 0 -50.359874145895446 17.952758769526554 0 0 0 0 -4.264434246899782 -6.8309200496150879 0 -6.8309200496150879 21.489056779711973 0 0 0 0 -1.0534826276290321 0.17168961716608067 0 0.17168961716608067 2.3548837801687625 0 0 0 0 -58.368252225541823 -22.170689378665884 0 -22.170689378665884 -24.608783758987556 0 0 0 0 3.1536879966497509 12.323950351550593 0 12.323950351550593 11.070696667127777 0 0 0 0 0.19542326523863895 4.81525193377081 0 4.81525193377081 7.1016173503667233 0 0 0 0 5.9346700811065602 8.907825099042384 0 8.907825099042384 10.765697342956628 0 0 0 0 0.032637913931571561 0.60274331434702333 0 0.60274331434702333 5.5982315162336249 0 0 0 0 3.7907465974649313 10.955351187105407 0 10.955351187105407 8.8161744630051544 0 0 0 0 -3.6403295541613261 19.778475551400334 0 19.778475551400334 52.473918968767975 0 0 0 0 1.125343850216268 9.951267013035249 0 9.951267013035249 43.079524922461133 0 0 0 0 4.6359148473529785 18.027827824007545 0 18.027827824007545 32.405725755408639 0 0 0 0 -8.3747841086726371 8.951063508188696 0 8.951063508188696 25.317582147206313 0 0 0 0 -23.366296268293468 0.68222338163832319 0 0.68222338163832319 42.523310654694797 0 0 0 0 7.1461210107493258 15.83160428968786 0 15.83160428968786 9.9336182073967194 0 0 0 0 1.5096426362397324 13.678613491472788 0 13.678613491472788 50.052116561911589 0 0 0 0 4.2151297280450706 9.8584809539096341 0 9.8584809539096341 13.473442740985774 0 0 0 0 2.0057364932182242 7.8168755227273437 0 7.8168755227273437 5.1148346505848394 0 0 0 0 1.8363281412204238 14.400333454457922 0 14.400333454457922 23.935308578671538 0 0 0 0 2.7964969430192586 6.1341519193790219 0 6.1341519193790219 4.6238924053866413 0 0 0 0 -21.446230055664728 -19.048398215149064 0 -19.048398215149064 -24.791810693345724 0 0 0 0 1.7891047460505956 15.639478470038387 0 15.639478470038387 22.699393100666668 0 0 0 0 2.1095406045588367 8.4402111469583456 0 8.4402111469583456 9.3167543831654029 0 0 0 0 11.379983013173387 -38.581812893069582 0 -38.581812893069582 -91.414928678408614 0 0 0 0 -21.204003762138271 -20.5492157182548 0 -20.5492157182548 -66.982295401365263 0 0 0 0 5.1621303475769666 9.662304577489806 0 9.662304577489806 -0.52865493080993531 0 0 0 0 2.2655291260853119 8.7129962056642398 0 8.7129962056642398 9.203254605170514 0 0 0 0 8.1945040106816283 14.034319615477557 0 14.034319615477557 -9.9261524567668502 0 0 0 0 2.3654489265882148 14.80030512889789 0 14.80030512889789 24.209702167165233 0 0 0 0 3.7268775974931874 14.391202286997512 0 14.391202286997512 24.893119470269056 0 0 0 0 19.190712032955865 26.057398796880094 0 26.057398796880094 45.301706327401916 0 0 0 0 19.229737850119818 61.672940809836291 0 61.672940809836291 55.573458561084408 0 0 0 0 0.085247026239410398 8.6209893437116705 0 8.6209893437116705 44.492128049369455 0 0 0 0 -17.2778804042321 24.812316999284576 0 24.812316999284576 58.382645665333257 0 0 0 0 4.6452364977200462 21.132745059161948 0 21.132745059161948 28.932176586211426 0 0 0 0 -6.8663812061604403 34.306551024885266 0 34.306551024885266 50.655067075662373 0 0 0 0 -0.96658760138359412 -1.2205843979281781 0 -1.2205843979281781 29.718463771583629 0 0 0 0 -52.178967602933142 21.887638596970646 0 21.887638596970646 53.012373815348838 0 0 0 0 -31.558596707876347 -4.6152338207466528 0 -4.6152338207466528 80.681967644748511 0 0 0 0 -2.8657247446278662 -1.2870026138282298 0 -1.2870026138282298 43.157913003551329 0 0 0 0 -32.555428289521046 27.984880768744915 0 27.984880768744915 0.098414500785111159 0 0 0 0 -0.36092628273487004 -0.04361015897707432 0 -0.04361015897707432 0.10052200422404667 0 0 0 0 -2.7755448882463725 -29.561491001913964 0 -29.561491001913964 93.126432387260138 0 0 0 0 -0.56562427060420184 -4.3164279751792378 0 -4.3164279751792378 28.555136454262538 0 0 0 0 0.60802107151964191 -4.6725566611335694 0 -4.6725566611335694 1.2849114248171816 0 0 0 0 -1.7762890748481885 3.902958634865314 0 3.902958634865314 6.8260277088818953 0 0 0 0 -0.48606155424693398 -1.2512566091902499 0 -1.2512566091902499 26.064044711616589 0 0 0 0 -1.8261402653647565 14.030096062851953 0 14.030096062851953 39.893674666061997 0 0 0 0 -0.68603911514243188 6.3225613437732999 0 6.3225613437732999 19.781436642908972 0 0 0 0 -1.2931213351532733 4.7748319727543276 0 4.7748319727543276 20.152740486373659 0 0 0 0 -4.066255876338789 -3.5111430852754495 0 -3.5111430852754495 11.185272389729192 0 0 0 0 -0.17603524973674212 24.019249013668741 0 24.019249013668741 42.124734369281214 0 0 0 0 -1.1101986199473686 10.982487406028667 0 10.982487406028667 10.937543365362217 0 0 0 0 0.23564727919474482 6.196387232986325 0 6.196387232986325 11.017894542409508 0 0 0 0 3.3064228918092908 10.819188896505693 0 10.819188896505693 10.054202399565838 0 0 0 0 5.4627408665435571 10.624775044541366 0 10.624775044541366 17.964473480576999 0 0 0 0 -1.4886606357272054 6.4035984043577781 0 6.4035984043577781 14.922161357353218 0 0 0 0 -4.2349969602450983 5.5473930054358789 0 5.5473930054358789 10.78692474104173 0 0 0 0 -4.9000295315424864 -9.5968267077396376 0 -9.5968267077396376 29.409105402970454 0 0 0 0 1.8596696632947394 5.3639807132042563 0 5.3639807132042563 13.282838846277514 0 0 0 0 -1.4396040272020727 2.400449371828671 0 2.400449371828671 18.264390181042387 0 0 0 0 -0.92592474899110433 0.48604270697583907 0 0.48604270697583907 26.22550331149813 0 0 0 0 -39.496256560275469 11.256557703847648 0 11.256557703847648 47.203352584368986 0 0 0 0 -2.8876504328292576 5.6097180396665323 0 5.6097180396665323 -0.041254150551651492 0 0 0 0 -22.241446965972386 8.0779953398123325 0 8.0779953398123325 18.637466054024117 0 0 0 0 -25.29427752797136 17.019419043252128 0 17.019419043252128 33.771734434478276 0 0 0 0 -8.6614793855035526 13.183062077622253 0 13.183062077622253 8.2296009763376787 0 0 0 0 -9.4599274792153381 8.3340037286761799 0 8.3340037286761799 22.239624484835076 0 0 0 0 -24.075109338415274 27.979620424699533 0 27.979620424699533 19.257508397451602 0 0 0 0 -0.038089819853981188 59.464529851094994 0 59.464529851094994 30.800040764697769 0 0 0 0 -26.753534937991123 35.619254891164928 0 35.619254891164928 9.7629497691377765 0 0 0 0 -14.271951525637775 35.475074758025585 0 35.475074758025585 9.2724543033036753 0 0 0 0 -0.18732115755501544 -0.10683925420840978 0 -0.10683925420840978 1.0387495973083496 0 0 0 0 2.9496181857349058 27.939122391937417 0 27.939122391937417 -44.206519066916371 0 0 0 0 -0.0062514750582785897 38.713753151056153 0 38.713753151056153 -19.863782260748849 0 0 0 0 -14.115403975446768 19.390838467203139 0 19.390838467203139 -17.105010359286098 0 0 0 0 -14.011318323664895 17.576656251545501 0 17.576656251545501 4.9126496176468208 0 0 0 0 11.381580298606803 -24.858013219311772 0 -24.858013219311772 73.601078514584515 0 0 0 0 11.503562068819107 -29.715377729524334 0 -29.715377729524334 67.330321172412368 0 0 0 0 0.0073337620276383419 -1.6336076982188388 0 -1.6336076982188388 7.3596193776447763 0 0 0 0 -0.11022493592702345 -0.36606607478604758 0 -0.36606607478604758 0.80206698117852682 0 0 0 0 38.59006203299441 -32.496951643115608 0 -32.496951643115608 285.35242201302299 0 0 0 0 -4.8794933105659766 -64.246727415651549 0 -64.246727415651549 255.46264413731478 0 0 0 0 81.567959439516926 101.86810119749498 0 101.86810119749498 327.49994066524869 0 0 0 0 11.928665400618456 87.890229421940603 0 87.890229421940603 413.17280165856937 0 0 0 0 -98.257370706136953 16.819742436287925 0 16.819742436287925 455.26619906683209 0 0 0 0 199.03972401923147 -255.51715719800632 0 -255.51715719800632 563.60463905880897 0 0 0 0 193.14091825096284 -63.248807905125432 0 -63.248807905125432 311.40893631515428 0 0 0 0 166.19526416655799 -85.945158487935259 0 -85.945158487935259 430.86332335932184 0 0 0 0 50.858474854985843 -0.039561032865094603 0 -0.039561032865094603 367.83460316434139 0 0 0 0 108.89148232505238 -92.558473390486142 0 -92.558473390486142 327.69183840729966 0 0 0 0 159.63624371418655 3.7422335910268885 0 3.7422335910268885 455.61407170949678 0 0 0 0 324.47324201253883 7.3105558520413751 0 7.3105558520413751 342.38799101836776 0 0 0 0 95.745556156424982 64.915673434190467 0 64.915673434190467 4.9703623837267514 0 0 0 0 73.212125892930999 -118.92815812204935 0 -118.92815812204935 481.81748702498317 0 0 0 0 0.18017996663562563 0.368421891906209 0 0.368421891906209 0.84655852753056138 0 0 0 0 106.13469323566039 -160.98425302310261 0 -160.98425302310261 292.59324420799385 0 0 0 0 115.50929949188048 -159.44526816322468 0 -159.44526816322468 289.42721412211358 0 0 0 0 122.07381703274586 -172.00200283953745 0 -172.00200283953745 287.80943902360741 0 0 0 0 112.75898615188635 -138.25598242535489 0 -138.25598242535489 261.33458114087443 0 0 0 0 141.47744026716464 -158.91049892548108 0 -158.91049892548108 263.60304073034786 0 0 0 0 97.298180101351136 -138.02918368012615 0 -138.02918368012615 271.10558744033915 0 0 0 0 78.642277205785831 -108.06740482412715 0 -108.06740482412715 347.86476812042747 0 0 0 0 61.523707050271014 -66.976983959957579 0 -66.976983959957579 249.40066980372649 0 0 0 0 -44.603265292608398 -24.74338254528061 0 -24.74338254528061 227.12050196369819 0 0 0 0 -41.714277360728829 3.7761946979117056 0 3.7761946979117056 285.18651089724153 0 0 0 0 78.363469005132174 -61.390419844290591 0 -61.390419844290591 191.90748871339019 0 0 0 0 31.107643044163979 -91.368604542371031 0 -91.368604542371031 227.86882842047271 0 0 0 0 113.88098992942832 -172.21299311377516 0 -172.21299311377516 190.6350847928843 0 0 0 0 75.428425733430913 -76.613864158182878 0 -76.613864158182878 209.61682711525646 0 0 0 0 24.275292500884092 11.941720780495075 0 11.941720780495075 -0.98149938724964159 0 0 0 0 -283.8617918521486 64.843870178356156 0 64.843870178356156 226.50215386990021 0 0 0 0 0.18668909537336731 -212.77370065725518 0 -212.77370065725518 48.063584158982849 0 0 0 0 -225.91589727282258 -42.017588440727195 0 -42.017588440727195 252.84958073153393 0 0 0 0 -57.264750877238384 -118.95087298627914 0 -118.95087298627914 285.85664954799176 0 0 0 0 -4.4996693247424986 -0.054426139344371904 0 -0.054426139344371904 0.25596068600156485 0 0 0 0 -135.1380689991538 -40.605628489225637 0 -40.605628489225637 248.21170474716382 0 0 0 0 -127.20044875028543 19.464076540934911 0 19.464076540934911 235.5429955663185 0 0 0 0 -19.444547868688005 -14.055542633152072 0 -14.055542633152072 239.65464254277413 0 0 0 0 -8.6306429927819863 14.262286497100376 0 14.262286497100376 165.38700279000477 0 0 0 0 -64.435586296769088 50.064286813392755 0 50.064286813392755 169.45722207554354 0 0 0 0 -45.40265554331927 32.358284252146404 0 32.358284252146404 164.4383690623863 0 0 0 0 3.8113015691494638 54.694691813186182 0 54.694691813186182 93.158008671678544 0 0 0 0 71.403677640701062 61.726176098400174 0 61.726176098400174 93.768542018776316 0 0 0 0 -164.50980998325122 77.758034619924729 0 77.758034619924729 161.79412514013165 0 0 0 0 -93.034445482065166 82.333964849261974 0 82.333964849261974 142.0406637174965 0 0 0 0 -105.61041423164352 123.2304039261362 0 123.2304039261362 102.28733226969234 0 0 0 0 -193.78909164542893 142.31890587961607 0 142.31890587961607 107.63957967137685 0 0 0 0 -147.62581699600014 70.662732204349595 0 70.662732204349595 45.3770582490979 0 0 0 0 -25.576254166451236 145.29709963765708 0 145.29709963765708 93.047834484168561 0 0 0 0 -244.31945869593301 12.16512532751949 0 12.16512532751949 286.47900480458702 0 0 0 0 -150.02707174902753 -33.750896327863302 0 -33.750896327863302 281.88548197587079 0 0 0 0 -253.34098213695779 48.205351770448033 0 48.205351770448033 273.76199216606165 0 0 0 0 -241.96760160158146 18.81963649937461 0 18.81963649937461 230.10957305329066 0 0 0 0 -166.72016567770635 34.134802405223354 0 34.134802405223354 219.0482929933205 0 0 0 0 -248.79048448015601 94.185502958127472 0 94.185502958127472 190.94252043680171 0 0 0 0 -206.66912279036546 43.594981495267348 0 43.594981495267348 157.20331608264678 0 0 0 0 -234.66567664509239 62.249187933812209 0 62.249187933812209 154.95903653624555 0 0 0 0 -280.14402428025915 153.97693602526124 0 153.97693602526124 61.449324584209535 0 0 0 0 -197.47183546145698 164.41192144078195 0 164.41192144078195 -130.6649366794154 0 0 0 0 -223.27982107523167 55.379655591226765 0 55.379655591226765 -89.379400090067065 0 0 0 0 -265.3858082053984 67.060907477372439 0 67.060907477372439 173.86943001839245 0 0 0 0 -322.20683661477415 297.50100622900572 0 297.50100622900572 -38.891904293082916 0 0 0 0 -328.27099025006095 81.704906195767251 0 81.704906195767251 396.10609276882315 0 0 0 0 -417.10012842742401 5.8871640539182408 0 5.8871640539182408 -491.52639912108134 0 0 0 0 -156.62967690534151 556.94883740981459 0 556.94883740981459 -318.8283249913311 0 0 0 0 -169.01350687440663 144.35898835644912 0 144.35898835644912 -239.40408003126504 0 0 0 0 -6.1837869116757265 1.8552421185326295 0 1.8552421185326295 4.8825692859836352 0 0 0 0 -299.84578824926575 117.68625327158952 0 117.68625327158952 -238.66890789924219 0 0 0 0 -310.17003696666143 114.33918469474884 0 114.33918469474884 -108.48992276998251 0 0 0 0 -443.4406722595395 281.5910366436292 0 281.5910366436292 -184.37815502349986 0 0 0 0 4.4184326057838614 10.497686292849266 0 10.497686292849266 -6.2150742029221533 0 0 0 0 6.9693863641969074 15.637327203221503 0 15.637327203221503 -17.671542460331693 0 0 0 0 17.057072190167652 10.121270011377128 0 10.121270011377128 -26.85562699993298 0 0 0 0 -4.4797919648696798 21.716081083380445 0 21.716081083380445 28.621616788010918 0 0 0 0 -69.675524849714748 19.725338882610231 0 19.725338882610231 78.364900418917387 0 0 0 0 10.06885133150131 23.773717855419047 0 23.773717855419047 34.246637919945073 0 0 0 0 -36.671133877068314 45.693035700654946 0 45.693035700654946 12.034796222464138 0 0 0 0 -56.990074353019494 152.79426652969869 0 152.79426652969869 -82.855346532975091 0 0 0 0 100.40805883424673 95.846178955382129 0 95.846178955382129 7.6370569406826689 0 0 0 0 13.424171565881345 23.903986841030033 0 23.903986841030033 -11.132221916354673 0 0 0 0 6.6801491760786575 12.459882378079783 0 12.459882378079783 -40.093733326197253 0 0 0 0 0.82914952411010745 8.5952632947592065 0 8.5952632947592065 1.1722080847393954 0 0 0 0 6.3816160787496301 62.426703173892747 0 62.426703173892747 -59.492012768849236 0 0 0 0 21.529840657991372 -7.8905400940420805 0 -7.8905400940420805 -28.035850976510119 0 0 0 0 1.6541561490744723 1.3920471556746747 0 1.3920471556746747 -2.7956386625362484 0 0 0 0 12.584960668214858 25.834027866724028 0 25.834027866724028 -5.563897365290174 0 0 0 0 2.8212881796495131 3.2374018675376171 0 3.2374018675376171 -4.0544331733111392 0 0 0 0 20.716686312849333 78.029106136014889 0 78.029106136014889 -83.879264217321179 0 0 0 0 -5.6258430608638434 68.387973251374206 0 68.387973251374206 -60.354416120040696 0 0 0 0 63.582507880076491 12.645295510177675 0 12.645295510177675 -158.42814091419859 0 0 0 0 38.705698882407717 67.348858752597152 0 67.348858752597152 -79.439648246458091 0 0 0 0 120.23226157331464 9.5269681398567627 0 9.5269681398567627 -64.231195721335098 0 0 0 0 63.339730018288236 53.983003803701649 0 53.983003803701649 43.108293858778779 0 0 0 0 42.525588757712988 100.56565369068994 0 100.56565369068994 -6.3910236622323282 0 0 0 0 92.927026869855695 58.5811118545098 0 58.5811118545098 -80.802249616839617 0 0 0 0 67.106202717275295 92.929546497460251 0 92.929546497460251 176.16722336105158 0 0 0 0 30.480634665792792 7.9157576393263298 0 7.9157576393263298 67.115857540356956 0 0 0 0 163.37252244764585 9.8766944122471614 0 9.8766944122471614 48.851710432885739 0 0 0 0 81.238535712001521 19.223693485131662 0 19.223693485131662 306.28774468310439 0 0 0 0 85.270251786178505 144.02401894809736 0 144.02401894809736 59.278265730630665 0 0 0 0 22.34829619608945 -16.214721120855756 0 -16.214721120855756 9.4348462108537205 0 0 0 0 41.386326939511591 30.704428663830186 0 30.704428663830186 -36.504625764748198 0 0 0 0 60.429888282865946 110.72645709474637 0 110.72645709474637 -127.70410553309193 0 0 0 0 -198.05187225177721 267.853483702429 0 267.853483702429 63.273768502491293 0 0 0 0 8.3190010120366757 14.938110204970855 0 14.938110204970855 27.640064503770532 0 0 0 0 79.668165616600163 173.19464609069109 0 173.19464609069109 -44.301325478656508 0 0 0 0 92.209638356852906 132.1953392689411 0 132.1953392689411 29.669976439327002 0 0 0 0 66.702500782874608 7.954022001424164 0 7.954022001424164 -240.81814693567321 0 0 0 0 -16.708827808362877 331.17597729450245 0 331.17597729450245 -402.72832823525096 0 0 0 0 -366.0332371405521 495.29050560164296 0 495.29050560164296 -79.112258999688493 0 0 0 0 -299.52506806825738 96.220633067052404 0 96.220633067052404 97.562508285918739 0 0 0 0 39.777023467255049 161.58980945037183 0 161.58980945037183 11.971360242634546 0 0 0 0 -59.96009599932313 449.51143985275121 0 449.51143985275121 -124.76170416054083 0 0 0 0 -34.610804434238162 310.75981551827135 0 310.75981551827135 221.23633289190911 0 0 0 0 0.53516876342315634 0.23546953069003962 0 0.23546953069003962 -0.92815389655592639 0 0 0 0 -9.1896121959862285 11.232065256728674 0 11.232065256728674 395.45991835916357 0 0 0 0 219.94333893732892 601.07659913117823 0 601.07659913117823 -768.34236295557639 0 0 0 0 -444.83406727765509 274.23888580788844 0 274.23888580788844 -41.942633824670338 0 0 0 0 2.8640270906593837 4.1562793230988575 0 4.1562793230988575 3.3019873419465284 0 0 0 0 330.78385723946576 98.907657592964824 0 98.907657592964824 -554.12505095242523 0 0 0 0 -610.09246412271182 66.06803461166237 0 66.06803461166237 276.89395102356502 0 0 0 0 -241.0893959140858 292.38531851795778 0 292.38531851795778 415.59549253324747 0 0 0 0 279.77885158143363 641.58093481728429 0 641.58093481728429 -20.101261311083363 0 0 0 0 458.17972801535507 287.86406672750445 0 287.86406672750445 646.76161149253676 0 0 0 0 18.53371876186543 -68.211316925160645 0 -68.211316925160645 358.37216618643288 0 0 0 0 45.742130131905128 -83.024633172417452 0 -83.024633172417452 -27.151920075208182 0 0 0 0 -177.77384782868774 72.447455763962353 0 72.447455763962353 276.10819716261176 0 0 0 0 -90.807532720582458 200.52582418544262 0 200.52582418544262 -308.84303964197898 0 0 0 0 248.14985466702092 314.13452687615427 0 314.13452687615427 227.21238175094368 0 0 0 0 131.47428476380355 103.75029500398523 0 103.75029500398523 -59.905118369439151 0 0 0 0 514.2678680462983 476.42679046572448 0 476.42679046572448 57.107222696734198 0 0 0 0 5.7007261271962593 9.4723114696690018 0 9.4723114696690018 8.884638395886725 0 0 0 0 -454.54859376624017 147.23523375958393 0 147.23523375958393 121.28413888762225 0 0 0 0 -546.97491927637475 555.28363529398121 0 555.28363529398121 2.5926483256826032 0 0 0 0 4.0476362687095797 5.8801787994515138 0 5.8801787994515138 4.6490929176306679 0 0 0 0 737.92047532855145 690.1752057880658 0 690.1752057880658 -23.091641216060452 0 0 0 0 320.38806805426327 87.407864025386516 0 87.407864025386516 -297.3966351193958 0 0 0 0 120.24881621068494 431.24473417225818 0 431.24473417225818 1061.2531261482218 0 0 0 0 436.37820594291765 906.80461768274836 0 906.80461768274836 822.90334169864946 0 0 0 0 -590.49922605576285 540.86769789908612 0 540.86769789908612 962.15416345834819 0 0 0 0 -49.004202709103936 681.3521508376125 0 681.3521508376125 974.25676949636545 0 0 0 0 531.45340264405991 352.85726492963659 0 352.85726492963659 539.63803841562913 0 0 0 0 174.57291143228849 369.29128494260658 0 369.29128494260658 585.3861529796377 0 0 0 0 40.046004676334874 66.501420309399691 0 66.501420309399691 439.44348964349592 0 0 0 0 143.89759030324609 106.34638535979957 0 106.34638535979957 248.81183739476546 0 0 0 0 37.313678657314085 -166.51211277164111 0 -166.51211277164111 151.48586972403427 0 0 0 0 191.85454015125936 46.47733795255408 0 46.47733795255408 87.991029449549387 0 0 0 0 43.557332157948622 -71.654864083473512 0 -71.654864083473512 83.84482167283204 0 0 0 0 95.477048699318402 22.356053390241868 0 22.356053390241868 125.39760271141859 0 0 0 0 -147.12906270695134 129.77663954631862 0 129.77663954631862 641.48590017243805 0 0 0 0 -47.858172994664869 -48.816081177221349 0 -48.816081177221349 438.7102498517088 0 0 0 0 213.33736194979338 -116.3412084322481 0 -116.3412084322481 993.49297939491589 0 0 0 0 71.159646935026501 230.75699385990538 0 230.75699385990538 532.32477504022245 0 0 0 0 578.64047916334653 426.9033374668843 0 426.9033374668843 554.52174974056834 0 0 0 0 11.282370871497278 0.082234513956791488 0 0.082234513956791488 70.008986397413537 0 0 0 0 797.93704502765604 625.15525796451948 0 625.15525796451948 426.61474111697316 0 0 0 0 -299.42494688450154 480.58297199122171 0 480.58297199122171 1351.9136657042509 0 0 0 0 3.5624728158783059 6.0723573691093122 0 6.0723573691093122 10.587594028224572 0 0 0 0 -21.0047661198181 397.96283348779616 0 397.96283348779616 1224.2359189018916 0 0 0 0 -281.7318825463451 -190.04918268476285 0 -190.04918268476285 943.73399819299811 0 0 0 0 146.07342310413907 69.540088172590913 0 69.540088172590913 47.55112231531848 0 0 0 0 37.619679979639486 -29.302344067056765 0 -29.302344067056765 582.37463049228245 0 0 0 0 -79.221605565225161 96.009490863460087 0 96.009490863460087 919.48408909140562 0 0 0 0 68.834675574703994 42.375843267102027 0 42.375843267102027 577.78448374099389 0 0 0 0 130.44601604949185 12.157923556173046 0 12.157923556173046 306.93526620081684 0 0 0 0 203.5227483684057 -13.521011380420532 0 -13.521011380420532 209.37748597252903 0 0 0 0 199.97181007359063 143.1860133491391 0 143.1860133491391 606.48459150537474 0 0 0 0 211.53259075100829 -94.862730763732543 0 -94.862730763732543 663.2108658443758 0 0 0 0 31.04104608098605 98.621050691876007 0 98.621050691876007 969.50950127820397 0 0 0 0 448.94362762080442 254.64224943238605 0 254.64224943238605 947.57905385296908 0 0 0 0 237.16060528497638 -235.90350290417518 0 -235.90350290417518 1386.0121517205771 0 0 0 0 171.51456372357728 654.61489945323046 0 654.61489945323046 1733.9966996300027 0 0 0 0 201.75797473524369 508.31278732694045 0 508.31278732694045 1110.1723637851137 0 0 0 0 111.01635243429223 393.2042100800245 0 393.2042100800245 967.574960460086 0 0 0 0 605.88975122205898 -118.63670214691956 0 -118.63670214691956 938.71273383269067 0 0 0 0 223.09419943278476 -350.47525119351485 0 -350.47525119351485 1474.619698103983 0 0 0 0 9.1206589213779452 -1.5382195910168264 0 -1.5382195910168264 1.0398343696242733 0 0 0 0 305.15855718260912 338.24265891906543 0 338.24265891906543 317.00311695032724 0 0 0 0 604.86645411980328 412.17629055179532 0 412.17629055179532 331.54467949463287 0 0 0 0 259.62356126485884 161.65151307548513 0 161.65151307548513 501.07829822658096 0 0 0 0 854.42694411113405 -207.8910225569316 0 -207.8910225569316 593.05968775149086 0 0 0 0 154.86114688843372 -145.5074857102918 0 -145.5074857102918 762.87221430767386 0 0 0 0 103.49045330431909 -11.652301183916279 0 -11.652301183916279 880.92851852707827 0 0 0 0 -71.788105199769575 -301.22957909614342 0 -301.22957909614342 1322.2718465077705 0 0 0 0 -0.68698847784282246 -1.9026898583950214 0 -1.9026898583950214 7.304724334373617 0 0 0 0 -82.437716055075782 -608.11040735634379 0 -608.11040735634379 -9.8985299357227632 0 0 0 0 134.14343889800384 215.56609605437552 0 215.56609605437552 522.01457256176218 0 0 0 0 19.985615215601115 419.20631242597665 0 419.20631242597665 363.3138963796755 0 0 0 0 -210.16966258676615 97.127936542459793 0 97.127936542459793 301.92508026411815 0 0 0 0 -1.7427569904794051 -4.1535487094999155 0 -4.1535487094999155 14.210668409099583 0 0 0 0 44.114397638456921 309.52527714977305 0 309.52527714977305 368.52438114967663 0 0 0 0 92.773878992944219 286.8342310490043 0 286.8342310490043 365.52047543946537 0 0 0 0 261.84134644610276 337.68153548373812 0 337.68153548373812 323.59089937661338 0 0 0 0 106.6942887614548 337.76893347541409 0 337.76893347541409 335.57846011221409 0 0 0 0 48.867346255281461 288.01860613111057 0 288.01860613111057 312.08440582465846 0 0 0 0 76.067526917342192 236.42230472270239 0 236.42230472270239 225.89094751090306 0 0 0 0 25.453143381914799 220.72018971891521 0 220.72018971891521 299.08968927762544 0 0 0 0 23.478763870106093 244.85262109807809 0 244.85262109807809 369.46732135470734 0 0 0 0 379.69850964068337 39.783488745371869 0 39.783488745371869 365.9162102992268 0 0 0 0 88.449929210934897 71.57014436184545 0 71.57014436184545 374.12573509007598 0 0 0 0 328.50547491131817 146.84358941530081 0 146.84358941530081 344.09935337716888 0 0 0 0 133.55076056756207 223.75568008166738 0 223.75568008166738 328.80202600017401 0 0 0 0 205.19168621713288 123.93720011277583 0 123.93720011277583 207.59320107774693 0 0 0 0 158.11894472506992 208.97555781428855 0 208.97555781428855 233.7736085383076 0 0 0 0 25.102574578134863 174.26689679409174 0 174.26689679409174 242.03456002780149 0 0 0 0 17.316067529868633 104.35984584240941 0 104.35984584240941 210.19550932879793 0 0 0 0 99.930538727654948 118.43143782650804 0 118.43143782650804 110.6732955538755 0 0 0 0 73.016281562657241 84.54932342443135 0 84.54932342443135 63.202580733923241 0 0 0 0 151.69516403897023 49.862776164954994 0 49.862776164954994 175.84740003840125 0 0 0 0 -35.529309843581359 -6.5949919375707395 0 -6.5949919375707395 175.92480011298514 0 0 0 0 27.664002698076729 -26.956770127711934 0 -26.956770127711934 -12.333624873106601 0 0 0 0 -70.96905258267725 -26.018397312032903 0 -26.018397312032903 -82.331379885756178 0 0 0 0 -97.596159714513306 -57.719636880527105 0 -57.719636880527105 171.3700735829625 0 0 0 0 9.0762280208364245 8.623584059147106 0 8.623584059147106 178.13046661154476 0 0 0 0 -27.081685509834642 4.5291265830965131 0 4.5291265830965131 382.82731355479518 0 0 0 0 -1.8578560309874774 -46.642946303520148 0 -46.642946303520148 370.50346712028841 0 0 0 0 -112.88958639309794 -155.58786149464686 0 -155.58786149464686 331.33551054802956 0 0 0 0 -54.298668555388758 -61.155827005244646 0 -61.155827005244646 799.15863912295026 0 0 0 0 95.354508598647953 17.15324306639377 0 17.15324306639377 390.08679710035722 0 0 0 0 -152.14425553601677 -129.32383685074819 0 -129.32383685074819 816.55030813279154 0 0 0 0 -57.622817033186948 -150.99739924051391 0 -150.99739924051391 560.94354511555139 0 0 0 0 -23.910255849435998 4.3429247113090241 0 4.3429247113090241 367.38432580727567 0 0 0 0 8.6086044268995465 -6.0938886696385453 0 -6.0938886696385453 367.39522190239774 0 0 0 0 22.53193600634313 20.619992553340126 0 20.619992553340126 345.64078594572493 0 0 0 0 31.614760407610447 31.799757432629121 0 31.799757432629121 208.97544872792787 0 0 0 0 0.96592605292186362 0.73355631048888004 0 0.73355631048888004 -1.0594080567314847 0 0 0 0 0.19502524193238813 -0.17736293334156272 0 -0.17736293334156272 0.57171774527557773 0 0 0 0 5.479850037462711 -8.8717262629834295 0 -8.8717262629834295 104.59279344056267 0 0 0 0 -225.50807274937051 -30.21789796527446 0 -30.21789796527446 195.72410242035403 0 0 0 0 46.033187081595315 11.966959535238857 0 11.966959535238857 -178.88587793655461 0 0 0 0 -13.064539451770543 -16.291761661268538 0 -16.291761661268538 -5.7963000062154606 0 0 0 0 -2.0291460912564503 -6.9837799879256437 0 -6.9837799879256437 9.5765624607121822 0 0 0 0 41.044302788804998 -4.0489653268505208 0 -4.0489653268505208 21.673059747961815 0 0 0 0 8.5416396484250363 -12.584010165534025 0 -12.584010165534025 7.4037295875943983 0 0 0 0 38.084418668768194 -13.369763347494882 0 -13.369763347494882 36.54553802551527 0 0 0 0 41.99231926709399 28.298467245418578 0 28.298467245418578 63.207783129619202 0 0 0 0 36.793584017155808 -25.855444399217959 0 -25.855444399217959 5.544165077724756 0 0 0 0 114.60203132595416 -6.1665318185114302 0 -6.1665318185114302 -91.14367807720555 0 0 0 0 171.71823798164405 59.986964957424789 0 59.986964957424789 27.194413479104696 0 0 0 0 9.0345878655150216 -10.252959039588958 0 -10.252959039588958 9.7186027113328635 0 0 0 0 100.76536666022002 31.73581782290421 0 31.73581782290421 -3.2469685224077693 0 0 0 0 117.86116567654176 -102.44100523977977 0 -102.44100523977977 -28.81210549575917 0 0 0 0 -81.741286295171449 -69.837569724251807 0 -69.837569724251807 1.3063261176794185 0 0 0 0 91.226756375610421 -79.143041104238364 0 -79.143041104238364 -21.077987612763536 0 0 0 0 305.80629351214884 -133.18093299774046 0 -133.18093299774046 -24.147658748537651 0 0 0 0 -101.41094099085603 -148.24589513728279 0 -148.24589513728279 -2.8037826214263077 0 0 0 0 -260.12196254965966 -25.872679830834386 0 -25.872679830834386 -8.3237611843355808 0 0 0 0 -102.07322896908954 -206.60554201004561 0 -206.60554201004561 109.47540716276853 0 0 0 0 2.2880765082297003 -3.1624652264432314 0 -3.1624652264432314 4.6534565898963507 0 0 0 0 -1.000970540782002 2.4863406686849352 0 2.4863406686849352 -0.73292863231765182 0 0 0 0 25.728709925417206 263.90709084674018 0 263.90709084674018 1040.7481042443251 0 0 0 0 -4.007471807373804 433.57591802443494 0 433.57591802443494 84.259430010177311 0 0 0 0 46.238085302094987 156.89030946260391 0 156.89030946260391 -84.787476826168131 0 0 0 0 495.31066742084658 385.26366766594583 0 385.26366766594583 -1766.8297675052308 0 0 0 0 -0.82089824353134411 -3.4844371708737398 0 -3.4844371708737398 28.161915632061124 0 0 0 0 -659.36636135119625 -167.9084701580141 0 -167.9084701580141 76.540380917431321 0 0 0 0 -0.84000439392912085 207.15001451903663 0 207.15001451903663 1085.3911480061288 0 0 0 0 -0.111282291727548 195.0764166412846 0 195.0764166412846 1157.310385831428 0 0 0 0 -60.267498599052487 532.56161501069437 0 532.56161501069437 2542.167195037182 0 0 0 0 1281.1825212249269 -572.39592221164276 0 -572.39592221164276 345.83856326900423 0 0 0 0 30.193046001149924 -30.875958011965849 0 -30.875958011965849 373.78963648810168 0 0 0 0 28.539705390692689 -223.45145486720139 0 -223.45145486720139 88.704569434223231 0 0 0 0 58.276244343804137 305.72914771751675 0 305.72914771751675 887.25395420409041 0 0 0 0 70.407486046529812 279.98427755199373 0 279.98427755199373 737.77471853315365 0 0 0 0 -132.85569998528808 27.16975913602073 0 27.16975913602073 1185.5211451724608 0 0 0 0 -31.19941079000273 158.60614773293491 0 158.60614773293491 852.058315821414 0 0 0 0 -18.025835718122835 206.64090738592495 0 206.64090738592495 993.05810460034991 0 0 0 0 -5.2599264699747437 130.04594828739937 0 130.04594828739937 945.65526205732021 0 0 0 0 -144.5540450403023 -70.449030258074345 0 -70.449030258074345 855.02471007252461 0 0 0 0 -22.247943652218964 167.23987673802185 0 167.23987673802185 781.18774058672716 0 0 0 0 -120.87684242352407 -278.0321455637586 0 -278.0321455637586 1014.2049516011102 0 0 0 0 9.0304145188965776 -220.28803729287392 0 -220.28803729287392 929.46384088955529 0 0 0 0 -147.425616232229 -79.426197836117353 0 -79.426197836117353 879.47223406878766 0 0 0 0 -141.34010381947519 85.987293802718341 0 85.987293802718341 1330.0782648208697 0 0 0 0 -399.77296229509557 -210.87212077593722 0 -210.87212077593722 1223.9803632979892 0 0 0 0 -37.510930349686532 497.04730717364873 0 497.04730717364873 1435.7458088499698 0 0 0 0 0.35676257544578371 -0.362705012878898 0 -0.362705012878898 11.521310303134584 0 0 0 0 957.37773312420904 -1044.8318538570893 0 -1044.8318538570893 897.01817997395119 0 0 0 0 -337.01515715273672 58.31808647554135 0 58.31808647554135 2116.130364770419 0 0 0 0 -436.30411472543346 -807.01581799308042 0 -807.01581799308042 1710.7917933174831 0 0 0 0 50.29225597396271 -123.15937423031028 0 -123.15937423031028 -15.853187826782232 0 0 0 0 -58.537579851902592 -534.62311590109675 0 -534.62311590109675 708.13643181425141 0 0 0 0 113.67075527882758 27.097411152195491 0 27.097411152195491 -164.58125363328872 0 0 0 0 38.033911498101531 -7.2988848240521662 0 -7.2988848240521662 -1.2311574114977244 0 0 0 0 -91.334233764546298 -149.30046181054422 0 -149.30046181054422 1237.7838926113782 0 0 0 0 277.39774559407738 123.42526923841979 0 123.42526923841979 -135.2917085199515 0 0 0 0 25.165739738601008 -4.5512482430043235 0 -4.5512482430043235 0.34134396550102508 0 0 0 0 107.56297775569109 -131.4565117158993 0 -131.4565117158993 814.78382022591541 0 0 0 0 -8.7083637030509635 -42.179123514633829 0 -42.179123514633829 846.83984505302215 0 0 0 0 -153.57704282072257 145.76609814940457 0 145.76609814940457 893.80270880503303 0 0 0 0 -196.27421002872535 218.46111003214719 0 218.46111003214719 966.43079700539238 0 0 0 0 -134.48408463050677 154.37311471373823 0 154.37311471373823 567.98792002972186 0 0 0 0 -173.44350356897613 -86.701620161013125 0 -86.701620161013125 462.56118113396224 0 0 0 0 -0.38975052817186295 209.96891825342755 0 209.96891825342755 751.41564993494831 0 0 0 0 0.11124405610635822 113.3928685279912 0 113.3928685279912 206.45672562278924 0 0 0 0 -79.189223776914702 17.080579325644067 0 17.080579325644067 102.1553566784678 0 0 0 0 -0.72640686567298696 0.8358183574315774 0 0.8358183574315774 -2.0062195580106845 0 0 0 0 -79.986270929034205 -33.978143498745112 0 -33.978143498745112 0.0047972269385354593 0 0 0 0 111.71358128222369 -194.85646875159 0 -194.85646875159 251.49851415493322 0 0 0 0 152.86669869211909 -47.445715614821893 0 -47.445715614821893 21.994932944580796 0 0 0 0 41.242580972460019 -61.334472052767524 0 -61.334472052767524 196.21112282050308 0 0 0 0 56.51316237860695 95.327590728501491 0 95.327590728501491 -20.270041989380843 0 0 0 0 -72.344024009541712 -35.463711944473062 0 -35.463711944473062 -1.7350360458367504 0 0 0 0 -51.727481281311839 68.565745673928177 0 68.565745673928177 -14.835906571315718 0 0 0 0 73.260210935275609 -323.59216032740733 0 -323.59216032740733 596.94724814262008 0 0 0 0 0.39489366777685508 0.33458928059627757 0 0.33458928059627757 10.413103908844505 0 0 0 0 286.21814034502916 311.21321215255534 0 311.21321215255534 618.43124901663396 0 0 0 0 -174.73470702005807 -49.642794907194912 0 -49.642794907194912 893.57858377087541 0 0 0 0 -173.73698620677987 84.518950079553179 0 84.518950079553179 1413.4207605886404 0 0 0 0 -90.567906893710756 267.27188318183107 0 267.27188318183107 1048.1513140855168 0 0 0 0 -112.30714194635573 301.76056912023341 0 301.76056912023341 996.28916973426931 0 0 0 0 163.77623788909568 493.35638027590176 0 493.35638027590176 1248.6996112128109 0 0 0 0 659.35958689363542 -20.550923660441185 0 -20.550923660441185 1099.768782391955 0 0 0 0 93.98914115173784 213.09679836123541 0 213.09679836123541 1007.2932933733027 0 0 0 0 252.55214052163592 110.45734265024657 0 110.45734265024657 765.58921126107452 0 0 0 0 -81.637117766907068 100.50769996356394 0 100.50769996356394 915.51509985815937 0 0 0 0 -81.350992919014971 90.07041685425429 0 90.07041685425429 1169.5739827702309 0 0 0 0 -112.89752791622595 303.94334342279035 0 303.94334342279035 1305.0404235011083 0 0 0 0 -105.80771637197995 232.11843477351067 0 232.11843477351067 867.76924850857176 0 0 0 0 118.98398938162427 139.3936937038161 0 139.3936937038161 1087.5332748124856 0 0 0 0 20.429017000521071 499.59628867429274 0 499.59628867429274 1401.2973599286561 0 0 0 0 121.2143464631904 304.76818711177475 0 304.76818711177475 1600.0326318486623 0 0 0 0 -106.75522323627774 116.37879224314383 0 116.37879224314383 623.63463700095599 0 0 0 0 0.11556230170481036 1.7628813008816007 0 1.7628813008816007 3.3598511773885491 0 0 0 0 319.06947475413313 566.37425086256383 0 566.37425086256383 646.18739072652534 0 0 0 0 224.42992930499554 24.244407334299467 0 24.244407334299467 -228.98798204479681 0 0 0 0 -0.12407335102967929 1.5100692175617656 0 1.5100692175617656 6.8358383192440328 0 0 0 0 32.352448270029527 -90.281550899599097 0 -90.281550899599097 -228.61723276770238 0 0 0 0 -237.3252259567497 -29.093637560465709 0 -29.093637560465709 132.15612589918601 0 0 0 0 84.301378881713674 -2.3175565630185133 0 -2.3175565630185133 -86.674606526445132 0 0 0 0 8.8114468435787785 -35.293142985236045 0 -35.293142985236045 99.272072588573792 0 0 0 0 34.577672173136989 -51.236158160318155 0 -51.236158160318155 -41.794814792156103 0 0 0 0 125.15763619543975 196.25254855250023 0 196.25254855250023 211.83601439066115 0 0 0 0 40.219392221117687 174.70497982525558 0 174.70497982525558 333.99728641863476 0 0 0 0 195.32248895132716 277.92264263172547 0 277.92264263172547 108.2873634598327 0 0 0 0 59.29341158668575 430.76145265316882 0 430.76145265316882 859.31632585670741 0 0 0 0 38.315315434621198 231.13586213360395 0 231.13586213360395 536.75303687684209 0 0 0 0 -52.052513033664695 103.63101342129448 0 103.63101342129448 775.67554555447714 0 0 0 0 47.32983338884253 28.560033496525648 0 28.560033496525648 271.01241077357554 0 0 0 0 73.888945321123757 89.473189181735506 0 89.473189181735506 281.55013506060641 0 0 0 0 44.647516647283283 -12.789123868267779 0 -12.789123868267779 605.24747026378827 0 0 0 0 -46.995616244140081 134.59515664908758 0 134.59515664908758 713.56229070767222 0 0 0 0 12.201181536650616 -37.302050488448458 0 -37.302050488448458 1003.7608540011861 0 0 0 0 -137.59415902005094 234.83468903542052 0 234.83468903542052 1074.3058652798209 0 0 0 0 -185.67630519911137 198.92116036258813 0 198.92116036258813 961.18591337794351 0 0 0 0 -187.23412355601067 145.39886083981401 0 145.39886083981401 1091.8072816707136 0 0 0 0 -185.47133575556899 206.00928741973621 0 206.00928741973621 1206.2543413663334 0 0 0 0 100.66170344339226 357.60036353507166 0 357.60036353507166 698.17502488815808 0 0 0 0 -71.389332327382249 81.999769379759528 0 81.999769379759528 542.35177213881434 0 0 0 0 -82.013508437303926 161.53131468579159 0 161.53131468579159 789.9183245968743 0 0 0 0 -102.3140312172244 128.39589084741237 0 128.39589084741237 796.45756899641856 0 0 0 0 -12.679465551133092 171.35923795967756 0 171.35923795967756 305.22831604949897 0 0 0 0 133.1145028488927 344.47083679085699 0 344.47083679085699 417.85294938342122 0 0 0 0 119.83236819580202 226.72103975847858 0 226.72103975847858 408.87694041340956 0 0 0 0 -123.27649422728851 90.900086324406857 0 90.900086324406857 309.84091796052235 0 0 0 0 -158.51163248865885 -176.00598846180219 0 -176.00598846180219 82.651630089947503 0 0 0 0 -1.4358056616447827 -3.4535617758563291 0 -3.4535617758563291 11.928394377673925 0 0 0 0 79.825867449528459 8.8834294984553708 0 8.8834294984553708 -50.207765614126401 0 0 0 0 -0.39616808392604597 -1.2558227275060574 0 -1.2558227275060574 4.948166868345794 0 0 0 0 -134.1577855768378 -323.664334310095 0 -323.664334310095 -6.6837870510616995 0 0 0 0 146.94308404929143 -16.840449157469266 0 -16.840449157469266 153.53284006905596 0 0 0 0 79.295626275566747 -11.848538433903741 0 -11.848538433903741 153.35184101964023 0 0 0 0 75.946954449115793 6.1722954574643154 0 6.1722954574643154 283.03472065320238 0 0 0 0 135.33098432330939 54.03717946146935 0 54.03717946146935 248.60746087888037 0 0 0 0 94.395496037014254 66.753129123373583 0 66.753129123373583 539.83857633898151 0 0 0 0 54.336192090733221 62.20954401166091 0 62.20954401166091 301.47657910569615 0 0 0 0 31.309517900342712 117.41614894847953 0 117.41614894847953 599.51234327287239 0 0 0 0 176.41027441669962 78.783906948876393 0 78.783906948876393 520.90640416265524 0 0 0 0 40.715804201392075 25.11209055451036 0 25.11209055451036 754.59046126053727 0 0 0 0 65.324645644621341 164.35038114310009 0 164.35038114310009 766.88762427337497 0 0 0 0 240.88726403133205 118.45114289704725 0 118.45114289704725 777.63400572871615 0 0 0 0 63.31305479961469 338.43328208906132 0 338.43328208906132 988.19715957953304 0 0 0 0 -134.17606726832628 176.07554772580261 0 176.07554772580261 863.02514738036552 0 0 0 0 -26.475707003092566 3.0115616205948754 0 3.0115616205948754 601.8745009665472 0 0 0 0 112.26667516745033 157.37383447307366 0 157.37383447307366 632.829885691237 0 0 0 0 136.78877941556505 -7.80339924240252 0 -7.80339924240252 268.18549332366092 0 0 0 0 116.04332558646695 8.6599080453706847 0 8.6599080453706847 262.86091928139649 0 0 0 0 76.318586415756727 -86.334425871908024 0 -86.334425871908024 120.48968655260433 0 0 0 0 56.343661330071143 17.963991411004827 0 17.963991411004827 294.70133645004535 0 0 0 0 -69.013522093828485 187.2291253387848 0 187.2291253387848 196.78737852413906 0 0 0 0 -197.74658058725606 85.30990320415367 0 85.30990320415367 296.10310739182751 0 0 0 0 0.61571770843503915 3.583885695328533 0 3.583885695328533 7.4696522069243088 0 0 0 0 -21.138650988813453 -57.897521144601342 0 -57.897521144601342 74.880644299380947 0 0 0 0 -0.35410237185005788 112.80307804078984 0 112.80307804078984 -100.39960565176443 0 0 0 0 -134.25580602589321 -134.27401946063037 0 -134.27401946063037 1485.8380231521151 0 0 0 0 0.053327426905625197 1.466159673939444 0 1.466159673939444 4.4539762760453812 0 0 0 0 -134.73619163027888 -115.44233949881163 0 -115.44233949881163 747.95817694981088 0 0 0 0 -119.27487396087307 243.05196639530459 0 243.05196639530459 1090.4014143587556 0 0 0 0 -102.83612332318251 294.18683433463593 0 294.18683433463593 999.63393992842248 0 0 0 0 0.4155751252974636 311.86961650723231 0 311.86961650723231 1022.9108599522151 0 0 0 0 -99.929121537192373 203.6511432338375 0 203.6511432338375 906.33834709791518 0 0 0 0 -9.6155662595115494 4.3170466449519154 0 4.3170466449519154 -2.3282691693621018 0 0 0 0 -3.7596291013472509 10.893273433779541 0 10.893273433779541 -4.6075358120688179 0 0 0 0 0.83463304655857229 -9.9783466207809397 0 -9.9783466207809397 7.5807391426933464 0 0 0 0 -7.3617048970533858 18.970451243918433 0 18.970451243918433 6.204460407840088 0 0 0 0 1.166999803308816 32.610690741196322 0 32.610690741196322 161.64502116999938 0 0 0 0 4.3310695150532297 6.6943867053741997 0 6.6943867053741997 -9.8621549356903415 0 0 0 0 -11.707187076672071 -117.95644654669468 0 -117.95644654669468 250.56385134876473 0 0 0 0 0.3562466545776376 3.1363194508228247 0 3.1363194508228247 6.3360748100319313 0 0 0 0 -0.01267496662426355 7.4005777035308711 0 7.4005777035308711 -4.5870432657247875 0 0 0 0 -4.1839145461802687 3.0587602589275775 0 3.0587602589275775 -0.075022737524705008 0 0 0 0 -7.4650523013549082 10.333677513095608 0 10.333677513095608 -2.4284124377008993 0 0 0 0 0.46368539689881549 1.0864410196525824 0 1.0864410196525824 0.5720680602107393 0 0 0 0 -0.34179892251521793 -0.48471171031609117 0 -0.48471171031609117 1.69345175223566 0 0 0 0 -0.020018214700651446 2.7059111005364684 0 2.7059111005364684 7.4778993362851907 0 0 0 0 257.54595608488688 -491.13645293495756 0 -491.13645293495756 770.8336476469558 0 0 0 0 -0.27007452789469416 0.29892532003176342 0 0.29892532003176342 4.0921514379991208 0 0 0 0 -149.34313764875134 -161.09843623140478 0 -161.09843623140478 1090.8304570665059 0 0 0 0 0.98433233334237435 127.08763002703851 0 127.08763002703851 422.04207845237397 0 0 0 0 -135.86293803052405 -61.667844418346249 0 -61.667844418346249 746.87085397867486 0 0 0 0 -13.815017198274631 -234.64447172319342 0 -234.64447172319342 333.40883423064952 0 0 0 0 140.51811628593219 -239.87802870393352 0 -239.87802870393352 239.7648434801813 0 0 0 0 -64.021222204660717 -130.19158107214753 0 -130.19158107214753 776.18136821514781 0 0 0 0 -41.70186097575538 -116.49493168860863 0 -116.49493168860863 433.83223496031133 0 0 0 0 11.233083064882067 67.170677764683205 0 67.170677764683205 906.8670499924765 0 0 0 0 -4.7454775529544833 -312.74681489706745 0 -312.74681489706745 869.21723105965066 0 0 0 0 0.2149614877660011 1.6145190319855089 0 1.6145190319855089 4.1286111286968605 0 0 0 0 15.298232989423695 239.94179578817784 0 239.94179578817784 -2.1740107097957662 0 0 0 0 58.329909473834505 62.583402394277073 0 62.583402394277073 599.44720560587302 0 0 0 0 201.64816579939964 -57.950419248616527 0 -57.950419248616527 355.64083305941313 0 0 0 0 88.537680780526898 -45.523593172190886 0 -45.523593172190886 669.48411353798292 0 0 0 0 118.988255521523 -21.738280008448783 0 -21.738280008448783 343.69977435142209 0 0 0 0 186.73411741828431 -50.036461228999542 0 -50.036461228999542 155.3708214059734 0 0 0 0 -36.700121593887616 -47.882334452311625 0 -47.882334452311625 449.44191662306912 0 0 0 0 110.03665723093286 -78.691821390108089 0 -78.691821390108089 -28.67739451630041 0 0 0 0 106.06997708797803 21.637020764450426 0 21.637020764450426 219.07199032411154 0 0 0 0 133.47274462528731 -84.233140241834917 0 -84.233140241834917 150.50223534318502 0 0 0 0 61.601582313916651 64.108844987269549 0 64.108844987269549 -45.856759482510824 0 0 0 0 1.9004400214210477 29.780798978972598 0 29.780798978972598 -5.1601455236668698 0 0 0 0 20.490602864237644 14.15182264973555 0 14.15182264973555 105.54706395830362 0 0 0 0 2.6397338025814432 5.0969980115917508 0 5.0969980115917508 7.1170041958749835 0 0 0 0 -15.043711236290619 -58.75007844933134 0 -58.75007844933134 -32.248701283941045 0 0 0 0 0.53087010243362842 2.2435746424716427 0 2.2435746424716427 0.75117602033057551 0 0 0 0 287.2945235491452 -52.187307459120348 0 -52.187307459120348 -47.418260049220407 0 0 0 0 48.110125977754251 -36.186110949071008 0 -36.186110949071008 38.849777618423104 0 0 0 0 296.13262846659927 8.0638000223916606 0 8.0638000223916606 41.307863691636157 0 0 0 0 216.55067827084622 -25.722236593654088 0 -25.722236593654088 151.63636738334026 0 0 0 0 259.56390953174196 -19.364945285822614 0 -19.364945285822614 31.2710406673541 0 0 0 0 130.2262271704783 -126.98385829610197 0 -126.98385829610197 33.935157403320773 0 0 0 0 247.52510592954286 -11.420301630023459 0 -11.420301630023459 155.90391684526548 0 0 0 0 251.44165069210806 41.656219271149894 0 41.656219271149894 76.745330495657981 0 0 0 0 292.89970088942823 30.790593268233351 0 30.790593268233351 4.1562578434095485 0 0 0 0 264.07741248970785 10.313715218053403 0 10.313715218053403 65.556219569723908 0 0 0 0 211.19032695408566 90.538832663103676 0 90.538832663103676 148.21065886798897 0 0 0 0 208.81544641634275 12.046286353859614 0 12.046286353859614 305.91158442062442 0 0 0 0 234.81381320881519 35.145292620480177 0 35.145292620480177 165.24738770732529 0 0 0 0 178.9054330965879 -16.229099346675866 0 -16.229099346675866 418.15740908999578 0 0 0 0 69.902885930057209 34.997369652646739 0 34.997369652646739 407.14760062913047 0 0 0 0 154.18865622799922 182.59552593589979 0 182.59552593589979 629.95525577785884 0 0 0 0 -44.809883116775381 -68.524069331524515 0 -68.524069331524515 687.34774229333561 0 0 0 0 342.93592608105337 79.484624206421358 0 79.484624206421358 319.97958422826196 0 0 0 0 162.27034156426328 -36.779350274206081 0 -36.779350274206081 608.67304458912986 0 0 0 0 348.1431245538422 520.39878514114753 0 520.39878514114753 745.53297534961894 0 0 0 0 77.963235896521724 -11.540189706568526 0 -11.540189706568526 209.36733155563707 0 0 0 0 130.05575748688244 134.26318392273606 0 134.26318392273606 303.6436428283705 0 0 0 0 196.12169883335639 -58.826101503364043 0 -58.826101503364043 158.32635493740599 0 0 0 0 23.342983218978588 32.0140905288863 0 32.0140905288863 112.67073246686778 0 0 0 0 186.20442333304493 -31.573004032969038 0 -31.573004032969038 -27.943495801162499 0 0 0 0 -0.25583609275184926 -41.755343487380742 0 -41.755343487380742 1.6810360889867297 0 0 0 0 61.561549872179569 -88.637753888218867 0 -88.637753888218867 -40.398747796978569 0 0 0 0 38.778885840793436 -48.5956436513261 0 -48.5956436513261 -110.22061797609786 0 0 0 0 -18.627137339562893 -10.867865951357089 0 -10.867865951357089 -49.154512512584915 0 0 0 0 3.6235200389932332 -9.1806383082857508 0 -9.1806383082857508 15.725143851806479 0 0 0 0 -222.36684101313386 -159.38075878131531 0 -159.38075878131531 -83.99769575879327 0 0 0 0 -75.962044534910547 -155.46295431432009 0 -155.46295431432009 159.4523422736238 0 0 0 0 -80.891673458492733 120.28192265307734 0 120.28192265307734 616.76844291254019 0 0 0 0 64.004505259711777 168.50396158848162 0 168.50396158848162 242.39602854337136 0 0 0 0 -48.610602204253496 -376.80621581926243 0 -376.80621581926243 -9.3424287449743133 0 0 0 0 58.445176772163336 -158.98380074775923 0 -158.98380074775923 -202.71220306247415 0 0 0 0 1.1507042609629416 -3.3770078722361632 0 -3.3770078722361632 7.063099526596659 0 0 0 0 76.59682852141475 42.391229125270911 0 42.391229125270911 -135.23026275946177 0 0 0 0 109.96008533067564 -28.306679591281863 0 -28.306679591281863 -4.7261134479776956 0 0 0 0 284.36195148240051 -5.3349706259541563 0 -5.3349706259541563 -83.066271695832256 0 0 0 0 323.65266181572065 -32.093481692634668 0 -32.093481692634668 -10.324462852084253 0 0 0 0 81.117399139526597 -47.266038027753893 0 -47.266038027753893 228.15103164807078 0 0 0 0 311.32565656999225 -74.909216094058138 0 -74.909216094058138 104.78140148517559 0 0 0 0 262.17941227159457 -43.549048125845729 0 -43.549048125845729 263.16425629406149 0 0 0 0 285.48587243364534 -36.698826661914609 0 -36.698826661914609 -28.95241500937118 0 0 0 0 221.13943004090288 13.879879952004558 0 13.879879952004558 38.340729814139195 0 0 0 0 299.90198904777532 -38.395326275975094 0 -38.395326275975094 -31.704877638720063 0 0 0 0 135.40461815923322 38.380194055622269 0 38.380194055622269 -20.86677262957528 0 0 0 0 148.12251358084805 48.004695371430898 0 48.004695371430898 59.954781074709899 0 0 0 0 262.70616368275751 2.4017120043099567 0 2.4017120043099567 -33.590743491920875 0 0 0 0 375.81837839589048 41.754532525243121 0 41.754532525243121 5.5305064964341 0 0 0 0 264.27125212981844 34.123171125157796 0 34.123171125157796 66.903032660251483 0 0 0 0 10.444990270463904 19.425097014649509 0 19.425097014649509 55.619968938597594 0 0 0 0 0.61338282663330901 0.25323392521259791 0 0.25323392521259791 2.003727415616197 0 0 0 0 327.08475121081489 -82.481831613289614 0 -82.481831613289614 39.347863478775253 0 0 0 0 0.26227123971447242 -0.13306214080157019 0 -0.13306214080157019 10.131145748859637 0 0 0 0 -41.064985234432896 -8.1138155821754481 0 -8.1138155821754481 34.939887997265032 0 0 0 0 -6.9073152070697432 4.3606975234433776 0 4.3606975234433776 -9.9959100652813504 0 0 0 0 -34.824704325799985 6.7688249211187212 0 6.7688249211187212 47.143068755205604 0 0 0 0 277.2294500839804 32.842185000310565 0 32.842185000310565 -29.773728141859465 0 0 0 0 223.04411263861257 -38.585237841896742 0 -38.585237841896742 -0.84468869768898003 0 0 0 0 115.06169493608583 104.76561299148307 0 104.76561299148307 84.505524916450668 0 0 0 0 9.9490016371012473 2.1366772714791296 0 2.1366772714791296 21.515638070286514 0 0 0 0 -0.25244831059838291 -1.104418545149418 0 -1.104418545149418 10.797180701296242 0 0 0 0 -56.142102797822446 -0.6587654902941722 0 -0.6587654902941722 9.8658957565494347 0 0 0 0 -15.269738017790118 29.208559765505925 0 29.208559765505925 15.626866563805379 0 0 0 0 -83.997662512714456 6.6140544794088783 0 6.6140544794088783 23.937733563892834 0 0 0 0 -0.27060396944542281 -0.72350364817422275 0 -0.72350364817422275 9.9117102818146918 0 0 0 0 -0.085655413847047737 23.591718847169137 0 23.591718847169137 5.2991462924110238 0 0 0 0 -8.0680960578865033 25.373205035786668 0 25.373205035786668 7.0578514972949051 0 0 0 0 -7.8570730060468819 29.282381967086621 0 29.282381967086621 28.458243804125232 0 0 0 0 9.9091166039686485 9.3877326931324205 0 9.3877326931324205 1.9545695165070356 0 0 0 0 0.092415346071567844 0.15186405270628711 0 0.15186405270628711 0.38133362594942355 0 0 0 0 39.887035634596003 -3.54292634272133 0 -3.54292634272133 -3.5607326861209003 0 0 0 0 -16.18505382374223 11.043206707698118 0 11.043206707698118 23.249128020252101 0 0 0 0 40.709574986778236 21.921270019978692 0 21.921270019978692 -0.72971035769296577 0 0 0 0 11.404498313317674 37.230229636079457 0 37.230229636079457 36.205215436668368 0 0 0 0 0.0066366039822941753 17.209754711547848 0 17.209754711547848 14.815173110095202 0 0 0 0 -7.4747332867991645 -50.330265435619367 0 -50.330265435619367 42.161179070939397 0 0 0 0 -25.457621554063934 -6.4931477214963564 0 -6.4931477214963564 2.1591529346356992 0 0 0 0 -25.33639688284984 5.6476019028705196 0 5.6476019028705196 32.94385127905116 0 0 0 0 17.614387916130909 -27.592268538883218 0 -27.592268538883218 7.7265330423251726 0 0 0 0 -6.8337898491213309 -12.925354559578409 0 -12.925354559578409 14.528908028150909 0 0 0 0 4.907974846975776 -9.6939689821738284 0 -9.6939689821738284 -12.813091522322793 0 0 0 0 -4.776751620989657 -8.0218069563632497 0 -8.0218069563632497 2.8204119337599707 0 0 0 0 5.019092298304713 -24.410935921754572 0 -24.410935921754572 42.830740510573378 0 0 0 0 -3.8840258982043139 -0.38429170155494852 0 -0.38429170155494852 2.8510005422439235 0 0 0 0 0.27115468755619077 4.247713404118258 0 4.247713404118258 56.95645957798115 0 0 0 0 -8.7360567220039229 -15.534873139873525 0 -15.534873139873525 119.26700873681693 0 0 0 0 -126.67815430559813 2.1462662638186885 0 2.1462662638186885 184.05131058971165 0 0 0 0 8.6410883811986423 52.435602499965171 0 52.435602499965171 93.918679552240064 0 0 0 0 -29.755896465998376 -2.689736778029328 0 -2.689736778029328 74.040147133018763 0 0 0 0 -29.271308572791895 -2.1119421946350485 0 -2.1119421946350485 73.404729887297435 0 0 0 0 -17.920213444385809 -0.19090844541642582 0 -0.19090844541642582 65.10693491888378 0 0 0 0 -15.784346832587062 -9.563150807501188 0 -9.563150807501188 97.201684439030942 0 0 0 0 -6.8160589490072594 -3.5115759074450601 0 -3.5115759074450601 70.802446920834967 0 0 0 0 -2.0265404646372716 -0.4341174053506478 0 -0.4341174053506478 18.29967363869865 0 0 0 0 -55.578711853705499 -8.0938952358019378 0 -8.0938952358019378 153.42189101669646 0 0 0 0 -7.4268350274669501 -4.3130184303263377 0 -4.3130184303263377 66.346607212966774 0 0 0 0 -31.482657202825067 36.369678478629794 0 36.369678478629794 16.748197901881213 0 0 0 0 -5.5482504344792991 -2.1752467366818422 0 -2.1752467366818422 61.187419718079923 0 0 0 0 -21.192427560256149 -4.2958506902168381 0 -4.2958506902168381 18.779725129970487 0 0 0 0 -6.9150590999197448 -54.043958562760963 0 -54.043958562760963 -16.311665039262152 0 0 0 0 -50.552173555588524 -31.187620406322822 0 -31.187620406322822 106.38709728474714 0 0 0 0 -86.166460353964794 -16.502989621156303 0 -16.502989621156303 100.57359788500617 0 0 0 0 0.78223555724252947 -46.354349691937387 0 -46.354349691937387 -11.873935953542968 0 0 0 0 -84.074032112320765 -41.918549287583119 0 -41.918549287583119 9.3057309349387651 0 0 0 0 -16.749296262149073 -6.3550068540880602 0 -6.3550068540880602 19.280997392022982 0 0 0 0 -87.402623903702079 -76.130347871841877 0 -76.130347871841877 0.95628120058972854 0 0 0 0 -0.097493263270741259 -7.1932716845442997 0 -7.1932716845442997 23.895647962447384 0 0 0 0 -4.2227913405918285 -6.3186562140104314 0 -6.3186562140104314 12.693933401195835 0 0 0 0 5.5935604269616306 -33.860746460668452 0 -33.860746460668452 -15.447615680153831 0 0 0 0 -12.512445865003571 -13.082308191576232 0 -13.082308191576232 31.241822610139742 0 0 0 0 -0.47832931236583676 0.18037234105473487 0 0.18037234105473487 13.868381612634373 0 0 0 0 -43.904192456809142 20.063373074557603 0 20.063373074557603 53.456645302241668 0 0 0 0 -71.637066339615558 -80.299787987525633 0 -80.299787987525633 -27.09851033025916 0 0 0 0 -43.686876659670816 22.140246830381329 0 22.140246830381329 17.136023454659153 0 0 0 0 -28.437247439385828 -30.100391758995102 0 -30.100391758995102 20.721746857004518 0 0 0 0 -0.49373986624061583 -4.2145042332938516 0 -4.2145042332938516 14.241407396657905 0 0 0 0 -275.85125420435816 -99.54769669684174 0 -99.54769669684174 44.838232897265698 0 0 0 0 -1.2632250553389497 1.2466480734219463 0 1.2466480734219463 19.332034982872187 0 0 0 0 -92.165410203386273 -59.0422833732664 0 -59.0422833732664 -12.243375333258882 0 0 0 0 -21.018529013446823 -40.811110011389246 0 -40.811110011389246 -4.660793559771264 0 0 0 0 18.0830301050446 -80.269538739521522 0 -80.269538739521522 -28.602774383900396 0 0 0 0 -73.13349057873711 -90.937039958240348 0 -90.937039958240348 -0.43250750956940465 0 0 0 0 11.744421944578789 -52.614697161479853 0 -52.614697161479853 -19.648574290476972 0 0 0 0 35.802115416734523 -21.365218923232533 0 -21.365218923232533 -3.0805369399604388 0 0 0 0 6.2323644059579841 -13.162475419378353 0 -13.162475419378353 7.6900633637859812 0 0 0 0 34.006807721278165 -24.838722872947983 0 -24.838722872947983 4.0222199509698839 0 0 0 0 42.407147569276276 -0.065006968092347961 0 -0.065006968092347961 16.906658446707297 0 0 0 0 40.210522448001939 -17.896359674654377 0 -17.896359674654377 -2.8042807564488612 0 0 0 0 33.044406988381525 -11.781429624534212 0 -11.781429624534212 23.474772851968737 0 0 0 0 12.086388598859452 -13.785709282315246 0 -13.785709282315246 2.5322389541589132 0 0 0 0 29.148280672158762 -20.230734272616246 0 -20.230734272616246 -0.32724716427037492 0 0 0 0 -3.6097796650938108 -41.900826924174908 0 -41.900826924174908 -2.5445098163600051 0 0 0 0 20.982406074834216 -12.938137632670987 0 -12.938137632670987 8.2582311761507299 0 0 0 0 9.1336419759627461 -34.804096602372738 0 -34.804096602372738 -0.88924426397716161 0 0 0 0 -4.5837173444517312 -12.381811475779676 0 -12.381811475779676 12.683710943250361 0 0 0 0 -5.00791854690533 -12.408552220183992 0 -12.408552220183992 11.948574513633503 0 0 0 0 -6.859437256632873 -11.300238653107954 0 -11.300238653107954 13.57915469983709 0 0 0 0 -6.130799289976494 -9.9667458826952497 0 -9.9667458826952497 8.7871781364228809 0 0 0 0 -25.955190677753208 98.294224324852735 0 98.294224324852735 29.173256900918204 0 0 0 0 -13.147743014927869 -15.559670952431588 0 -15.559670952431588 6.0113312345783925 0 0 0 0 -0.84865324256999486 -6.3633817457495567 0 -6.3633817457495567 12.642318304385896 0 0 0 0 -32.125105538571006 -49.58899293646391 0 -49.58899293646391 49.146001727553084 0 0 0 0 -93.249228550158477 -184.04043978520349 0 -184.04043978520349 -132.69622469738169 0 0 0 0 -4.532768766305896 -1.5488117084827451 0 -1.5488117084827451 3.8108067841745878 0 0 0 0 -13.545917763320517 0.01172223462981492 0 0.01172223462981492 -2.575846575666219 0 0 0 0 -137.45404120809883 -45.753635464656327 0 -45.753635464656327 16.907500294735655 0 0 0 0 -133.07119080851544 -31.985406532054185 0 -31.985406532054185 57.304228746099398 0 0 0 0 -80.018377467478331 -185.43134572154304 0 -185.43134572154304 -202.1522300427896 0 0 0 0 -1.4374544160454867 -0.55232484095353129 0 -0.55232484095353129 1.2702855555732242 0 0 0 0 -79.390962252196573 -51.285979152654363 0 -51.285979152654363 -18.457527109028888 0 0 0 0 1.2383994767733384 -38.40019770807703 0 -38.40019770807703 1.9490919306990691 0 0 0 0 -26.87294880166337 96.122308929028804 0 96.122308929028804 142.85662252447946 0 0 0 0 -18.820131063768713 24.656615447609511 0 24.656615447609511 66.428809817742149 0 0 0 0 -92.418272666413856 45.209462641605569 0 45.209462641605569 74.156069306423888 0 0 0 0 -89.606430170240856 -43.043675837929186 0 -43.043675837929186 12.41198532742419 0 0 0 0 -53.344395847669375 21.380014815675167 0 21.380014815675167 -19.891261245997157 0 0 0 0 -131.22263234446154 3.6129233754472807 0 3.6129233754472807 -39.859106708943727 0 0 0 0 -95.611508437064003 -158.16947782068019 0 -158.16947782068019 -176.61158990990589 0 0 0 0 0.39151688763719328 -2.1112938432793555 0 -2.1112938432793555 4.6878054880026241 0 0 0 0 2.952949772223203 -8.1659206362778178 0 -8.1659206362778178 10.937615885654282 0 0 0 0 -91.808981166505873 -110.88908586887555 0 -110.88908586887555 50.214539796623285 0 0 0 0 -220.08371219921173 -88.507448760730767 0 -88.507448760730767 14.513448037294438 0 0 0 0 101.68694644860449 264.9867517623843 0 264.9867517623843 328.27100823459477 0 0 0 0 -10.906903523781637 149.26936738137374 0 149.26936738137374 419.34673105425827 0 0 0 0 21.467083529016989 105.21525591147656 0 105.21525591147656 142.26757674188411 0 0 0 0 -23.243969452378906 105.56435015999887 0 105.56435015999887 235.83482955555064 0 0 0 0 3.8563573283292669 138.58333850723284 0 138.58333850723284 119.98314290105191 0 0 0 0 -40.179951405390725 79.825649193420759 0 79.825649193420759 202.39536109713663 0 0 0 0 -69.657752248010866 -2.1517633640760323 0 -2.1517633640760323 98.881051287455193 0 0 0 0 -16.053762124955597 57.819846077469265 0 57.819846077469265 164.52583868760121 0 0 0 0 -80.87451084357599 -32.730876148694733 0 -32.730876148694733 -15.716337721394666 0 0 0 0 -55.913323482185717 -79.154183812883275 0 -79.154183812883275 66.012650445569307 0 0 0 0 -184.65317914072358 -224.11053037210149 0 -224.11053037210149 -63.110112832663617 0 0 0 0 4.6150595687641944 -11.37668560385147 0 -11.37668560385147 19.544575893649068 0 0 0 0 51.111369788764094 -104.14794551177101 0 -104.14794551177101 4.5842416728482931 0 0 0 0 2.2894250003712724 -10.238264074446377 0 -10.238264074446377 18.275556032755787 0 0 0 0 -219.06755737798119 -118.14314359056516 0 -118.14314359056516 -31.657571035297224 0 0 0 0 -4.7984750173045541 -36.864148231379659 0 -36.864148231379659 -7.6574775554036023 0 0 0 0 -9.3971780285728528 -23.944370002172946 0 -23.944370002172946 20.983182613068493 0 0 0 0 -171.97474304666594 -158.09485876339022 0 -158.09485876339022 -68.041261152163315 0 0 0 0 -174.03189393055777 -96.357139399406151 0 -96.357139399406151 51.934884916912779 0 0 0 0 16.834795556550489 -4.1114989486377453 0 -4.1114989486377453 -4.346433822718609 0 0 0 0 3.3527205146701817 2.0863446065595781 0 2.0863446065595781 24.129539331741398 0 0 0 0 2.4092658718627717 -4.6547315931384219 0 -4.6547315931384219 8.2795838382480724 0 0 0 0 16.866624683028022 64.662196028613835 0 64.662196028613835 0.67336086581053678 0 0 0 0 38.87393964867897 51.520522734292172 0 51.520522734292172 25.961977274360834 0 0 0 0 34.351499485208706 39.064316975443944 0 39.064316975443944 7.5515375093527837 0 0 0 0 -28.620015297961572 -56.156771668316651 0 -56.156771668316651 -26.036488118355919 0 0 0 0 53.998882356809816 -12.78075771061367 0 -12.78075771061367 -50.616394361997664 0 0 0 0 72.525463825003044 48.81290989813715 0 48.81290989813715 -0.066744254283548798 0 0 0 0 37.905414532994655 18.861082709016046 0 18.861082709016046 113.92718514015723 0 0 0 0 57.563397550678019 70.71917907048919 0 70.71917907048919 93.305440007039579 0 0 0 0 33.222980565262105 32.041726887508958 0 32.041726887508958 19.310440464687417 0 0 0 0 30.219199233241852 25.209161385697371 0 25.209161385697371 53.971455150211114 0 0 0 0 -171.84257086577628 -205.7868100838823 0 -205.7868100838823 -87.48152826225305 0 0 0 0 -86.72956556640969 -28.010003820942075 0 -28.010003820942075 -25.955604184106051 0 0 0 0 41.413751342623073 56.675535988935735 0 56.675535988935735 90.125347115652403 0 0 0 0 5.1779611304714512 -11.555869703556723 0 -11.555869703556723 18.78383650668826 0 0 0 0 14.394615134375954 -122.94523666143868 0 -122.94523666143868 -69.677210677036783 0 0 0 0 100.72476218593238 79.39654365570459 0 79.39654365570459 94.391005799898267 0 0 0 0 -106.50075694655675 -40.990404176482116 0 -40.990404176482116 418.86558780960331 0 0 0 0 270.69006093741569 171.6734740062152 0 171.6734740062152 271.11391596679459 0 0 0 0 226.79245044470508 -119.56943470727037 0 -119.56943470727037 406.56416121868824 0 0 0 0 -24.352583477242661 -65.203742272155068 0 -65.203742272155068 867.64339840143293 0 0 0 0 -62.228465254754155 103.29206449670892 0 103.29206449670892 401.02808716669097 0 0 0 0 -17.367110965720713 7.7101999629157945 0 7.7101999629157945 189.45329202460925 0 0 0 0 9.8603275501941425 94.689732759852632 0 94.689732759852632 318.22362707897264 0 0 0 0 57.355693180972139 7.2930422040190024 0 7.2930422040190024 156.82352322442603 0 0 0 0 88.856294009905014 62.659468167388695 0 62.659468167388695 138.58339896937832 0 0 0 0 -87.637009691042294 116.87036448706203 0 116.87036448706203 843.32202577357384 0 0 0 0 -78.872515526741182 -7.5853774011757196 0 -7.5853774011757196 387.24950813985197 0 0 0 0 -56.087110832754206 -22.336100119737239 0 -22.336100119737239 330.31343673378433 0 0 0 0 -70.82891983582158 -38.203817547368089 0 -38.203817547368089 380.93907585659326 0 0 0 0 -69.420638088231499 -47.53942258682946 0 -47.53942258682946 307.176423095676 0 0 0 0 -6.1274711143200875 -34.465490559025056 0 -34.465490559025056 261.44235831052356 0 0 0 0 -40.762248138144059 -0.23030903600738384 0 -0.23030903600738384 270.48825790997626 0 0 0 0 -13.870335914640236 23.093302240713456 0 23.093302240713456 215.83759255804762 0 0 0 0 -29.705965025636942 -5.0266838599673065 0 -5.0266838599673065 135.74095565751486 0 0 0 0 -62.856623590510708 22.096388410176587 0 22.096388410176587 217.06948286933766 0 0 0 0 -58.673593547577184 18.429261502300506 0 18.429261502300506 244.93177987999843 0 0 0 0 -13.026614486602512 22.897131418185381 0 22.897131418185381 150.33401455715648 0 0 0 0 -38.19737046697287 37.420973722670169 0 37.420973722670169 103.0146815729895 0 0 0 0 -54.716479086966501 -19.523706122337899 0 -19.523706122337899 125.50078026677511 0 0 0 0 -158.81638129565636 -26.552257541559811 0 -26.552257541559811 72.905404223856749 0 0 0 0 -2.3151297370612323 -0.5324675511200212 0 -0.5324675511200212 0.020398562728903613 0 0 0 0 -56.746666667680984 -119.5412181576321 0 -119.5412181576321 -67.947889848408522 0 0 0 0 -26.84948234063495 44.879955648018949 0 44.879955648018949 -42.106112200315692 0 0 0 0 -46.730104313694937 -36.671147656943504 0 -36.671147656943504 25.755578813739703 0 0 0 0 -185.04023175366547 -130.38257322230493 0 -130.38257322230493 144.96924731545732 0 0 0 0 91.741944902079922 187.12995281919939 0 187.12995281919939 -97.363560850339127 0 0 0 0 9.082320390316454 125.39323565148516 0 125.39323565148516 142.96476742083178 0 0 0 0 51.300497654350693 35.047724129362905 0 35.047724129362905 18.350968027632916 0 0 0 0 36.142947379172256 -28.774037843963015 0 -28.774037843963015 -174.88900915121485 0 0 0 0 -17.577951843966556 35.149685674624706 0 35.149685674624706 5.7426234502516227 0 0 0 0 26.583342813055424 21.868435189495358 0 21.868435189495358 -26.860211772233015 0 0 0 0 -6.7807872558903313 0.55982578056618593 0 0.55982578056618593 10.888952607452829 0 0 0 0 -23.542614989746653 -10.884089056071389 0 -10.884089056071389 47.779320529734832 0 0 0 0 -30.886844053981804 -8.5375635116215562 0 -8.5375635116215562 71.815650464748614 0 0 0 0 -5.4260161280903958 1.8006819666661613 0 1.8006819666661613 29.53805387559305 0 0 0 0 -26.198238992340521 6.944982057377274 0 6.944982057377274 109.81870082778914 0 0 0 0 -19.048683839568184 33.487188472114212 0 33.487188472114212 147.46702390294922 0 0 0 0 32.875726268280118 69.959853932978149 0 69.959853932978149 55.204264566782513 0 0 0 0 -1.4131639414762509 5.0513001138272715 0 5.0513001138272715 1.838036911402753 0 0 0 0 21.862644290373282 0.46548038793480373 0 0.46548038793480373 143.43471660231444 0 0 0 0 3.9680438991113078 6.2081004387728171 0 6.2081004387728171 210.59325588791398 0 0 0 0 -13.914744133222484 47.450681869126129 0 47.450681869126129 138.54367119320159 0 0 0 0 -38.185746082614969 10.136643257708783 0 10.136643257708783 252.67085250928358 0 0 0 0 -37.511890963425685 13.98854737658985 0 13.98854737658985 273.5359945791788 0 0 0 0 24.513030732210837 -40.432929515709475 0 -40.432929515709475 242.43013551612967 0 0 0 0 4.5403891324513097 12.843188439492224 0 12.843188439492224 195.52560769626871 0 0 0 0 8.5791850781752146 -7.9118472012705752 0 -7.9118472012705752 244.90501257046708 0 0 0 0 16.997194840146221 -22.772431581379351 0 -22.772431581379351 187.67737264427706 0 0 0 0 -1.1292062664333571 -1.2117863971507177 0 -1.2117863971507177 208.02954682264794 0 0 0 0 8.9522763952973037 -10.719281792149559 0 -10.719281792149559 160.62879968204652 0 0 0 0 -1.5039245435441444 13.510683069873267 0 13.510683069873267 149.5242788438045 0 0 0 0 1.3881702955459332 37.328113363546436 0 37.328113363546436 129.13896689352987 0 0 0 0 -4.1178248142082339 18.130034908997914 0 18.130034908997914 109.00205430704227 0 0 0 0 -13.108773704680971 10.562634591187816 0 10.562634591187816 184.13002586179255 0 0 0 0 -14.838490263603148 29.168696691338482 0 29.168696691338482 100.86429750722164 0 0 0 0 -34.931563655138689 17.82907538532163 0 17.82907538532163 95.275023071266332 0 0 0 0 4.0266078194263173 -8.9968891079206514 0 -8.9968891079206514 137.33649939559109 0 0 0 0 -10.130699286421986 33.464945041501778 0 33.464945041501778 92.867972121668572 0 0 0 0 0.24190338472499207 7.5974483262834838 0 7.5974483262834838 128.74344867088075 0 0 0 0 -17.137645138331209 -4.2969470409880159 0 -4.2969470409880159 182.17661539180699 0 0 0 0 -14.055236844680621 47.281551992302411 0 47.281551992302411 94.706038734941103 0 0 0 0 -21.729829166580203 35.385555576634943 0 35.385555576634943 100.39805026171234 0 0 0 0 -7.3675449379111342 41.238394611660624 0 41.238394611660624 61.001677380387264 0 0 0 0 -33.979843710092155 49.868076039929292 0 49.868076039929292 76.899105524891638 0 0 0 0 -17.184066187608096 42.212714081430022 0 42.212714081430022 57.459826532096486 0 0 0 0 -10.613871730918843 23.501019313668465 0 23.501019313668465 55.100459342322438 0 0 0 0 -28.272789896208565 55.238176693233981 0 55.238176693233981 27.735522181494161 0 0 0 0 -43.06504497438209 54.265987191101885 0 54.265987191101885 44.595257357013907 0 0 0 0 -38.81095788255908 70.560875193242282 0 70.560875193242282 38.889030207676115 0 0 0 0 -32.162391440861711 52.385524478522711 0 52.385524478522711 66.212268073577434 0 0 0 0 -19.134810259755795 58.755019168966101 0 58.755019168966101 44.315556014153117 0 0 0 0 -15.532730968270698 58.333528657083662 0 58.333528657083662 39.650894670034177 0 0 0 0 -25.810181411156009 47.602803866431714 0 47.602803866431714 63.377938174933661 0 0 0 0 -29.429345422737242 31.636481576104416 0 31.636481576104416 308.53016353812382 0 0 0 0 -16.568769735043407 36.654044441706034 0 36.654044441706034 5.133997491488417 0 0 0 0 -3.150657986963779 72.112947464971512 0 72.112947464971512 296.84424697636132 0 0 0 0 -20.238503229054004 47.397357611931511 0 47.397357611931511 23.26419486427767 0 0 0 0 -2.597817640831348 -0.61194360702135953 0 -0.61194360702135953 13.540568265929744 0 0 0 0 -40.752480348108293 7.8755217490106588 0 7.8755217490106588 418.38672116491216 0 0 0 0 12.022627635693425 -24.603285816796415 0 -24.603285816796415 415.14318576478399 0 0 0 0 3.3109671946816981 2.5732132237298941 0 2.5732132237298941 -6.7279186676028075 0 0 0 0 -37.582421066907045 44.956296729636961 0 44.956296729636961 57.995822623178128 0 0 0 0 12.723595395905704 32.220740173561353 0 32.220740173561353 58.489322486086166 0 0 0 0 -14.63483133317186 34.871567883070384 0 34.871567883070384 48.011824871515273 0 0 0 0 -19.153647071035266 61.109667707420158 0 61.109667707420158 79.510077390470542 0 0 0 0 -34.048264765577187 30.696875881287269 0 30.696875881287269 235.06780780476765 0 0 0 0 -16.915536582043188 37.951718228702674 0 37.951718228702674 -4.5275034972638544 0 0 0 0 -2.4511729004752851 54.510769073727715 0 54.510769073727715 -3.5869643931291648 0 0 0 0 -64.09952489673924 -9.1817915852552687 0 -9.1817915852552687 166.38239585596807 0 0 0 0 -31.967017961160309 -52.057437184754235 0 -52.057437184754235 89.250603955835686 0 0 0 0 -12.200440024863838 55.063895597774717 0 55.063895597774717 112.2270697276108 0 0 0 0 -21.901271144943166 -42.301847332459147 0 -42.301847332459147 98.5688245398851 0 0 0 0 -59.298893046907324 -52.917519735950918 0 -52.917519735950918 116.32083691823209 0 0 0 0 -17.021809237391608 -24.849969311922905 0 -24.849969311922905 78.210227487255906 0 0 0 0 -50.451648188445688 -43.610002118093689 0 -43.610002118093689 126.10096089076251 0 0 0 0 -31.860015600945189 11.439549886563327 0 11.439549886563327 150.70310741809953 0 0 0 0 -4.8954646920404228 -11.073548656014104 0 -11.073548656014104 1.6142068755590628 0 0 0 0 -25.623965259523175 -37.551803132471832 0 -37.551803132471832 119.83938329960802 0 0 0 0 -5.8466480435554331 -6.7062791976322842 0 -6.7062791976322842 138.64344408924808 0 0 0 0 -14.501817558535549 -26.713504054652731 0 -26.713504054652731 163.93431621421223 0 0 0 0 -2.2128937685356505 35.940104625398817 0 35.940104625398817 193.54421240820375 0 0 0 0 4.6936495799072873 -23.897828699307865 0 -23.897828699307865 238.38279792382309 0 0 0 0 1.6872851695520694 15.06566020622995 0 15.06566020622995 205.42416241121828 0 0 0 0 21.806646477290997 40.712907338154764 0 40.712907338154764 298.61024602840916 0 0 0 0 14.352128715016079 -30.355679857057112 0 -30.355679857057112 212.49411442863493 0 0 0 0 26.906695876867161 -28.270429544088984 0 -28.270429544088984 109.66112119266836 0 0 0 0 -49.761484115632811 4.4822013038992736 0 4.4822013038992736 104.19943208315817 0 0 0 0 -5.4230345536961977 10.735196912395622 0 10.735196912395622 174.26255801644584 0 0 0 0 -2.253462626921646 1.8137564449225465 0 1.8137564449225465 97.103109422479974 0 0 0 0 -1.7142091729838285 -52.250636616063275 0 -52.250636616063275 147.99483319781211 0 0 0 0 17.943666951196974 -48.483231899392194 0 -48.483231899392194 27.672240356281691 0 0 0 0 72.173651759430868 -42.876845611703175 0 -42.876845611703175 -49.734751752690499 0 0 0 0 -7.6702488825911317 -11.655598933657998 0 -11.655598933657998 0.44225902331299149 0 0 0 0 -51.885744196820497 17.701505394233209 0 17.701505394233209 19.513723083335208 0 0 0 0 -54.117532685380866 28.573410389257106 0 28.573410389257106 216.53175335116248 0 0 0 0 -16.391009439461413 -193.06986832596886 0 -193.06986832596886 470.87533887040627 0 0 0 0 26.959942760713602 -77.594627854196006 0 -77.594627854196006 151.36220980233338 0 0 0 0 -25.111826686958011 -76.912410435321362 0 -76.912410435321362 159.26652164955522 0 0 0 0 -3.529382262395302 34.632955811786815 0 34.632955811786815 24.699351417835715 0 0 0 0 20.95611357006419 -87.925788500138879 0 -87.925788500138879 162.96802920852133 0 0 0 0 31.031664328675106 -10.583071143271809 0 -10.583071143271809 -4.8586731368159235 0 0 0 0 -12.638956700834367 -11.270418031117032 0 -11.270418031117032 4.0741215186809079 0 0 0 0 18.195329639109332 3.8784929940120492 0 3.8784929940120492 -47.841301416341594 0 0 0 0 -72.830985193601009 22.263577237012214 0 22.263577237012214 22.881632716134845 0 0 0 0 405.86675104451751 -120.32589839767752 0 -120.32589839767752 27.141802494600597 0 0 0 0 142.96609969681776 -334.2446129053933 0 -334.2446129053933 488.02042513900233 0 0 0 0 213.53478592216743 -82.988256756332703 0 -82.988256756332703 420.27086888788472 0 0 0 0 473.07484851598929 -370.40332296956149 0 -370.40332296956149 426.39388169748418 0 0 0 0 97.141917851574817 -264.04010162820487 0 -264.04010162820487 382.6798677028346 0 0 0 0 122.17237074177524 -240.7494565212719 0 -240.7494565212719 262.80068511916033 0 0 0 0 -25.129449395333268 -97.802800648514676 0 -97.802800648514676 312.03209294129192 0 0 0 0 54.239975224938462 -63.845423075032159 0 -63.845423075032159 197.24827472756442 0 0 0 0 71.240719418945673 -171.1070137266729 0 -171.1070137266729 382.61123734622379 0 0 0 0 -24.040918762016645 -82.900711258043884 0 -82.900711258043884 240.78665213056229 0 0 0 0 135.72492161416994 -20.702427272764908 0 -20.702427272764908 213.77282598080637 0 0 0 0 149.61661882673161 -190.7008947481263 0 -190.7008947481263 403.59641391052719 0 0 0 0 199.93439809188476 -194.02679260060904 0 -194.02679260060904 331.30302112863137 0 0 0 0 146.76622388081705 -316.85344270484347 0 -316.85344270484347 537.31453372893156 0 0 0 0 253.63455883506231 -295.58158978839492 0 -295.58158978839492 437.40739952909644 0 0 0 0 302.80337536620027 -501.58523064315523 0 -501.58523064315523 720.27963040763825 0 0 0 0 -0.54280576409880155 0.69588207326265206 0 0.69588207326265206 2.74771531092901 0 0 0 0 -18.124932485401587 -6.8359369912686816 0 -6.8359369912686816 36.79549276180478 0 0 0 0 -5.2191365376966239 -11.904893875877192 0 -11.904893875877192 0.33242421899864993 0 0 0 0 44.306359274134593 -14.497099946063827 0 -14.497099946063827 -25.216999720509648 0 0 0 0 -1.468294945829804 1.5928237087188251 0 1.5928237087188251 9.5145442372225233 0 0 0 0 149.36400467709973 -307.2273066020789 0 -307.2273066020789 536.64303335591558 0 0 0 0 171.57944779563331 -387.54876161434731 0 -387.54876161434731 812.63289072192856 0 0 0 0 2.3398549017627985 -0.13402098040239707 0 -0.13402098040239707 -0.30462099491239947 0 0 0 0 -5.042290144747291 -6.4895559637710107 0 -6.4895559637710107 -2.0080122557136519 0 0 0 0 -10.281081802801907 -3.2864219861523907 0 -3.2864219861523907 -13.30695146965445 0 0 0 0 -18.52568387876272 -31.357046286160767 0 -31.357046286160767 188.12133248588361 0 0 0 0 -5.0001534588664072 9.8890055851406942 0 9.8890055851406942 169.91221016260897 0 0 0 0 -5.0285711829140496 -62.421929819513252 0 -62.421929819513252 91.785043024538027 0 0 0 0 -0.26353714784295335 17.654029130192612 0 17.654029130192612 247.84765104718099 0 0 0 0 -9.2265070234352606 -46.894472986150504 0 -46.894472986150504 311.53031389497119 0 0 0 0 -133.33069292136224 -67.880478396338731 0 -67.880478396338731 415.55120750806964 0 0 0 0 -6.1114223717986533 -220.94122842407523 0 -220.94122842407523 93.255232477375102 0 0 0 0 -124.1380186902843 -38.580186198652882 0 -38.580186198652882 299.26698295015376 0 0 0 0 -61.014169106359986 -276.36024800142695 0 -276.36024800142695 500.93233745979342 0 0 0 0 -65.161315529941021 110.35539910415173 0 110.35539910415173 737.72248252094505 0 0 0 0 253.06433992486927 -381.47316434616732 0 -381.47316434616732 370.23144953843439 0 0 0 0 225.58147590335557 -341.13679910001156 0 -341.13679910001156 264.95706286404038 0 0 0 0 217.27797573409498 -318.59849026353186 0 -318.59849026353186 259.76478904479154 0 0 0 0 -2.3537943594042581 -1.1266749550596842 0 -1.1266749550596842 -0.081313645272814483 0 0 0 0 375.93478504467157 292.6621585647008 0 292.6621585647008 24.874839918244106 0 0 0 0 234.346348355038 -234.60493616791291 0 -234.60493616791291 225.57907556298596 0 0 0 0 -124.84491989790104 -303.51730964892067 0 -303.51730964892067 299.68285057182948 0 0 0 0 325.41409326944972 -189.12182364468936 0 -189.12182364468936 289.38595696776611 0 0 0 0 -86.038947899380219 -356.74283257125353 0 -356.74283257125353 261.2528004683154 0 0 0 0 281.66374903361339 295.36587769564903 0 295.36587769564903 258.10123946527892 0 0 0 0 0.62087777192725913 -2.2666822057193485 0 -2.2666822057193485 6.319099140591419 0 0 0 0 -350.48301058503921 -529.38220506244761 0 -529.38220506244761 403.59818986117898 0 0 0 0 -39.900073486988731 -604.51545141722454 0 -604.51545141722454 272.29053243010276 0 0 0 0 191.58471116629289 309.94834770778471 0 309.94834770778471 29.233248018876111 0 0 0 0 -0.98243276201367991 0.37420386192997057 0 0.37420386192997057 0.47138538996095392 0 0 0 0 -27.387542343120913 18.539410972709447 0 18.539410972709447 65.277476585668865 0 0 0 0 -42.699091925555422 58.039917748334574 0 58.039917748334574 405.7456105411693 0 0 0 0 -97.096942069718352 -45.816360591274133 0 -45.816360591274133 65.512154225224549 0 0 0 0 -63.747446778798206 -34.526914831740925 0 -34.526914831740925 217.60672277786944 0 0 0 0 -114.78257682536969 137.63955375351361 0 137.63955375351361 327.73205488708845 0 0 0 0 171.36237796697606 88.607655889054513 0 88.607655889054513 86.780374069669051 0 0 0 0 1.1023361796796962 28.997296043795359 0 28.997296043795359 66.488683383937314 0 0 0 0 5.8314707275403634 41.960673693266017 0 41.960673693266017 35.31375797362125 0 0 0 0 -30.2045173411625 9.9610792793464498 0 9.9610792793464498 111.9578294596613 0 0 0 0 -61.019046922508096 46.23518102764865 0 46.23518102764865 71.566670549465925 0 0 0 0 -59.821369433486325 47.634342072482468 0 47.634342072482468 54.996465755437384 0 0 0 0 -43.993799854471035 31.723407107550884 0 31.723407107550884 49.830446227708308 0 0 0 0 -7.3477400439920046 18.636757840542543 0 18.636757840542543 60.841641654028194 0 0 0 0 22.012116198377953 47.292036929067763 0 47.292036929067763 40.97572737928931 0 0 0 0 6.7176793674266264 10.331707366344745 0 10.331707366344745 25.746540751686553 0 0 0 0 -12.192948328072816 63.760860665672226 0 63.760860665672226 42.463396674465912 0 0 0 0 -43.797159020243271 17.83570024290384 0 17.83570024290384 32.221022004756378 0 0 0 0 -6.9882816634333267 6.262018531605186 0 6.262018531605186 49.010350782132548 0 0 0 0 -4.4280751009495027 -8.6965907658100647 0 -8.6965907658100647 45.706430259325501 0 0 0 0 -9.3463474848242747 18.966231348825296 0 18.966231348825296 58.533414233560649 0 0 0 0 13.124469362332547 -76.702899584378429 0 -76.702899584378429 54.338110283722926 0 0 0 0 -70.873513931425805 13.340053349289519 0 13.340053349289519 60.541741889537661 0 0 0 0 -55.216513242340625 27.404029373388767 0 27.404029373388767 66.556690530866035 0 0 0 0 -56.991631643767505 31.692113696248271 0 31.692113696248271 58.460500418899755 0 0 0 0 -57.779104665024533 29.640135443514737 0 29.640135443514737 65.531159518151981 0 0 0 0 -67.359001802503485 29.341000058597274 0 29.341000058597274 85.242068046238273 0 0 0 0 -39.805070231534046 42.419019171407854 0 42.419019171407854 72.829080150193477 0 0 0 0 -0.0097114797999959257 -1.3606084556110707 0 -1.3606084556110707 5.4944443570532115 0 0 0 0 -261.94116239723644 100.70132606785046 0 100.70132606785046 114.10756011028934 0 0 0 0 -310.40291282582007 -7.0553325398932429 0 -7.0553325398932429 46.47052161906322 0 0 0 0 -1.1905718778820908 -0.72150797127108568 0 -0.72150797127108568 17.255932377466308 0 0 0 0 -146.4783852467699 101.15808296927207 0 101.15808296927207 128.2139636065549 0 0 0 0 -2.1614108280741213 -4.1298790698847299 0 -4.1298790698847299 9.4051070902892491 0 0 0 0 -145.44606800701149 120.74535749513961 0 120.74535749513961 46.894058732524556 0 0 0 0 -0.38413120583574478 0.18970237526495293 0 0.18970237526495293 12.635889482479541 0 0 0 0 -62.404305244165073 145.81587379840948 0 145.81587379840948 62.915092441013257 0 0 0 0 -340.64216193889752 -43.282339731791581 0 -43.282339731791581 226.51410381628102 0 0 0 0 561.04887433407998 358.5105551820543 0 358.5105551820543 91.749130024323676 0 0 0 0 115.9002008261964 -383.66045324118568 0 -383.66045324118568 273.70284615808714 0 0 0 0 478.87630723930442 -34.275125708418273 0 -34.275125708418273 358.54978974648475 0 0 0 0 1.7856776710754783 -2.4800584286721215 0 -2.4800584286721215 3.4619143542624897 0 0 0 0 83.17144681077832 -225.58789339497889 0 -225.58789339497889 9.527673846790492 0 0 0 0 146.4639838801229 -219.31818447037404 0 -219.31818447037404 120.10570163468401 0 0 0 0 69.639271273529062 -155.84682914712266 0 -155.84682914712266 404.87857495425123 0 0 0 0 133.04500414132463 -168.14357276159717 0 -168.14357276159717 330.08052477656747 0 0 0 0 172.83360797021078 -228.82636210080318 0 -228.82636210080318 68.997616603170172 0 0 0 0 308.4913375606252 75.408787213062169 0 75.408787213062169 385.12384463620288 0 0 0 0 221.29170007352377 -93.695822275727551 0 -93.695822275727551 216.97086725999907 0 0 0 0 365.49064853665504 76.35909115639879 0 76.35909115639879 339.31124000071577 0 0 0 0 282.6591306299274 -157.76746769986994 0 -157.76746769986994 204.69485201780481 0 0 0 0 -95.318139878895636 72.082473725924501 0 72.082473725924501 685.06336739730978 0 0 0 0 41.779677124496402 -191.04906538667274 0 -191.04906538667274 585.27975322469365 0 0 0 0 248.61845947136902 71.903577822171428 0 71.903577822171428 555.12703165440325 0 0 0 0 144.58433825571387 -121.77464378287914 0 -121.77464378287914 382.53822939641623 0 0 0 0 95.683994382512083 -151.45408419922387 0 -151.45408419922387 386.98076681265457 0 0 0 0 116.84150555022211 -106.73220498388582 0 -106.73220498388582 554.09918616621144 0 0 0 0 -247.9163820750201 -251.33447633742537 0 -251.33447633742537 504.27207163618732 0 0 0 0 117.47517208216937 -88.55960283287277 0 -88.55960283287277 359.16544033931496 0 0 0 0 -16.943348953022678 -0.4772723775306531 0 -0.4772723775306531 76.364020546301617 0 0 0 0 -25.341401311556183 -22.584478049151585 0 -22.584478049151585 10.26063902390888 0 0 0 0 -33.279556633136053 -18.952387525718223 0 -18.952387525718223 34.515155312234128 0 0 0 0 -3.6395981855206636 -4.7812508137265795 0 -4.7812508137265795 17.702944684706196 0 0 0 0 -43.86832742299157 -4.4070872469819733 0 -4.4070872469819733 14.174099083436886 0 0 0 0 -91.718645524720841 -1.1262300213211347 0 -1.1262300213211347 30.364854256658873 0 0 0 0 -26.733954279479804 -4.6601950048789149 0 -4.6601950048789149 20.449840238667093 0 0 0 0 -13.57774106352057 -11.112358736245113 0 -11.112358736245113 14.770550405134713 0 0 0 0 35.33235041720036 17.926224470837042 0 17.926224470837042 4.3072951920912601 0 0 0 0 3.098879371616384 15.483504173305043 0 15.483504173305043 18.54082656225895 0 0 0 0 -24.83693510391134 -21.06561305156422 0 -21.06561305156422 27.636040397742747 0 0 0 0 -7.4173252213114012 -7.0830878743310777 0 -7.0830878743310777 0.78059851305539496 0 0 0 0 60.633402218025367 41.446100521356129 0 41.446100521356129 -1.6681228519610158 0 0 0 0 10.361712930691283 -163.61294198324867 0 -163.61294198324867 149.27423234184243 0 0 0 0 17.345771893495112 -138.42372566716585 0 -138.42372566716585 183.2011972073069 0 0 0 0 10.528920486965944 43.337642938993667 0 43.337642938993667 -26.371273446573468 0 0 0 0 -3.4969050476847769 -157.47338020159805 0 -157.47338020159805 -174.38045668740233 0 0 0 0 -4.0052616270058152 -1.7304873550434827 0 -1.7304873550434827 0.1795916482828801 0 0 0 0 -171.88058541881855 -276.72149775521029 0 -276.72149775521029 152.97824680023496 0 0 0 0 -266.34221494966368 -0.59232053376581462 0 -0.59232053376581462 48.689254550542501 0 0 0 0 -46.956577549250142 -273.4331245398389 0 -273.4331245398389 284.76918991001457 0 0 0 0 34.430604652947295 -146.82558770565811 0 -146.82558770565811 137.91555051010073 0 0 0 0 32.522112799223578 -168.03017081579492 0 -168.03017081579492 112.26042090762348 0 0 0 0 58.298537712435973 -252.88178797773071 0 -252.88178797773071 175.76703019063916 0 0 0 0 54.827245366294846 -271.30197774796397 0 -271.30197774796397 143.90343899220898 0 0 0 0 96.496292001853362 -106.7092477564911 0 -106.7092477564911 297.7807749040112 0 0 0 0 106.76319557555485 -178.19850515691462 0 -178.19850515691462 -212.64734280222547 0 0 0 0 -53.054233035142261 113.80695558692059 0 113.80695558692059 512.06151632485125 0 0 0 0 23.214784738465823 142.45888217134961 0 142.45888217134961 157.91112297953805 0 0 0 0 -38.027806927690108 200.34457762467719 0 200.34457762467719 35.258689877304278 0 0 0 0 -42.815524386338438 371.21468312109573 0 371.21468312109573 534.21374374157313 0 0 0 0 -215.56604318674727 112.56395569905362 0 112.56395569905362 217.40852770416677 0 0 0 0 -58.71501946681974 -232.20062224905541 0 -232.20062224905541 -298.43986255174968 0 0 0 0 -551.23701948922826 -349.64265505352887 0 -349.64265505352887 -164.49840885654703 0 0 0 0 -138.45042102092884 -280.61729641626152 0 -280.61729641626152 -212.33101327631084 0 0 0 0 -177.60680780204711 -89.445679882101103 0 -89.445679882101103 -54.151417273200423 0 0 0 0 194.15382186451825 109.99760906487791 0 109.99760906487791 67.697014102865069 0 0 0 0 -74.299126941404211 836.18044865089905 0 836.18044865089905 1388.893099838635 0 0 0 0 628.35977240746797 1055.6788818918503 0 1055.6788818918503 -895.95125471210895 0 0 0 0 34.288609058120983 -480.97531466335113 0 -480.97531466335113 -1012.4760971812429 0 0 0 0 40.339743842801909 3.4019922602619772 0 3.4019922602619772 29.421363865468265 0 0 0 0 9.6935212102634978 -13.586601562936266 0 -13.586601562936266 37.173398782081676 0 0 0 0 18.288639000472131 -18.360410361065306 0 -18.360410361065306 19.644985329781775 0 0 0 0 6.4108771400369733 -8.8981823156573228 0 -8.8981823156573228 24.731351668886418 0 0 0 0 -0.65439781965813104 -0.78502660694669579 0 -0.78502660694669579 32.049338639357529 0 0 0 0 62.058287539546654 -170.33802289609957 0 -170.33802289609957 408.15937077826311 0 0 0 0 181.58270927759986 -66.929510034044142 0 -66.929510034044142 9.6666610070313936 0 0 0 0 -0.47309383352863588 3.4878456362409533 0 3.4878456362409533 33.987321686328826 0 0 0 0 31.13341700980618 11.382835159291972 0 11.382835159291972 28.096073003474885 0 0 0 0 95.928885742931016 -37.18486013124857 0 -37.18486013124857 26.70144253950275 0 0 0 0 20.423563271015155 -20.759609174412617 0 -20.759609174412617 24.33002970032976 0 0 0 0 67.015830006779197 19.806639546492988 0 19.806639546492988 3.1837211199162994 0 0 0 0 -33.511445616519268 -295.90999922627816 0 -295.90999922627816 1259.3666190065487 0 0 0 0 -575.5433272426817 -484.87286384639447 0 -484.87286384639447 203.13688178122538 0 0 0 0 -975.3153577170242 532.80022117197586 0 532.80022117197586 2298.6395972869723 0 0 0 0 -98.509996818442232 62.251065815260517 0 62.251065815260517 10.158187034612638 0 0 0 0 10.324500585432663 7.7629887198587397 0 7.7629887198587397 8.8267625562493919 0 0 0 0 292.02754450481825 274.44752949045778 0 274.44752949045778 -312.70309834364889 0 0 0 0 3.7212856699588528 -0.36504695970925383 0 -0.36504695970925383 4.0100774921166575 0 0 0 0 285.25747283330202 520.44184285791289 0 520.44184285791289 -300.02989492040433 0 0 0 0 256.43849652440622 122.46148137121054 0 122.46148137121054 -960.00904939839529 0 0 0 0 -245.60714845780058 201.69089245325813 0 201.69089245325813 -138.2505663516331 0 0 0 0 79.245135869795376 28.705833320516831 0 28.705833320516831 97.403363744306262 0 0 0 0 68.296569425207508 -106.44195380163728 0 -106.44195380163728 469.24694903990166 0 0 0 0 -131.61603376468338 151.29995890315695 0 151.29995890315695 782.17080905992771 0 0 0 0 -108.28536686342159 196.07504236262957 0 196.07504236262957 544.08802058928995 0 0 0 0 38.665370148139118 199.66141064594558 0 199.66141064594558 443.12553624645079 0 0 0 0 16.502934412388985 15.334819505619585 0 15.334819505619585 17.095105223529018 0 0 0 0 103.98500659777073 41.88115449590623 0 41.88115449590623 89.354784164992452 0 0 0 0 62.489103095600512 70.521889032708714 0 70.521889032708714 94.02405229694341 0 0 0 0 57.176037142324276 24.953699088891881 0 24.953699088891881 263.28575641805946 0 0 0 0 2.0895512246088401 -21.038674480338159 0 -21.038674480338159 60.315730666909076 0 0 0 0 6.6273728114909147 18.425724396682092 0 18.425724396682092 19.268800986924447 0 0 0 0 25.561520873834525 -61.511232112061407 0 -61.511232112061407 -3.5529997108242242 0 0 0 0 5.2844481108218133 87.984372474737938 0 87.984372474737938 380.35987888163072 0 0 0 0 -4.9453400612368839 1.9703750667702167 0 1.9703750667702167 18.130914452950122 0 0 0 0 -35.576310946492626 11.396941686407821 0 11.396941686407821 -99.550717533737043 0 0 0 0 -369.48530650716202 -157.41416538897829 0 -157.41416538897829 -67.635363537654484 0 0 0 0 -24.71768358495224 19.661747002603612 0 19.661747002603612 1.548446370655455 0 0 0 0 -445.94684466083618 -78.300338570336407 0 -78.300338570336407 737.25164304636201 0 0 0 0 -246.72753257166187 204.92766707875489 0 204.92766707875489 68.376333431337116 0 0 0 0 -22.264335362116071 612.72457361709621 0 612.72457361709621 459.9159446400754 0 0 0 0 0.88278649041742829 4.2291322052493463 0 4.2291322052493463 13.906475501678088 0 0 0 0 119.91591804546624 -711.82481170539904 0 -711.82481170539904 -401.89863310263684 0 0 0 0 624.43063077082479 -439.6660357091223 0 -439.6660357091223 -409.15048959738488 0 0 0 0 -338.62984722618239 -171.00443721189004 0 -171.00443721189004 -49.853481870452498 0 0 0 0 759.5524607550592 194.58472023853278 0 194.58472023853278 -45.066862369778391 0 0 0 0 129.81964226650598 509.99029394021727 0 509.99029394021727 660.61692296051478 0 0 0 0 -36.432006797213035 114.45929700496526 0 114.45929700496526 73.006813681533458 0 0 0 0 259.3820764257357 -240.28859057155773 0 -240.28859057155773 358.79517261032015 0 0 0 0 -61.489682412615366 -53.782557572480073 0 -53.782557572480073 1011.6470677804309 0 0 0 0 -88.365473495607148 85.052711978274601 0 85.052711978274601 377.8805065608758 0 0 0 0 -26.677827775501498 -79.609591493190237 0 -79.609591493190237 160.25711351987275 0 0 0 0 87.450644833967544 -186.54144138300762 0 -186.54144138300762 158.82003420880784 0 0 0 0 26.069717877828225 -163.86675788416323 0 -163.86675788416323 234.37418118912865 0 0 0 0 127.89840631219431 -260.16352458933034 0 -260.16352458933034 258.2894000199849 0 0 0 0 59.356063138143327 -199.18744548381255 0 -199.18744548381255 275.14048123110115 0 0 0 0 138.39434292130926 -205.92359710173241 0 -205.92359710173241 269.07458915091411 0 0 0 0 96.630483890141477 -208.16160365330506 0 -208.16160365330506 302.24718516520443 0 0 0 0 141.65632703203801 -196.6872216898737 0 -196.6872216898737 230.01237811960164 0 0 0 0 100.0132807620671 -142.54394982316808 0 -142.54394982316808 248.3219452361227 0 0 0 0 40.577468477410775 -194.37805944937918 0 -194.37805944937918 277.80633523652068 0 0 0 0 121.40173621992756 -153.90847905631199 0 -153.90847905631199 294.32028139898466 0 0 0 0 -0.84937073294630139 -0.89419760603565557 0 -0.89419760603565557 6.4076423899298049 0 0 0 0 212.4840448215341 -312.87028658106647 0 -312.87028658106647 326.16759438186273 0 0 0 0 88.425812966956642 131.21421662481771 0 131.21421662481771 120.12593742440004 0 0 0 0 197.30942539135685 356.49702909249754 0 356.49702909249754 409.49116165258783 0 0 0 0 10.720786721625927 -31.725387647416937 0 -31.725387647416937 97.749297340364137 0 0 0 0 -20.530340196371981 -4.1437334433758224 0 -4.1437334433758224 76.359723125271557 0 0 0 0 -107.51947427244522 -27.783149655875604 0 -27.783149655875604 129.81807756890339 0 0 0 0 -0.7968621523367907 0.82052952651420341 0 0.82052952651420341 14.218020640856849 0 0 0 0 125.54706129656563 -65.43946000602682 0 -65.43946000602682 19.697381430894893 0 0 0 0 -36.632085160893894 23.047295126589233 0 23.047295126589233 37.335291479517764 0 0 0 0 16.083340913939537 -2.9477166188844421 0 -2.9477166188844421 2.1013999326278281 0 0 0 0 93.118989013245482 3.4557562199988752 0 3.4557562199988752 103.99265957397074 0 0 0 0 14.143793331238157 -15.347559965804976 0 -15.347559965804976 15.267105321781855 0 0 0 0 9.4505969928772231 9.8538461174729903 0 9.8538461174729903 8.4364717872734616 0 0 0 0 26.400177884549521 -9.3131274171282712 0 -9.3131274171282712 3.4406615798994835 0 0 0 0 76.985011341704194 82.52863740797693 0 82.52863740797693 180.48571081804403 0 0 0 0 28.855367404526078 -31.24613374686669 0 -31.24613374686669 27.26926291147538 0 0 0 0 39.153465244981817 -22.528704212905723 0 -22.528704212905723 3.5764714599572471 0 0 0 0 34.701693863860783 -67.789287496932957 0 -67.789287496932957 73.025614128293455 0 0 0 0 -15.015497338032159 26.297319057004245 0 26.297319057004245 67.969175682616864 0 0 0 0 -33.634042107939166 181.20196470549575 0 181.20196470549575 -122.37486754732709 0 0 0 0 -1.4825994007214867 2.7645499438700085 0 2.7645499438700085 8.3983973736766302 0 0 0 0 -0.6821713240470022 2.7477672043007999 0 2.7477672043007999 17.919372720138199 0 0 0 0 -21.81047296489146 -8.1700813413390279 0 -8.1700813413390279 33.755484318709932 0 0 0 0 28.870969009030887 -37.898592194436787 0 -37.898592194436787 166.53765715512418 0 0 0 0 -63.171102875910492 -11.526202025719613 0 -11.526202025719613 50.468315451871604 0 0 0 0 -151.77478573282224 75.013990055003887 0 75.013990055003887 54.694787295040442 0 0 0 0 15.479990992850787 -52.672009416965011 0 -52.672009416965011 0.98636665911908494 0 0 0 0 -10.84217153817076 -112.19430895856021 0 -112.19430895856021 207.88530401430035 0 0 0 0 53.685963787035234 -154.29227168785292 0 -154.29227168785292 179.73344837692275 0 0 0 0 -75.674393168316328 7.8301302902254974 0 7.8301302902254974 110.52244401848293 0 0 0 0 -48.576341829185367 24.335622361955757 0 24.335622361955757 78.137400914518366 0 0 0 0 -134.36593503737436 -12.845389377704123 0 -12.845389377704123 85.151507775452046 0 0 0 0 -13.366918259805061 7.0533457173005445 0 7.0533457173005445 -75.647146647883346 0 0 0 0 -64.634999276080009 -199.78514843614425 0 -199.78514843614425 480.28249033565226 0 0 0 0 -1.5326179649256098 2.1537097027469372 0 2.1537097027469372 3.201093014018582 0 0 0 0 -176.59647361855696 -101.43513490451642 0 -101.43513490451642 470.19240497590363 0 0 0 0 -45.964137692208773 -51.784793935084963 0 -51.784793935084963 334.40935543814703 0 0 0 0 -228.18413840170706 18.129693502054579 0 18.129693502054579 417.77035666929078 0 0 0 0 297.75739778341676 483.03644457643531 0 483.03644457643531 -184.03751497022859 0 0 0 0 -9.6402745777674106 35.931026687275086 0 35.931026687275086 78.117600348121726 0 0 0 0 43.186520254043671 -558.55534462850301 0 -558.55534462850301 359.90787092108803 0 0 0 0 -1.6536977159787321 -1.3593562499849945 0 -1.3593562499849945 6.7726480067493924 0 0 0 0 -2.5921655832102624 3.3788628315394362 0 3.3788628315394362 8.8570228967325022 0 0 0 0 44.585920679139633 76.512093306788302 0 76.512093306788302 132.64579048423184 0 0 0 0 -162.80639589859265 152.3557752553279 0 152.3557752553279 -44.993448410781639 0 0 0 0 -205.169243812817 311.30846670361905 0 311.30846670361905 -3.0303846908900596 0 0 0 0 -6.4790007535436551 30.503458850100685 0 30.503458850100685 77.03184111593319 0 0 0 0 -61.88951909090315 10.229862511579995 0 10.229862511579995 154.94675223643935 0 0 0 0 -27.745370502201695 209.8646769152856 0 209.8646769152856 101.94896364293891 0 0 0 0 73.260085465128213 96.96514135221878 0 96.96514135221878 -141.64561584024705 0 0 0 0 -196.71123970630651 76.880919404187807 0 76.880919404187807 14.598562890409085 0 0 0 0 0.18816727587386595 85.783894387151122 0 85.783894387151122 84.788088327226433 0 0 0 0 -74.190047688599407 235.25830019186833 0 235.25830019186833 189.03344706626376 0 0 0 0 -214.58845731749932 78.018784044465065 0 78.018784044465065 191.36675268610634 0 0 0 0 -96.959181637255824 117.2976661099201 0 117.2976661099201 -62.504317613984313 0 0 0 0 -128.3946136315617 -27.516912697710723 0 -27.516912697710723 277.60853109164691 0 0 0 0 -139.49849831963894 57.421640477928122 0 57.421640477928122 116.57190951797384 0 0 0 0 -234.03550725179321 24.065676698828611 0 24.065676698828611 272.83394889199747 0 0 0 0 -106.1980890839825 2.6901179737596976 0 2.6901179737596976 318.4622001353091 0 0 0 0 -86.088984269959383 -61.296189342504476 0 -61.296189342504476 506.22371192564606 0 0 0 0 -21.39594769405835 -123.32579225916743 0 -123.32579225916743 320.30488330805747 0 0 0 0 -57.374945503569052 -159.61976063058682 0 -159.61976063058682 468.01553357981902 0 0 0 0 -94.869832811329616 -109.96407565249319 0 -109.96407565249319 382.04599731252165 0 0 0 0 -86.478453594718758 -36.700948779413011 0 -36.700948779413011 304.82997647173761 0 0 0 0 -95.750817649180931 -59.472676388562832 0 -59.472676388562832 272.04593685829605 0 0 0 0 -133.34692743168239 35.319776647567778 0 35.319776647567778 234.84686744992359 0 0 0 0 1.8688944014797926 10.495816339232988 0 10.495816339232988 139.61343397626479 0 0 0 0 -25.108554396407271 -51.24538775585097 0 -51.24538775585097 284.13004331260345 0 0 0 0 5.422001664495383 -3.9996410769647355 0 -3.9996410769647355 183.16025267899386 0 0 0 0 20.422690100639493 42.315479893132952 0 42.315479893132952 56.266710463715285 0 0 0 0 -3.6313271153185269 -7.6637763784401614 0 -7.6637763784401614 182.00533773842108 0 0 0 0 -42.902625777890265 6.6238141329926208 0 6.6238141329926208 21.416676038767733 0 0 0 0 -91.125868295119517 134.96692583984623 0 134.96692583984623 23.498148999249679 0 0 0 0 -213.00616481108818 86.793056760423497 0 86.793056760423497 147.13223100051255 0 0 0 0 -3.966493159535661 5.7756080389824831 0 5.7756080389824831 28.638174030457854 0 0 0 0 -36.433037291644723 -67.014213733409633 0 -67.014213733409633 9.2512015870088362 0 0 0 0 88.791541171098288 -232.2989312516238 0 -232.2989312516238 -207.99315365393159 0 0 0 0 -8.2668918175301087 -3.2542592511529804 0 -3.2542592511529804 1.3102344896281366 0 0 0 0 -104.05780209756267 -437.48124738723345 0 -437.48124738723345 383.38981575978323 0 0 0 0 -9.8066563927393418 -215.59050213580565 0 -215.59050213580565 -427.85886219852728 0 0 0 0 13.096981826155734 -6.952278649334005 0 -6.952278649334005 0.36854051778499297 0 0 0 0 -52.859761500280001 280.1899716371463 0 280.1899716371463 -91.417220003530019 0 0 0 0 -31.691363969886396 31.580511976852762 0 31.580511976852762 73.842102652128233 0 0 0 0 -16.698126660089656 -69.74693466219378 0 -69.74693466219378 -31.30347824585624 0 0 0 0 -2.3756003676276123 1.778463058760309 0 1.778463058760309 -4.0763898294318395 0 0 0 0 0.36407937323566131 0.19247589760822592 0 0.19247589760822592 -0.50783768689159725 0 0 0 0 237.1927883408589 -48.975076382721454 0 -48.975076382721454 -571.69460855927764 0 0 0 0 -12.505188279348317 17.784272897680466 0 17.784272897680466 54.399570776069595 0 0 0 0 99.139756503844183 19.222369459093898 0 19.222369459093898 -102.70598875999713 0 0 0 0 21.710976440568629 -50.191429628615879 0 -50.191429628615879 163.2710372483707 0 0 0 0 157.77669277104997 -72.990860836956927 0 -72.990860836956927 9.2510719952988438 0 0 0 0 178.37646404752741 165.11423472296337 0 165.11423472296337 -115.80869573624295 0 0 0 0 188.47312426696681 303.17947236058899 0 303.17947236058899 335.78770190080468 0 0 0 0 1.835240899962848 1.5503338979278354 0 1.5503338979278354 -0.36448940710238897 0 0 0 0 228.21910431092601 158.63228590889048 0 158.63228590889048 -304.93853224653776 0 0 0 0 -84.257481026447294 -205.99977855502152 0 -205.99977855502152 1221.8434928652496 0 0 0 0 -93.760074927448841 -110.43466635619916 0 -110.43466635619916 413.15381445051753 0 0 0 0 236.8667279900601 -535.57396960095502 0 -535.57396960095502 416.86757551451956 0 0 0 0 345.01815807584353 639.1254550779795 0 639.1254550779795 494.51003659800335 0 0 0 0 393.37641853124939 -652.54220426638039 0 -652.54220426638039 489.36211268000625 0 0 0 0 -316.07240755781095 76.918056630820502 0 76.918056630820502 1533.2216475048062 0 0 0 0 299.53780315844597 693.60780548035837 0 693.60780548035837 1079.8987393612497 0 0 0 0 6.4065987934816171 -8.0457920284511175 0 -8.0457920284511175 11.817744512015103 0 0 0 0 265.71008024992443 -289.10434013473423 0 -289.10434013473423 53.100818979968608 0 0 0 0 169.0668881997608 168.29486308683954 0 168.29486308683954 666.95635381196553 0 0 0 0 -124.45459918318011 -13.498736492932949 0 -13.498736492932949 699.89958216835203 0 0 0 0 111.93883211071807 320.90337726046346 0 320.90337726046346 400.04041461746419 0 0 0 0 -144.99113968869278 -38.268530749586716 0 -38.268530749586716 676.1668237505346 0 0 0 0 -21.327248720740499 14.474506269883932 0 14.474506269883932 614.18869616201118 0 0 0 0 -94.750173634150997 -175.47893284991187 0 -175.47893284991187 305.49691775286556 0 0 0 0 12.991510790074404 -20.53887005009863 0 -20.53887005009863 35.789205795964435 0 0 0 0 -100.88444858248113 -91.742997204240964 0 -91.742997204240964 107.78209444970707 0 0 0 0 -18.394600212894147 28.851844140444882 0 28.851844140444882 2.7613719443179434 0 0 0 0 -78.459678587771577 -73.002020140447883 0 -73.002020140447883 30.891276632821246 0 0 0 0 -4.6737076796556849 -11.689296673764396 0 -11.689296673764396 33.005762431599123 0 0 0 0 -34.674634782102657 -27.307662305058329 0 -27.307662305058329 10.8218395562144 0 0 0 0 15.865836867887573 -36.831816780638526 0 -36.831816780638526 36.872052347138208 0 0 0 0 -4.4615682942633867 2.694829649436798 0 2.694829649436798 11.28119306579643 0 0 0 0 43.059568747024741 -99.789049353680753 0 -99.789049353680753 338.44124713247766 0 0 0 0 -147.42644333539079 143.26718104925953 0 143.26718104925953 230.33720181658282 0 0 0 0 -15.826022217543141 12.034027741136015 0 12.034027741136015 -45.295878907661972 0 0 0 0 2.1047130834847252 2.7947616893624669 0 2.7947616893624669 -3.3213244718041608 0 0 0 0 -146.14083206547002 -203.22934895300932 0 -203.22934895300932 -86.605552883114797 0 0 0 0 -74.216275050075637 13.770216222674208 0 13.770216222674208 70.712508286884258 0 0 0 0 4.2706351772176276 11.851419304024603 0 11.851419304024603 143.71811260372488 0 0 0 0 3.0725370408636081 -3.4382566756212327 0 -3.4382566756212327 295.61862643694622 0 0 0 0 99.174235057273108 -63.968897233804455 0 -63.968897233804455 -10.067251248910907 0 0 0 0 -149.60694624817552 18.026711306341895 0 18.026711306341895 184.60059241273484 0 0 0 0 158.29672212524929 -261.1712789550611 0 -261.1712789550611 110.29649586337473 0 0 0 0 128.63855576509377 -232.05850735673812 0 -232.05850735673812 218.54996110628053 0 0 0 0 172.34194102999209 -270.99076841992064 0 -270.99076841992064 212.79790720380697 0 0 0 0 167.76813131549579 -267.50876091750433 0 -267.50876091750433 335.32402104248467 0 0 0 0 138.37934194819536 -152.24497196412267 0 -152.24497196412267 236.79676439388004 0 0 0 0 184.94847733822121 -142.67345339379062 0 -142.67345339379062 345.07972512160632 0 0 0 0 174.48858066265348 -185.05629746108752 0 -185.05629746108752 264.05016980713117 0 0 0 0 119.51614442135406 -160.88050227285657 0 -160.88050227285657 245.08778943945072 0 0 0 0 121.19416325504426 -101.50969945570978 0 -101.50969945570978 191.18439020701771 0 0 0 0 114.01933201447673 -115.75341008302348 0 -115.75341008302348 361.68442820219207 0 0 0 0 24.923297625129635 15.131069348470191 0 15.131069348470191 304.11982057564455 0 0 0 0 82.368121683972277 26.901105730103154 0 26.901105730103154 277.92696235598851 0 0 0 0 80.76706652401117 46.291600325581385 0 46.291600325581385 537.64489165644045 0 0 0 0 122.14578965183409 -142.57781784901999 0 -142.57781784901999 659.35916308281594 0 0 0 0 116.69244656831506 -90.869677712973498 0 -90.869677712973498 337.76693168376369 0 0 0 0 -5.3025826952000443 27.713718448963391 0 27.713718448963391 27.881840423229733 0 0 0 0 1.8966859726465337 0.92644704517358178 0 0.92644704517358178 2.1691412554338214 0 0 0 0 30.05570853545214 30.350385435799581 0 30.350385435799581 732.17356522379123 0 0 0 0 11.430003605051752 99.685861570211273 0 99.685861570211273 504.98712874791818 0 0 0 0 -0.35065411075661856 0.5297574610316218 0 0.5297574610316218 -0.53698398367166078 0 0 0 0 48.864479152649437 8.1825458675157279 0 8.1825458675157279 269.61799579960643 0 0 0 0 -9.9076692742419255 32.94585308445312 0 32.94585308445312 38.956307672186085 0 0 0 0 -0.12825707129445618 13.782820541710862 0 13.782820541710862 13.105316116187169 0 0 0 0 -9.7250736873054535 10.652043348446782 0 10.652043348446782 -5.3075608821131937 0 0 0 0 43.666001153043908 121.38563075342608 0 121.38563075342608 257.35192704838846 0 0 0 0 -34.791469107716694 99.943205885705538 0 99.943205885705538 290.90790421021029 0 0 0 0 -48.873074497494599 142.06573853722512 0 142.06573853722512 221.0858219853726 0 0 0 0 -81.204416154336286 11.184352434222092 0 11.184352434222092 160.52120868367456 0 0 0 0 5.7553902299732727 -23.848035755690944 0 -23.848035755690944 88.386022763152141 0 0 0 0 -14.300414117618857 13.010903754613537 0 13.010903754613537 20.766355253013899 0 0 0 0 -14.1681707384123 6.5851908640361216 0 6.5851908640361216 37.041154353009006 0 0 0 0 -23.432891751116635 14.837240002078623 0 14.837240002078623 0.21394102653741243 0 0 0 0 -7.3932585204697663 -6.8335655860329254 0 -6.8335655860329254 41.449008427357668 0 0 0 0 -6.0261103837183327 -6.9336603821066092 0 -6.9336603821066092 22.119635689712595 0 0 0 0 -25.793693246580006 10.56052794648167 0 10.56052794648167 78.897086031916842 0 0 0 0 -21.979939086737858 0.46970461961731047 0 0.46970461961731047 61.186447885694989 0 0 0 0 -46.079606856388182 -87.78264016603498 0 -87.78264016603498 361.9372480073871 0 0 0 0 -55.077817161916528 -97.821505150693156 0 -97.821505150693156 350.7698869747037 0 0 0 0 -51.321820121761903 -107.86368023935574 0 -107.86368023935574 377.16804454321391 0 0 0 0 38.663545020856873 -97.119851768162334 0 -97.119851768162334 331.76434241936295 0 0 0 0 -42.636710778519046 -99.539448908959457 0 -99.539448908959457 363.76820015373414 0 0 0 0 82.509504941640444 -96.54625429634325 0 -96.54625429634325 248.6658927816261 0 0 0 0 -40.631091716776609 -62.197131685043132 0 -62.197131685043132 316.83051496983171 0 0 0 0 -74.883461852075982 -37.022238757992454 0 -37.022238757992454 311.29966489856452 0 0 0 0 -39.250460569467108 -83.100027844437932 0 -83.100027844437932 342.21058556296339 0 0 0 0 -64.93362602933442 -75.488914698686131 0 -75.488914698686131 356.58207721495637 0 0 0 0 -69.990892280125877 -93.626212462669173 0 -93.626212462669173 381.98773834938766 0 0 0 0 -88.920430455221265 -86.928940939746553 0 -86.928940939746553 366.08790724478604 0 0 0 0 -48.346328513556728 -110.78934670770468 0 -110.78934670770468 383.03131621955981 0 0 0 0 -37.33224023018829 -84.826769223858719 0 -84.826769223858719 359.52141257602852 0 0 0 0 77.31874632158906 -259.44081915934657 0 -259.44081915934657 433.03071279618052 0 0 0 0 0.43521180709285545 -166.97091419213029 0 -166.97091419213029 358.33938966100686 0 0 0 0 24.640005708633907 -128.78295248833456 0 -128.78295248833456 349.84082560030583 0 0 0 0 139.56261197052481 -204.1412771887226 0 -204.1412771887226 278.85488157884174 0 0 0 0 147.90106958759861 -143.71221392773805 0 -143.71221392773805 346.57776802225271 0 0 0 0 47.523845995370721 -119.16630913351401 0 -119.16630913351401 382.86422063870123 0 0 0 0 30.52011833884626 -84.965302357835753 0 -84.965302357835753 499.49597616740357 0 0 0 0 230.18409063659783 -214.7682981746766 0 -214.7682981746766 399.07187145084026 0 0 0 0 220.59837635323856 -78.734072926647059 0 -78.734072926647059 383.31307810300495 0 0 0 0 -29.637049869876137 -102.02471483119734 0 -102.02471483119734 370.49801959835895 0 0 0 0 -39.382671427794776 -108.06467064926983 0 -108.06467064926983 373.8363411291175 0 0 0 0 -29.059248563871733 -107.33115012275448 0 -107.33115012275448 418.77488993679435 0 0 0 0 49.296023817799949 -109.73735794593949 0 -109.73735794593949 373.89015984533762 0 0 0 0 25.112667233405773 -146.61085666501458 0 -146.61085666501458 374.67964009080242 0 0 0 0 -42.786363337985222 -99.397627995153016 0 -99.397627995153016 374.50447311754397 0 0 0 0 -20.259885466329706 -121.6031687322029 0 -121.6031687322029 337.86287142201763 0 0 0 0 -13.680984344867284 -136.3297090572305 0 -136.3297090572305 349.60794367880953 0 0 0 0 -1.0979121956302151 -117.26728683902184 0 -117.26728683902184 280.19129293207516 0 0 0 0 -10.263114930012307 -122.71815202301877 0 -122.71815202301877 358.73613168476732 0 0 0 0 13.884409940517799 -165.42242654142319 0 -165.42242654142319 352.24767447983322 0 0 0 0 43.072924980344396 -160.5921686923466 0 -160.5921686923466 246.1927290652493 0 0 0 0 -4.1644929358836968 11.502356871917272 0 11.502356871917272 11.982482325934178 0 0 0 0 103.8255427555996 -26.063030271070602 0 -26.063030271070602 99.668914664136537 0 0 0 0 258.03210334731557 -172.95836557798611 0 -172.95836557798611 29.514963284389523 0 0 0 0 58.153563147291607 -252.02761392723551 0 -252.02761392723551 405.56144345717621 0 0 0 0 46.102006817021902 -144.58818686609447 0 -144.58818686609447 286.71998149240972 0 0 0 0 56.670051645123749 -173.11033444939676 0 -173.11033444939676 285.23511968502135 0 0 0 0 -33.037976668740157 -200.44543997485016 0 -200.44543997485016 233.44429187662899 0 0 0 0 25.243953810097082 -171.50235503748263 0 -171.50235503748263 285.36487156917792 0 0 0 0 -3.0767272702488775 -1.2578978047520835 0 -1.2578978047520835 6.059223957467637 0 0 0 0 23.359608335766097 -144.22187033024966 0 -144.22187033024966 287.42665999683959 0 0 0 0 -15.894450613642562 6.8970973954055808 0 6.8970973954055808 17.745186571268277 0 0 0 0 -16.896481650616622 4.3069307580873399 0 4.3069307580873399 5.2362021619840675 0 0 0 0 73.827210367304076 -94.181409945704218 0 -94.181409945704218 151.2078903110887 0 0 0 0 -16.956936195625119 15.82259768406584 0 15.82259768406584 23.249028201647889 0 0 0 0 -11.460809447924989 9.1155775873449443 0 9.1155775873449443 17.735836276891206 0 0 0 0 5.6995596066972212 -82.26894325264584 0 -82.26894325264584 217.17003003499121 0 0 0 0 -9.9179644118087253 -98.95914208596605 0 -98.95914208596605 281.55729123412311 0 0 0 0 -6.6592505106341378 -84.077566054013005 0 -84.077566054013005 203.61616312840488 0 0 0 0 -43.030170776994282 -92.949723638026626 0 -92.949723638026626 349.01608087430304 0 0 0 0 -23.557646661204672 -104.07381929219446 0 -104.07381929219446 280.99638664473605 0 0 0 0 -39.449744861975887 -81.356089378256002 0 -81.356089378256002 353.74103196477517 0 0 0 0 -38.714126367770859 -94.39448501868992 0 -94.39448501868992 323.88182299409527 0 0 0 0 -31.577596158032975 -60.412852032066439 0 -60.412852032066439 313.78080728107125 0 0 0 0 -2.7398351071631168 34.365579496059581 0 34.365579496059581 282.24139292412292 0 0 0 0 -28.189392888301882 -54.020772041782038 0 -54.020772041782038 265.3232018352428 0 0 0 0 77.699276403911426 -183.40040745869919 0 -183.40040745869919 132.16605012843502 0 0 0 0 61.634134358701886 -219.2176830409262 0 -219.2176830409262 150.01159045054737 0 0 0 0 192.83317762137631 -325.01806198827671 0 -325.01806198827671 -688.20038156922965 0 0 0 0 126.58027866961766 -24.195248035544864 0 -24.195248035544864 440.37609900607276 0 0 0 0 -79.915980448001392 -69.28852920035024 0 -69.28852920035024 362.50407989964515 0 0 0 0 -2.9857273068146242 -142.20245658945896 0 -142.20245658945896 387.45127885253169 0 0 0 0 98.829551779914254 -127.70045346064944 0 -127.70045346064944 331.67366940900683 0 0 0 0 37.973942592178759 -117.46858652085567 0 -117.46858652085567 338.37298122085485 0 0 0 0 193.34113865444169 -342.24722540064431 0 -342.24722540064431 567.46496513971579 0 0 0 0 8.1131228167478362 16.852043752724491 0 16.852043752724491 28.020691669030484 0 0 0 0 -253.39098145372918 326.42147673474756 0 326.42147673474756 -60.005802606503494 0 0 0 0 -266.14936932220462 141.99280053454277 0 141.99280053454277 171.93548753623327 0 0 0 0 -83.581088375760373 61.982883845936158 0 61.982883845936158 -134.76438556884659 0 0 0 0 109.21106914513075 -164.87316843772533 0 -164.87316843772533 319.82460439619172 0 0 0 0 16.748029317518814 28.843299954154034 0 28.843299954154034 44.43791756477367 0 0 0 0 -190.91862727744183 335.7655589677579 0 335.7655589677579 -20.384746400770382 0 0 0 0 -37.406593678398622 -69.598304060908958 0 -69.598304060908958 308.9000376773547 0 0 0 0 -64.013830273577014 69.813014342400038 0 69.813014342400038 290.03142944218416 0 0 0 0 -153.10571974513005 128.9359473718614 0 128.9359473718614 248.98151939916715 0 0 0 0 -33.682934626429414 -38.923840158913663 0 -38.923840158913663 78.987198190450727 0 0 0 0 -114.31240458363027 93.993231877411745 0 93.993231877411745 -171.73448794762953 0 0 0 0 -78.374143972954698 199.82456330293644 0 199.82456330293644 -17.03603765891603 0 0 0 0 -109.14249324747129 21.49590490138371 0 21.49590490138371 88.044223266821064 0 0 0 0 -176.51708635406794 247.4413783136697 0 247.4413783136697 -173.19940068720302 0 0 0 0 -114.60268090511454 167.95751731122346 0 167.95751731122346 -296.29059777216753 0 0 0 0 2.5964964364458822 4.8417866706327004 0 4.8417866706327004 9.7157743888583639 0 0 0 0 530.28864724726373 -410.06624202896273 0 -410.06624202896273 409.70937320358644 0 0 0 0 259.53526846831528 -1205.7639380594046 0 -1205.7639380594046 1190.8420681900679 0 0 0 0 -32.729240415905224 382.72837648004133 0 382.72837648004133 -48.486218757272582 0 0 0 0 -1374.5735815630851 -222.95694487999572 0 -222.95694487999572 1680.162416371757 0 0 0 0 16.119820396942643 -17.408941821705412 0 -17.408941821705412 13.047881316303574 0 0 0 0 487.11033821436649 -1020.8597711426664 0 -1020.8597711426664 266.0322336613026 0 0 0 0 82.870324587972391 -136.90105943036542 0 -136.90105943036542 282.66767315677134 0 0 0 0 13.712777844177253 -149.75862752264584 0 -149.75862752264584 487.49455414296244 0 0 0 0 60.93330245413199 61.377840812823706 0 61.377840812823706 32.76081159696696 0 0 0 0 -0.81038647648965867 1.7753289142728885 0 1.7753289142728885 7.4299133553884928 0 0 0 0 1.5822227910259823 -2.7286798306134745 0 -2.7286798306134745 15.688322608897039 0 0 0 0 -93.217407737059148 -86.471353541583085 0 -86.471353541583085 -82.992302909944556 0 0 0 0 10.472524626929127 -14.947627754189483 0 -14.947627754189483 18.236171695937998 0 0 0 0 19.877183084483022 -10.144040559825953 0 -10.144040559825953 -5.6035263611083792 0 0 0 0 -296.68458615917552 39.070596679139271 0 39.070596679139271 -15.586211193364761 0 0 0 0 -263.3943572382741 205.58755437613945 0 205.58755437613945 -81.913018296059363 0 0 0 0 306.00098103555456 596.13938490049259 0 596.13938490049259 628.86763017514022 0 0 0 0 273.53932823004607 277.59924042249622 0 277.59924042249622 189.47268700116547 0 0 0 0 34.033662046177596 172.17733140295604 0 172.17733140295604 364.36953130386246 0 0 0 0 -90.88338267310246 -28.58029536655522 0 -28.58029536655522 44.481323300657095 0 0 0 0 111.57552763910599 240.91928797243236 0 240.91928797243236 180.66787251636561 0 0 0 0 1.9577575345756486 256.60755544307904 0 256.60755544307904 491.79980129407704 0 0 0 0 226.93184954756202 393.11972749122287 0 393.11972749122287 397.33108776948939 0 0 0 0 261.28614325255984 50.578801057678902 0 50.578801057678902 284.12841034057783 0 0 0 0 80.194240740592249 142.36749692155718 0 142.36749692155718 242.17771767183876 0 0 0 0 100.83334651112045 -70.385510306849028 0 -70.385510306849028 183.73892170802719 0 0 0 0 91.162721940923177 -28.426991864339925 0 -28.426991864339925 -2.9711127745977137 0 0 0 0 0.59392334378939804 -8.2736188100032244 0 -8.2736188100032244 42.156894603881284 0 0 0 0 -32.584199752718632 -14.100452562208375 0 -14.100452562208375 162.93452603873448 0 0 0 0 -212.65057169039301 -64.024498278806277 0 -64.024498278806277 127.21484867855906 0 0 0 0 -94.673462548258613 -73.224541280549602 0 -73.224541280549602 131.15897109128855 0 0 0 0 -64.288154605902491 -5.471764497939148 0 -5.471764497939148 165.95397183457681 0 0 0 0 15.114378623398807 -76.038929491995077 0 -76.038929491995077 8.9140282518201275 0 0 0 0 -164.12656227323532 -132.3161255109444 0 -132.3161255109444 69.687496189115336 0 0 0 0 -181.32201436689138 -117.66402079704858 0 -117.66402079704858 75.532441758114146 0 0 0 0 -181.40057706582957 -76.230841876051272 0 -76.230841876051272 29.843628713220824 0 0 0 0 -304.85755516447534 51.472664425557014 0 51.472664425557014 -100.25967481511179 0 0 0 0 -5.3839989719076211 -1.9730423460667765 0 -1.9730423460667765 9.8548860081474032 0 0 0 0 -32.42055375412383 -47.477071390210767 0 -47.477071390210767 274.54685901556513 0 0 0 0 -18.339706963826757 -75.097987183013174 0 -75.097987183013174 314.94654045595962 0 0 0 0 21.405841436588162 2.0420375602770946 0 2.0420375602770946 281.55939196849067 0 0 0 0 35.219554374896688 98.83299870184419 0 98.83299870184419 356.26171579897346 0 0 0 0 -25.339303258808286 108.29902517741721 0 108.29902517741721 478.30772912759858 0 0 0 0 -21.297184640970954 -93.308645454977523 0 -93.308645454977523 -18.517560699943715 0 0 0 0 -79.612796145850552 22.62461169254675 0 22.62461169254675 3.5529735886666458 0 0 0 0 -208.917469875395 -6.0836939054797767 0 -6.0836939054797767 97.188162079604808 0 0 0 0 3.0540199009739695 11.010153017364246 0 11.010153017364246 116.35498127054598 0 0 0 0 12.886871146975864 -30.142084846243961 0 -30.142084846243961 27.14115387959464 0 0 0 0 -13.525276051023411 -57.054209443602304 0 -57.054209443602304 38.765804220005521 0 0 0 0 37.879504675787075 -97.070694830967113 0 -97.070694830967113 68.299932604364585 0 0 0 0 2.7947099431257811 -0.72272195713594556 0 -0.72272195713594556 95.76629664615848 0 0 0 0 -112.51128695568332 143.54201726033352 0 143.54201726033352 -90.661915590106219 0 0 0 0 -91.145175324068987 -45.63923636781692 0 -45.63923636781692 1.2212678265004797 0 0 0 0 -84.867552818355762 8.9003828064087429 0 8.9003828064087429 96.422072208268219 0 0 0 0 42.726756477233721 -40.5898115450982 0 -40.5898115450982 -85.698932869760938 0 0 0 0 18.29217928917933 -70.3496864544868 0 -70.3496864544868 -57.321166490699397 0 0 0 0 -58.54735826776232 -91.749477625620784 0 -91.749477625620784 30.824733329776791 0 0 0 0 8.3223700501657731 13.597087378810102 0 13.597087378810102 -28.48024842824816 0 0 0 0 0.0082744582359737251 -15.960632880160119 0 -15.960632880160119 52.370898767549079 0 0 0 0 -36.260857565634069 8.0120318051340291 0 8.0120318051340291 162.42416953641077 0 0 0 0 5.0496840877567593 -54.656988928822102 0 -54.656988928822102 87.447812546175555 0 0 0 0 -45.230274843244842 -61.735621453612112 0 -61.735621453612112 252.41050015376823 0 0 0 0 -46.295383643515379 -13.937013130896958 0 -13.937013130896958 310.66886400080693 0 0 0 0 -15.604281492935115 -92.191924394130183 0 -92.191924394130183 178.34395138014952 0 0 0 0 -16.562537637808418 -5.0559131150530447 0 -5.0559131150530447 109.07543510424148 0 0 0 0 -71.426025188406129 -111.77706261019921 0 -111.77706261019921 499.72937756641477 0 0 0 0 -129.59489640395623 -78.13049348779532 0 -78.13049348779532 734.92018669950994 0 0 0 0 -28.143972029869474 -12.321124829330074 0 -12.321124829330074 310.5249763981783 0 0 0 0 31.529481558372936 -208.84680428956926 0 -208.84680428956926 489.2561428259778 0 0 0 0 -25.378873762090734 -6.8559146668249014 0 -6.8559146668249014 300.52380184322828 0 0 0 0 -8.24376344153643 -66.998865420748189 0 -66.998865420748189 370.61451059543469 0 0 0 0 -45.485536911128293 -13.652277673791104 0 -13.652277673791104 484.91168028657557 0 0 0 0 148.89307798228401 -126.00210703066114 0 -126.00210703066114 355.75889030119833 0 0 0 0 11.698455330304569 -5.6957043291222362 0 -5.6957043291222362 305.49610303626105 0 0 0 0 -62.016732723204768 -71.844816113720299 0 -71.844816113720299 255.95569881497795 0 0 0 0 -28.346915474645357 102.57630021390651 0 102.57630021390651 156.75972617630759 0 0 0 0 47.301524633428926 65.113336815466027 0 65.113336815466027 425.68152096810081 0 0 0 0 -457.13284342353654 -56.078168924555939 0 -56.078168924555939 -132.43779286165955 0 0 0 0 321.12544092958524 208.82116625753406 0 208.82116625753406 -935.81788285029688 0 0 0 0 -2.5980022366580471 -0.0053617355237918218 0 -0.0053617355237918218 -0.18320578095375595 0 0 0 0 -31.755883796168291 -79.042187416231172 0 -79.042187416231172 739.15253626837512 0 0 0 0 -46.957398657716112 -216.09472729941626 0 -216.09472729941626 649.6586485294356 0 0 0 0 -20.97222513814836 -78.313333756254906 0 -78.313333756254906 550.08734384185664 0 0 0 0 31.741568592962722 -95.032252495206194 0 -95.032252495206194 547.73891175170866 0 0 0 0 7.1930986502538339 3.9207428326904363 0 3.9207428326904363 0.63598030377622905 0 0 0 0 22.553465690316898 -58.229506464418591 0 -58.229506464418591 427.24250400422898 0 0 0 0 78.694817825523387 -62.028671622025286 0 -62.028671622025286 -103.63186625178787 0 0 0 0 39.411789896007434 -7.4280409533935483 0 -7.4280409533935483 2.6281228724489374 0 0 0 0 2.7333827556512915 -42.295226768132125 0 -42.295226768132125 -64.657897889914238 0 0 0 0 67.075538661593782 -72.719947730689455 0 -72.719947730689455 -57.454072554653976 0 0 0 0 4.5422554079477777 -99.545337350798945 0 -99.545337350798945 14.9369493216509 0 0 0 0 -47.81305985155268 -52.322913811789476 0 -52.322913811789476 -26.937396282817645 0 0 0 0 38.623162556495572 35.673411235336971 0 35.673411235336971 -406.88186283053074 0 0 0 0 -69.945491420571216 -86.385193813002843 0 -86.385193813002843 10.613892315377598 0 0 0 0 18.563625954282713 3.7922789576826688 0 3.7922789576826688 5.8851967351298171 0 0 0 0 6.8419755557834936 -6.6051050625822683 0 -6.6051050625822683 36.392441540181437 0 0 0 0 -306.88722687371046 265.68579047161984 0 265.68579047161984 39.419900301581947 0 0 0 0 43.365617305091291 36.790228597245004 0 36.790228597245004 508.46616802750395 0 0 0 0 -53.057456820381049 -215.78235924164619 0 -215.78235924164619 799.77922579563165 0 0 0 0 -26.373436514721107 -383.25009327370208 0 -383.25009327370208 1125.6510661290486 0 0 0 0 10.923783454229056 -1.034538648317147 0 -1.034538648317147 0.39548395325809338 0 0 0 0 41.065042187747167 318.45082672811259 0 318.45082672811259 1151.4784838337073 0 0 0 0 1011.646547972543 514.99353314378823 0 514.99353314378823 388.34800661265763 0 0 0 0 -198.64137007463432 -729.15595889080578 0 -729.15595889080578 1690.9103768206696 0 0 0 0 -739.87837151224176 -309.34615888602457 0 -309.34615888602457 1451.9946230512578 0 0 0 0 102.44503189808165 -670.7605401371402 0 -670.7605401371402 1563.515885249064 0 0 0 0 508.85487957012083 -1023.6573409085104 0 -1023.6573409085104 1448.8526080876691 0 0 0 0 104.44148239554488 -636.51609756073594 0 -636.51609756073594 1085.3598560093815 0 0 0 0 105.71852708283404 -191.92528349678105 0 -191.92528349678105 222.6616430407812 0 0 0 0 282.05039064502125 -336.67601259144794 0 -336.67601259144794 277.34895090753707 0 0 0 0 174.67437539357343 -123.68466155746137 0 -123.68466155746137 259.30566587610519 0 0 0 0 806.36953894052021 -753.73607231101778 0 -753.73607231101778 445.5872003986733 0 0 0 0 446.32738723621878 -315.21371692551475 0 -315.21371692551475 122.00017386523541 0 0 0 0 128.6452499428342 -411.22060364182107 0 -411.22060364182107 938.33984574321948 0 0 0 0 498.83727228453608 -618.35181098733756 0 -618.35181098733756 461.6702321881894 0 0 0 0 219.71609049234166 -365.62850654877911 0 -365.62850654877911 416.91302258757059 0 0 0 0 82.504163100813457 -290.03497607175086 0 -290.03497607175086 603.98257589074638 0 0 0 0 59.118217694756822 -370.89701939756196 0 -370.89701939756196 675.29484389142817 0 0 0 0 132.40190973917925 -420.3299821037017 0 -420.3299821037017 783.04768090092693 0 0 0 0 34.832862127794215 -287.54001387256358 0 -287.54001387256358 441.80665766303719 0 0 0 0 98.606774316480823 -115.02395549405082 0 -115.02395549405082 105.65736217796803 0 0 0 0 54.652179657826309 -227.10977580097187 0 -227.10977580097187 378.55364010039921 0 0 0 0 66.721423238494026 -184.37932880217704 0 -184.37932880217704 312.51103008188693 0 0 0 0 -94.952341894882807 -3.9291348301101152 0 -3.9291348301101152 86.793247419642285 0 0 0 0 213.79092143352682 -95.289455593228922 0 -95.289455593228922 -66.320607147463306 0 0 0 0 91.953355011977692 -213.32072618566599 0 -213.32072618566599 472.57650424775238 0 0 0 0 80.053654910312616 -189.33723913644644 0 -189.33723913644644 480.34066490668738 0 0 0 0 90.952532262180966 -155.05946873047924 0 -155.05946873047924 399.19503050873755 0 0 0 0 34.410483367202687 -197.86299130043699 0 -197.86299130043699 529.6925150914758 0 0 0 0 6.3228082245605037 -229.99887193493123 0 -229.99887193493123 507.73128610284766 0 0 0 0 -4.4385082636144944 -261.77392392688489 0 -261.77392392688489 678.76341566811607 0 0 0 0 8.8188178948221321 -237.86264810882494 0 -237.86264810882494 513.48662850605251 0 0 0 0 46.523030145998746 -261.89977522896515 0 -261.89977522896515 459.74019999966549 0 0 0 0 40.779882516397265 -207.83331738292327 0 -207.83331738292327 407.94141904168828 0 0 0 0 121.62816372419911 -234.63998325056309 0 -234.63998325056309 425.27054081721508 0 0 0 0 88.734908957155312 -210.90136616867312 0 -210.90136616867312 473.73881247280224 0 0 0 0 159.78656571806323 -167.92587860869935 0 -167.92587860869935 465.81883110271156 0 0 0 0 79.674875355141921 -192.40272252535215 0 -192.40272252535215 695.10802560746288 0 0 0 0 175.87978456870042 -251.08146646898967 0 -251.08146646898967 430.85125079585123 0 0 0 0 132.75603989924275 -202.14649120125614 0 -202.14649120125614 438.676305535133 0 0 0 0 93.315781162935764 -104.30272366053214 0 -104.30272366053214 382.54377420547098 0 0 0 0 39.289926020170242 -9.5719340381328948 0 -9.5719340381328948 287.35211307133795 0 0 0 0 -89.152782229281001 -17.632998821914953 0 -17.632998821914953 333.40090922387753 0 0 0 0 -95.088602406749487 45.59091463839286 0 45.59091463839286 288.81044403668056 0 0 0 0 36.496829163759685 -148.64535484464432 0 -148.64535484464432 348.30884235295161 0 0 0 0 44.750073259820113 -30.551014711301605 0 -30.551014711301605 240.20154446692322 0 0 0 0 141.54924375482733 -117.78920775945517 0 -117.78920775945517 300.1146699341698 0 0 0 0 76.109741237283743 -121.51648080348605 0 -121.51648080348605 442.0615634687847 0 0 0 0 52.247821725963149 -29.00340244959807 0 -29.00340244959807 288.05686334203347 0 0 0 0 91.627387544775047 -8.9310552267070307 0 -8.9310552267070307 146.77199049261981 0 0 0 0 -151.99197720580196 363.88104080560151 0 363.88104080560151 -146.34240535412846 0 0 0 0 -74.101965302942517 124.50897762204841 0 124.50897762204841 231.39430188731785 0 0 0 0 -11.052642113607362 89.61377948955851 0 89.61377948955851 49.281043243965541 0 0 0 0 -28.350931271957052 -23.310853702863824 0 -23.310853702863824 268.95820469911996 0 0 0 0 -139.68521870061159 51.661709601561597 0 51.661709601561597 261.75863710503108 0 0 0 0 -10.60360735429731 77.175201858604851 0 77.175201858604851 266.28395268336317 0 0 0 0 82.104191946197716 150.42645718331551 0 150.42645718331551 -465.00447044615066 0 0 0 0 -42.573120630560879 -21.452804877579183 0 -21.452804877579183 -83.592171403986868 0 0 0 0 -118.87877671593469 -80.576623305219982 0 -80.576623305219982 14.495321994763799 0 0 0 0 35.283958964873818 165.82376262152684 0 165.82376262152684 -101.60588796882803 0 0 0 0 -176.83408380478431 73.275804057175264 0 73.275804057175264 254.75848261149986 0 0 0 0 69.350785840990739 116.10216291058123 0 116.10216291058123 -88.377079818383208 0 0 0 0 -26.640147368865382 5.8665910638011383 0 5.8665910638011383 0.74428471208219449 0 0 0 0 -166.88274645229103 -76.408021993691364 0 -76.408021993691364 488.49694607502897 0 0 0 0 35.507616226145501 -100.33022273137112 0 -100.33022273137112 159.65666918492934 0 0 0 0 74.368923449350405 94.161501401173155 0 94.161501401173155 205.71423830697677 0 0 0 0 180.5824872075118 336.99158232269656 0 336.99158232269656 -914.0449921612817 0 0 0 0 70.813305638832389 -156.06925261006108 0 -156.06925261006108 344.20529770027861 0 0 0 0 -12.569802843334099 4.2070545128860743 0 4.2070545128860743 2.0445526022018932 0 0 0 0 -88.842728887631893 -96.133212144883146 0 -96.133212144883146 605.50538896789294 0 0 0 0 1.4023202010592648 1.8585133884012066 0 1.8585133884012066 0.31037856370885919 0 0 0 0 -190.32261852987358 -99.424846181071189 0 -99.424846181071189 -600.9084714428318 0 0 0 0 10.768223122199743 -43.037019284100097 0 -43.037019284100097 477.24565332938801 0 0 0 0 62.78477515198756 -89.87875759130111 0 -89.87875759130111 450.0724323588438 0 0 0 0 -29.172519619965897 10.311211847714731 0 10.311211847714731 435.14033155186917 0 0 0 0 79.057054579731812 -68.436674656062678 0 -68.436674656062678 374.48156355232641 0 0 0 0 -32.886673806149702 100.72077500545129 0 100.72077500545129 -25.905447071898379 0 0 0 0 -55.339947082582512 47.180738463677699 0 47.180738463677699 383.29825170042022 0 0 0 0 -94.17012449530921 329.45192276182206 0 329.45192276182206 -100.47582950736978 0 0 0 0 -260.29833688316285 255.10065636334912 0 255.10065636334912 293.75301103037782 0 0 0 0 
</DataArray>
<DataArray type="Float64" Name="cross_section_updated" format="ascii">
0.0099571702128110427 1 1 1 1 1 1 1 1 0.0099911757893330708 1 1 1 0.01015945336888718 1 1 1 1 1 1 1 1 1 1 1 1 1 1 1 0.0099912488088055706 1 1 0.0098300730750756661 1 1 1 0.0097241485702387765 1 1 1 0.0098512796956290692 1 1 1 1 1 1 1 1 0.010411326311849798 1 1 1 1 1 1 0.010116719040443079 1 1 1 1 1 1 1 1 1 0.010771230016242864 1 1 0.00992704177498069 1 1 1 0.012061714332496613 1 0.011628650909153521 1 0.0098889671078994136 0.0099670958978315908 1 1 1 1 1 1 1 1 1 0.010741310857396224 1 0.013293922625800002 1 1 0.0100508358652662 1 1 1 1 1 1 1 1 1 1 1 1 1 1 1 0.010061823811439559 1 1 1 1 0.010916251069933373 1 1 0.010002995716004263 0.011872221110994535 1 1 0.0099965523570172219 1 1 1 0.010991549884495765 0.010433852599572583 0.010474425147947797 1 0.010798251536480936 1 1 1 1 1 1 1 1 1 0.0099928321280594971 0.011093587422090746 1 1 1 1 1 1 0.0099991258277031935 1 1 1 1 1 0.010020297918425394 0.010937994006926292 1 1 0.0099169589303989697 1 1 0.0096967386429305438 0.012098611342747137 1 0.011681333303296272 0.011616460479672925 1 1 1 1 1 1 1 1 1 1 1 1 0.013176885393753111 1 1 0.010467697092436442 1 1 1 1 1 1 1 1 1 1 1 1 1 1 1 1 1 1 1 1 0.010159376558647008 1 1 1 1 1 1 1 1 1 1 1 1 1 1 1 0.0097616038403895069 1 1 0.0095907827679217548 1 1 1 1 0.010205916852894759 0.0099168747417754631 1 1 1 1 1 1 1 1 1 1 1 1 1 1 1 0.010546777247833695 1 1 1 0.0095859443651165541 1 1 1 1 1 1 1 1 0.0090998372974506313 0.010346856392954176 1 1 1 1 1 1 1 1 1 0.0086900543402005544 1 1 1 1 1 0.011197991533523938 1 0.010606966047294672 1 1 1 1 1 0.015519051716846692 0.011294159762464657 1 1 1 0.0077978416308666105 1 0.016777389020811054 1 1 1 0.013944723563700395 1 0.0097698125747403726 1 1 0.013946181362302783 1 1 1 0.0098016113936472103 1 1 1 1 1 0.011404122766895709 0.010670645711731923 1 1 0.0099977909536446401 1 0.01081837089046396 0.0097532484953267648 1 1 0.010035157619548953 1 0.0095014432553060125 1 1 1 1 0.010160578598201402 1 0.0093062238717141615 1 1 0.009609391561369824 0.0096894465188655347 0.0096769874170417689 1 0.01009225957862166 1 0.0095759969577502244 0.010390395418246934 1 1 1 1 1 1 1 1 1 0.010012696250899195 1 1 1 1 1 1 1 1 1 1 1 1 1 1 1 1 1 1 1 1 1 1 1 1 0.0090789963837650343 1 0.0099395137440856964 1 1 1 1 1 0.0092407316586543744 1 0.011087797749843229 1 1 0.0092853035078268292 1 1 1 1 0.011834476637193911 1 0.0091663389452405104 1 1 1 1 1 1 1 1 1 1 1 1 1 0.011192888676642655 1 1 0.010020396090789608 1 1 1 1 1 1 1 1 1 1 1 1 1 1 1 1 1 0.0098079696790949779 1 1 1 1 1 1 1 1 1 1 0.0098437961827644669 1 1 1 0.010025551907787379 0.0095563891948518172 1 1 1 1 1 1 1 1 1 1 1 1 1 1 1 1 1 1 1 1 1 1 1 0.010766593146742628 1 1 0.0095500410312114991 1 1 0.011109392906109967 1 0.010395092284482 1 1 1 0.010142842557628493 1 0.011331625570030942 0.010401293817397518 1 1 1 1 1 1 1 1 1 1 0.010151346465112154 1 1 1 1 1 1 1 1 1 1 1 1 1 1 1 1 1 1 1 1 1 1 1 1 1 1 1 1 1 1 1 1 0.010047743760912411 1 1 1 1 0.0099249992992380444 1 1 1 1 1 1 1 0.011666871697628497 1 1 1 1 1 1 1 1 1 0.010018049791754259 1 0.011471384283618534 0.010838253432039762 1 1 0.010267462131804054 1 0.012229286569999344 1 1 1 1 1 1 1 1 0.010045566915282468 1 1 1 1 1 0.011774585753630698 1 1 1 1 1 1 0.011456161074735996 1 1 1 1 1 1 1 1 0.010852045627819563 1 0.011640412216319959 1 1 1 1 1 0.012528216555049369 1 0.010274397576442537 1 1 1 1 1 1 0.0095831578639684646 1 1 1 1 1 1 1 1 1 1 0.010317844898516901 0.01061356788668974 1 1 1 1 0.011236757310328967 1 1 1 1 1 1 1 1 1 1 1 1 0.0094490889466056129 1 1 0.010187851376863061 1 1 1 1 1 1 1 1 1 1 0.0099221788461536786 0.009730402106619478 1 1 1 1 1 1 1 1 1 1 0.0099871699114043311 1 0.0099820173756272543 1 1 1 1 1 1 1 1 1 1 1 1 1 1 1 1 1 1 1 1 1 1 1 1 1 1 1 1 1 1 1 1 1 1 1 1 1 1 1 0.01015255017386317 1 1 1 0.012836134686169625 1 0.01071311306537015 1 0.010072552807774816 1 1 0.010077275351140589 1 0.0098171942607946736 1 0.011140595098880586 1 1 0.012241806135697983 1 1 1 1 1 1 1 1 0.011039538579841355 1 1 0.011125038162212551 1 1 1 1 0.0095062074929716731 1 1 1 1 1 1 1 1 1 1 0.011834493017543064 1 0.010815339997293298 1 0.0091696830999483236 1 0.011581503955535635 1 0.010709056315750627 1 1 1 0.010006432813518125 1 0.0098165420042520997 1 1 1 1 1 1 1 1 1 1 1 1 0.0098765905014030521 1 1 0.010003696782899205 0.011058162701819753 1 1 1 0.011684784810033821 1 1 0.010728383131098248 1 1 0.011298327499086587 1 1 1 0.011024000682546045 1 1 1 1 1 0.011807142493096064 1 1 0.011131918905525793 0.010801158118208254 1 1 1 0.0099399310308197972 0.010889939188346747 0.012030470028803404 1 1 0.010091472583221399 1 1 0.010005815951603065 1 1 1 1 1 1 0.01004652115094321 1 1 0.012116523011123757 1 1 0.011504150674076783 1 1 1 1 1 1 1 1 0.010167876362219271 1 1 1 1 1 0.011999350469750083 0.010497948901146853 0.011166772000216173 1 1 1 1 1 1 1 1 1 1 1 0.012123689528495412 1 1 1 1 0.010073256072422414 1 1 1 1 1 1 1 0.010648720332514091 1 1 1 0.010202670907086691 1 0.01071775415038749 1 0.010800064408520089 1 0.0099728917628972638 1 1 1 1 1 1 1 1 1 1 0.010005275897181587 1 1 1 1 1 1 1 1 0.010043306174993235 1 1 0.010123999086382169 1 1 1 1 0.010030968072073329 1 1 1 1 1 1 0.010676226086064916 1 0.010094773991034317 1 1 1 1 1 1 0.010649304891961316 0.010184567883639474 1 1 1 1 0.010021430903444926 1 0.010071270593315307 1 1 1 0.010062627339915394 1 1 1 1 1 1 1 0.010956250984883667 0.010136715646362274 1 1 0.010209964382441233 1 0.010011479020195644 0.0099999121549324069 0.010013753759817556 1 1 1 1 1 1 1 0.010094197579822462 1 1 1 1 1 1 1 1 1 1 1 1 1 0.010518193733338668 1 1 1 1 1 1 1 1 1 1 0.010209580739872421 1 1 0.0108381381501702 1 1 1 1 1 0.010301979489509304 1 1 1 1 1 1 1 1 0.012068814530137063 1 0.012706064969110573 1 1 0.010630522679922823 1 1 0.01134084955136308 1 1 1 1 0.010883892341815589 1 1 1 1 1 0.010195875214912874 1 1 1 1 1 1 1 1 1 0.011424265136271363 1 1 0.010004077646776636 0.010078166133513066 1 1 1 1 0.011910415907421796 1 0.011323619686645171 1 1 0.011135423352150349 0.0097276500354852996 1 0.010535991149516335 1 0.010476926873265721 1 1 1 1 1 0.010435315148664127 1 1 1 0.014598199315489356 1 1 1 0.014069960419672539 1 1 1 1 1 1 1 1 1 1 0.0099760308628230859 1 1 1 1 1 1 1 1 1 1 1 1 1 1 1 1 1 1 0.013315809794682989 1 1 0.012274748916054581 1 1 1 1 0.010841014687840957 1 1 1 1 1 1 1 1 1 1 1 1 1 1 1 1 1 1 1 1 1 1 1 1 1 1 1 1 1 1 1 1 1 1 1 1 1 1 1 1 1 1 1 1 1 1 1 1 1 1 1 1 1 1 1 1 1 1 0.010333648016431898 1 1 1 1 1 1 1 1 1 1 1 1 1 1 1 1 1 1 1 0.010610864483326958 1 1 1 1 0.010277216466895063 1 1 1 1 1 1 1 1 1 1 1 1 1 1 1 1 1 1 0.0099742621367929479 1 1 1 1 0.010015194561267142 1 1 1 1 1 0.0098865454159159372 0.011191934764571754 1 1 1 1 1 1 1 1 1 1 1 1 1 1 1 1 1 1 0.010500920468311865 1 1 1 0.011303687736377693 1 0.0099347206762404345 1 1 1 1 1 1 1 1 1 0.010423094011616951 1 1 1 1 0.010082919168798445 0.010993711884107806 1 1 1 1 1 1 1 1 1 1 1 1 1 1 1 1 1 1 1 0.010314653814221064 1 1 1 1 1 1 1 1 1 1 1 1 1 0.010425857403316528 1 1 1 1 1 1 1 1 1 1 1 1 1 1 1 1 1 1 1 1 1 1 0.010238042083503802 1 1 1 1 1 1 1 0.010447078638307598 1 1 1 0.010216214243829375 1 1 1 1 1 1 1 1 1 1 1 1 1 1 1 1 1 1 1 1 1 1 1 1 0.010756831900173125 1 0.0099516564840465057 1 1 1 1 0.010776461061245411 1 0.010954995702510748 1 1 1 1 1 1 1 0.010268639293393271 1 1 1 1 0.01020559756441732 1 1 1 1 1 1 1 1 1 1 1 0.010783131407557283 1 1 1 1 1 1 0.0099027519755656504 1 0.02501572323221388 1 1 1 1 1 0.009747341059139835 1 1 0.015233927268833308 1 1 0.009981630959854661 1 1 1 1 1 1 1 1 1 1 1 1 1 1 1 1 1 1 1 1 1 1 1 1 1 1 1 0.011307535447773957 1 1 1 0.0099276687755258906 1 0.011088797888168883 1 1 0.010001636016251685 0.010137314702786553 1 1 1 0.010098336607938244 1 1 1 1 0.010222007157836943 1 0.011146530624902475 1 1 0.010349759614352028 1 1 1 1 1 0.010576366282464285 1 1 1 1 1 0.0099779890938651583 1 1 1 1 1 1 1 1 1 1 1 1 1 1 1 1 1 1 1 1 1 1 1 1 1 1 1 1 1 1 1 1 1 1 1 1 1 1 1 1 1 1 1 0.01037545062135717 0.0099789580137381838 1 1 1 1 1 1 1 1 1 1 1 1 1 1 1 1 1 1 1 1 1 1 1 1 1 1 1 1 0.013033210998258984 1 1 1 1 0.011590949397776698 1 1 1 1 0.011119088877365048 1 1 1 1 1 1 1 0.010557203317191576 1 0.018440771482841845 1 1 1 1 1 0.010192700150284607 1 1 1 1 1 1 1 1 1 1 0.0099338245940281938 1 1 1 1 1 1 1 1 1 1 1 1 1 1 1 1 1 1 1 1 1 1 1 1 1 0.019449576383785989 1 1 1 1 0.010414262923589351 1 0.019144344329788465 1 1 0.010414069002931353 1 0.0097844783310129819 1 1 1 1 1 1 0.0097817260578391806 1 1 1 0.0098263972025673212 1 1 1 1 1 1 1 1 1 1 1 1 1 1 1 1 1 0.010144315398222813 1 0.010233865134042992 1 1 1 1 1 0.010346311805578072 1 0.010120307432072333 1 1 1 1 1 1 1 1 0.010062741051383934 1 1 1 1 1 1 1 1 1 1 1 1 1 1 1 1 1 1 1 1 1 1 1 0.010065064904193869 1 0.010105142539117613 1 1 1 1 1 1 1 1 1 1 1 1 0.010160963818216961 1 1 1 1 1 1 1 1 1 1 1 1 1 1 1 1 1 1 1 1 1 1 1 1 1 1 1 0.023821447235545214 1 1 1 0.010051909952173858 1 0.014442950289731601 0.024265339549122151 1 1 1 1 1 0.0099581696578134316 1 1 1 1 1 1 1 1 1 1 1 1 1 1 1 1 1 1 1 1 1 1 1 1 0.010341092736778277 1 1 0.011367678351811359 1 1 1 1 1 1 1 1 0.011905316282442291 0.011097227226219537 1 1 1 1 1 1 1 1 1 1 0.013340471295226562 1 1 0.011986810941253251 0.011149027267091688 1 0.011135498124426216 1 1 1 1 1 0.014984002671496544 1 0.011760527296642046 0.010803872623134104 0.0098044662837455492 1 1 1 1 1 1 0.012745369212277351 1 1 1 1 1 1 1 1 1 0.010594051291265926 1 0.011667810117395479 1 1 0.011883026412656017 1 1 1 1 1 1 1 1 1 1 1 1 1 1 1 1 1 1 1 1 1 1 1 1 1 1 0.010128685396252148 0.009919874982067577 1 1 1 1 1 1 1 1 1 1 1 1 1 1 1 1 1 1 1 1 1 1 1 1 1 1 1 1 1 1 1 1 1 1 1 1 1 1 1 1 1 1 1 1 1 1 1 1 1 1 1 1 1 1 1 1 0.016992522140182174 1 1 1 1 1 1 1 1 1 0.019186107916928624 0.010281428979787777 1 1 1 0.010891566654648022 1 1 1 1 1 1 1 1 1 1 1 1 1 1 1 1 1 1 1 1 1 1 1 1 1 1 1 1 1 1 0.013513774178173434 1 1 1 1 1 1 1 0.020585064545278947 1 1 1 1 1 1 1 0.0098749972623313146 1 1 0.0079424864191576464 1 1 1 1 1 1 1 1 1 0.010180787357663021 1 1 0.0092346527459162414 0.0076635341314742495 1 1 1 0.024185759506625028 1 1 1 1 1 1 1 1 1 1 1 0.011300047569416563 1 1 1 1 0.010045827962203161 1 0.025725523468519494 1 1 0.0054507210086727695 1 1 0.005828986310952502 0.015278473895781301 1 1 1 1 1 1 1 1 1 1 0.015844281870200792 0.0098554808616288479 1 1 1 1 1 1 0.010020766086331484 1 1 1 1 1 1 0.0098268521719769072 1 0.010294867211997067 1 1 1 1 1 0.0099979695859991474 0.010004324967252004 1 1 1 1 1 1 1 1 1 1 1 1 1 1 1 1 1 1 1 0.013790936567327765 0.009923411983111901 1 1 0.0099712878922925807 1 1 1 1 1 1 1 1 1 1 1 0.0099399097916719886 1 1 1 1 1 1 1 1 1 1 1 1 1 1 1 1 1 1 1 1 1 1 1 1 1 1 1 1 0.0097579111965660562 1 1 1 1 0.010242394838841562 0.0087836670618198828 1 1 1 1 1 1 1 0.0098543172625815932 1 0.011564451418628732 1 1 1 1 1 1 1 1 1 1 1 1 1 1 1 1 1 1 1 1 0.011458271851673906 0.010462977782104737 1 0.010020924762570407 1 1 1 1 1 0.010763467210986911 1 1 1 1 1 1 1 1 1 1 1 1 1 1 1 1 1 0.013973397469283711 1 1 1 1 1 1 1 1 1 1 1 0.017373968472961215 1 1 1 1 1 1 1 1 1 1 0.0097299893278935626 1 1 1 1 1 1 1 1 1 0.015763548109494208 1 1 1 1 0.016789416489218268 1 1 1 0.0092524122295156597 1 1 1 1 0.0092532109910674846 1 1 1 1 1 1 1 1 1 0.0097634761905349768 1 1 1 1 0.0099149421232882437 1 1 1 1 1 1 1 1 0.010077143725348714 1 0.014422002168364128 0.010199271171141356 1 0.012490582153839417 0.013913213216616174 1 1 1 0.010804091095921835 1 1 1 0.010090805749585367 1 0.01024206580559894 1 1 1 1 1 0.0095494309731483339 1 1 1 0.015074720349133217 1 1 1 1 1 1 0.012055086444674543 0.012953712331542968 1 1 1 1 1 1 1 1 1 1 1 0.0099891311889999355 1 0.013527402033972551 0.010452481850451239 1 1 1 1 1 0.011028623703930394 0.011146232719960274 1 1 0.012184160767855196 1 1 1 1 0.01224555709377817 1 1 1 1 1 0.011992838232341724 1 1 1 1 0.014761219925952831 0.01076261783933976 1 1 0.012099022950869016 1 0.01286276702466593 0.010142673152740762 1 1 1 1 1 1 1 1 1 1 1 1 1 1 1 1 1 1 1 1 1 0.0099250901077740268 1 1 0.017515185911295472 1 0.010313913279936917 1 1 1 0.016966149826063003 1 1 1 1 1 1 0.010362726824051234 0.010339816635241892 1 1 1 1 1 1 0.010409087896119315 1 1 0.019773183567805535 1 1 1 1 1 1 0.01056336491754771 1 1 1 0.012684886219755907 1 1 1 1 1 1 0.014347469259307596 1 1 1 1 1 1 1 1 1 1 1 1 1 0.010753557990029453 1 0.010044454214108052 1 1 1 1 1 1 1 1 1 0.010310938648185095 1 1 1 0.0089658778696099471 1 1 1 1 1 1 1 1 1 1 0.0096787446925762823 1 1 1 1 1 1 1 1 1 1 1 1 1 1 1 1 1 1 1 1 1 1 1 1 1 0.010815190005145348 1 1 1 0.016232544369612596 1 1 0.01559248207046591 1 1 1 1 1 0.010916107439177687 1 1 1 0.010414830713969266 1 1 1 1 1 1 1 0.010271650566438513 1 1 1 1 1 1 1 1 1 1 1 1 1 1 1 1 1 0.010007391180561084 1 0.010078356383298698 1 1 1 1 1 1 1 1 1 0.0098355634896277015 1 0.010007253140467244 1 0.013169529939579119 1 0.010292639078962187 0.015099500508879453 1 1 1 1 0.01005909685571438 1 1 1 1 0.009958539835347828 1 1 1 1 1 0.010291928436500508 1 0.01413663682162819 1 1 0.014156649074421813 1 1 1 1 1 1 1 1 1 1 1 1 1 1 1 1 1 0.010070597491438106 1 1 1 1 1 1 0.0099899142950722209 1 1 1 1 1 0.012095487354508222 1 1 1 1 1 1 1 0.011294293394369694 1 1 0.010447813531977325 1 1 1 1 1 1 0.010553814485630973 1 1 1 0.0097726901533789733 1 1 1 1 1 1 1 1 1 1 1 1 1 1 1 1 1 0.013789039107487321 1 1 1 1 1 0.0084210157407815667 0.010867540418790936 1 1 1 1 1 0.0097057748734674931 1 0.011393742900205195 1 0.013398239109040977 1 0.010374539119659864 0.01320935133768973 1 1 1 0.010608321098726914 0.010179400736050823 1 1 1 1 1 1 1 1 1 1 1 1 1 1 1 1 1 1 1 1 1 1 1 1 1 1 1 1 1 1 1 1 1 1 1 1 1 1 0.010004622679126293 1 1 1 1 1 1 1 0.0099774515223845332 1 0.012143057892021657 1 1 1 1 1 1 0.012090241977800818 1 1 1 0.0099400930781483651 1 1 1 0.010155478311705586 0.017273190907942479 1 0.013049489186638712 1 1 1 1 1 1 0.014345303852275663 1 1 0.010773232458234375 1 1 1 1 1 1 1 1 1 1 1 1 0.014452588283252405 0.010021149998553216 0.012784768614745744 1 1 1 0.010256261787331099 1 1 1 1 1 1 1 1 1 1 1 1 1 1 1 1 1 1 1 1 1 1 0.01623617329156337 1 1 1 1 0.014483307693854384 1 1 1 1 1 1 1 0.010241700170061985 1 1 1 1 1 0.010046925569098173 1 1 1 1 1 0.010712315223586958 1 1 1 1 1 1 1 1 1 0.01152858682352014 1 1 1 1 0.010656387887935718 1 1 1 1 1 1 1 1 1 1 0.01066221253663005 1 1 0.01087296472137796 1 1 1 1 1 1 1 1 1 1 1 1 1 1 1 1 1 1 1 1 0.010173982227959852 1 1 1 1 0.010337996249234949 1 1 1 1 1 1 1 1 0.010019983036891302 1 1 1 1 1 0.01010676156979857 1 1 0.010086778532907268 1 1 1 1 1 1 1 1 1 1 1 1 0.010877514204455912 1 1 1 1 1 1 1 1 1 1 1 1 1 1 1 1 1 1 1 1 1 1 1 1 1 1 1 1 0.010164274983795737 1 1 1 1 1 1 1 1 1 1 1 1 1 1 0.011324374651561999 1 1 1 1 1 1 1 1 1 1 1 1 1 1 1 1 1 1 1 0.012867369598470676 1 1 1 1 1 1 1 0.011545236663097138 1 1 1 1 1 1 1 1 1 1 1 1 1 1 1 1 1 1 1 1 1 1 1 1 0.011644719364859306 1 1 1 1 1 0.013427741421778046 1 1 1 1 1 1 1 1 1 1 0.0097337942550491368 1 1 0.010368566908678364 1 0.01341417810875592 1 1 1 1 1 1 1 0.01068290992885495 1 0.010324845350311026 1 0.010146036462115088 1 1 1 1 1 1 1 1 1 1 1 1 1 1 1 1 1 1 1 1 1 1 1 1 1 1 1 1 1 1 1 1 1 1 1 1 0.010537989794378406 1 1 1 1 1 1 1 1 1 1 1 1 1 1 1 1 1 1 1 1 1 1 1 1 1 1 1 1 1 1 1 0.010346814078554896 1 1 1 1 1 1 0.0099446786920609435 0.010636063175567347 1 1 1 1 1 1 1 1 1 1 1 1 1 0.0099674247346608659 1 1 1 1 1 1 1 1 1 1 0.010821672472222713 0.011350715875827446 1 0.012759121828235645 1 1 1 0.011353062573078811 1 0.011225061667920769 0.010580352200192412 1 0.014069476781211062 1 1 1 1 1 1 1 0.012293058010956089 0.011481112595908591 1 1 1 1 0.0098819316633514103 1 1 1 1 0.012935823136688406 1 0.010362072229702344 1 0.012449230745729935 0.010624358184285077 1 0.010733213579503935 1 1 1 1 1 0.010000448252939668 1 0.012162799193585386 0.010647542367489403 0.010253076372156722 0.010949509449920817 1 1 1 1 1 0.011671188996327422 1 1 0.012397063108070965 0.010339016008116663 1 1 1 0.01456940844060799 1 1 0.010073393608359283 1 1 1 1 0.015571130148640191 1 1 0.010103184222757309 1 1 0.011889252897412918 1 1 1 1 1 1 1 1 1 1 1 1 1 1 0.011213726785330188 1 0.010881096511989053 1 1 1 1 1 0.011028984914880391 1 1 0.010453554168901672 1 1 1 1 1 0.014722393386404433 1 1 1 1 1 1 1 1 1 1 0.011263186006086293 1 1 1 1 1 1 1 1 1 1 1 0.010454166341103435 1 1 1 1 1 1 0.014938589449943028 1 1 1 1 1 1 1 1 1 1 1 1 1 1 0.013829508704445308 1 1 1 0.010150614014325033 1 1 1 1 1 1 1 0.012376132618454255 1 0.010805419656915066 1 1 1 1 1 1 1 1 1 1 1 1 1 1 1 1 1 1 1 1 1 1 1 1 1 1 1 1 1 1 1 1 1 1 1 1 0.011707743849041125 1 0.010740058336246923 1 1 0.011879919440669868 1 0.010142388733167793 1 1 1 1 1 1 0.012374924276694557 1 1 0.01011433509621674 0.012029382399065109 1 1 1 1 1 1 0.010833812659083815 1 1 1 1 1 1 1 0.010860267982532526 1 1 1 1 1 1 1 1 1 1 1 1 1 1 1 1 1 1 1 0.010227716968211833 1 1 1 0.01492148521746723 1 0.0099959650031863426 1 0.014974994730610421 1 1 1 1 0.010661452769096108 1 1 1 1 1 1 0.01026205152780486 1 1 1 1 1 1 0.009905969432887048 1 1 0.0097451672692772575 1 1 1 1 1 1 0.0098390760386193165 1 1 1 1 1 1 1 1 1 0.011946436624003154 1 0.011771396888469524 1 1 1 1 1 0.0091311681570887294 0.0059608909764157312 1 1 1 0.010557919526467192 0.012844145907444466 1 1 1 1 1 1 0.009896694831276755 1 1 0.010004341543466879 0.014727725779637778 1 1 0.0093931997651910942 1 1 0.014851583249338529 1 1 1 1 0.016002883069344102 1 1 1 1 1 1 0.012691604922307599 1 1 1 1 1 1 1 1 1 1 0.013073271234953332 1 1 1 0.010171465277613742 0.010950278669153941 1 1 1 1 1 1 1 1 1 0.010275759631963862 1 1 1 1 1 1 1 1 1 1 1 0.010754050269820266 0.013001651990129804 1 1 1 1 0.013379012803573485 1 1 1 1 0.011223422567568784 1 1 1 1 0.010708589206920562 1 1 1 0.010492284351412711 1 1 1 1 0.012168997126737861 1 1 1 1 1 0.015251491312262595 1 1 1 1 0.0097359469283665491 1 1 1 1 1 1 1 1 1 1 1 1 1 1 1 1 1 1 1 1 1 1 1 1 1 1 1 1 1 1 1 1 0.010242648638129943 1 1 1 1 0.010518408270093807 1 1 1 1 1 1 0.010173220198831932 1 1 1 0.01006925147558695 1 0.010319256660947025 1 1 1 1 1 1 1 1 1 1 1 1 1 1 1 1 1 1 1 1 1 1 1 0.010648687075997655 1 0.010238784159192306 1 1 1 0.010756716995360247 1 1 1 1 1 1 1 1 1 1 1 1 1 0.014073388059032356 1 1 0.01203850549473009 1 1 0.010142068695661342 0.013442075978869934 1 0.014403680650789478 1 1 1 1 1 1 1 1 1 1 1 1 1 1 1 1 1 0.012632982278694659 1 1 1 1 1 0.012170872095434639 1 1 1 1 1 1 1 0.011556418326150682 1 1 1 1 1 1 1 0.0093488053523774692 1 1 1 1 1 1 1 1 1 1 1 1 1 1 1 0.010961629212861815 1 1 1 0.010443309203885281 1 1 1 1 1 1 1 1 1 1 1 0.012214693588588075 1 1 1 1 1 1 0.016800177923692705 1 1 0.010009243366496506 1 0.010164486932126798 1 1 1 0.007171967226694575 1 1 1 1 1 1 1 1 1 1 1 0.0081279802165326563 1 1 1 1 1 0.0097199211553409756 1 1 1 0.0084728165259304097 1 1 1 0.0061782286185160587 1 1 1 1 1 0.015127766225948951 1 0.015505208696070534 1 1 1 1 1 1 1 1 0.010931249504629779 1 0.012565039454298521 1 1 0.011737893048897222 1 0.015603008385023834 1 0.010014613829534339 1 1 1 1 1 1 1 1 1 1 0.0099217001746247039 1 0.013554768484163411 1 1 1 1 0.010279564561263244 1 1 1 0.010388462026720165 0.012586051356482475 1 1 1 0.011004616944857298 1 0.010124473033524102 0.011590991801022996 1 1 0.01083750446086571 0.013138266039197686 1 0.011638052879396892 0.011304179202020327 1 1 0.011018204215780905 0.010877843820027508 1 1 0.010705032518805528 1 1 0.010014454042183055 1 0.0099619177830558639 1 1 0.01082468533105161 1 1 0.010056160214859066 1 0.010639767166359658 1 1 1 0.010424180012981362 1 0.0099861416294355979 1 1 0.011738297184088517 0.011154374788056996 1 1 1 0.011966817545630814 0.013281937970969014 1 0.010733088003170145 1 1 1 1 1 1 1 1 0.0099672379917011677 1 1 0.010491461799365203 0.014896462062488243 1 0.012018626718371391 1 0.010831131314941324 0.014782063161576105 1 1 1 0.013975802082740171 1 1 0.013466457735657196 1 1 1 1 1 1 0.010256094814940463 0.015075482775634181 1 1 1 1 1 1 1 0.010124271130748501 0.010039819547663574 1 1 1 1 0.010369629234307303 1 1 1 0.009998807090143327 1 1 0.0097791042785114572 1 1 1 1 1 0.018276400572305833 1 1 0.012926650085647848 1 1 1 0.01030562975904864 0.0094942587838509809 1 1 0.010005696057229039 1 1 1 0.010169321420444785 1 1 1 0.013088635363484065 0.0090393086866251294 1 1 0.0077019078125627107 1 1 1 1 0.0099918423661144347 0.013222465375890636 1 1 0.010884265973833233 0.0099992058481653927 1 0.013158985996693731 0.015073527128882918 1 1 1 1 1 1 0.013585673355109898 1 1 1 1 1 1 1 1 1 1 0.010325101360315645 0.010036150294718936 1 1 1 1 1 1 1 0.010146391822854086 1 1 1 1 1 1 1 1 1 0.011357995395906331 1 1 0.010213275384044672 1 1 0.013378634866010267 1 1 1 1 1 1 1 1 1 1 1 1 1 1 1 1 1 1 0.012208915036820041 0.01156016127589439 1 1 1 1 0.010409584748406682 1 1 0.013129280244533099 1 1 1 1 1 1 1 1 1 0.014629222652222114 1 1 0.010060651052898079 1 1 1 1 1 1 1 1 1 1 1 0.010139700296602263 1 0.010199570466141287 1 1 1 1 1 1 1 1 1 1 0.0098314579145157219 1 1 1 1 1 1 1 1 1 1 1 1 1 1 1 1 1 1 1 1 1 1 1 1 1 1 1 1 1 1 1 1 1 1 1 1 1 1 1 0.013181602240859425 1 1 1 1 1 1 1 1 1 0.010764104055542111 1 1 0.0083861117015492405 1 1 1 1 1 1 1 1 1 1 1 1 1 1 1 1 0.0062564527976791658 1 0.016397932197484241 1 1 0.010761501922609102 1 1 1 0.010008059247907699 0.0098758854324487062 1 0.010487426447522586 0.0099797613658988461 1 0.0093305173549202841 1 1 0.0097615417881825421 1 1 0.010079421041612347 1 1 1 1 1 1 1 1 1 1 1 1 1 1 1 1 1 1 1 1 1 0.010370260319468475 1 1 1 1 1 1 1 1 1 1 1 1 1 1 1 1 1 1 1 0.01039607571680067 1 1 1 1 1 0.01059745082273909 1 1 1 1 1 1 1 1 1 1 1 1 1 1 1 1 1 1 1 1 1 1 1 1 0.01138257979066217 1 1 1 1 1 1 0.009916934166761128 1 1 1 1 1 1 1 1 1 1 1 1 1 1 1 0.010018246727010086 1 1 1 0.0098005809388235846 0.011010610949437095 1 1 1 0.009730749062931662 1 1 1 1 1 1 1 1 0.0098701119335642302 1 1 1 1 0.0099560669772996522 1 1 1 1 1 1 1 1 1 1 1 1 1 0.010426162910123694 1 1 1 1 1 1 1 1 1 1 1 1 1 1 1 1 1 1 1 1 1 1 1 1 1 1 1 0.012282170400942627 1 1 1 1 1 1 1 1 1 1 1 1 1 1 1 0.012789607977926774 0.010274782269580387 1 1 1 0.010330413036445494 1 1 1 1 1 1 1 1 1 1 1 1 1 1 1 1 1 1 1 1 1 1 1 1 1 1 1 1 1 1 0.011090100678185215 1 1 1 1 1 1 1 1 1 1 1 1 1 1 1 1 1 1 1 1 1 1 1 1 1 0.010009453339223477 1 1 1 1 1 1 1 0.0099295868471179875 1 1 1 0.0096061617429018982 1 1 0.014001496992981149 1 1 1 1 1 1 1 1 0.011476826679481147 0.016041427968677219 1 1 1 1 1 0.010285079306693243 1 1 1 1 1 1 1 1 1 1 1 1 1 1 1 1 1 1 1 0.010620697033027322 1 0.010122170184720992 1 0.011098296359653124 1 1 1 0.01929060498279914 1 0.016273738602948225 1 1 1 1 1 1 1 1 1 1 1 1 0.019828983419741552 1 1 1 1 0.0099338515438867053 1 1 0.013046615785217279 1 0.01663300790668296 1 1 0.010345830074547854 1 1 1 0.010123982126056617 1 1 1 1 1 1 1 1 1 0.013549000309817431 1 1 1 1 0.013392430230396882 1 1 1 1 0.01310859624790096 1 1 1 1 1 1 0.010200214532059155 1 0.010723547143681253 1 0.012534375060731595 1 1 1 0.010666299285938888 1 1 1 1 1 1 0.012918202473938012 0.012379029877046022 1 1 1 1 1 0.010282900072384939 1 1 1 1 1 1 1 1 1 1 1 1 1 1 1 1 1 1 1 0.010432327849131943 1 1 1 1 1 1 1 1 1 0.017760703958541818 1 0.010002413249029198 1 0.0099150943966026198 1 1 1 1 1 1 1 1 1 1 1 1 0.01082457332111156 1 1 0.015066047505356395 1 1 1 1 1 1 1 1 1 0.0080414050438208685 1 0.013649964522722555 1 1 1 1 1 1 0.0093260044073054642 1 1 1 1 1 1 1 1 1 1 1 1 1 1 1 1 1 1 1 1 1 1 1 1 1 1 1 1 1 1 1 1 1 1 1 1 1 1 1 1 1 0.010200688964436107 1 1 0.0099938362809175157 1 0.010719652747268544 1 1 1 0.011314127673168011 0.010002205074313323 1 1 0.011295128440600755 1 1 1 1 1 1 1 1 1 1 1 1 0.011204529304805175 1 1 1 1 1 1 1 1 1 1 1 1 0.010479964341578153 1 1 1 1 1 1 1 1 1 1 1 1 1 1 1 0.010889858394400077 1 1 1 1 1 0.010837055293935999 1 1 1 1 1 1 1 1 1 0.010300110350684816 1 1 1 1 0.010696186067485481 1 1 1 1 1 1 1 1 1 1 1 0.013723888188580762 1 0.0098027419375799965 1 0.01004001840450159 1 1 1 0.0092219872285616341 1 1 1 1 1 1 1 1 1 1 1 1 1 1 1 1 1 1 1 1 0.01031745721900439 1 1 1 1 1 1 1 1 1 1 1 1 1 1 1 1 1 1 0.010149904138724098 1 1 1 1 1 0.0068035062481516338 1 1 1 1 1 1 1 1 0.0094534204311981281 1 1 0.0082417538075925927 1 1 1 1 1 1 1 0.010571832805773586 1 1 1 1 1 1 1 1 1 0.010098675350285458 1 1 1 1 1 1 1 1 1 1 1 1 1 1 1 1 1 1 1 1 1 1 1 1 0.011164793622969649 1 0.013370353284867046 1 1 0.011665626294504483 1 1 1 1 1 1 1 1 0.010052224996028022 1 1 1 1 1 1 0.017984106280552144 1 1 1 1 1 1 1 1 1 1 1 1 0.011118058310436222 1 1 1 1 1 1 1 1 1 1 1 1 1 1 0.010546225504662634 1 1 1 0.020802277775622643 1 1 1 1 0.010191607014123508 1 1 1 1 1 1 1 1 1 1 1 1 1 1 1 1 1 1 1 1 1 1 1 1 1 1 0.010132300390249637 1 1 0.010281701806216237 1 1 1 1 1 1 1 1 1 0.010015018731243037 1 1 0.010123284999603117 1 1 0.01007773752329838 1 1 1 1 1 1 1 1 1 1 1 1 1 1 1 1 1 1 1 1 1 1 1 1 1 1 1 1 1 1 1 1 1 1 1 1 1 1 1 1 1 1 1 1 1 1 1 1 1 1 1 1 1 1 1 1 1 1 1 1 1 1 1 0.010536246611587139 1 1 1 1 1 1 0.022862600892518764 1 1 1 1 1 1 1 1 1 1 1 0.023799188769632506 0.011540930358999026 1 1 0.015737132178328998 1 0.011296781337701175 1 1 0.021265889569985541 1 1 0.0088577105238317657 1 1 1 1 1 1 1 1 0.010056297690355716 1 1 1 1 1 1 1 1 1 0.010204164405521656 1 1 1 1 0.010065898992955121 1 1 1 1 1 1 1 1 1 1 1 1 1 1 1 0.010146266651323947 1 1 1 1 0.026730516591129058 1 0.0099356669685627275 1 1 1 0.0097480524633039491 1 1 0.020613475332855118 1 1 1 1 1 1 1 1 1 1 1 0.010129552104220993 1 1 0.010283057424631946 1 1 1 0.009759068810513671 1 1 0.019599205299876472 0.0143554971147188 1 1 0.0052178933297601093 1 1 1 1 1 1 1 1 0.011096729062525004 1 1 1 1 0.010319839255297857 1 0.011263948560541826 1 0.0090861129239062956 1 1 1 1 0.0095990689064904145 1 1 1 0.010039311260188668 1 1 1 1 1 1 1 1 1 1 1 1 1 1 1 1 1 1 0.010401274503061511 1 1 1 1 1 1 1 1 1 1 1 1 1 1 1 1 1 1 1 1 1 1 1 1 1 1 1 1 1 1 1 1 1 1 1 1 1 1 1 1 0.010747245010771355 1 1 1 1 1 0.010202229959576627 1 1 1 1 1 1 1 1 1 1 1 1 1 0.011150735267524959 1 1 0.013440717152937392 1 1 1 0.010585906877228707 1 0.011064779195795696 1 1 1 1 0.0097131306574830441 1 1 1 1 1 1 1 1 1 0.011552994081409494 1 1 0.0099374433149158302 0.0076667951617519145 1 0.011520068191863839 1 1 1 1 1 1 1 1 1 1 1 1 1 1 1 1 1 1 1 1 1 1 1 0.011664446487757643 1 1 1 0.011044936790083514 1 1 1 1 1 1 1 0.010360551206357836 1 1 1 1 1 1 1 1 1 1 1 1 1 1 1 1 1 1 1 1 1 1 1 0.010501572605241444 1 1 1 1 1 0.011311453994409758 1 0.010854977305607747 0.0094771720908891893 1 1 1 0.0099840474828141318 1 1 0.010044301224180081 1 1 1 1 1 1 1 1 1 1 1 0.0099047729252715738 1 1 1 0.0090898027772901395 1 0.0097182695249358342 1 1 1 1 1 0.011267933099244475 1 0.0099287389161498481 1 0.0087217572300656021 1 1 1 1 1 1 1 1 0.013520733523736905 0.010204813307425396 0.012390014093106166 1 1 0.010040824556852436 1 1 1 1 1 1 1 1 1 1 1 1 1 1 1 1 1 1 1 1 1 1 1 1 1 1 1 1 1 1 1 1 1 1 1 1 1 0.0091860606263061435 1 1 1 1 1 1 1 0.0096369611675713833 1 1 0.010006495491245541 1 1 1 1 1 1 1 1 1 1 1 1 1 1 1 1 1 1 1 1 1 1 1 0.010348611329345916 1 1 1 1 1 1 1 1 1 1 0.012043685117815967 1 1 1 1 0.013569416550429538 1 1 1 1 0.0055419195339584887 1 0.010031720661804265 0.023115684810972936 1 1 1 1 0.010543883494650602 1 1 0.003052654545925064 1 1 0.016725874343941922 0.010980120228665815 1 1 1 1 1 1 1 0.01809263631772258 1 1 1 1 1 1 1 1 1 1 1 1 1 0.0099356500218772559 1 1 1 1 1 1 1 0.019364054194489701 0.0098816200548833139 1 0.010060676503376768 1 0.016435869572743896 1 1 1 0.011356347994918265 1 1 1 1 1 0.010817089081299166 1 1 0.010273139288129177 1 1 1 1 1 1 1 0.010671004266149919 1 1 1 1 1 1 1 1 0.0099929018596694417 1 1 1 0.015902097260071052 1 1 1 1 1 0.0095060685849368155 0.021377825043430446 1 1 0.0086491298411462483 1 1 1 1 1 1 1 1 1 1 1 1 1 1 0.010104772581687314 1 1 0.0078724489907832547 1 0.012156771401069669 1 1 1 1 0.011058161139939064 1 1 1 1 1 0.021831572013403175 1 1 0.0099249594380143788 0.021194765317235492 1 1 1 1 0.014351894413370798 1 1 1 1 1 1 1 1 0.015925535798853509 1 0.013433002242239429 1 1 1 1 1 1 1 1 0.015713180687364606 1 1 1 1 0.010300053620165183 1 1 1 1 1 1 1 1 1 1 1 1 1 1 1 1 1 1 1 1 1 1 1 1 1 1 1 1 1 1 1 1 1 0.010448730963808536 1 1 1 1 1 1 1 0.011051752577823711 1 1 1 1 1 1 1 1 1 1 1 1 0.0098985972876222059 1 1 1 1 0.022724354668868456 1 1 1 1 1 1 1 1 1 1 1 1 1 0.010000317957683169 1 1 0.012645406924240599 1 1 1 1 0.010889576416434923 1 1 1 1 1 1 1 1 1 1 1 0.010098610331421894 1 0.023110291527022379 1 1 0.010036231239352959 1 1 1 1 0.0089172349097960436 1 1 1 1 1 1 1 1 1 1 1 1 1 1 1 1 1 1 1 1 1 1 1 1 1 1 1 1 0.0096561920353982894 1 1 1 1 0.0099228149636249353 1 1 1 1 1 1 1 1 1 0.0096134455866395407 1 1 1 0.011905325624151929 1 1 1 1 1 1 0.010738366418408269 1 0.011870702139458175 1 0.010302745140371383 1 1 1 1 1 1 1 1 1 1 1 1 1 1 1 1 1 1 1 1 1 1 1 1 1 1 1 1 1 1 1 1 1 1 1 0.0099982210327450947 1 0.010931696334375055 1 1 1 1 1 1 1 1 0.010408150813539616 1 1 1 1 1 1 1 1 1 1 1 1 0.0088290135192006809 1 1 1 1 1 1 1 1 1 1 1 1 1 0.0096288887884871319 1 1 0.0099551224890918437 1 1 1 1 0.010002365416973472 1 1 1 1 0.010158469406418954 1 1 1 1 1 0.010126339071959546 0.009986139208337394 1 0.010391736024839122 1 1 0.01121016431952844 1 1 1 1 0.01001200140458202 1 0.010442928573252904 1 1 1 1 1 1 1 1 0.0099793377248518778 1 1 1 1 0.010025577529734986 1 1 1 1 1 1 1 1 1 1 1 1 1 1 1 1 1 1 1 1 1 1 0.010069066128833357 1 1 1 1 1 1 1 1 1 1 1 1 1 1 1 1 1 1 1 1 1 0.010094643658568339 1 1 1 1 1 1 1 0.010488555801641902 1 0.010202187228948251 1 1 1 1 1 1 1 1 1 1 1 1 1 1 1 1 1 1 1 1 1 1 1 1 1 1 0.012143074221597206 1 1 1 1 1 0.010621670418038685 1 0.009989712444017692 1 1 1 1 0.011477080351578739 0.01136149133471499 0.010068383447831524 1 0.013355604366675525 1 1 1 0.0086564139114095398 1 1 1 1 0.0105312264898633 1 0.012547682002657688 1 1 1 1 0.0099983474824728597 1 1 1 0.011606815561446467 0.01078945645319977 0.0096948703389844043 1 0.011828214051267614 1 0.011466752895756091 1 1 0.010017909990394721 1 1 1 1 1 1 1 1 1 1 0.010170993572463805 1 0.010213063815131674 1 0.010166313499658039 1 1 1 1 0.010593174772173718 1 1 1 1 0.009588742815413805 1 1 1 1 1 1 1 1 1 1 0.021097485137915529 1 0.010029033623340164 1 1 0.0065582670901603059 1 1 0.022848151514227918 1 1 1 1 1 0.0081464149962662217 1 1 1 1 1 1 1 1 1 1 1 1 0.010748097378693561 1 1 1 0.0093131832550075767 1 1 1 1 1 0.0098526598600950626 1 1 1 1 1 1 1 1 1 1 1 1 1 1 1 1 1 1 1 1 1 0.0099346865623472398 1 1 1 1 0.013858436817865321 1 1 1 0.014866884585128038 1 0.009248350256143829 1 1 0.01469799873514888 1 0.010023759473552519 1 1 1 1 1 1 0.01012487757507954 1 1 1 1 0.0089507304132882756 1 0.013672309790620922 1 1 1 1 1 1 1 0.010204286246448535 1 1 1 1 1 1 1 0.022663327882826087 1 1 1 1 1 1 1 1 1 1 1 1 1 1 1 1 1 0.010504339866613715 1 1 1 0.0096890782095132057 1 1 1 1 1 1 1 1 1 1 1 1 1 1 0.0091356635379150029 1 1 1 1 1 1 1 1 1 1 1 1 1 1 1 1 1 1 1 1 1 1 1 1 1 1 1 0.011172795314901141 1 0.012317536955379243 1 1 1 0.0096759219884263552 1 1 1 0.014151005673846908 1 1 0.010193019835918478 0.013568943049637792 1 1 1 1 1 1 1 1 0.011879028777708718 1 1 0.012802464135917669 1 1 1 1 0.011154037522264825 1 0.010404552129640516 1 1 1 0.010166370479647593 1 1 1 1 1 1 1 1 1 1 0.01185518270853418 1 1 0.0093399660457774147 1 1 0.010016963133622176 1 1 1 1 1 1 1 0.014849186913214588 1 1 0.013425809918048284 0.016797585103363585 1 1 1 0.0099995692382375389 1 1 1 1 1 1 0.0086536917213759137 1 1 1 1 0.019416826002967132 1 1 1 0.010599312237161875 1 1 1 1 0.0097915245161104419 1 1 0.010692231146017774 1 1 1 1 1 1 1 1 1 1 1 0.010092308802346666 1 1 1 1 0.012611780787306685 1 0.012426168252093209 1 0.0091195165531622931 1 0.010955805590144854 1 1 1 1 1 1 1 1 1 1 1 0.010324531661896249 0.013486903990651625 1 1 1 1 1 1 0.0098856572304242048 1 1 0.010052865513800475 1 1 1 1 1 1 0.0096552586950933769 1 1 1 0.01036432024566589 1 0.010442483573058131 1 1 1 0.010901907736754946 1 1 1 1 1 1 0.010517177755141573 1 1 1 1 1 1 0.010018237749339043 1 0.010022408358723206 1 1 1 0.013608929070707562 1 1 1 1 0.010495124180284166 1 1 1 1 1 1 1 0.010000856450519298 1 0.011376076717722927 1 0.012840034682677755 1 1 1 0.0095533319938679601 0.013035121354096424 1 1 0.0095947824649917461 1 1 1 1 1 0.010700319912960839 1 0.01102365186623456 0.010660853089535346 0.011489285493210197 0.012594405248084433 1 1 1 1 1 0.011228877476897572 0.0095732938457603819 1 1 0.010065338600061804 1 1 1 0.011818672928277162 1 1 1 1 1 1 1 1 1 0.010055584343315873 1 1 1 0.010001475814785867 1 1 1 1 1 1 1 0.010027133551189109 1 0.010003336172528039 1 1 1 1 0.0098841588275787821 1 0.010314774311766037 1 1 1 1 0.010232138285703289 1 1 1 1 1 1 1 1 1 0.010092976370427172 1 1 1 1 1 1 1 1 1 1 1 1 1 1 1 1 1 1 1 1 1 0.01000925760685316 1 1 1 1 0.010004454361043053 1 1 1 1 1 0.011690954337286156 1 0.010078222117786194 1 1 1 1 1 1 1 1 1 1 1 0.010251977241326414 1 0.011117079858921946 1 0.011316210912560028 0.010533126934868202 1 0.0099547771886758247 1 0.01158285366724513 1 1 1 0.0099783480764722293 1 1 1 0.010160801905927226 1 1 1 1 0.011616048691647554 1 0.0099671680527183368 1 1 1 1 1 1 1 1 0.010125369505479013 1 1 1 1 1 1 1 1 0.010012956016082538 1 1 1 1 1 1 1 1 1 0.0099946220195414534 1 1 0.0095693659981936959 1 1 1 0.009879729702833441 1 1 1 1 1 1 1 1 1 1 1 1 0.010494404745038391 1 1 1 1 0.013681908918208488 1 1 1 1 1 1 0.014127096661204604 1 1 1 1 0.0099823673300150264 1 0.010416569503095673 1 1 1 1 1 1 1 0.011308453046367116 1 1 1 0.0099859230137390054 0.010026965343739329 1 1 1 1 0.014195286484451515 1 0.0099981283086180098 1 1 0.01087992879769613 1 1 1 1 1 1 1 1 1 1 1 1 1 1 1 1 1 1 1 1 1 1 1 1 1 1 1 1 1 1 1 1 1 1 1 0.0091611319163726335 1 1 1 0.012559972840882965 1 1 1 1 1 1 1 1 1 1 1 1 1 0.010007343583761567 1 0.010769278168061416 1 1 1 1 1 1 1 1 1 1 1 1 1 0.012491150111277081 1 1 0.013174909377982475 1 1 1 1 1 0.012525615454498425 1 1 1 1 1 1 1 1 1 1 1 1 1 1 1 1 1 1 1 0.011298902649831299 0.011300555408010926 1 1 0.0099840623638809377 1 1 0.013955146204451005 1 1 1 1 1 1 1 0.010050229044746527 1 1 1 1 0.010867026303529998 1 1 1 1 1 1 1 1 1 1 1 1 1 1 0.010749969466457334 1 1 0.010199091128958613 1 1 1 1 1 1 1 0.010346212983539941 0.010476475620543137 1 1 1 1 1 1 1 1 1 1 1 1 1 1 1 1 0.010165217127460914 1 1 1 1 0.010160837140493682 1 1 0.013288251202872768 1 1 0.011516933829291927 1 1 1 1 1 1 1 1 1 1 1 1 0.010734778764308969 1 1 1 1 0.0097381769249012939 1 1 1 1 1 1 1 1 1 0.010543865836477182 0.011574252647094573 0.013331605988098016 1 1 1 0.010012259550628941 1 1 0.0099181348247091988 0.00894453666568042 1 0.0079176203533935265 1 1 1 0.01004731603762506 1 1 1 1 1 1 1 1 1 1 1 1 1 1 1 1 1 1 1 1 1 1 1 1 1 1 1 1 1 1 1 1 1 1 1 1 1 1 1 1 1 1 1 1 1 1 1 1 0.010041918341964686 1 0.010011122365272939 1 1 1 1 1 1 1 1 1 0.010362644878724174 1 1 1 1 1 1 0.0099914942752312563 1 1 1 1 1 0.0099919636355476835 1 1 1 1 1 1 1 1 1 1 1 1 1 1 1 0.010532645549100449 1 1 1 1 1 1 1 0.010141060070500058 1 1 1 1 1 0.010332439776240888 0.010434883450784832 1 1 1 1 0.01076736664886491 1 1 1 1 1 1 1 1 1 1 1 1 1 1 1 1 1 1 1 1 1 0.010273613998779125 1 1 1 1 1 1 0.010638050779120877 1 1 1 0.010600031940436625 1 1 1 1 1 1 1 1 1 1 1 1 1 1 1 1 1 1 0.010687536571622474 1 0.009919154833750601 1 1 1 1 1 0.010620437862459546 0.0097679553089383385 1 1 1 0.0099563635306958147 1 1 1 1 1 1 0.0093304405265415575 1 1 1 1 1 0.010756828053743317 1 0.011304777834867176 1 1 0.010832889503580996 1 1 1 1 0.010760713108931815 1 1 1 1 0.011875535969974056 1 1 1 1 0.01000138352247093 1 1 1 1 1 1 1 1 1 1 1 1 1 0.010759860592066595 1 1 1 1 1 1 1 1 1 1 1 1 1 1 1 1 0.0097470731902022951 1 1 1 1 0.0089879249976189072 1 1 1 1 0.012536807812857228 1 1 1 1 1 1 1 1 1 1 0.012041083410994777 1 1 1 1 0.010274334648110076 1 1 1 1 1 1 1 1 1 1 1 1 1 1 1 0.010869378833810958 1 1 1 0.01004233864379876 1 1 1 1 1 1 1 1 1 1 1 1 1 1 0.011692323911837155 1 1 1 1 1 1 1 1 1 1 1 0.0096011128709034294 1 1 0.0098076731588137463 1 1 1 1 1 1 0.014308996107020898 0.0092722597477540997 1 1 1 1 0.0098930792847144906 1 0.010128030625915822 1 1 1 0.013281045131185014 1 1 0.011326226821710033 1 1 1 1 1 1 1 1 1 1 1 1 1 1 1 1 0.012459110942459262 1 1 1 1 1 1 1 1 0.015885440015829262 0.0099390591011727578 1 1 1 0.010344484565461134 0.011596000189390115 1 0.0087903174339920356 1 0.0097407044236374769 1 1 1 1 0.0099262298023586309 1 1 1 1 1 1 1 1 1 1 1 1 1 0.010022758150339291 1 0.014567562344082321 1 1 1 1 1 1 1 1 0.012449007777779899 0.010001270140156006 1 1 0.0094648016284232805 0.011762193154349142 0.012271829351521418 1 1 1 1 1 1 0.01000526086609752 1 1 0.012291206272014014 1 1 0.010061580935020223 0.0094264768232692649 0.0095309778661590659 0.0092888068602585399 1 1 1 1 1 1 1 1 1 1 1 1 1 0.010141155815921631 1 1 0.013571274828735264 1 0.010090758803579892 1 1 1 1 1 1 1 0.0099601657315030213 0.013065309359749467 1 1 0.012542581281961158 1 1 0.0083238525122134605 1 1 1 1 0.0089894688822202903 0.0091720975411511314 0.0084349076151221444 0.0090983389972972943 1 1 1 1 1 1 1 1 1 1 1 1 1 1 0.010693632254769991 1 1 0.011271009625750741 1 1 1 1 0.010009207123681219 1 1 1 0.012612112234596932 1 1 0.012244939884059098 1 1 0.010002144060029639 1 1 0.012905494561656745 0.012918035896060526 1 0.0096603618779509629 1 1 1 1 1 1 0.0092262911902794842 1 1 1 1 0.012376104911956832 1 1 1 1 1 0.011586691693374925 1 1 0.010001076491926646 1 0.010536225822877828 0.012774545920633561 1 1 1 0.010100937941331167 1 1 1 1 1 0.0099758517702188756 1 1 1 0.0099495867141018123 1 1 1 0.0099994211120586658 1 1 1 1 1 1 1 0.0094048959973394644 1 1 1 1 1 0.0094407493925408245 1 1 1 1 1 1 1 0.0099309740131875903 1 0.010015416221435855 0.0097950213104748066 1 1 0.0099977231311843412 1 1 1 1 1 1 0.009795354300180031 1 1 1 1 1 1 0.0082103425708143739 1 1 1 1 1 1 0.014751795883374762 1 0.014302815257628831 1 0.0094096888577924545 1 1 0.01636909677417292 1 1 1 1 0.013551163339258352 0.0098997360168570584 0.011098269409945181 0.013000301589771055 1 1 1 1 1 1 1 1 0.0098154190345550486 1 1 1 0.0099967387742002055 1 0.0093921370649765416 1 1 1 1 1 1 1 1 1 1 1 1 1 1 1 1 0.011662398776190169 1 0.012773416385742397 1 1 1 1 1 1 1 1 0.010021506149898872 1 1 1 1 1 0.014311014815000456 1 1 0.014155358399069781 1 1 1 1 1 1 0.014132565083324436 0.014499421070037585 1 1 0.011832826501656801 1 1 1 1 1 1 1 1 1 1 1 0.0098021131884910018 0.011257217627033947 1 1 1 1 0.0099968676999528869 1 1 1 1 1 1 1 1 0.011956785352230697 1 1 1 1 0.010466749964040059 1 1 1 1 1 1 0.011137168622604452 1 0.010994020944948156 1 0.013899364238930196 1 1 1 1 1 1 1 1 1 1 1 1 1 1 1 1 1 1 0.010238553290431971 1 1 1 1 1 1 1 1 1 1 1 1 1 1 1 1 1 0.010007914973236687 0.010001173782162025 1 1 1 1 1 1 1 1 1 1 1 1 1 1 1 1 1 1 1 1 1 1 1 1 1 1 1 1 1 1 1 1 1 1 1 1 1 1 1 1 1 1 1 1 1 0.010158203656365036 1 0.01049068685444512 1 1 1 1 1 1 1 0.010009993689512293 1 1 1 0.013060186189243348 1 0.010102685731384937 0.010011737148116326 0.010198693838696442 1 0.011157810046126605 0.014641603913940159 1 1 0.0099859725699157648 0.014366499326855254 0.010232850816081322 1 1 1 1 1 0.010524455737240795 1 0.015169750859043828 0.012934108545357492 1 1 1 1 1 1 1 0.011054124618724528 1 1 0.015522843309374213 1 1 0.010047163877598395 0.011183119251417975 1 1 1 1 1 1 0.011346553161650652 1 1 0.010677090620275591 0.011738016063070608 1 1 0.010154750527970555 1 1 1 0.010383064541249981 1 1 1 1 0.013139962443767691 1 1 1 0.014184668174982039 1 1 0.011522103795204661 1 1 1 1 1 1 1 1 1 1 1 1 1 1 1 1 1 1 1 0.015705135806896413 0.010009212903741706 1 1 1 0.016317874441349894 1 1 1 1 0.015066348914451353 1 1 1 1 1 0.010871945093371882 0.011857363808247642 1 1 1 1 1 1 1 1 1 0.011116048891106629 1 1 1 1 1 1 1 1 1 1 1 1 1 1 1 1 1 1 1 1 1 1 1 1 1 1 1 0.0099975367520160827 1 0.01759117472139117 0.0097952235110685976 1 1 1 1 1 1 1 1 1 1 1 1 1 1 1 1 1 1 1 1 1 1 1 1 1 1 1 0.015890203233656041 1 1 0.010079077846816588 1 1 0.015428221558553739 1 1 0.01281800763828818 1 0.012208952171363434 1 1 1 1 1 1 1 0.011292235583926398 1 1 1 1 1 1 1 1 1 1 1 1 0.012932465048954867 1 0.0093859765015883532 1 0.010001561529870447 1 1 1 1 1 0.011910183643452926 1 1 1 1 0.010034541997132641 1 1 0.0098104915105361526 1 1 1 1 1 1 1 1 0.010974964924883285 1 1 1 1 1 1 0.01239472780455907 1 1 1 1 0.011030950632746761 1 1 1 0.010931628111544828 1 1 1 1 1 1 1 1 1 1 1 1 1 1 1 1 1 1 0.011668647198359954 1 0.011155115054715128 1 1 1 0.010415951183095538 1 1 1 1 1 1 1 1 1 1 1 1 1 1 1 1 1 1 1 0.012096774798826601 1 1 1 0.010076319355463289 1 1 1 0.010231069883433844 1 1 1 1 1 1 1 1 1 1 1 1 1 1 1 0.0099897282808755622 1 1 1 1 0.012991122692445178 1 1 0.011583519679893038 1 1 1 1 1 1 0.010125719001007422 1 0.013217078686546285 1 0.012406633390074043 0.0089171084329468572 0.010020272842476991 1 1 1 0.0099876157557389472 0.016468245542577996 1 1 1 1 1 1 1 0.010345652338529753 1 1 1 0.012235291313654771 1 0.014412033829543492 1 1 1 1 1 1 1 1 1 0.010910151705285942 1 1 1 1 1 1 1 1 0.013603211017385331 1 1 1 1 0.011531320914557712 1 1 1 1 1 1 1 1 1 1 1 1 1 1 1 1 1 1 1 1 1 0.0094089226416767136 0.0099037856376208641 1 1 1 1 1 1 1 1 0.012222924290978685 1 1 1 1 1 1 1 1 1 1 0.015953896740476613 1 1 1 1 1 1 0.0074980677014121052 1 1 1 1 1 0.0083897895129644816 1 0.0099931536875801225 1 1 0.010287851332012743 0.013088432228929157 1 1 1 1 1 1 1 1 1 1 1 1 1 1 1 1 1 1 1 1 1 1 1 1 1 1 1 1 1 1 1 1 1 1 1 1 1 1 1 1 1 1 1 1 1 1 1 1 0.012246247975816214 0.0099916255640112948 1 1 0.015313010253485896 1 1 1 1 1 0.013485295465180566 0.0099981263519554747 1 1 0.010026219264447161 0.0093080411292374501 1 1 1 1 1 1 1 1 1 1 0.0091093150226569681 1 1 1 1 1 1 1 1 1 1 1 1 1 1 1 0.010931451139648335 1 1 1 1 1 1 1 1 1 1 1 1 1 0.012258567208309338 1 0.013279139067717724 0.0092889143197872111 0.0093173496279159926 1 1 1 1 1 1 1 1 0.01455368283810245 0.0096855982532549866 1 1 1 1 0.0098964366867383812 1 1 1 1 1 1 1 1 0.011738828095044944 1 1 1 1 1 1 1 1 1 1 1 1 1 1 1 1 1 0.014692251010091251 1 1 1 1 1 1 0.01045780077594078 1 1 0.011914342202600169 1 1 1 1 1 1 1 1 1 1 1 1 1 1 1 1 1 1 0.010069040217242758 1 1 1 0.010707505007183813 1 1 0.010052837792951521 1 0.011516319376448383 0.0091562941497710312 1 1 0.010171211433842225 1 1 1 0.016501677091389534 1 1 0.010517499043264798 1 0.010709622193466287 0.0085686136518304985 1 1 1 1 0.010860110379289342 1 1 1 1 1 1 0.011880533838442821 1 0.0099172016921632265 1 1 1 0.010218967276464944 1 1 1 1 0.008852369904127905 1 0.0092733251915693964 0.012866405797680497 1 1 1 1 1 0.010054222383775133 1 0.01325704910759897 1 0.0097520918981940947 1 0.0085935791239523419 0.010310383401368479 1 1 1 1 1 1 1 0.011401198154074841 1 0.011631308936675695 1 1 0.0063929727561509754 1 1 0.0085493749633566516 1 1 1 1 1 1 1 1 1 1 1 1 1 1 1 1 1 1 1 1 1 1 1 1 1 1 1 1 1 1 1 0.011503949394424916 1 1 1 1 1 1 1 1 1 1 1 1 1 1 1 1 1 1 1 1 1 1 1 0.009769534884393187 1 1 1 1 1 0.010719639244771796 0.0094618443329208476 1 1 1 1 1 1 1 1 1 1 1 1 1 1 1 1 1 1 1 1 1 0.016244681927870045 1 1 1 1 1 1 1 1 1 1 1 1 1 0.0095512568749266773 1 0.01149183925800514 1 1 1 0.014300148746208472 1 1 1 1 1 1 1 1 0.011629445696219926 1 0.0081346604115016159 1 1 1 1 1 0.0094835213633795087 1 1 1 1 1 1 1 1 1 1 1 0.012840997880807954 1 1 1 1 1 1 1 1 1 1 1 0.012261124794356631 1 1 1 1 1 1 1 1 0.010877015743191536 1 1 1 1 1 1 1 1 1 1 1 1 1 1 1 1 1 1 1 1 1 1 1 1 1 1 0.010844019709964937 1 1 0.011303663347857953 1 1 1 1 1 1 1 1 1 1 1 1 1 1 1 1 1 1 1 1 1 1 1 1 1 1 1 1 0.017208179393434008 1 0.010035947669999641 1 0.0099197359578658533 1 1 1 1 1 0.012344679030183978 1 1 1 1 0.010006944841314421 1 1 1 0.012806083091059652 1 1 1 1 1 1 1 1 1 1 1 1 1 1 1 1 1 1 0.011545253993852306 0.017474389641163917 0.0099808908193183225 1 1 1 1 1 1 1 1 1 1 1 1 1 0.0096693980923168374 1 1 1 1 1 1 1 1 1 1 1 1 0.010051623912393382 1 1 0.0087838047902991691 1 1 1 1 1 1 1 1 1 1 1 1 1 1 1 1 1 1 1 1 1 0.010459643637893014 0.010731666207604684 1 1 1 1 1 1 1 1 1 1 1 1 1 1 0.0092576337973563454 1 1 0.0081915883190098928 1 1 1 1 0.013510129855482928 1 1 1 1 1 1 0.011453831110400116 1 1 1 1 1 1 1 1 1 1 1 1 1 1 1 1 1 1 0.010630383093228956 1 1 1 1 1 0.011283277506270003 1 1 1 1 1 1 1 1 1 1 1 1 1 1 1 1 1 1 1 1 1 1 1 1 1 1 1 1 0.011007810164755105 1 0.010308617057497568 1 1 1 1 0.010880998289360016 0.010610946642031173 1 1 1 1 1 1 1 1 1 1 1 1 1 1 1 1 1 1 1 1 1 1 1 1 1 1 1 1 1 1 1 1 1 1 1 0.010559007865119239 1 1 1 1 0.0098910315062646671 1 1 1 1 1 1 1 1 1 1 1 0.0099063977157981403 1 1 1 1 1 1 1 1 1 1 1 1 1 1 1 1 1 0.0087315743663118443 0.0099454269714824156 1 0.0099807662876972257 1 1 1 1 1 1 1 1 1 1 0.009941007218650242 1 1 1 1 1 1 1 1 1 1 1 1 1 1 1 1 1 0.0099961324972307024 1 1 1 1 0.010057939026847172 1 1 1 1 1 1 1 1 1 1 1 1 1 1 1 1 1 1 1 1 1 1 1 1 1 1 1 1 1 1 1 1 1 1 1 1 1 1 1 1 1 1 1 1 1 1 1 1 1 1 1 1 1 1 1 1 1 1 1 1 1 1 1 1 1 1 1 1 1 1 1 1 1 1 1 1 1 1 1 1 1 0.010102235230468336 1 1 1 1 1 1 1 0.010284626541686763 1 1 0.011080014382809391 1 1 1 1 1 1 1 1 1 1 1 1 0.010242687850203817 1 0.010140601496260714 1 0.016367508640291732 1 1 1 1 1 1 1 1 0.01262784174192466 1 1 1 1 1 1 1 1 1 0.010796856175740166 1 1 1 1 1 1 1 1 1 1 1 1 1 1 1 1 1 1 1 1 1 0.010316792247030027 1 1 1 1 1 1 1 1 1 1 1 1 0.0078898595698796061 1 1 1 1 1 0.007074411619024573 1 1 0.0186649244671152 1 1 1 1 0.018565098711957956 0.0098515420035524184 1 1 0.018102915094195059 1 1 1 1 1 1 1 0.010458983229488739 0.0094189350038385109 1 1 1 1 1 1 1 1 1 1 1 1 0.010014548416937647 1 1 1 1 0.010028230624436169 1 1 1 1 1 1 1 1 0.010013791939672331 1 1 1 1 0.0099134749768221841 1 1 1 1 0.01013805826978879 1 1 1 1 1 1 1 0.01006288652139406 1 1 1 1 1 0.010664738474339831 1 1 1 0.011959457086490972 1 1 1 1 1 0.013168606294796735 1 1 1 1 1 1 1 1 1 1 1 1 1 1 0.015923451059409947 1 1 0.017431237017869937 1 1 1 1 1 1 1 1 1 1 1 1 1 1 1 1 1 1 1 1 1 0.0099603706878683158 1 1 0.010324058777181289 1 1 0.0099940879954258828 1 1 1 1 1 1 1 1 1 1 1 1 1 1 1 1 1 1 1 1 1 1 1 1 1 1 1 1 1 1 0.010676898275616659 1 1 1 1 0.0099993023425480557 1 1 0.0098744318040467852 1 0.010002348662952281 1 1 1 1 0.0092571067039822 1 0.010868558178369743 1 1 0.0099013155860452132 1 0.0097554179692188291 1 0.012279773726457048 0.010936986859485937 1 1 0.010106636322551604 1 0.010951082038786215 1 0.009964605322907211 1 1 0.01445460121399751 1 1 1 1 1 1 0.014311701582182569 1 0.0099679185056490514 1 1 0.010015718602974712 0.010391895391298553 1 1 0.011994125666215693 1 0.0095629604989718626 1 1 0.010852224621012933 1 1 0.011508474961385635 1 1 0.010958195275949382 0.010575425651027367 0.012623352653015762 1 0.0092890416880504825 1 1 1 1 1 1 1 1 0.0099805214476178742 1 1 1 1 1 1 1 0.0099807223177757389 1 1 1 1 1 1 1 1 1 1 1 1 1 1 0.010062358779679341 1 1 1 1 1 1 1 1 1 1 1 1 1 1 1 1 1 1 1 0.0095742786863653329 1 1 1 1 1 1 1 1 1 1 1 1 1 1 1 1 1 1 1 1 1 1 1 1 1 1 1 1 1 1 1 0.009753171001413501 1 1 1 0.011069647263611307 1 0.0089876878857793364 0.0085175865546739168 1 0.014840095313760916 1 1 1 0.010285551758906008 1 1 1 1 0.01018747485928234 0.010151208406139506 0.0099881409579226244 1 1 1 1 1 1 1 1 1 1 1 1 1 1 1 1 1 0.0135718311563641 1 1 1 1 1 1 1 1 1 0.010042943191583706 1 1 1 0.010663902221398531 1 1 1 1 1 1 1 1 1 1 1 1 0.01160132108818924 1 1 0.010937418866790715 1 1 1 1 1 1 1 1 1 1 1 1 1 1 1 1 1 1 1 1 1 1 0.011403513291591691 1 1 1 1 1 1 1 1 1 1 1 1 1 1 1 1 1 1 0.010882512244520264 1 1 1 1 1 1 1 0.010606256099268067 1 1 1 1 0.011207718892371364 1 1 1 1 1 1 1 1 1 1 1 1 1 1 1 1 1 1 1 1 1 1 1 1 1 1 1 1 1 1 1 1 1 1 1 0.0098830024892192902 0.010058818050623305 1 1 1 1 0.010848846746740696 1 0.012031010019750104 1 1 1 1 1 0.011895993737030826 1 1 1 1 1 1 1 1 0.010607608095513931 0.0098627341211073374 1 1 1 1 0.012768238096909608 1 1 1 1 1 1 1 1 1 1 1 1 1 1 1 1 1 1 1 1 1 0.011144593272721166 1 1 1 1 1 1 0.013662573886491249 1 1 0.012428550781191114 1 1 1 1 1 1 1 1 1 0.009781494718865795 1 1 1 1 1 1 1 1 0.011042007244491975 1 1 1 1 1 1 1 1 1 1 1 1 1 1 1 1 1 0.010337092771880458 1 1 0.010684528488636878 1 1 1 1 1 1 1 1 1 1 1 1 1 1 1 1 1 1 1 1 1 1 1 1 1 1 1 1 1 0.011011597104848626 1 0.010410134311745346 1 1 1 1 1 1 1 1 1 1 1 1 1 1 1 1 1 1 1 1 1 1 0.010814279152012277 1 1 1 0.010406269563789459 1 1 1 1 1 1 1 1 1 1 1 1 0.0105845995046826 1 1 1 0.010133907615230404 0.010000370730205974 1 1 0.010363731239110198 1 1 1 1 1 1 1 1 1 0.010408698864104983 1 1 1 1 1 1 1 1 1 1 1 1 1 0.01094470626213377 1 0.0099687143544150772 1 1 1 1 1 1 1 1 1 1 1 1 1 1 1 1 1 1 1 1 1 1 1 1 1 1 1 1 1 0.011969325230767512 1 1 1 1 1 1 0.010790729011976514 1 1 1 1 1 1 1 1 1 1 1 1 1 1 1 1 0.010142276363647253 1 0.010961835599258037 1 1 1 1 1 1 1 0.01106706940581041 1 1 1 0.01096572966186996 1 1 1 1 0.010044646973895921 1 1 1 1 1 1 0.0073279620232104183 1 1 1 1 0.0091372691761215877 1 0.010286709844908537 1 1 1 1 1 1 1 1 0.017041148041177515 0.009948504155403274 1 1 1 0.016063562778406967 0.0079846335620010894 1 1 1 1 1 1 1 0.012533538620018441 0.011193572518261551 1 0.0088440971661428395 0.0099526291232699578 1 1 1 1 0.011372490035882303 1 0.011867169397871009 1 1 1 1 1 1 0.010993115071578198 1 1 1 1 0.010496112178362839 1 1 1 1 0.011467470259897901 1 1 1 1 1 0.011324303547239839 1 1 0.009974564364039356 1 1 1 1 0.0099998001848779165 1 1 1 1 1 1 1 1 1 0.0099576431610167541 0.011563799652027553 1 1 1 1 1 1 1 1 1 1 1 1 1 0.01244900412211858 1 0.012165168831226552 1 1 1 1 1 1 1 1 1 1 1 1 1 1 1 1 1 1 1 1 1 0.012446385392937062 1 1 1 1 1 1 1 1 1 1 1 1 1 1 1 1 1 1 1 1 1 1 1 1 1 1 0.0097741782513767472 1 1 1 1 1 1 1 1 0.0079080352155862198 1 0.0093206458473460048 1 1 1 1 1 1 0.010049342706454439 1 1 1 1 1 1 1 1 1 1 1 1 1 1 1 1 1 1 1 1 1 1 1 1 1 1 0.015047070637866197 1 1 1 1 1 1 1 1 0.007994039444797504 1 1 0.0097499064941078267 1 1 0.010007092440604586 1 1 1 1 1 0.0079446451616881058 1 1 1 1 1 1 1 1 1 0.010035773834083675 1 1 1 1 1 1 1 1 1 1 1 1 1 1 1 0.0093142507936737045 1 1 1 1 1 1 1 1 0.0088157480130736064 1 1 1 1 1 1 1 1 1 1 1 1 1 1 1 1 1 1 0.01015899586861712 1 0.0095607754377750598 1 0.010492602025618117 1 1 0.010234594690999759 0.0089847663384332605 1 1 1 1 1 1 1 1 1 1 1 1 1 1 0.0097524150363056377 1 1 1 1 1 1 0.010710280383894221 1 1 1 0.0098984811834956273 1 1 1 1 1 1 1 1 1 1 1 1 0.015035507750988941 1 1 1 1 0.014705059526360536 0.011585853191779738 0.014169119384197763 1 1 1 1 1 1 1 0.010556664228199668 1 1 0.011602509792171013 1 0.010042014741691623 1 0.011261490181975371 1 1 1 1 1 0.010475752866423511 1 1 1 1 1 1 1 1 1 1 1 1 1 1 1 1 1 1 1 1 0.011661502040722655 1 1 1 0.011243118036498018 1 0.0095381692848399216 0.0080880564495060519 0.0089684758322297782 1 1 1 1 1 0.0096400283153387605 1 1 1 1 1 1 1 1 1 1 1 1 1 1 1 1 1 1 1 1 1 1 1 1 1 1 0.013161088944461958 1 1 0.013433577081274645 1 1 1 1 1 1 1 1 0.011722357886433407 1 0.010347322542651837 1 1 1 1 1 1 1 1 0.013080479931815967 1 1 1 1 0.0131917138899299 1 1 0.010015517415770822 1 1 0.0065134869043987995 1 1 1 0.011458490201549782 1 1 1 1 1 1 1 1 1 1 1 1 1 1 1 1 1 1 1 1 0.010531793633921949 1 1 1 1 1 1 0.011343208232641892 1 1 1 1 1 0.011821524713767448 1 1 1 1 1 0.015682305730773557 1 0.010407739417172778 0.011789776340402248 1 1 1 1 1 1 1 1 1 1 1 1 0.010189468100461252 1 1 1 1 0.017441010569921991 1 0.010533078508260641 0.010401190611349705 1 1 1 0.016983387219837075 1 1 1 1 1 1 1 1 1 1 1 1 1 1 1 1 1 1 1 1 1 1 0.018225133823968641 1 0.0061786784876724007 1 1 0.0099299818078467904 1 1 0.0092221690277412699 1 1 0.011565544865274321 1 1 1 0.0095486688593336075 0.010033375457785362 1 1 1 1 1 1 1 0.010161351911913138 1 1 1 1 1 1 1 1 0.011760067981113816 1 1 1 1 1 1 1 0.014748561928387889 1 1 1 0.013123202801812324 1 0.012866595777072313 0.0096533277864512615 1 1 1 0.0098781923268070181 1 1 1 1 1 1 1 1 1 1 1 1 1 1 1 1 1 1 1 1 1 1 0.010136312312788529 1 1 0.010007920413797788 1 1 1 0.0084271564403327476 1 1 1 1 1 1 1 0.0069994052415507518 0.013939568266948388 1 1 0.0094292778333268604 1 1 1 1 1 1 1 1 1 1 1 1 1 1 1 1 1 1 1 1 1 1 1 1 1 1 1 1 1 1 1 1 1 1 1 0.01112432341755443 1 1 1 1 1 1 1 0.010002764698005458 1 1 0.0084483682258909079 1 1 0.010568333674350564 1 1 1 1 1 1 1 1 1 1 1 1 1 1 1 1 1 1 1 0.013583654749089808 1 1 1 1 0.01606850521922069 1 1 1 1 1 1 1 1 1 1 0.011133210558683711 1 1 1 1 0.013005323086488926 1 1 1 1 0.010611152589143767 0.011614309988213044 1 0.012482153406764514 1 1 1 1 1 1 1 1 1 1 1 1 1 1 0.014360674145400952 1 1 1 1 1 1 1 1 1 0.0099770038205170136 1 1 1 1 1 1 1 1 1 1 1 1 1 1 1 1 1 1 1 1 1 1 1 1 1 1 1 1 1 1 1 1 1 1 1 1 1 1 1 1 1 0.0097484632481632978 1 1 1 1 0.010777410633603924 1 1 0.013799885072623596 1 1 1 1 1 1 0.011908539693291033 0.01377630344602747 1 1 1 1 0.010149991134144517 1 1 1 1 1 1 1 1 1 1 1 1 1 1 1 1 1 1 1 1 1 1 1 1 1 1 1 1 1 1 1 1 1 1 1 1 1 1 1 1 1 1 1 1 1 1 1 1 1 1 1 1 1 1 1 1 1 1 1 1 1 0.0076476722683065552 1 1 1 1 1 0.0089489359544905108 1 0.010169052214880112 1 1 1 1 1 1 1 1 1 
</DataArray>
</CellData>
</Piece>
</UnstructuredGrid>
</VTKFile>
